********************************************************************************
Field Output Report, written Thu Feb 07 00:12:59 2019

Source 1
---------

   ODB: C:/AbaqusTemp/realSimulation/squarePlate_right-parabola.odb
   Step: Step-1
   Frame: Increment      1: Step Time =    1.000

Loc 1 : Nodal values from source 1

Output sorted by column "Node Label".

Field Output reported at nodes for part: PART-1-1
   Computation algorithm: EXTRAPOLATE_COMPUTE_AVERAGE
   Averaged at nodes
   Averaging regions: ODB_REGIONS

      Node Label           S.S11           S.S22           S.S33           S.S12
                          @Loc 1          @Loc 1          @Loc 1          @Loc 1
---------------------------------------------------------------------------------
               1     631.827E+06     207.783E+06              0.     176.642E+06
               2     437.734E+06     28.2184E+06              0.     50.9287E+06
               3     290.549E+06     19.0305E+06              0.     14.8521E+06
               4     223.645E+06     7.95460E+06              0.     12.6782E+06
               5     183.123E+06     6.26293E+06              0.     10.5294E+06
               6     152.155E+06     4.63920E+06              0.     9.31339E+06
               7     127.881E+06     3.54494E+06              0.     8.09513E+06
               8     108.425E+06     2.62804E+06              0.     6.91757E+06
               9     92.7844E+06     1.86951E+06              0.     5.79980E+06
              10     80.2275E+06     1.23951E+06              0.     4.77815E+06
              11     70.1917E+06     721.938E+03              0.     3.87035E+06
              12     62.2201E+06     299.741E+03              0.     3.07902E+06
              13     55.9386E+06    -44.3964E+03              0.     2.39437E+06
              14     51.0467E+06    -327.669E+03              0.     1.79677E+06
              15     47.3194E+06    -563.909E+03              0.     1.25685E+06
              16     44.6201E+06    -763.801E+03              0.     726.853E+03
              17     42.9902E+06    -880.183E+03              0.     132.318E+03
              18     42.7184E+06    -902.567E+03              0.    -782.435E+03
              19     46.2749E+06     737.778E+03              0.    -2.23407E+06
              20     58.0464E+06     3.21633E+06              0.    -9.13075E+06
              21     80.0543E+06     35.6094E+06              0.    -22.1279E+06
              22     301.885E+06     115.586E+06              0.     119.765E+06
              23     251.572E+06     9.52659E+06              0.     59.0038E+06
              24     241.796E+06     13.3241E+06              0.     42.7578E+06
              25     196.150E+06     6.99728E+06              0.     30.5229E+06
              26     163.190E+06     4.97413E+06              0.     24.8207E+06
              27     137.906E+06     4.01697E+06              0.     20.6713E+06
              28     118.009E+06     3.48021E+06              0.     17.3552E+06
              29     102.056E+06     3.06473E+06              0.     14.5007E+06
              30      89.177E+06     2.68746E+06              0.     12.0097E+06
              31     78.7739E+06     2.33084E+06              0.     9.83944E+06
              32     70.4051E+06     2.00029E+06              0.     7.96275E+06
              33     63.7285E+06     1.70714E+06              0.     6.34930E+06
              34     58.4780E+06     1.46387E+06              0.     4.96064E+06
              35     54.4551E+06     1.28508E+06              0.     3.74744E+06
              36     51.5332E+06     1.19326E+06              0.     2.64387E+06
              37     49.6768E+06     1.23226E+06              0.     1.55495E+06
              38     48.9813E+06     1.50235E+06              0.     312.679E+03
              39     49.6903E+06     2.21394E+06              0.    -1.37011E+06
              40     52.0705E+06     3.97763E+06              0.    -4.39098E+06
              41     49.9980E+06     5.25956E+06              0.    -8.56889E+06
              42     54.6222E+06     24.3486E+06              0.    -13.9485E+06
              43     172.219E+06     71.4813E+06              0.     90.4374E+06
              44     160.704E+06     38.4164E+06              0.     75.2042E+06
              45     159.206E+06     15.0008E+06              0.     65.1476E+06
              46     149.960E+06     11.7604E+06              0.     53.4674E+06
              47     132.362E+06     9.30298E+06              0.     43.8474E+06
              48     116.195E+06     8.02360E+06              0.     36.5282E+06
              49     102.362E+06     7.10206E+06              0.     30.5008E+06
              50     90.8522E+06     6.30878E+06              0.     25.3941E+06
              51     81.3657E+06     5.55685E+06              0.     21.0001E+06
              52     73.6045E+06     4.83864E+06              0.     17.2105E+06
              53     67.3093E+06     4.17226E+06              0.     13.9473E+06
              54     62.2665E+06     3.58242E+06              0.     11.1395E+06
              55     58.3067E+06     3.09459E+06              0.     8.70999E+06
              56     55.3027E+06     2.73720E+06              0.     6.56890E+06
              57     53.1675E+06     2.55011E+06              0.     4.60447E+06
              58     51.8452E+06     2.60254E+06              0.     2.66611E+06
              59     51.2588E+06     3.02297E+06              0.     545.594E+03
              60     51.1699E+06     4.09266E+06              0.    -2.08252E+06
              61     50.2247E+06     6.12250E+06              0.    -5.32485E+06
              62     48.8500E+06     12.2686E+06              0.    -8.59823E+06
              63     50.8477E+06     22.5774E+06              0.    -9.97327E+06
              64     91.0838E+06     40.8256E+06              0.     71.9172E+06
              65     94.1472E+06     37.6396E+06              0.     68.1332E+06
              66     100.480E+06     25.5009E+06              0.     69.3879E+06
              67     101.070E+06     18.4797E+06              0.     62.6373E+06
              68      96.924E+06     15.7447E+06              0.     54.1953E+06
              69     89.9817E+06     13.8636E+06              0.     46.1289E+06
              70     82.8342E+06     12.3833E+06              0.     38.9512E+06
              71     76.2974E+06     11.0232E+06              0.     32.6299E+06
              72     70.6361E+06     9.72003E+06              0.     27.0986E+06
              73     65.8707E+06     8.47905E+06              0.     22.2813E+06
              74     61.9415E+06     7.33405E+06              0.     18.1024E+06
              75     58.7672E+06     6.32518E+06              0.     14.4793E+06
              76     56.2684E+06     5.49328E+06              0.     11.3183E+06
              77     54.3743E+06     4.88300E+06              0.     8.51145E+06
              78     53.0165E+06     4.55368E+06              0.     5.93177E+06
              79     52.1032E+06     4.59900E+06              0.     3.43257E+06
              80     51.4664E+06     5.19015E+06              0.      853.34E+03
              81     50.7073E+06     6.61005E+06              0.    -1.88673E+06
              82     49.6019E+06     9.66123E+06              0.    -4.60432E+06
              83     48.1111E+06     14.6775E+06              0.    -6.54429E+06
              84     49.0619E+06     21.7417E+06              0.    -7.31404E+06
              85     36.6063E+06     18.2267E+06              0.     57.8837E+06
              86     44.9993E+06     29.5047E+06              0.      58.716E+06
              87     54.3713E+06     28.2721E+06              0.     64.1238E+06
              88     60.4467E+06     25.0443E+06              0.     62.1756E+06
              89     63.1488E+06     22.4036E+06              0.     56.4382E+06
              90     63.3248E+06     20.3573E+06              0.     49.4843E+06
              91     62.0472E+06     18.4151E+06              0.     42.5040E+06
              92     60.2412E+06     16.4971E+06              0.     35.9853E+06
              93     58.3657E+06     14.6019E+06              0.     30.0917E+06
              94     56.6362E+06     12.7803E+06              0.     24.8597E+06
              95     55.1384E+06     11.0962E+06              0.     20.2621E+06
              96     53.8970E+06     9.61260E+06              0.     16.2366E+06
              97     52.9073E+06     8.38903E+06              0.     12.6974E+06
              98     52.1467E+06     7.48644E+06              0.     9.54185E+06
              99     51.5703E+06     6.97867E+06              0.     6.65710E+06
             100     51.0954E+06     6.97218E+06              0.     3.93227E+06
             101     50.5711E+06     7.62857E+06              0.     1.29492E+06
             102     49.8374E+06     9.22691E+06              0.    -1.21980E+06
             103     48.7815E+06     12.0102E+06              0.    -3.36841E+06
             104     47.4225E+06     15.9042E+06              0.    -4.78565E+06
             105     48.0864E+06     21.2844E+06              0.    -5.30160E+06
             106    -2.33816E+06     855.139E+03              0.     46.1909E+06
             107     8.61823E+06     20.6646E+06              0.     48.6849E+06
             108     18.8114E+06     27.2538E+06              0.     55.4006E+06
             109     27.5221E+06     28.7109E+06              0.     56.0703E+06
             110     34.2400E+06     28.0074E+06              0.     52.8330E+06
             111     39.0031E+06     26.4082E+06              0.     47.5870E+06
             112     42.2283E+06     24.3592E+06              0.     41.6270E+06
             113     44.3936E+06     22.0484E+06              0.      35.669E+06
             114     45.8885E+06     19.6403E+06              0.     30.0686E+06
             115     46.9593E+06     17.2721E+06              0.     24.9764E+06
             116     47.7540E+06     15.0607E+06              0.     20.4315E+06
             117     48.3591E+06     13.1034E+06              0.     16.4094E+06
             118     48.8223E+06     11.4823E+06              0.     12.8489E+06
             119     49.1622E+06     10.2728E+06              0.     9.66900E+06
             120     49.3689E+06     9.55479E+06              0.     6.78460E+06
             121     49.3995E+06     9.42437E+06              0.     4.12670E+06
             122     49.1893E+06     10.0068E+06              0.     1.67404E+06
             123     48.6766E+06     11.4266E+06              0.    -505.976E+03
             124     47.8491E+06     13.7272E+06              0.    -2.24850E+06
             125     46.7564E+06     16.7485E+06              0.    -3.33690E+06
             126     47.2525E+06     20.9035E+06              0.    -3.73951E+06
             127    -30.5400E+06    -12.4415E+06              0.     35.8354E+06
             128    -18.2873E+06     12.7624E+06              0.     38.6965E+06
             129    -8.14271E+06     24.8170E+06              0.     45.1363E+06
             130     1.78940E+06     30.3446E+06              0.     46.9637E+06
             131     10.7784E+06     31.9758E+06              0.     45.4137E+06
             132     18.4837E+06     31.4023E+06              0.     41.7917E+06
             133     24.8736E+06     29.5947E+06              0.     37.1490E+06
             134     30.0942E+06     27.1207E+06              0.     32.1983E+06
             135     34.3397E+06     24.3447E+06              0.     27.3597E+06
             136     37.7892E+06     21.5255E+06              0.     22.8513E+06
             137     40.5830E+06     18.8524E+06              0.     18.7627E+06
             138     42.8269E+06     16.4664E+06              0.     15.1064E+06
             139     44.5974E+06     14.4757E+06              0.     11.8503E+06
             140     45.9454E+06     12.9679E+06              0.     8.94045E+06
             141     46.8976E+06     12.0209E+06              0.     6.32047E+06
             142     47.4612E+06     11.7097E+06              0.     3.95148E+06
             143     47.6343E+06     12.1010E+06              0.     1.83406E+06
             144     47.4271E+06     13.2278E+06              0.     24.0632E+03
             145     46.8815E+06     15.0415E+06              0.    -1.36951E+06
             146     46.0792E+06     17.3753E+06              0.    -2.21541E+06
             147     46.4657E+06     20.5517E+06              0.    -2.53632E+06
             148    -50.6499E+06    -22.3248E+06              0.     26.3026E+06
             149    -37.6982E+06     6.40529E+06              0.     28.8512E+06
             150    -27.8893E+06     22.1983E+06              0.     34.1818E+06
             151    -17.4497E+06     30.8332E+06              0.     36.2025E+06
             152    -7.19296E+06     34.5619E+06              0.     35.6304E+06
             153     2.33863E+06     35.1338E+06              0.     33.3035E+06
             154     10.8572E+06     33.7793E+06              0.     29.9795E+06
             155     18.2666E+06     31.3264E+06              0.     26.2333E+06
             156     24.5887E+06     28.3336E+06              0.     22.4460E+06
             157     29.9019E+06     25.1840E+06              0.     18.8391E+06
             158     34.3037E+06     22.1454E+06              0.     15.5210E+06
             159     37.8907E+06     19.4061E+06              0.     12.5261E+06
             160     40.7496E+06     17.1008E+06              0.     9.84553E+06
             161     42.9527E+06     15.3275E+06              0.     7.44911E+06
             162     44.5577E+06     14.1591E+06              0.     5.30348E+06
             163     45.6111E+06     13.6472E+06              0.     3.38824E+06
             164     46.1580E+06     13.8159E+06              0.     1.70934E+06
             165     46.2545E+06     14.6441E+06              0.     306.147E+03
             166     45.9801E+06     16.0427E+06              0.    -752.696E+03
             167     45.4429E+06     17.8430E+06              0.    -1.38258E+06
             168     45.7473E+06     20.2346E+06              0.    -1.62817E+06
             169    -64.1741E+06    -29.1720E+06              0.     17.2841E+06
             170    -50.8467E+06     1.79989E+06              0.     19.1479E+06
             171    -41.3915E+06     20.0284E+06              0.     22.9049E+06
             172    -30.7759E+06     30.8104E+06              0.     24.5292E+06
             173    -19.8399E+06     36.1215E+06              0.     24.4164E+06
             174    -9.22478E+06     37.6654E+06              0.     23.0618E+06
             175     635.856E+03     36.7763E+06              0.     20.9448E+06
             176     9.49390E+06     34.4361E+06              0.     18.4565E+06
             177     17.2444E+06     31.3413E+06              0.     15.8753E+06
             178     23.8791E+06     27.9778E+06              0.     13.3752E+06
             179     29.4466E+06     24.6811E+06              0.     11.0491E+06
             180     34.0239E+06     21.6818E+06              0.     8.93455E+06
             181     37.6968E+06     19.1377E+06              0.     7.03461E+06
             182     40.5496E+06     17.1551E+06              0.     5.33541E+06
             183     42.6610E+06     15.8025E+06              0.     3.81955E+06
             184     44.1049E+06     15.1144E+06              0.     2.47715E+06
             185     44.9569E+06     15.0878E+06              0.     1.31369E+06
             186     45.3030E+06     15.6720E+06              0.     353.339E+03
             187     45.2475E+06     16.7574E+06              0.    -363.181E+03
             188     44.9189E+06     18.1703E+06              0.    -783.739E+03
             189     45.1642E+06     19.9788E+06              0.    -951.183E+03
             190    -71.9858E+06    -33.2035E+06              0.     8.57064E+06
             191    -58.4726E+06    -978.838E+03              0.     9.54746E+06
             192    -49.2656E+06     18.6270E+06              0.     11.4811E+06
             193    -38.6074E+06     30.6620E+06              0.     12.3702E+06
             194    -27.3433E+06     36.9419E+06              0.     12.3916E+06
             195    -16.1596E+06     39.1197E+06              0.     11.7744E+06
             196    -5.56314E+06     38.5645E+06              0.     10.7495E+06
             197     4.11528E+06     36.3336E+06              0.     9.51275E+06
             198     12.6961E+06     33.2032E+06              0.     8.20911E+06
             199     20.1151E+06     29.7234E+06              0.     6.93294E+06
             200     26.3857E+06     26.2752E+06              0.     5.73717E+06
             201     31.5676E+06     23.1178E+06              0.     4.64513E+06
             202     35.7428E+06     20.4249E+06              0.     3.66155E+06
             203     39.0010E+06     18.3087E+06              0.     2.78160E+06
             204     41.4323E+06     16.8347E+06              0.     1.99814E+06
             205     43.1264E+06     16.0278E+06              0.     1.30726E+06
             206     44.1763E+06     15.8705E+06              0.     711.978E+03
             207     44.6846E+06     16.2975E+06              0.     223.707E+03
             208       44.77E+06     17.1884E+06              0.    -138.495E+03
             209     44.5740E+06     18.3647E+06              0.    -349.406E+03
             210     44.7831E+06     19.8122E+06              0.    -434.475E+03
             211    -74.5420E+06    -34.5353E+06              0.              0.
             212    -60.9728E+06    -1.90688E+06              0.              0.
             213    -51.8538E+06     18.1451E+06              0.        125.E-03
             214    -41.1908E+06     30.5915E+06              0.              0.
             215    -29.8296E+06     37.1964E+06              0.       -125.E-03
             216    -18.4693E+06     39.5928E+06              0.       -125.E-03
             217    -7.63888E+06     39.1577E+06              0.              0.
             218     2.30470E+06     36.9704E+06              0.       -125.E-03
             219     11.1574E+06     33.8327E+06              0.              0.
             220     18.8359E+06     30.3165E+06              0.       -62.5E-03
             221     25.3412E+06     26.8185E+06              0.       31.25E-03
             222     30.7262E+06     23.6083E+06              0.              0.
             223     35.0711E+06     20.8649E+06              0.      -31.25E-03
             224     38.4670E+06     18.7027E+06              0.      15.625E-03
             225     41.0076E+06     17.1864E+06              0.      -31.25E-03
             226     42.7878E+06     16.3377E+06              0.     -15.625E-03
             227     43.9060E+06     16.1348E+06              0.     -7.8125E-03
             228     44.4703E+06     16.5076E+06              0.     3.90625E-03
             229     44.6042E+06     17.3327E+06              0.              0.
             230     44.4536E+06     18.4292E+06              0.              0.
             231     44.6506E+06     19.7543E+06              0.              0.
             232    -71.9857E+06    -33.2035E+06              0.    -8.57064E+06
             233    -58.4726E+06    -978.838E+03              0.    -9.54746E+06
             234    -49.2656E+06     18.6270E+06              0.    -11.4811E+06
             235    -38.6074E+06     30.6620E+06              0.    -12.3702E+06
             236    -27.3433E+06     36.9419E+06              0.    -12.3916E+06
             237    -16.1596E+06     39.1197E+06              0.    -11.7744E+06
             238    -5.56314E+06     38.5645E+06              0.    -10.7495E+06
             239     4.11528E+06     36.3337E+06              0.    -9.51275E+06
             240     12.6961E+06     33.2032E+06              0.    -8.20911E+06
             241     20.1151E+06     29.7234E+06              0.    -6.93294E+06
             242     26.3857E+06     26.2752E+06              0.    -5.73717E+06
             243     31.5676E+06     23.1178E+06              0.    -4.64513E+06
             244     35.7428E+06     20.4249E+06              0.    -3.66155E+06
             245     39.0010E+06     18.3087E+06              0.    -2.78160E+06
             246     41.4323E+06     16.8347E+06              0.    -1.99814E+06
             247     43.1264E+06     16.0278E+06              0.    -1.30726E+06
             248     44.1763E+06     15.8705E+06              0.    -711.978E+03
             249     44.6846E+06     16.2975E+06              0.    -223.707E+03
             250     44.7700E+06     17.1884E+06              0.     138.495E+03
             251     44.5740E+06     18.3647E+06              0.     349.406E+03
             252     44.7831E+06     19.8122E+06              0.     434.475E+03
             253    -64.1741E+06    -29.1720E+06              0.    -17.2841E+06
             254    -50.8467E+06     1.79989E+06              0.    -19.1479E+06
             255    -41.3915E+06     20.0284E+06              0.    -22.9049E+06
             256    -30.7759E+06     30.8104E+06              0.    -24.5292E+06
             257    -19.8399E+06     36.1215E+06              0.    -24.4164E+06
             258    -9.22478E+06     37.6654E+06              0.    -23.0618E+06
             259     635.855E+03     36.7763E+06              0.    -20.9448E+06
             260     9.49390E+06     34.4361E+06              0.    -18.4565E+06
             261     17.2444E+06     31.3413E+06              0.    -15.8753E+06
             262     23.8791E+06     27.9778E+06              0.    -13.3752E+06
             263     29.4466E+06     24.6811E+06              0.    -11.0491E+06
             264     34.0239E+06     21.6818E+06              0.    -8.93455E+06
             265     37.6968E+06     19.1377E+06              0.    -7.03461E+06
             266     40.5496E+06     17.1551E+06              0.    -5.33541E+06
             267     42.6610E+06     15.8025E+06              0.    -3.81955E+06
             268     44.1049E+06     15.1144E+06              0.    -2.47715E+06
             269     44.9569E+06     15.0878E+06              0.    -1.31369E+06
             270     45.3030E+06     15.6720E+06              0.    -353.339E+03
             271     45.2475E+06     16.7574E+06              0.     363.181E+03
             272     44.9189E+06     18.1703E+06              0.     783.739E+03
             273     45.1642E+06     19.9788E+06              0.     951.183E+03
             274    -50.6499E+06    -22.3248E+06              0.    -26.3026E+06
             275    -37.6982E+06     6.40529E+06              0.    -28.8512E+06
             276    -27.8893E+06     22.1983E+06              0.    -34.1818E+06
             277    -17.4497E+06     30.8332E+06              0.    -36.2025E+06
             278    -7.19296E+06     34.5619E+06              0.    -35.6304E+06
             279     2.33863E+06     35.1338E+06              0.    -33.3035E+06
             280     10.8572E+06     33.7793E+06              0.    -29.9795E+06
             281     18.2666E+06     31.3264E+06              0.    -26.2333E+06
             282     24.5887E+06     28.3336E+06              0.    -22.4460E+06
             283     29.9019E+06     25.1840E+06              0.    -18.8391E+06
             284     34.3037E+06     22.1454E+06              0.    -15.5210E+06
             285     37.8907E+06     19.4061E+06              0.    -12.5261E+06
             286     40.7496E+06     17.1008E+06              0.    -9.84553E+06
             287     42.9527E+06     15.3275E+06              0.    -7.44911E+06
             288     44.5577E+06     14.1591E+06              0.    -5.30348E+06
             289     45.6112E+06     13.6472E+06              0.    -3.38824E+06
             290     46.1580E+06     13.8159E+06              0.    -1.70934E+06
             291     46.2545E+06     14.6441E+06              0.    -306.147E+03
             292     45.9801E+06     16.0427E+06              0.     752.696E+03
             293     45.4429E+06     17.8430E+06              0.     1.38258E+06
             294     45.7473E+06     20.2346E+06              0.     1.62817E+06
             295    -30.5400E+06    -12.4415E+06              0.    -35.8354E+06
             296    -18.2873E+06     12.7624E+06              0.    -38.6965E+06
             297    -8.14271E+06     24.8170E+06              0.    -45.1363E+06
             298     1.78940E+06     30.3446E+06              0.    -46.9637E+06
             299     10.7784E+06     31.9758E+06              0.    -45.4137E+06
             300     18.4837E+06     31.4023E+06              0.    -41.7917E+06
             301     24.8736E+06     29.5947E+06              0.    -37.1490E+06
             302     30.0942E+06     27.1207E+06              0.    -32.1983E+06
             303     34.3397E+06     24.3447E+06              0.    -27.3597E+06
             304     37.7892E+06     21.5255E+06              0.    -22.8513E+06
             305     40.5830E+06     18.8524E+06              0.    -18.7627E+06
             306     42.8269E+06     16.4664E+06              0.    -15.1064E+06
             307     44.5974E+06     14.4757E+06              0.    -11.8503E+06
             308     45.9454E+06     12.9679E+06              0.    -8.94045E+06
             309     46.8976E+06     12.0209E+06              0.    -6.32047E+06
             310     47.4612E+06     11.7097E+06              0.    -3.95148E+06
             311     47.6343E+06     12.1010E+06              0.    -1.83406E+06
             312     47.4271E+06     13.2278E+06              0.    -24.0632E+03
             313     46.8815E+06     15.0415E+06              0.     1.36951E+06
             314     46.0792E+06     17.3753E+06              0.     2.21541E+06
             315     46.4657E+06     20.5517E+06              0.     2.53632E+06
             316    -2.33816E+06     855.139E+03              0.    -46.1909E+06
             317     8.61823E+06     20.6646E+06              0.    -48.6849E+06
             318     18.8114E+06     27.2538E+06              0.    -55.4006E+06
             319     27.5221E+06     28.7109E+06              0.    -56.0703E+06
             320     34.2400E+06     28.0074E+06              0.    -52.8330E+06
             321     39.0031E+06     26.4082E+06              0.    -47.5870E+06
             322     42.2283E+06     24.3592E+06              0.    -41.6270E+06
             323     44.3935E+06     22.0484E+06              0.     -35.669E+06
             324     45.8885E+06     19.6403E+06              0.    -30.0686E+06
             325     46.9593E+06     17.2721E+06              0.    -24.9764E+06
             326     47.7540E+06     15.0607E+06              0.    -20.4315E+06
             327     48.3591E+06     13.1034E+06              0.    -16.4094E+06
             328     48.8223E+06     11.4823E+06              0.    -12.8489E+06
             329     49.1622E+06     10.2728E+06              0.    -9.66900E+06
             330     49.3689E+06     9.55479E+06              0.    -6.78460E+06
             331     49.3995E+06     9.42437E+06              0.    -4.12670E+06
             332     49.1893E+06     10.0068E+06              0.    -1.67404E+06
             333     48.6766E+06     11.4266E+06              0.     505.976E+03
             334     47.8491E+06     13.7272E+06              0.     2.24850E+06
             335     46.7564E+06     16.7485E+06              0.     3.33690E+06
             336     47.2525E+06     20.9035E+06              0.     3.73951E+06
             337     36.6063E+06     18.2267E+06              0.    -57.8837E+06
             338     44.9993E+06     29.5047E+06              0.     -58.716E+06
             339     54.3713E+06     28.2721E+06              0.    -64.1238E+06
             340     60.4467E+06     25.0443E+06              0.    -62.1756E+06
             341     63.1488E+06     22.4036E+06              0.    -56.4382E+06
             342     63.3248E+06     20.3573E+06              0.    -49.4843E+06
             343     62.0472E+06     18.4151E+06              0.    -42.5040E+06
             344     60.2412E+06     16.4971E+06              0.    -35.9853E+06
             345     58.3657E+06     14.6019E+06              0.    -30.0917E+06
             346     56.6362E+06     12.7803E+06              0.    -24.8597E+06
             347     55.1384E+06     11.0962E+06              0.    -20.2621E+06
             348     53.8970E+06     9.61260E+06              0.    -16.2366E+06
             349     52.9073E+06     8.38903E+06              0.    -12.6974E+06
             350     52.1467E+06     7.48644E+06              0.    -9.54186E+06
             351     51.5703E+06     6.97867E+06              0.    -6.65710E+06
             352     51.0954E+06     6.97218E+06              0.    -3.93227E+06
             353     50.5711E+06     7.62857E+06              0.    -1.29492E+06
             354     49.8374E+06     9.22691E+06              0.     1.21980E+06
             355     48.7815E+06     12.0102E+06              0.     3.36841E+06
             356     47.4225E+06     15.9042E+06              0.     4.78565E+06
             357     48.0864E+06     21.2844E+06              0.     5.30161E+06
             358     91.0838E+06     40.8256E+06              0.    -71.9172E+06
             359     94.1472E+06     37.6396E+06              0.    -68.1332E+06
             360     100.480E+06     25.5009E+06              0.    -69.3879E+06
             361     101.070E+06     18.4797E+06              0.    -62.6373E+06
             362      96.924E+06     15.7447E+06              0.    -54.1953E+06
             363     89.9817E+06     13.8636E+06              0.    -46.1289E+06
             364     82.8342E+06     12.3833E+06              0.    -38.9512E+06
             365     76.2974E+06     11.0232E+06              0.    -32.6299E+06
             366     70.6361E+06     9.72003E+06              0.    -27.0986E+06
             367     65.8707E+06     8.47906E+06              0.    -22.2813E+06
             368     61.9415E+06     7.33405E+06              0.    -18.1024E+06
             369     58.7672E+06     6.32518E+06              0.    -14.4793E+06
             370     56.2684E+06     5.49328E+06              0.    -11.3183E+06
             371     54.3743E+06     4.88300E+06              0.    -8.51145E+06
             372     53.0165E+06     4.55368E+06              0.    -5.93177E+06
             373     52.1032E+06     4.59900E+06              0.    -3.43257E+06
             374     51.4664E+06     5.19015E+06              0.     -853.34E+03
             375     50.7073E+06     6.61005E+06              0.     1.88673E+06
             376     49.6019E+06     9.66123E+06              0.     4.60432E+06
             377     48.1111E+06     14.6775E+06              0.     6.54429E+06
             378     49.0619E+06     21.7417E+06              0.     7.31404E+06
             379     172.219E+06     71.4812E+06              0.    -90.4374E+06
             380     160.704E+06     38.4164E+06              0.    -75.2042E+06
             381     159.206E+06     15.0008E+06              0.    -65.1476E+06
             382     149.960E+06     11.7604E+06              0.    -53.4674E+06
             383     132.362E+06     9.30298E+06              0.    -43.8474E+06
             384     116.195E+06     8.02360E+06              0.    -36.5282E+06
             385     102.362E+06     7.10206E+06              0.    -30.5008E+06
             386     90.8522E+06     6.30878E+06              0.    -25.3941E+06
             387     81.3657E+06     5.55685E+06              0.    -21.0001E+06
             388     73.6045E+06     4.83864E+06              0.    -17.2105E+06
             389     67.3093E+06     4.17226E+06              0.    -13.9473E+06
             390     62.2665E+06     3.58242E+06              0.    -11.1395E+06
             391     58.3067E+06     3.09459E+06              0.    -8.70999E+06
             392     55.3027E+06     2.73720E+06              0.    -6.56890E+06
             393     53.1675E+06     2.55011E+06              0.    -4.60447E+06
             394     51.8452E+06     2.60254E+06              0.    -2.66611E+06
             395     51.2588E+06     3.02297E+06              0.    -545.594E+03
             396     51.1699E+06     4.09266E+06              0.     2.08252E+06
             397     50.2247E+06     6.12250E+06              0.     5.32485E+06
             398     48.8500E+06     12.2686E+06              0.     8.59823E+06
             399     50.8477E+06     22.5774E+06              0.     9.97327E+06
             400     301.885E+06     115.586E+06              0.    -119.765E+06
             401     251.572E+06     9.52659E+06              0.    -59.0038E+06
             402     241.796E+06     13.3241E+06              0.    -42.7578E+06
             403     196.150E+06     6.99728E+06              0.    -30.5229E+06
             404     163.190E+06     4.97413E+06              0.    -24.8207E+06
             405     137.906E+06     4.01697E+06              0.    -20.6713E+06
             406     118.009E+06     3.48021E+06              0.    -17.3552E+06
             407     102.056E+06     3.06473E+06              0.    -14.5007E+06
             408     89.1770E+06     2.68746E+06              0.    -12.0097E+06
             409     78.7739E+06     2.33084E+06              0.    -9.83944E+06
             410     70.4050E+06     2.00029E+06              0.    -7.96275E+06
             411     63.7285E+06     1.70714E+06              0.    -6.34930E+06
             412     58.4780E+06     1.46387E+06              0.    -4.96064E+06
             413     54.4551E+06     1.28508E+06              0.    -3.74744E+06
             414     51.5332E+06     1.19326E+06              0.    -2.64387E+06
             415     49.6768E+06     1.23226E+06              0.    -1.55495E+06
             416     48.9813E+06     1.50235E+06              0.    -312.679E+03
             417     49.6903E+06     2.21394E+06              0.     1.37011E+06
             418     52.0705E+06     3.97763E+06              0.     4.39098E+06
             419     49.9980E+06     5.25956E+06              0.     8.56889E+06
             420     54.6222E+06     24.3486E+06              0.     13.9485E+06
             421     631.827E+06     207.783E+06              0.    -176.642E+06
             422     437.734E+06     28.2184E+06              0.    -50.9287E+06
             423     290.549E+06     19.0305E+06              0.    -14.8521E+06
             424     223.645E+06     7.95460E+06              0.    -12.6782E+06
             425     183.123E+06     6.26293E+06              0.    -10.5294E+06
             426     152.155E+06     4.63920E+06              0.    -9.31339E+06
             427     127.881E+06     3.54494E+06              0.    -8.09513E+06
             428     108.425E+06     2.62804E+06              0.    -6.91757E+06
             429     92.7844E+06     1.86951E+06              0.    -5.79980E+06
             430     80.2275E+06     1.23951E+06              0.    -4.77815E+06
             431     70.1917E+06     721.938E+03              0.    -3.87035E+06
             432     62.2201E+06     299.741E+03              0.    -3.07902E+06
             433     55.9386E+06    -44.3964E+03              0.    -2.39437E+06
             434     51.0467E+06    -327.669E+03              0.    -1.79677E+06
             435     47.3194E+06    -563.909E+03              0.    -1.25685E+06
             436     44.6201E+06    -763.801E+03              0.    -726.854E+03
             437     42.9902E+06    -880.183E+03              0.    -132.318E+03
             438     42.7184E+06    -902.567E+03              0.     782.434E+03
             439     46.2749E+06     737.778E+03              0.     2.23407E+06
             440     58.0464E+06     3.21633E+06              0.     9.13075E+06
             441     80.0543E+06     35.6094E+06              0.     22.1279E+06


  Minimum           -74.5420E+06    -34.5353E+06              0.    -176.642E+06
         At Node             211             211             441             421

  Maximum            631.827E+06     207.783E+06              0.     176.642E+06
         At Node             421             421             441               1

           Total     24.1656E+09     7.24501E+09              0.         17.1133


