********************************************************************************
Field Output Report, written Wed Mar 20 14:54:42 2019

Source 1
---------

   ODB: C:/AbaqusTemp/realSimulation/squarePlateUltra_right-sineY.odb
   Step: Step-1
   Frame: Increment      1: Step Time =    1.000

Loc 1 : Nodal values from source 1

Output sorted by column "Node Label".

Field Output reported at nodes for part: PART-2-1
   Computation algorithm: EXTRAPOLATE_COMPUTE_AVERAGE
   Averaged at nodes
   Averaging regions: ODB_REGIONS

      Node Label           S.S11           S.S22           S.S33           S.S12
                          @Loc 1          @Loc 1          @Loc 1          @Loc 1
---------------------------------------------------------------------------------
               1     1.56078E+06     701.937E+03              0.    -976.563E-06
               2     1.55507E+06     648.538E+03              0.        -68.1478
               3     1.57250E+06     606.512E+03              0.        -139.284
               4     1.58975E+06     565.342E+03              0.        -213.345
               5     1.60684E+06     524.997E+03              0.        -290.269
               6     1.62380E+06     485.449E+03              0.        -370.005
               7     1.64063E+06     446.668E+03              0.        -452.507
               8     1.65736E+06     408.628E+03              0.        -537.735
               9     1.67400E+06     371.302E+03              0.        -625.658
              10     1.69058E+06     334.663E+03              0.        -716.247
              11     1.70710E+06     298.688E+03              0.        -809.480
              12     1.72359E+06     263.351E+03              0.        -905.345
              13     1.74005E+06     228.629E+03              0.    -1.00383E+03
              14     1.75651E+06     194.500E+03              0.    -1.10493E+03
              15     1.77299E+06     160.940E+03              0.    -1.20864E+03
              16     1.78949E+06     127.928E+03              0.    -1.31498E+03
              17     1.80602E+06     95.4433E+03              0.    -1.42394E+03
              18     1.82262E+06     63.4652E+03              0.    -1.53556E+03
              19     1.83928E+06     31.9729E+03              0.    -1.64984E+03
              20     1.85603E+06         947.162              0.    -1.76682E+03
              21     1.87288E+06    -29.6308E+03              0.    -1.88652E+03
              22     1.88983E+06    -59.7807E+03              0.    -2.00899E+03
              23     1.90692E+06    -89.5200E+03              0.    -2.13425E+03
              24     1.92415E+06    -118.868E+03              0.    -2.26235E+03
              25     1.94153E+06    -147.841E+03              0.    -2.39334E+03
              26     1.95908E+06    -176.457E+03              0.    -2.52728E+03
              27     1.97682E+06    -204.734E+03              0.    -2.66423E+03
              28     1.99475E+06    -232.687E+03              0.    -2.80424E+03
              29     2.01289E+06    -260.334E+03              0.    -2.94738E+03
              30     2.03126E+06    -287.691E+03              0.    -3.09373E+03
              31     2.04987E+06    -314.774E+03              0.    -3.24336E+03
              32     2.06874E+06    -341.599E+03              0.    -3.39635E+03
              33     2.08787E+06    -368.182E+03              0.    -3.55279E+03
              34     2.10729E+06    -394.538E+03              0.    -3.71278E+03
              35     2.12700E+06    -420.683E+03              0.    -3.87640E+03
              36     2.14703E+06    -446.633E+03              0.    -4.04375E+03
              37     2.16739E+06    -472.403E+03              0.    -4.21496E+03
              38     2.18810E+06    -498.007E+03              0.    -4.39011E+03
              39     2.20916E+06    -523.461E+03              0.    -4.56934E+03
              40     2.23060E+06    -548.781E+03              0.    -4.75276E+03
              41     2.25244E+06    -573.980E+03              0.    -4.94051E+03
              42     2.27468E+06    -599.075E+03              0.    -5.13270E+03
              43     2.29735E+06     -624.08E+03              0.    -5.32949E+03
              44     2.32046E+06    -649.010E+03              0.    -5.53102E+03
              45     2.34404E+06    -673.881E+03              0.    -5.73743E+03
              46     2.36809E+06    -698.707E+03              0.    -5.94889E+03
              47     2.39265E+06    -723.504E+03              0.    -6.16556E+03
              48     2.41772E+06    -748.287E+03              0.    -6.38760E+03
              49     2.44332E+06    -773.071E+03              0.    -6.61520E+03
              50     2.46948E+06    -797.872E+03              0.    -6.84853E+03
              51     2.49622E+06    -822.705E+03              0.    -7.08779E+03
              52     2.52356E+06    -847.586E+03              0.    -7.33317E+03
              53     2.55151E+06    -872.530E+03              0.    -7.58488E+03
              54     2.58010E+06    -897.554E+03              0.    -7.84312E+03
              55     2.60936E+06    -922.674E+03              0.    -8.10813E+03
              56     2.63930E+06    -947.905E+03              0.    -8.38013E+03
              57     2.66995E+06    -973.265E+03              0.    -8.65935E+03
              58     2.70134E+06    -998.771E+03              0.    -8.94603E+03
              59     2.73349E+06    -1.02444E+06              0.    -9.24044E+03
              60     2.76642E+06    -1.05028E+06              0.    -9.54284E+03
              61     2.80016E+06    -1.07633E+06              0.    -9.85349E+03
              62     2.83474E+06    -1.10258E+06              0.    -10.1727E+03
              63     2.87019E+06    -1.12907E+06              0.    -10.5007E+03
              64     2.90654E+06    -1.15581E+06              0.    -10.8378E+03
              65     2.94381E+06    -1.18282E+06              0.    -11.1844E+03
              66     2.98203E+06    -1.21011E+06              0.    -11.5408E+03
              67     3.02125E+06    -1.23771E+06              0.    -11.9072E+03
              68     3.06148E+06    -1.26564E+06              0.    -12.2841E+03
              69     3.10277E+06    -1.29391E+06              0.    -12.6718E+03
              70     3.14515E+06    -1.32254E+06              0.    -13.0706E+03
              71     3.18866E+06    -1.35156E+06              0.    -13.4810E+03
              72     3.23332E+06    -1.38099E+06              0.    -13.9034E+03
              73     3.27918E+06    -1.41084E+06              0.    -14.3380E+03
              74     3.32628E+06    -1.44114E+06              0.    -14.7854E+03
              75     3.37466E+06    -1.47190E+06              0.    -15.2461E+03
              76     3.42435E+06    -1.50316E+06              0.    -15.7203E+03
              77     3.47541E+06    -1.53494E+06              0.    -16.2087E+03
              78     3.52787E+06    -1.56725E+06              0.    -16.7116E+03
              79     3.58178E+06    -1.60012E+06              0.    -17.2296E+03
              80     3.63719E+06    -1.63357E+06              0.    -17.7632E+03
              81     3.69414E+06    -1.66763E+06              0.    -18.3128E+03
              82     3.75269E+06    -1.70232E+06              0.    -18.8791E+03
              83     3.81288E+06    -1.73766E+06              0.    -19.4626E+03
              84     3.87476E+06    -1.77369E+06              0.    -20.0638E+03
              85     3.93840E+06    -1.81042E+06              0.    -20.6834E+03
              86     4.00385E+06    -1.84788E+06              0.    -21.3219E+03
              87     4.07116E+06    -1.88610E+06              0.    -21.9799E+03
              88     4.14039E+06    -1.92511E+06              0.    -22.6582E+03
              89     4.21160E+06    -1.96493E+06              0.    -23.3573E+03
              90     4.28486E+06    -2.00558E+06              0.    -24.0780E+03
              91     4.36022E+06    -2.04710E+06              0.    -24.8210E+03
              92     4.43777E+06    -2.08951E+06              0.    -25.5869E+03
              93     4.51755E+06    -2.13284E+06              0.    -26.3765E+03
              94     4.59965E+06    -2.17711E+06              0.    -27.1906E+03
              95     4.68413E+06    -2.22237E+06              0.    -28.0299E+03
              96     4.77107E+06    -2.26863E+06              0.    -28.8952E+03
              97     4.86055E+06    -2.31592E+06              0.    -29.7874E+03
              98     4.95264E+06    -2.36428E+06              0.    -30.7074E+03
              99     5.04742E+06    -2.41372E+06              0.    -31.6558E+03
             100     5.14497E+06    -2.46429E+06              0.    -32.6338E+03
             101     5.24538E+06    -2.51600E+06              0.    -33.6421E+03
             102     5.34874E+06    -2.56889E+06              0.    -34.6816E+03
             103     5.45513E+06    -2.62299E+06              0.    -35.7534E+03
             104     5.56465E+06    -2.67832E+06              0.    -36.8584E+03
             105     5.67738E+06    -2.73491E+06              0.    -37.9976E+03
             106     5.79343E+06    -2.79279E+06              0.    -39.1720E+03
             107     5.91290E+06    -2.85199E+06              0.    -40.3827E+03
             108     6.03587E+06    -2.91252E+06              0.    -41.6307E+03
             109     6.16247E+06    -2.97443E+06              0.    -42.9171E+03
             110     6.29278E+06    -3.03773E+06              0.    -44.2429E+03
             111     6.42693E+06    -3.10244E+06              0.    -45.6094E+03
             112     6.56501E+06    -3.16860E+06              0.    -47.0176E+03
             113     6.70715E+06    -3.23622E+06              0.    -48.4686E+03
             114     6.85346E+06    -3.30533E+06              0.    -49.9638E+03
             115     7.00405E+06    -3.37594E+06              0.    -51.5042E+03
             116     7.15905E+06    -3.44807E+06              0.    -53.0911E+03
             117     7.31858E+06    -3.52173E+06              0.    -54.7257E+03
             118     7.48275E+06    -3.59695E+06              0.    -56.4092E+03
             119     7.65171E+06    -3.67373E+06              0.    -58.1428E+03
             120     7.82558E+06    -3.75209E+06              0.    -59.9279E+03
             121     8.00448E+06    -3.83202E+06              0.    -61.7657E+03
             122     8.18856E+06    -3.91354E+06              0.    -63.6574E+03
             123     8.37794E+06    -3.99664E+06              0.    -65.6044E+03
             124     8.57278E+06    -4.08133E+06              0.    -67.6079E+03
             125     8.77319E+06    -4.16759E+06              0.    -69.6691E+03
             126     8.97933E+06    -4.25541E+06              0.    -71.7893E+03
             127     9.19134E+06    -4.34479E+06              0.    -73.9699E+03
             128     9.40935E+06    -4.43570E+06              0.    -76.2120E+03
             129     9.63352E+06    -4.52812E+06              0.    -78.5168E+03
             130     9.86399E+06    -4.62201E+06              0.    -80.8856E+03
             131     10.1009E+06    -4.71734E+06              0.    -83.3195E+03
             132     10.3444E+06    -4.81407E+06              0.    -85.8197E+03
             133     10.5947E+06    -4.91216E+06              0.    -88.3872E+03
             134     10.8518E+06    -5.01153E+06              0.    -91.0232E+03
             135     11.1160E+06    -5.11213E+06              0.    -93.7286E+03
             136     11.3873E+06    -5.21389E+06              0.    -96.5044E+03
             137     11.6659E+06    -5.31671E+06              0.    -99.3514E+03
             138     11.9521E+06    -5.42051E+06              0.    -102.271E+03
             139     12.2458E+06    -5.52519E+06              0.    -105.262E+03
             140     12.5472E+06    -5.63063E+06              0.    -108.327E+03
             141     12.8566E+06    -5.73670E+06              0.    -111.466E+03
             142     13.1739E+06    -5.84327E+06              0.    -114.680E+03
             143     13.4994E+06    -5.95018E+06              0.    -117.967E+03
             144     13.8331E+06    -6.05726E+06              0.    -121.329E+03
             145     14.1751E+06    -6.16433E+06              0.    -124.765E+03
             146     14.5257E+06    -6.27120E+06              0.    -128.276E+03
             147     14.8847E+06    -6.37764E+06              0.    -131.860E+03
             148     15.2525E+06    -6.48341E+06              0.    -135.517E+03
             149     15.6290E+06    -6.58827E+06              0.    -139.245E+03
             150     16.0142E+06    -6.69193E+06              0.    -143.045E+03
             151     16.4084E+06    -6.79410E+06              0.    -146.913E+03
             152     16.8114E+06    -6.89446E+06              0.    -150.848E+03
             153     17.2234E+06    -6.99265E+06              0.    -154.848E+03
             154     17.6442E+06    -7.08830E+06              0.    -158.909E+03
             155     18.0740E+06    -7.18101E+06              0.    -163.030E+03
             156     18.5127E+06    -7.27036E+06              0.    -167.206E+03
             157     18.9603E+06    -7.35587E+06              0.    -171.433E+03
             158     19.4166E+06    -7.43705E+06              0.    -175.706E+03
             159     19.8815E+06    -7.51338E+06              0.    -180.020E+03
             160     20.3550E+06    -7.58429E+06              0.    -184.368E+03
             161     20.8368E+06    -7.64918E+06              0.    -188.745E+03
             162     21.3267E+06    -7.70740E+06              0.    -193.141E+03
             163     21.8246E+06    -7.75827E+06              0.    -197.548E+03
             164     22.3301E+06    -7.80107E+06              0.    -201.958E+03
             165     22.8429E+06    -7.83501E+06              0.    -206.358E+03
             166     23.3626E+06    -7.85927E+06              0.    -210.737E+03
             167     23.8888E+06    -7.87300E+06              0.    -215.081E+03
             168     24.4211E+06    -7.87526E+06              0.    -219.375E+03
             169     24.9587E+06    -7.86507E+06              0.    -223.604E+03
             170     25.5012E+06     -7.8414E+06              0.    -227.748E+03
             171     26.0478E+06    -7.80317E+06              0.    -231.787E+03
             172     26.5978E+06    -7.74922E+06              0.    -235.698E+03
             173     27.1503E+06    -7.67833E+06              0.    -239.457E+03
             174     27.7043E+06    -7.58925E+06              0.    -243.036E+03
             175     28.2588E+06    -7.48062E+06              0.    -246.404E+03
             176     28.8126E+06    -7.35103E+06              0.    -249.527E+03
             177     29.3645E+06    -7.19902E+06              0.    -252.366E+03
             178     29.9129E+06    -7.02304E+06              0.    -254.880E+03
             179     30.4564E+06    -6.82148E+06              0.    -257.021E+03
             180     30.9932E+06    -6.59266E+06              0.    -258.736E+03
             181     31.5214E+06    -6.33484E+06              0.    -259.968E+03
             182     32.0389E+06    -6.04619E+06              0.    -260.650E+03
             183     32.5436E+06    -5.72485E+06              0.    -260.710E+03
             184     33.0328E+06    -5.36887E+06              0.    -260.063E+03
             185     33.5038E+06    -4.97626E+06              0.    -258.618E+03
             186     33.9536E+06    -4.54496E+06              0.    -256.270E+03
             187     34.3790E+06    -4.07289E+06              0.    -252.898E+03
             188     34.7762E+06    -3.55792E+06              0.    -248.369E+03
             189     35.1412E+06    -2.99792E+06              0.    -242.527E+03
             190     35.4697E+06    -2.39072E+06              0.    -235.195E+03
             191     35.7567E+06    -1.73420E+06              0.    -226.170E+03
             192     35.9969E+06    -1.02626E+06              0.    -215.217E+03
             193     36.1842E+06    -264.884E+03              0.    -202.061E+03
             194     36.3120E+06     551.856E+03              0.    -186.381E+03
             195     36.3728E+06     1.42571E+06              0.    -167.801E+03
             196     36.3583E+06     2.35820E+06              0.    -145.874E+03
             197     36.2590E+06     3.35059E+06              0.    -120.064E+03
             198     36.0642E+06     4.40371E+06              0.    -89.7268E+03
             199     35.7618E+06     5.51791E+06              0.    -54.0776E+03
             200     35.3376E+06     6.69281E+06              0.    -12.1513E+03
             201     34.7754E+06     7.92716E+06              0.     37.2527E+03
             202     34.0560E+06     9.21855E+06              0.     95.6511E+03
             203     33.1568E+06     10.5629E+06              0.     164.983E+03
             204     32.0505E+06     11.9543E+06              0.     247.775E+03
             205     30.7036E+06     13.3835E+06              0.     347.383E+03
             206     29.0745E+06     14.8378E+06              0.     468.359E+03
             207     27.1101E+06     16.2985E+06              0.     617.053E+03
             208     24.7407E+06     17.7387E+06              0.     802.588E+03
             209     21.8718E+06     19.1188E+06              0.     1.03859E+06
             210     18.3699E+06     20.3790E+06              0.     1.34632E+06
             211     14.0349E+06     21.4237E+06              0.     1.76100E+06
             212     8.54523E+06     22.0908E+06              0.     2.34572E+06
             213     1.31126E+06     22.0645E+06              0.     3.22478E+06
             214    -8.87494E+06     20.6688E+06              0.     4.69270E+06
             215    -25.7279E+06     15.6317E+06              0.     7.53334E+06
             216    -54.0650E+06     3.02006E+06              0.     15.0019E+06
             217    -86.8190E+06    -41.0085E+06              0.     34.3639E+06
             218     1.56053E+06     701.826E+03              0.    -17.5393E+03
             219     1.55483E+06     648.440E+03              0.    -17.5074E+03
             220     1.57225E+06     606.424E+03              0.    -17.3202E+03
             221     1.58950E+06     565.263E+03              0.    -17.1526E+03
             222     1.60658E+06     524.928E+03              0.    -17.0038E+03
             223     1.62353E+06     485.389E+03              0.    -16.8735E+03
             224     1.64036E+06     446.617E+03              0.    -16.7611E+03
             225     1.65709E+06     408.585E+03              0.    -16.6663E+03
             226     1.67373E+06     371.267E+03              0.    -16.5884E+03
             227     1.69030E+06     334.637E+03              0.    -16.5273E+03
             228     1.70682E+06     298.670E+03              0.    -16.4825E+03
             229     1.72330E+06     263.341E+03              0.    -16.4537E+03
             230     1.73976E+06     228.627E+03              0.    -16.4405E+03
             231     1.75622E+06     194.505E+03              0.    -16.4428E+03
             232     1.77269E+06     160.952E+03              0.    -16.4603E+03
             233     1.78918E+06     127.948E+03              0.    -16.4928E+03
             234     1.80572E+06     95.4707E+03              0.    -16.5400E+03
             235     1.82231E+06     63.4999E+03              0.    -16.6017E+03
             236     1.83896E+06     32.0148E+03              0.    -16.6780E+03
             237     1.85571E+06         996.159              0.    -16.7685E+03
             238     1.87255E+06    -29.5747E+03              0.    -16.8733E+03
             239     1.88950E+06    -59.7176E+03              0.    -16.9922E+03
             240     1.90658E+06    -89.4499E+03              0.    -17.1251E+03
             241     1.92381E+06    -118.791E+03              0.    -17.2721E+03
             242     1.94118E+06    -147.757E+03              0.    -17.4332E+03
             243     1.95873E+06    -176.366E+03              0.    -17.6082E+03
             244     1.97646E+06    -204.635E+03              0.    -17.7973E+03
             245     1.99439E+06    -232.582E+03              0.    -18.0005E+03
             246     2.01252E+06    -260.222E+03              0.    -18.2178E+03
             247     2.03089E+06    -287.571E+03              0.    -18.4494E+03
             248     2.04949E+06    -314.647E+03              0.    -18.6953E+03
             249     2.06835E+06    -341.465E+03              0.    -18.9557E+03
             250     2.08747E+06    -368.041E+03              0.    -19.2306E+03
             251     2.10688E+06    -394.390E+03              0.    -19.5203E+03
             252     2.12659E+06    -420.527E+03              0.    -19.8249E+03
             253     2.14662E+06    -446.469E+03              0.    -20.1447E+03
             254     2.16697E+06    -472.231E+03              0.    -20.4798E+03
             255     2.18766E+06    -497.828E+03              0.    -20.8305E+03
             256     2.20872E+06    -523.274E+03              0.    -21.1970E+03
             257     2.23015E+06    -548.585E+03              0.    -21.5796E+03
             258     2.25198E+06    -573.777E+03              0.    -21.9785E+03
             259     2.27421E+06    -598.863E+03              0.    -22.3942E+03
             260     2.29687E+06    -623.860E+03              0.    -22.8270E+03
             261     2.31997E+06    -648.781E+03              0.    -23.2771E+03
             262     2.34354E+06    -673.643E+03              0.    -23.7449E+03
             263     2.36758E+06    -698.460E+03              0.    -24.2309E+03
             264     2.39212E+06    -723.247E+03              0.    -24.7355E+03
             265     2.41718E+06    -748.021E+03              0.    -25.2591E+03
             266     2.44278E+06    -772.795E+03              0.    -25.8021E+03
             267     2.46892E+06    -797.586E+03              0.    -26.3650E+03
             268     2.49565E+06    -822.408E+03              0.    -26.9484E+03
             269     2.52297E+06    -847.278E+03              0.    -27.5527E+03
             270     2.55091E+06    -872.212E+03              0.    -28.1785E+03
             271     2.57949E+06    -897.225E+03              0.    -28.8264E+03
             272     2.60873E+06    -922.333E+03              0.    -29.4969E+03
             273     2.63866E+06    -947.553E+03              0.    -30.1906E+03
             274     2.66930E+06    -972.901E+03              0.    -30.9083E+03
             275     2.70067E+06    -998.394E+03              0.    -31.6505E+03
             276     2.73280E+06    -1.02405E+06              0.    -32.4180E+03
             277     2.76571E+06    -1.04988E+06              0.    -33.2115E+03
             278     2.79943E+06    -1.07591E+06              0.    -34.0317E+03
             279     2.83400E+06    -1.10215E+06              0.    -34.8794E+03
             280     2.86943E+06    -1.12863E+06              0.    -35.7553E+03
             281     2.90575E+06    -1.15535E+06              0.    -36.6604E+03
             282     2.94300E+06    -1.18234E+06              0.    -37.5955E+03
             283     2.98120E+06    -1.20962E+06              0.    -38.5614E+03
             284     3.02040E+06    -1.23721E+06              0.    -39.5590E+03
             285     3.06061E+06    -1.26511E+06              0.    -40.5894E+03
             286     3.10187E+06    -1.29337E+06              0.    -41.6535E+03
             287     3.14423E+06    -1.32198E+06              0.    -42.7522E+03
             288     3.18770E+06    -1.35099E+06              0.    -43.8867E+03
             289     3.23234E+06    -1.38039E+06              0.    -45.0580E+03
             290     3.27817E+06    -1.41022E+06              0.    -46.2673E+03
             291     3.32524E+06    -1.44050E+06              0.    -47.5155E+03
             292     3.37359E+06    -1.47125E+06              0.    -48.8040E+03
             293     3.42326E+06    -1.50249E+06              0.    -50.1340E+03
             294     3.47428E+06    -1.53424E+06              0.    -51.5066E+03
             295     3.52671E+06    -1.56653E+06              0.    -52.9232E+03
             296     3.58059E+06    -1.59938E+06              0.    -54.3851E+03
             297     3.63596E+06    -1.63280E+06              0.    -55.8936E+03
             298     3.69287E+06    -1.66684E+06              0.    -57.4502E+03
             299     3.75138E+06    -1.70150E+06              0.    -59.0562E+03
             300     3.81153E+06    -1.73682E+06              0.    -60.7131E+03
             301     3.87338E+06    -1.77282E+06              0.    -62.4225E+03
             302     3.93698E+06    -1.80953E+06              0.    -64.1859E+03
             303     4.00238E+06    -1.84696E+06              0.    -66.0048E+03
             304     4.06964E+06    -1.88515E+06              0.    -67.8809E+03
             305     4.13883E+06    -1.92413E+06              0.    -69.8159E+03
             306     4.20999E+06    -1.96391E+06              0.    -71.8114E+03
             307     4.28320E+06    -2.00454E+06              0.    -73.8693E+03
             308     4.35851E+06    -2.04602E+06              0.    -75.9912E+03
             309     4.43600E+06    -2.08840E+06              0.    -78.1790E+03
             310     4.51574E+06    -2.13169E+06              0.    -80.4346E+03
             311     4.59778E+06    -2.17594E+06              0.    -82.7598E+03
             312     4.68220E+06    -2.22116E+06              0.    -85.1567E+03
             313     4.76908E+06    -2.26738E+06              0.    -87.6270E+03
             314     4.85849E+06    -2.31463E+06              0.    -90.1730E+03
             315     4.95052E+06    -2.36295E+06              0.    -92.7965E+03
             316     5.04523E+06    -2.41236E+06              0.    -95.4998E+03
             317     5.14271E+06    -2.46288E+06              0.    -98.2848E+03
             318     5.24306E+06    -2.51455E+06              0.    -101.154E+03
             319     5.34634E+06     -2.5674E+06              0.    -104.109E+03
             320     5.45266E+06    -2.62145E+06              0.    -107.152E+03
             321     5.56210E+06    -2.67673E+06              0.    -110.286E+03
             322     5.67475E+06    -2.73328E+06              0.    -113.512E+03
             323     5.79072E+06    -2.79111E+06              0.    -116.834E+03
             324     5.91010E+06    -2.85026E+06              0.    -120.252E+03
             325     6.03299E+06    -2.91074E+06              0.    -123.771E+03
             326     6.15949E+06    -2.97260E+06              0.    -127.391E+03
             327     6.28971E+06    -3.03585E+06              0.    -131.115E+03
             328     6.42376E+06    -3.10051E+06              0.    -134.946E+03
             329     6.56175E+06    -3.16661E+06              0.    -138.885E+03
             330     6.70378E+06    -3.23418E+06              0.    -142.936E+03
             331     6.84999E+06    -3.30322E+06              0.    -147.099E+03
             332     7.00047E+06    -3.37378E+06              0.    -151.378E+03
             333     7.15536E+06    -3.44585E+06              0.    -155.775E+03
             334     7.31477E+06    -3.51945E+06              0.    -160.292E+03
             335     7.47883E+06    -3.59461E+06              0.    -164.930E+03
             336     7.64767E+06    -3.67133E+06              0.    -169.693E+03
             337     7.82141E+06    -3.74962E+06              0.    -174.581E+03
             338     8.00019E+06    -3.82949E+06              0.    -179.598E+03
             339     8.18414E+06    -3.91094E+06              0.    -184.744E+03
             340     8.37339E+06    -3.99398E+06              0.    -190.022E+03
             341     8.56808E+06    -4.07860E+06              0.    -195.432E+03
             342     8.76836E+06    -4.16479E+06              0.    -200.978E+03
             343     8.97435E+06    -4.25255E+06              0.    -206.659E+03
             344     9.18621E+06    -4.34186E+06              0.    -212.476E+03
             345     9.40408E+06    -4.43270E+06              0.    -218.432E+03
             346     9.62810E+06    -4.52505E+06              0.    -224.527E+03
             347     9.85841E+06    -4.61887E+06              0.    -230.760E+03
             348     10.0952E+06    -4.71413E+06              0.    -237.134E+03
             349     10.3385E+06    -4.81080E+06              0.    -243.646E+03
             350     10.5886E+06    -4.90881E+06              0.    -250.298E+03
             351     10.8455E+06    -5.00812E+06              0.    -257.088E+03
             352     11.1095E+06    -5.10865E+06              0.    -264.016E+03
             353     11.3807E+06    -5.21033E+06              0.    -271.080E+03
             354     11.6592E+06    -5.31309E+06              0.    -278.278E+03
             355     11.9451E+06    -5.41683E+06              0.    -285.609E+03
             356     12.2386E+06    -5.52145E+06              0.    -293.068E+03
             357     12.5399E+06    -5.62682E+06              0.    -300.654E+03
             358     12.8491E+06    -5.73284E+06              0.    -308.362E+03
             359     13.1662E+06    -5.83935E+06              0.    -316.187E+03
             360     13.4915E+06    -5.94620E+06              0.    -324.124E+03
             361     13.8250E+06    -6.05323E+06              0.    -332.167E+03
             362     14.1668E+06    -6.16026E+06              0.    -340.310E+03
             363     14.5172E+06    -6.26708E+06              0.    -348.544E+03
             364     14.8761E+06    -6.37348E+06              0.    -356.862E+03
             365     15.2436E+06    -6.47922E+06              0.    -365.252E+03
             366     15.6199E+06    -6.58405E+06              0.    -373.705E+03
             367     16.0050E+06    -6.68770E+06              0.    -382.208E+03
             368     16.3989E+06    -6.78985E+06              0.    -390.748E+03
             369     16.8018E+06    -6.89020E+06              0.    -399.311E+03
             370     17.2135E+06    -6.98839E+06              0.    -407.880E+03
             371     17.6342E+06    -7.08405E+06              0.    -416.438E+03
             372     18.0639E+06    -7.17679E+06              0.    -424.965E+03
             373     18.5024E+06    -7.26616E+06              0.    -433.440E+03
             374     18.9498E+06    -7.35172E+06              0.    -441.840E+03
             375     19.4059E+06    -7.43296E+06              0.    -450.139E+03
             376     19.8707E+06    -7.50936E+06              0.    -458.310E+03
             377     20.3440E+06    -7.58036E+06              0.    -466.323E+03
             378     20.8257E+06    -7.64535E+06              0.    -474.145E+03
             379     21.3156E+06    -7.70370E+06              0.    -481.741E+03
             380     21.8134E+06    -7.75471E+06              0.    -489.071E+03
             381     22.3189E+06    -7.79767E+06              0.    -496.094E+03
             382     22.8316E+06    -7.83180E+06              0.    -502.765E+03
             383     23.3513E+06    -7.85628E+06              0.    -509.035E+03
             384     23.8776E+06    -7.87024E+06              0.    -514.849E+03
             385     24.4098E+06    -7.87277E+06              0.    -520.151E+03
             386     24.9476E+06    -7.86288E+06              0.    -524.877E+03
             387     25.4902E+06    -7.83955E+06              0.    -528.961E+03
             388     26.0370E+06    -7.80169E+06              0.    -532.329E+03
             389     26.5872E+06    -7.74816E+06              0.    -534.901E+03
             390     27.1400E+06    -7.67773E+06              0.    -536.591E+03
             391     27.6944E+06    -7.58915E+06              0.    -537.307E+03
             392     28.2493E+06    -7.48108E+06              0.    -536.946E+03
             393     28.8037E+06    -7.35211E+06              0.    -535.401E+03
             394     29.3561E+06    -7.20077E+06              0.    -532.551E+03
             395     29.9053E+06    -7.02553E+06              0.    -528.267E+03
             396     30.4496E+06    -6.82478E+06              0.    -522.409E+03
             397     30.9873E+06    -6.59685E+06              0.    -514.822E+03
             398     31.5166E+06    -6.34000E+06              0.    -505.341E+03
             399     32.0355E+06    -6.05242E+06              0.    -493.781E+03
             400     32.5415E+06    -5.73225E+06              0.    -479.942E+03
             401     33.0324E+06    -5.37755E+06              0.    -463.604E+03
             402     33.5053E+06    -4.98633E+06              0.    -444.524E+03
             403     33.9573E+06    -4.55657E+06              0.    -422.435E+03
             404     34.3851E+06    -4.08618E+06              0.    -397.039E+03
             405     34.7851E+06    -3.57307E+06              0.    -368.007E+03
             406     35.1533E+06    -3.01510E+06              0.    -334.970E+03
             407     35.4854E+06    -2.41014E+06              0.    -297.514E+03
             408     35.7766E+06    -1.75610E+06              0.    -255.173E+03
             409     36.0216E+06    -1.05090E+06              0.    -207.417E+03
             410     36.2144E+06    -292.561E+03              0.    -153.643E+03
             411     36.3486E+06     520.792E+03              0.    -93.1565E+03
             412     36.4168E+06     1.39086E+06              0.    -25.1545E+03
             413     36.4108E+06     2.31909E+06              0.     51.2993E+03
             414     36.3215E+06     3.30667E+06              0.     137.309E+03
             415     36.1385E+06     4.35433E+06              0.     234.185E+03
             416     35.8500E+06     5.46227E+06              0.     343.503E+03
             417     35.4424E+06     6.62997E+06              0.     467.179E+03
             418     34.9001E+06     7.85592E+06              0.     607.567E+03
             419     34.2050E+06     9.13745E+06              0.     767.610E+03
             420     33.3357E+06     10.4701E+06              0.     951.035E+03
             421     32.2665E+06     11.8473E+06              0.     1.16265E+06
             422     30.9668E+06     13.2594E+06              0.     1.40877E+06
             423     29.3987E+06     14.6923E+06              0.     1.69787E+06
             424     27.5150E+06     16.1260E+06              0.     2.04160E+06
             425     25.2557E+06     17.5315E+06              0.     2.45645E+06
             426     22.5424E+06     18.8663E+06              0.     2.96649E+06
             427     19.2710E+06     20.0663E+06              0.     3.60818E+06
             428     15.2999E+06     21.0314E+06              0.     4.43924E+06
             429     10.4353E+06     21.5978E+06              0.     5.55537E+06
             430     4.43953E+06     21.4914E+06              0.     7.12614E+06
             431    -2.86779E+06     20.2167E+06              0.     9.43983E+06
             432    -10.1806E+06     17.3297E+06              0.     13.0536E+06
             433    -10.9923E+06     12.0645E+06              0.     15.5173E+06
             434    -14.5120E+06    -6.65142E+06              0.     23.3598E+06
             435     1.55979E+06     701.493E+03              0.    -35.0700E+03
             436     1.55409E+06     648.145E+03              0.    -35.0064E+03
             437     1.57150E+06     606.159E+03              0.    -34.6321E+03
             438     1.58873E+06     565.027E+03              0.    -34.2968E+03
             439     1.60581E+06     524.720E+03              0.    -33.9994E+03
             440     1.62275E+06     485.208E+03              0.    -33.7388E+03
             441     1.63956E+06     446.462E+03              0.    -33.5141E+03
             442     1.65628E+06     408.457E+03              0.    -33.3244E+03
             443     1.67290E+06     371.164E+03              0.    -33.1687E+03
             444     1.68946E+06     334.558E+03              0.    -33.0464E+03
             445     1.70597E+06     298.615E+03              0.    -32.9567E+03
             446     1.72244E+06     263.310E+03              0.    -32.8990E+03
             447     1.73889E+06     228.619E+03              0.    -32.8727E+03
             448     1.75534E+06     194.520E+03              0.    -32.8772E+03
             449     1.77179E+06     160.990E+03              0.    -32.9120E+03
             450     1.78827E+06     128.009E+03              0.    -32.9767E+03
             451     1.80479E+06      95.553E+03              0.    -33.0709E+03
             452     1.82137E+06     63.6039E+03              0.    -33.1943E+03
             453     1.83801E+06     32.1403E+03              0.    -33.3466E+03
             454     1.85474E+06     1.14304E+03              0.    -33.5274E+03
             455     1.87157E+06    -29.4066E+03              0.    -33.7367E+03
             456     1.88851E+06    -59.5284E+03              0.    -33.9743E+03
             457     1.90558E+06    -89.2397E+03              0.    -34.2399E+03
             458     1.92278E+06    -118.559E+03              0.    -34.5337E+03
             459     1.94014E+06    -147.505E+03              0.    -34.8554E+03
             460     1.95767E+06    -176.093E+03              0.    -35.2052E+03
             461     1.97539E+06    -204.341E+03              0.    -35.5830E+03
             462     1.99330E+06    -232.266E+03              0.    -35.9890E+03
             463     2.01141E+06    -259.885E+03              0.    -36.4233E+03
             464     2.02976E+06    -287.213E+03              0.    -36.8861E+03
             465     2.04834E+06    -314.268E+03              0.    -37.3774E+03
             466     2.06718E+06    -341.064E+03              0.    -37.8977E+03
             467     2.08629E+06    -367.617E+03              0.    -38.4472E+03
             468     2.10568E+06    -393.944E+03              0.    -39.0261E+03
             469     2.12536E+06    -420.060E+03              0.    -39.6349E+03
             470     2.14536E+06    -445.979E+03              0.    -40.2738E+03
             471     2.16569E+06    -471.718E+03              0.    -40.9435E+03
             472     2.18636E+06    -497.291E+03              0.    -41.6443E+03
             473     2.20739E+06    -522.713E+03              0.    -42.3767E+03
             474     2.22880E+06    -548.000E+03              0.    -43.1412E+03
             475     2.25060E+06    -573.166E+03              0.    -43.9386E+03
             476     2.27280E+06    -598.228E+03              0.    -44.7693E+03
             477     2.29543E+06    -623.198E+03              0.    -45.6341E+03
             478     2.31851E+06    -648.094E+03              0.    -46.5336E+03
             479     2.34204E+06    -672.929E+03              0.    -47.4686E+03
             480     2.36605E+06    -697.718E+03              0.    -48.4398E+03
             481     2.39056E+06    -722.478E+03              0.    -49.4482E+03
             482     2.41558E+06    -747.222E+03              0.    -50.4945E+03
             483     2.44114E+06    -771.967E+03              0.    -51.5797E+03
             484     2.46725E+06    -796.727E+03              0.    -52.7047E+03
             485     2.49394E+06    -821.519E+03              0.    -53.8705E+03
             486     2.52122E+06    -846.358E+03              0.    -55.0782E+03
             487     2.54912E+06    -871.259E+03              0.    -56.3288E+03
             488     2.57766E+06    -896.238E+03              0.    -57.6235E+03
             489     2.60685E+06    -921.312E+03              0.    -58.9634E+03
             490     2.63674E+06    -946.497E+03              0.    -60.3499E+03
             491     2.66732E+06    -971.809E+03              0.    -61.7841E+03
             492     2.69864E+06    -997.264E+03              0.    -63.2674E+03
             493     2.73072E+06    -1.02288E+06              0.    -64.8012E+03
             494     2.76358E+06    -1.04867E+06              0.    -66.3869E+03
             495     2.79725E+06    -1.07466E+06              0.    -68.0260E+03
             496     2.83176E+06    -1.10086E+06              0.    -69.7200E+03
             497     2.86713E+06    -1.12730E+06              0.    -71.4706E+03
             498     2.90339E+06    -1.15398E+06              0.    -73.2793E+03
             499     2.94058E+06    -1.18092E+06              0.    -75.1479E+03
             500     2.97872E+06    -1.20815E+06              0.    -77.0782E+03
             501     3.01784E+06    -1.23569E+06              0.    -79.0720E+03
             502     3.05798E+06    -1.26355E+06              0.    -81.1311E+03
             503     3.09918E+06    -1.29175E+06              0.    -83.2575E+03
             504     3.14146E+06    -1.32031E+06              0.    -85.4533E+03
             505     3.18485E+06    -1.34926E+06              0.    -87.7205E+03
             506     3.22941E+06    -1.37861E+06              0.    -90.0613E+03
             507     3.27516E+06    -1.40839E+06              0.    -92.4778E+03
             508     3.32214E+06    -1.43861E+06              0.    -94.9723E+03
             509      3.3704E+06    -1.46929E+06              0.    -97.5473E+03
             510     3.41997E+06    -1.50047E+06              0.    -100.205E+03
             511     3.47090E+06    -1.53216E+06              0.    -102.948E+03
             512     3.52323E+06    -1.56438E+06              0.    -105.779E+03
             513     3.57700E+06    -1.59715E+06              0.    -108.700E+03
             514     3.63227E+06    -1.63051E+06              0.    -111.715E+03
             515     3.68908E+06    -1.66447E+06              0.    -114.826E+03
             516     3.74747E+06    -1.69906E+06              0.    -118.035E+03
             517     3.80750E+06    -1.73431E+06              0.    -121.346E+03
             518     3.86923E+06    -1.77023E+06              0.    -124.762E+03
             519      3.9327E+06    -1.80685E+06              0.    -128.286E+03
             520     3.99797E+06    -1.84420E+06              0.    -131.921E+03
             521      4.0651E+06    -1.88231E+06              0.    -135.671E+03
             522     4.13414E+06    -1.92119E+06              0.    -139.537E+03
             523     4.20517E+06    -1.96088E+06              0.    -143.525E+03
             524     4.27823E+06    -2.00141E+06              0.    -147.638E+03
             525     4.35339E+06    -2.04280E+06              0.    -151.878E+03
             526     4.43072E+06    -2.08508E+06              0.    -156.250E+03
             527     4.51029E+06    -2.12827E+06              0.    -160.758E+03
             528     4.59216E+06    -2.17241E+06              0.    -165.405E+03
             529     4.67641E+06    -2.21752E+06              0.    -170.195E+03
             530     4.76311E+06    -2.26363E+06              0.    -175.131E+03
             531     4.85233E+06    -2.31077E+06              0.    -180.219E+03
             532     4.94416E+06    -2.35897E+06              0.    -185.462E+03
             533     5.03868E+06    -2.40825E+06              0.    -190.865E+03
             534     5.13596E+06    -2.45866E+06              0.    -196.430E+03
             535     5.23609E+06     -2.5102E+06              0.    -202.164E+03
             536     5.33915E+06    -2.56292E+06              0.    -208.069E+03
             537     5.44524E+06    -2.61684E+06              0.    -214.151E+03
             538     5.55445E+06    -2.67198E+06              0.    -220.414E+03
             539     5.66686E+06    -2.72839E+06              0.    -226.862E+03
             540     5.78258E+06    -2.78607E+06              0.    -233.500E+03
             541     5.90170E+06    -2.84507E+06              0.    -240.332E+03
             542     6.02433E+06    -2.90541E+06              0.    -247.363E+03
             543     6.15056E+06    -2.96711E+06              0.    -254.598E+03
             544     6.28051E+06    -3.03020E+06              0.    -262.041E+03
             545     6.41427E+06    -3.09470E+06              0.    -269.697E+03
             546     6.55196E+06    -3.16064E+06              0.    -277.570E+03
             547     6.69369E+06    -3.22804E+06              0.    -285.665E+03
             548     6.83958E+06    -3.29692E+06              0.    -293.986E+03
             549     6.98974E+06    -3.36729E+06              0.    -302.538E+03
             550     7.14430E+06    -3.43919E+06              0.    -311.326E+03
             551     7.30337E+06    -3.51261E+06              0.    -320.353E+03
             552     7.46708E+06    -3.58759E+06              0.    -329.623E+03
             553     7.63555E+06    -3.66412E+06              0.    -339.142E+03
             554     7.80892E+06    -3.74222E+06              0.    -348.913E+03
             555     7.98732E+06    -3.82190E+06              0.    -358.939E+03
             556     8.17088E+06    -3.90316E+06              0.    -369.225E+03
             557     8.35973E+06    -3.98600E+06              0.    -379.773E+03
             558     8.55401E+06    -4.07041E+06              0.    -390.588E+03
             559     8.75387E+06    -4.15641E+06              0.    -401.671E+03
             560     8.95943E+06    -4.24396E+06              0.    -413.027E+03
             561     9.17085E+06    -4.33306E+06              0.    -424.656E+03
             562     9.38826E+06     -4.4237E+06              0.    -436.560E+03
             563     9.61182E+06    -4.51584E+06              0.    -448.742E+03
             564     9.84166E+06    -4.60946E+06              0.    -461.203E+03
             565     10.0779E+06    -4.70451E+06              0.    -473.943E+03
             566     10.3208E+06    -4.80097E+06              0.    -486.961E+03
             567     10.5704E+06    -4.89877E+06              0.    -500.258E+03
             568     10.8268E+06    -4.99787E+06              0.    -513.832E+03
             569     11.0903E+06    -5.09820E+06              0.    -527.682E+03
             570     11.3609E+06    -5.19969E+06              0.    -541.804E+03
             571     11.6388E+06    -5.30225E+06              0.    -556.195E+03
             572     11.9242E+06    -5.40579E+06              0.    -570.850E+03
             573     12.2172E+06    -5.51022E+06              0.    -585.765E+03
             574     12.5179E+06    -5.61541E+06              0.    -600.932E+03
             575     12.8265E+06    -5.72124E+06              0.    -616.343E+03
             576     13.1431E+06    -5.82758E+06              0.    -631.989E+03
             577     13.4677E+06    -5.93427E+06              0.    -647.861E+03
             578     13.8007E+06    -6.04115E+06              0.    -663.945E+03
             579     14.1419E+06    -6.14804E+06              0.    -680.229E+03
             580     14.4917E+06    -6.25473E+06              0.    -696.697E+03
             581     14.8500E+06    -6.36101E+06              0.    -713.331E+03
             582     15.2170E+06    -6.46666E+06              0.    -730.113E+03
             583     15.5927E+06    -6.57140E+06              0.    -747.021E+03
             584     15.9772E+06    -6.67498E+06              0.    -764.031E+03
             585     16.3705E+06    -6.77709E+06              0.    -781.116E+03
             586     16.7728E+06    -6.87742E+06              0.    -798.248E+03
             587     17.1840E+06    -6.97561E+06              0.    -815.395E+03
             588     17.6042E+06    -7.07131E+06              0.    -832.521E+03
             589     18.0333E+06    -7.16411E+06              0.    -849.587E+03
             590     18.4713E+06    -7.25358E+06              0.    -866.552E+03
             591     18.9182E+06    -7.33927E+06              0.    -883.369E+03
             592     19.3739E+06    -7.42068E+06              0.    -899.987E+03
             593     19.8383E+06    -7.49729E+06              0.    -916.352E+03
             594     20.3112E+06    -7.56855E+06              0.    -932.405E+03
             595     20.7926E+06    -7.63385E+06              0.    -948.078E+03
             596     21.2822E+06    -7.69256E+06              0.    -963.303E+03
             597     21.7798E+06    -7.74400E+06              0.    -978.003E+03
             598     22.2850E+06    -7.78745E+06              0.    -992.093E+03
             599     22.7977E+06    -7.82214E+06              0.    -1.00548E+06
             600     23.3174E+06    -7.84725E+06              0.    -1.01808E+06
             601     23.8437E+06    -7.86193E+06              0.    -1.02977E+06
             602     24.3761E+06    -7.86527E+06              0.    -1.04044E+06
             603     24.9142E+06    -7.85628E+06              0.    -1.04997E+06
             604     25.4572E+06    -7.83396E+06              0.    -1.05823E+06
             605     26.0045E+06    -7.79722E+06              0.    -1.06506E+06
             606     26.5555E+06    -7.74492E+06              0.    -1.07031E+06
             607     27.1091E+06    -7.67587E+06              0.    -1.07381E+06
             608     27.6646E+06    -7.58880E+06              0.    -1.07538E+06
             609     28.2208E+06    -7.48239E+06              0.    -1.07481E+06
             610     28.7767E+06    -7.35525E+06              0.    -1.07188E+06
             611     29.3310E+06    -7.20593E+06              0.    -1.06637E+06
             612     29.8822E+06    -7.03290E+06              0.    -1.05801E+06
             613     30.4290E+06    -6.83457E+06              0.    -1.04653E+06
             614     30.9696E+06    -6.60929E+06              0.    -1.03162E+06
             615     31.5021E+06    -6.35535E+06              0.    -1.01295E+06
             616     32.0247E+06    -6.07095E+06              0.    -990.156E+03
             617     32.5351E+06    -5.75425E+06              0.    -962.851E+03
             618     33.0309E+06    -5.40336E+06              0.    -930.594E+03
             619     33.5094E+06    -5.01632E+06              0.    -892.910E+03
             620     33.9678E+06    -4.59113E+06              0.    -849.271E+03
             621     34.4028E+06    -4.12575E+06              0.    -799.094E+03
             622     34.8112E+06    -3.61814E+06              0.    -741.732E+03
             623     35.1889E+06    -3.06622E+06              0.    -676.463E+03
             624     35.5319E+06    -2.46792E+06              0.    -602.479E+03
             625     35.8355E+06    -1.82123E+06              0.    -518.869E+03
             626     36.0947E+06    -1.12416E+06              0.    -424.606E+03
             627     36.3039E+06    -374.838E+03              0.    -318.519E+03
             628     36.4569E+06     428.483E+03              0.    -199.266E+03
             629     36.5469E+06     1.28734E+06              0.    -65.3021E+03
             630     36.5662E+06     2.20301E+06              0.     85.1680E+03
             631     36.5065E+06     3.17642E+06              0.     254.250E+03
             632     36.3582E+06     4.20801E+06              0.     444.430E+03
             633     36.1106E+06     5.29762E+06              0.     658.679E+03
             634     35.7517E+06     6.44423E+06              0.     900.576E+03
             635     35.2679E+06     7.64574E+06              0.     1.17449E+06
             636     34.6436E+06     8.89867E+06              0.     1.48581E+06
             637     33.8610E+06     10.1975E+06              0.     1.84129E+06
             638     32.8995E+06     11.5343E+06              0.     2.24950E+06
             639     31.7355E+06     12.8973E+06              0.     2.72147E+06
             640     30.3415E+06     14.2699E+06              0.     3.27168E+06
             641     28.6860E+06     15.6284E+06              0.     3.91941E+06
             642     26.7334E+06     16.9388E+06              0.     4.69082E+06
             643     24.4454E+06     18.1512E+06              0.     5.62203E+06
             644     21.7860E+06     19.1922E+06              0.      6.7635E+06
             645     18.7366E+06     19.9502E+06              0.     8.18568E+06
             646     15.3396E+06     20.2543E+06              0.     9.98409E+06
             647     11.8163E+06     19.8380E+06              0.     12.2633E+06
             648     8.89563E+06     18.3073E+06              0.     15.0590E+06
             649     8.33296E+06     15.0273E+06              0.     17.6022E+06
             650     7.98816E+06     6.99138E+06              0.     17.7300E+06
             651     8.47982E+06     3.86443E+06              0.     18.7355E+06
             652     1.55855E+06     700.939E+03              0.    -52.5842E+03
             653     1.55286E+06     647.654E+03              0.    -52.4888E+03
             654     1.57025E+06     605.718E+03              0.    -51.9277E+03
             655     1.58746E+06     564.634E+03              0.     -51.425E+03
             656     1.60452E+06     524.373E+03              0.    -50.9791E+03
             657     1.62143E+06     484.906E+03              0.    -50.5883E+03
             658     1.63823E+06     446.205E+03              0.    -50.2513E+03
             659     1.65492E+06     408.243E+03              0.    -49.9667E+03
             660     1.67153E+06     370.992E+03              0.    -49.7332E+03
             661     1.68807E+06     334.427E+03              0.    -49.5496E+03
             662     1.70456E+06     298.525E+03              0.    -49.4149E+03
             663     1.72101E+06     263.259E+03              0.    -49.3282E+03
             664     1.73744E+06     228.607E+03              0.    -49.2884E+03
             665     1.75386E+06     194.546E+03              0.    -49.2949E+03
             666     1.77030E+06     161.054E+03              0.    -49.3468E+03
             667     1.78676E+06     128.109E+03              0.    -49.4435E+03
             668     1.80325E+06     95.6898E+03              0.    -49.5844E+03
             669     1.81981E+06     63.7769E+03              0.    -49.7690E+03
             670     1.83643E+06     32.3492E+03              0.    -49.9969E+03
             671     1.85314E+06     1.38746E+03              0.    -50.2676E+03
             672     1.86994E+06    -29.1269E+03              0.    -50.5810E+03
             673     1.88686E+06    -59.2135E+03              0.    -50.9366E+03
             674     1.90390E+06    -88.8898E+03              0.    -51.3344E+03
             675     1.92108E+06    -118.174E+03              0.    -51.7743E+03
             676     1.93841E+06    -147.085E+03              0.    -52.2562E+03
             677     1.95591E+06    -175.638E+03              0.    -52.7800E+03
             678     1.97360E+06    -203.851E+03              0.    -53.3459E+03
             679     1.99148E+06    -231.741E+03              0.    -53.9540E+03
             680     2.00957E+06    -259.325E+03              0.    -54.6045E+03
             681     2.02788E+06    -286.617E+03              0.    -55.2976E+03
             682     2.04643E+06    -313.636E+03              0.    -56.0336E+03
             683     2.06524E+06    -340.396E+03              0.    -56.8130E+03
             684     2.08431E+06    -366.913E+03              0.     -57.636E+03
             685     2.10366E+06    -393.203E+03              0.    -58.5032E+03
             686     2.12331E+06    -419.281E+03              0.    -59.4151E+03
             687     2.14328E+06    -445.162E+03              0.    -60.3723E+03
             688     2.16356E+06    -470.862E+03              0.    -61.3754E+03
             689     2.18419E+06    -496.396E+03              0.    -62.4252E+03
             690     2.20518E+06    -521.779E+03              0.    -63.5223E+03
             691     2.22655E+06    -547.025E+03              0.    -64.6677E+03
             692     2.24830E+06    -572.151E+03              0.    -65.8621E+03
             693     2.27046E+06    -597.170E+03              0.    -67.1065E+03
             694     2.29304E+06    -622.098E+03              0.    -68.4020E+03
             695     2.31606E+06    -646.949E+03              0.    -69.7495E+03
             696     2.33955E+06    -671.740E+03              0.    -71.1501E+03
             697     2.36350E+06    -696.483E+03              0.    -72.6051E+03
             698     2.38796E+06    -721.196E+03              0.    -74.1157E+03
             699     2.41292E+06    -745.893E+03              0.    -75.6831E+03
             700     2.43842E+06    -770.588E+03              0.    -77.3088E+03
             701     2.46447E+06    -795.299E+03              0.    -78.9941E+03
             702     2.49109E+06    -820.039E+03              0.    -80.7405E+03
             703     2.51831E+06    -844.825E+03              0.    -82.5497E+03
             704     2.54614E+06    -869.671E+03              0.    -84.4232E+03
             705     2.57460E+06    -894.595E+03              0.    -86.3627E+03
             706     2.60372E+06    -919.612E+03              0.    -88.3700E+03
             707     2.63353E+06    -944.738E+03              0.     -90.447E+03
             708     2.66404E+06    -969.990E+03              0.    -92.5955E+03
             709     2.69528E+06    -995.383E+03              0.    -94.8176E+03
             710     2.72727E+06    -1.02094E+06              0.    -97.1153E+03
             711     2.76004E+06    -1.04666E+06              0.    -99.4907E+03
             712     2.79362E+06    -1.07259E+06              0.    -101.946E+03
             713     2.82803E+06    -1.09872E+06              0.    -104.484E+03
             714     2.86330E+06    -1.12508E+06              0.    -107.106E+03
             715     2.89946E+06    -1.15168E+06              0.    -109.816E+03
             716     2.93655E+06    -1.17855E+06              0.    -112.615E+03
             717     2.97458E+06    -1.20571E+06              0.    -115.507E+03
             718     3.01359E+06    -1.23316E+06              0.    -118.493E+03
             719     3.05361E+06    -1.26094E+06              0.    -121.578E+03
             720     3.09468E+06    -1.28906E+06              0.    -124.763E+03
             721     3.13684E+06    -1.31753E+06              0.    -128.053E+03
             722     3.18011E+06    -1.34639E+06              0.    -131.449E+03
             723     3.22453E+06    -1.37565E+06              0.    -134.956E+03
             724     3.27014E+06    -1.40533E+06              0.    -138.576E+03
             725     3.31698E+06    -1.43545E+06              0.    -142.312E+03
             726     3.36509E+06    -1.46603E+06              0.    -146.170E+03
             727     3.41450E+06    -1.49710E+06              0.    -150.151E+03
             728     3.46527E+06    -1.52868E+06              0.    -154.260E+03
             729     3.51744E+06    -1.56079E+06              0.    -158.501E+03
             730     3.57104E+06    -1.59346E+06              0.    -162.877E+03
             731     3.62613E+06    -1.62670E+06              0.    -167.393E+03
             732     3.68275E+06    -1.66054E+06              0.    -172.053E+03
             733     3.74096E+06    -1.69500E+06              0.    -176.861E+03
             734     3.80079E+06    -1.73012E+06              0.    -181.821E+03
             735     3.86232E+06    -1.76590E+06              0.    -186.938E+03
             736     3.92558E+06    -1.80239E+06              0.    -192.217E+03
             737     3.99063E+06    -1.83960E+06              0.    -197.662E+03
             738     4.05754E+06    -1.87756E+06              0.    -203.279E+03
             739     4.12635E+06    -1.91630E+06              0.    -209.071E+03
             740     4.19713E+06    -1.95584E+06              0.    -215.045E+03
             741     4.26995E+06    -1.99621E+06              0.    -221.206E+03
             742     4.34485E+06    -2.03744E+06              0.    -227.558E+03
             743     4.42192E+06    -2.07955E+06              0.    -234.108E+03
             744     4.50121E+06    -2.12257E+06              0.    -240.860E+03
             745     4.58280E+06    -2.16653E+06              0.    -247.821E+03
             746     4.66676E+06    -2.21146E+06              0.    -254.997E+03
             747     4.75316E+06    -2.25739E+06              0.    -262.392E+03
             748     4.84207E+06    -2.30434E+06              0.    -270.014E+03
             749     4.93358E+06    -2.35234E+06              0.    -277.868E+03
             750     5.02777E+06    -2.40143E+06              0.    -285.961E+03
             751     5.12470E+06    -2.45162E+06              0.    -294.299E+03
             752     5.22448E+06    -2.50295E+06              0.    -302.888E+03
             753     5.32718E+06    -2.55545E+06              0.    -311.735E+03
             754     5.43289E+06    -2.60915E+06              0.    -320.846E+03
             755     5.54171E+06    -2.66407E+06              0.    -330.228E+03
             756     5.65373E+06    -2.72024E+06              0.    -339.888E+03
             757     5.76903E+06    -2.77769E+06              0.    -349.832E+03
             758     5.88773E+06    -2.83644E+06              0.    -360.068E+03
             759     6.00992E+06    -2.89653E+06              0.    -370.602E+03
             760     6.13570E+06    -2.95797E+06              0.    -381.441E+03
             761     6.26518E+06    -3.02080E+06              0.    -392.591E+03
             762     6.39846E+06    -3.08504E+06              0.    -404.061E+03
             763     6.53566E+06    -3.15070E+06              0.    -415.856E+03
             764     6.67688E+06    -3.21782E+06              0.    -427.984E+03
             765     6.82225E+06    -3.28642E+06              0.    -440.451E+03
             766     6.97187E+06    -3.35650E+06              0.    -453.264E+03
             767     7.12587E+06    -3.42810E+06              0.    -466.429E+03
             768     7.28437E+06    -3.50122E+06              0.    -479.954E+03
             769     7.44750E+06    -3.57589E+06              0.    -493.845E+03
             770     7.61538E+06    -3.65211E+06              0.    -508.107E+03
             771     7.78813E+06    -3.72990E+06              0.    -522.746E+03
             772     7.96589E+06    -3.80926E+06              0.    -537.769E+03
             773     8.14880E+06    -3.89019E+06              0.    -553.181E+03
             774     8.33699E+06    -3.97270E+06              0.    -568.987E+03
             775     8.53059E+06    -4.05679E+06              0.    -585.192E+03
             776     8.72974E+06    -4.14244E+06              0.    -601.801E+03
             777     8.93459E+06    -4.22966E+06              0.    -618.816E+03
             778     9.14527E+06    -4.31842E+06              0.    -636.243E+03
             779     9.36193E+06    -4.40871E+06              0.    -654.083E+03
             780     9.58471E+06    -4.50051E+06              0.    -672.339E+03
             781     9.81377E+06    -4.59378E+06              0.    -691.013E+03
             782     10.0492E+06    -4.68849E+06              0.    -710.106E+03
             783     10.2913E+06    -4.78460E+06              0.    -729.617E+03
             784     10.5400E+06    -4.88206E+06              0.    -749.546E+03
             785     10.7956E+06    -4.98081E+06              0.    -769.892E+03
             786     11.0582E+06    -5.08080E+06              0.    -790.651E+03
             787     11.3279E+06    -5.18195E+06              0.    -811.820E+03
             788     11.6050E+06    -5.28418E+06              0.    -833.392E+03
             789     11.8895E+06    -5.38740E+06              0.    -855.362E+03
             790     12.1815E+06    -5.49151E+06              0.    -877.721E+03
             791     12.4813E+06    -5.59639E+06              0.    -900.460E+03
             792     12.7889E+06    -5.70193E+06              0.    -923.566E+03
             793     13.1045E+06    -5.80798E+06              0.    -947.027E+03
             794     13.4282E+06     -5.9144E+06              0.    -970.827E+03
             795     13.7602E+06    -6.02102E+06              0.    -994.948E+03
             796     14.1005E+06    -6.12767E+06              0.    -1.01937E+06
             797     14.4493E+06    -6.23415E+06              0.    -1.04407E+06
             798     14.8066E+06    -6.34023E+06              0.    -1.06902E+06
             799     15.1726E+06    -6.44571E+06              0.    -1.09420E+06
             800     15.5473E+06    -6.55031E+06              0.    -1.11956E+06
             801     15.9308E+06    -6.65378E+06              0.    -1.14509E+06
             802     16.3232E+06    -6.75581E+06              0.    -1.17073E+06
             803     16.7246E+06    -6.85610E+06              0.    -1.19644E+06
             804     17.1348E+06    -6.95430E+06              0.    -1.22218E+06
             805     17.5541E+06    -7.05005E+06              0.    -1.24790E+06
             806     17.9823E+06    -7.14295E+06              0.    -1.27353E+06
             807     18.4195E+06    -7.23257E+06              0.    -1.29901E+06
             808     18.8656E+06    -7.31848E+06              0.    -1.32428E+06
             809     19.3205E+06    -7.40017E+06              0.    -1.34925E+06
             810     19.7842E+06    -7.47713E+06              0.    -1.37386E+06
             811     20.2566E+06    -7.54882E+06              0.    -1.39800E+06
             812     20.7373E+06    -7.61463E+06              0.    -1.42159E+06
             813     21.2264E+06    -7.67394E+06              0.    -1.44451E+06
             814     21.7236E+06    -7.72609E+06              0.    -1.46665E+06
             815     22.2286E+06    -7.77034E+06              0.    -1.48790E+06
             816     22.7411E+06    -7.80595E+06              0.    -1.50811E+06
             817     23.2607E+06    -7.83212E+06              0.    -1.52713E+06
             818     23.7871E+06    -7.84798E+06              0.    -1.54483E+06
             819     24.3198E+06    -7.85265E+06              0.    -1.56101E+06
             820     24.8583E+06    -7.84515E+06              0.    -1.57549E+06
             821     25.4020E+06    -7.82449E+06              0.    -1.58809E+06
             822     25.9502E+06    -7.78959E+06              0.    -1.59858E+06
             823     26.5023E+06    -7.73934E+06              0.    -1.60672E+06
             824     27.0574E+06    -7.67255E+06              0.    -1.61227E+06
             825     27.6146E+06    -7.58798E+06              0.    -1.61495E+06
             826     28.1730E+06    -7.48432E+06              0.    -1.61447E+06
             827     28.7313E+06    -7.36020E+06              0.    -1.61050E+06
             828     29.2886E+06    -7.21420E+06              0.    -1.60269E+06
             829     29.8433E+06    -7.04481E+06              0.    -1.59067E+06
             830     30.3941E+06    -6.85048E+06              0.    -1.57403E+06
             831     30.9393E+06    -6.62957E+06              0.    -1.55231E+06
             832     31.4773E+06    -6.38041E+06              0.    -1.52503E+06
             833     32.0060E+06    -6.10125E+06              0.    -1.49166E+06
             834     32.5234E+06    -5.79029E+06              0.    -1.45162E+06
             835     33.0272E+06    -5.44566E+06              0.    -1.40428E+06
             836     33.5149E+06    -5.06548E+06              0.    -1.34892E+06
             837     33.9838E+06    -4.64780E+06              0.    -1.28480E+06
             838     34.4308E+06    -4.19066E+06              0.    -1.21105E+06
             839     34.8527E+06    -3.69207E+06              0.    -1.12673E+06
             840     35.2460E+06    -3.15006E+06              0.    -1.03081E+06
             841     35.6067E+06    -2.56266E+06              0.    -922.115E+03
             842     35.9306E+06    -1.92797E+06              0.    -799.338E+03
             843     36.2130E+06    -1.24415E+06              0.    -661.006E+03
             844     36.4488E+06    -509.499E+03              0.    -505.455E+03
             845     36.6324E+06     277.540E+03              0.    -330.783E+03
             846     36.7578E+06     1.11826E+06              0.    -134.817E+03
             847     36.8182E+06     2.01365E+06              0.     84.9525E+03
             848     36.8061E+06     2.96428E+06              0.     331.442E+03
             849     36.7136E+06     3.97014E+06              0.     608.062E+03
             850     36.5318E+06     5.03054E+06              0.     918.844E+03
             851     36.2507E+06     6.14377E+06              0.     1.26858E+06
             852     35.8599E+06     7.30686E+06              0.     1.66303E+06
             853     35.3474E+06     8.51520E+06              0.     2.10917E+06
             854     34.7009E+06     9.76188E+06              0.     2.61554E+06
             855     33.9067E+06     11.0370E+06              0.     3.19268E+06
             856     32.9511E+06     12.3265E+06              0.     3.85370E+06
             857     31.8205E+06     13.6104E+06              0.     4.61502E+06
             858     30.5036E+06     14.8611E+06              0.     5.49729E+06
             859     28.9945E+06     16.0389E+06              0.     6.52625E+06
             860     27.2991E+06     17.0876E+06              0.     7.73342E+06
             861     25.4490E+06     17.9266E+06              0.     9.15496E+06
             862     23.5267E+06     18.4391E+06              0.     10.8254E+06
             863     21.7136E+06     18.4564E+06              0.     12.7547E+06
             864     20.3610E+06     17.7378E+06              0.     14.8640E+06
             865     20.0243E+06     15.9633E+06              0.     16.7764E+06
             866     20.5848E+06     12.5691E+06              0.     17.5705E+06
             867     21.4025E+06     9.13469E+06              0.     15.9198E+06
             868     23.1387E+06     10.4499E+06              0.     16.0943E+06
             869     1.55682E+06     700.164E+03              0.    -70.0734E+03
             870     1.55113E+06     646.968E+03              0.    -69.9462E+03
             871     1.56850E+06     605.100E+03              0.    -69.1986E+03
             872     1.58568E+06     564.083E+03              0.    -68.5288E+03
             873     1.60271E+06     523.887E+03              0.    -67.9346E+03
             874     1.61960E+06     484.484E+03              0.    -67.4138E+03
             875     1.63637E+06     445.845E+03              0.    -66.9646E+03
             876     1.65303E+06     407.943E+03              0.    -66.5851E+03
             877     1.66961E+06     370.751E+03              0.    -66.2736E+03
             878     1.68612E+06     334.244E+03              0.    -66.0287E+03
             879     1.70258E+06     298.397E+03              0.    -65.8489E+03
             880     1.71900E+06     263.187E+03              0.    -65.7329E+03
             881     1.73541E+06     228.589E+03              0.    -65.6794E+03
             882     1.75180E+06     194.581E+03              0.    -65.6875E+03
             883     1.76821E+06     161.142E+03              0.    -65.7561E+03
             884     1.78463E+06     128.249E+03              0.    -65.8843E+03
             885     1.80110E+06     95.8808E+03              0.    -66.0714E+03
             886     1.81763E+06     64.0185E+03              0.    -66.3167E+03
             887     1.83422E+06     32.6408E+03              0.    -66.6196E+03
             888     1.85089E+06     1.72883E+03              0.    -66.9796E+03
             889     1.86766E+06    -28.7361E+03              0.    -67.3962E+03
             890     1.88454E+06    -58.7736E+03              0.    -67.8692E+03
             891     1.90155E+06    -88.4009E+03              0.    -68.3984E+03
             892     1.91869E+06    -117.637E+03              0.    -68.9835E+03
             893     1.93599E+06    -146.498E+03              0.    -69.6245E+03
             894     1.95345E+06    -175.002E+03              0.    -70.3215E+03
             895     1.97110E+06    -203.167E+03              0.    -71.0744E+03
             896     1.98894E+06    -231.007E+03              0.    -71.8835E+03
             897     2.00698E+06    -258.541E+03              0.    -72.7491E+03
             898     2.02525E+06    -285.785E+03              0.    -73.6714E+03
             899     2.04376E+06    -312.753E+03              0.    -74.6508E+03
             900     2.06252E+06    -339.462E+03              0.    -75.6879E+03
             901     2.08154E+06    -365.928E+03              0.    -76.7831E+03
             902     2.10085E+06    -392.166E+03              0.    -77.9371E+03
             903     2.12045E+06    -418.192E+03              0.    -79.1507E+03
             904     2.14036E+06    -444.020E+03              0.    -80.4245E+03
             905     2.16059E+06    -469.667E+03              0.    -81.7595E+03
             906     2.18116E+06    -495.146E+03              0.    -83.1566E+03
             907     2.20209E+06    -520.473E+03              0.    -84.6167E+03
             908     2.22340E+06    -545.663E+03              0.    -86.1410E+03
             909     2.24508E+06    -570.731E+03              0.    -87.7307E+03
             910     2.26718E+06    -595.691E+03              0.    -89.3869E+03
             911     2.28969E+06    -620.559E+03              0.    -91.1109E+03
             912     2.31265E+06    -645.350E+03              0.    -92.9043E+03
             913     2.33606E+06    -670.077E+03              0.    -94.7684E+03
             914     2.35994E+06    -694.757E+03              0.    -96.7049E+03
             915     2.38431E+06    -719.405E+03              0.    -98.7153E+03
             916     2.40920E+06    -744.034E+03              0.    -100.801E+03
             917     2.43461E+06    -768.662E+03              0.    -102.965E+03
             918     2.46058E+06    -793.302E+03              0.    -105.208E+03
             919     2.48711E+06    -817.970E+03              0.    -107.532E+03
             920     2.51423E+06    -842.682E+03              0.    -109.940E+03
             921     2.54196E+06    -867.453E+03              0.    -112.434E+03
             922     2.57033E+06    -892.299E+03              0.    -115.015E+03
             923     2.59935E+06    -917.236E+03              0.    -117.687E+03
             924     2.62905E+06    -942.280E+03              0.    -120.451E+03
             925     2.65944E+06    -967.447E+03              0.    -123.310E+03
             926     2.69057E+06    -992.754E+03              0.    -126.268E+03
             927     2.72244E+06    -1.01822E+06              0.    -129.326E+03
             928     2.75509E+06    -1.04385E+06              0.    -132.487E+03
             929     2.78854E+06    -1.06968E+06              0.    -135.755E+03
             930     2.82282E+06    -1.09572E+06              0.    -139.132E+03
             931     2.85795E+06    -1.12198E+06              0.    -142.622E+03
             932     2.89397E+06    -1.14848E+06              0.    -146.229E+03
             933     2.93091E+06    -1.17524E+06              0.    -149.954E+03
             934     2.96879E+06    -1.20229E+06              0.    -153.802E+03
             935     3.00764E+06    -1.22963E+06              0.    -157.777E+03
             936     3.04750E+06    -1.25729E+06              0.    -161.883E+03
             937     3.08840E+06    -1.28529E+06              0.    -166.122E+03
             938     3.13038E+06    -1.31365E+06              0.    -170.500E+03
             939     3.17347E+06    -1.34238E+06              0.    -175.020E+03
             940     3.21770E+06    -1.37150E+06              0.    -179.686E+03
             941     3.26312E+06    -1.40105E+06              0.    -184.504E+03
             942     3.30976E+06    -1.43103E+06              0.    -189.477E+03
             943     3.35766E+06    -1.46148E+06              0.    -194.611E+03
             944     3.40686E+06    -1.49240E+06              0.    -199.910E+03
             945     3.45740E+06    -1.52383E+06              0.    -205.378E+03
             946     3.50934E+06    -1.55578E+06              0.    -211.022E+03
             947     3.56270E+06    -1.58829E+06              0.    -216.846E+03
             948     3.61754E+06    -1.62136E+06              0.    -222.856E+03
             949     3.67391E+06    -1.65503E+06              0.    -229.058E+03
             950     3.73185E+06    -1.68932E+06              0.    -235.456E+03
             951     3.79142E+06    -1.72426E+06              0.    -242.058E+03
             952     3.85266E+06    -1.75986E+06              0.    -248.868E+03
             953     3.91562E+06    -1.79616E+06              0.    -255.893E+03
             954     3.98038E+06    -1.83317E+06              0.    -263.140E+03
             955     4.04697E+06    -1.87093E+06              0.    -270.615E+03
             956     4.11546E+06    -1.90946E+06              0.    -278.324E+03
             957     4.18590E+06    -1.94879E+06              0.    -286.274E+03
             958     4.25837E+06    -1.98894E+06              0.    -294.473E+03
             959     4.33292E+06    -2.02994E+06              0.    -302.927E+03
             960     4.40962E+06    -2.07182E+06              0.    -311.644E+03
             961     4.48853E+06    -2.11460E+06              0.    -320.631E+03
             962     4.56973E+06    -2.15832E+06              0.    -329.895E+03
             963     4.65327E+06    -2.20300E+06              0.    -339.445E+03
             964     4.73925E+06    -2.24866E+06              0.    -349.287E+03
             965     4.82773E+06    -2.29535E+06              0.    -359.431E+03
             966     4.91879E+06    -2.34308E+06              0.    -369.884E+03
             967     5.01251E+06    -2.39188E+06              0.    -380.655E+03
             968     5.10897E+06    -2.44179E+06              0.    -391.752E+03
             969     5.20825E+06    -2.49282E+06              0.    -403.183E+03
             970     5.31044E+06    -2.54502E+06              0.    -414.958E+03
             971     5.41563E+06    -2.59841E+06              0.    -427.084E+03
             972     5.52391E+06    -2.65301E+06              0.    -439.572E+03
             973     5.63536E+06    -2.70885E+06              0.    -452.429E+03
             974     5.75010E+06    -2.76597E+06              0.    -465.664E+03
             975     5.86820E+06    -2.82438E+06              0.    -479.288E+03
             976     5.98977E+06    -2.88411E+06              0.    -493.308E+03
             977     6.11492E+06    -2.94520E+06              0.    -507.735E+03
             978     6.24375E+06    -3.00766E+06              0.    -522.577E+03
             979     6.37636E+06    -3.07152E+06              0.    -537.844E+03
             980     6.51287E+06    -3.13681E+06              0.    -553.544E+03
             981     6.65338E+06    -3.20354E+06              0.    -569.687E+03
             982     6.79802E+06    -3.27173E+06              0.    -586.282E+03
             983     6.94689E+06    -3.34141E+06              0.    -603.338E+03
             984     7.10012E+06    -3.41260E+06              0.    -620.863E+03
             985     7.25782E+06    -3.48530E+06              0.    -638.867E+03
             986     7.42013E+06    -3.55954E+06              0.    -657.358E+03
             987     7.58717E+06    -3.63533E+06              0.    -676.344E+03
             988     7.75906E+06    -3.71267E+06              0.    -695.833E+03
             989     7.93594E+06    -3.79158E+06              0.    -715.833E+03
             990     8.11793E+06    -3.87206E+06              0.    -736.351E+03
             991     8.30519E+06    -3.95411E+06              0.    -757.394E+03
             992     8.49783E+06    -4.03773E+06              0.    -778.969E+03
             993     8.69600E+06    -4.12292E+06              0.    -801.082E+03
             994     8.89984E+06    -4.20966E+06              0.    -823.737E+03
             995     9.10950E+06    -4.29795E+06              0.    -846.941E+03
             996     9.32511E+06    -4.38776E+06              0.    -870.696E+03
             997     9.54681E+06    -4.47907E+06              0.    -895.006E+03
             998     9.77477E+06    -4.57185E+06              0.    -919.873E+03
             999     10.0091E+06    -4.66608E+06              0.    -945.299E+03
            1000     10.2500E+06    -4.76170E+06              0.    -971.283E+03
            1001     10.4976E+06    -4.85868E+06              0.    -997.825E+03
            1002     10.7520E+06    -4.95695E+06              0.    -1.02492E+06
            1003     11.0133E+06    -5.05646E+06              0.    -1.05257E+06
            1004     11.2819E+06    -5.15714E+06              0.    -1.08077E+06
            1005     11.5576E+06    -5.25890E+06              0.    -1.10951E+06
            1006     11.8408E+06    -5.36167E+06              0.    -1.13878E+06
            1007     12.1316E+06    -5.46533E+06              0.    -1.16856E+06
            1008     12.4301E+06    -5.56978E+06              0.    -1.19886E+06
            1009     12.7364E+06    -5.67490E+06              0.    -1.22965E+06
            1010     13.0506E+06    -5.78055E+06              0.    -1.26091E+06
            1011     13.3730E+06    -5.88659E+06              0.    -1.29263E+06
            1012     13.7036E+06    -5.99285E+06              0.    -1.32478E+06
            1013     14.0425E+06    -6.09916E+06              0.    -1.35734E+06
            1014     14.3899E+06    -6.20533E+06              0.    -1.39027E+06
            1015     14.7458E+06    -6.31114E+06              0.    -1.42354E+06
            1016     15.1104E+06    -6.41637E+06              0.    -1.45711E+06
            1017     15.4838E+06    -6.52078E+06              0.    -1.49094E+06
            1018     15.8660E+06    -6.62409E+06              0.    -1.52499E+06
            1019     16.2570E+06    -6.72601E+06              0.    -1.55920E+06
            1020     16.6570E+06    -6.82624E+06              0.    -1.59351E+06
            1021     17.0660E+06    -6.92444E+06              0.    -1.62787E+06
            1022     17.4840E+06    -7.02025E+06              0.    -1.66220E+06
            1023     17.9110E+06    -7.11328E+06              0.    -1.69643E+06
            1024     18.3470E+06    -7.20311E+06              0.    -1.73048E+06
            1025     18.7919E+06    -7.28931E+06              0.    -1.76424E+06
            1026     19.2458E+06    -7.37138E+06              0.    -1.79764E+06
            1027     19.7085E+06    -7.44883E+06              0.    -1.83055E+06
            1028     20.1799E+06    -7.52110E+06              0.    -1.86286E+06
            1029     20.6599E+06    -7.58761E+06              0.    -1.89445E+06
            1030     21.1483E+06    -7.64776E+06              0.    -1.92517E+06
            1031     21.6448E+06    -7.70086E+06              0.    -1.95487E+06
            1032     22.1494E+06    -7.74623E+06              0.    -1.98339E+06
            1033     22.6616E+06    -7.78311E+06              0.    -2.01056E+06
            1034     23.1811E+06    -7.81073E+06              0.    -2.03619E+06
            1035     23.7077E+06    -7.82823E+06              0.    -2.06006E+06
            1036     24.2407E+06    -7.83472E+06              0.    -2.08195E+06
            1037     24.7798E+06    -7.82928E+06              0.    -2.10162E+06
            1038     25.3243E+06    -7.81091E+06              0.    -2.11882E+06
            1039     25.8738E+06    -7.77857E+06              0.    -2.13324E+06
            1040     26.4274E+06    -7.73114E+06              0.    -2.14460E+06
            1041     26.9844E+06    -7.66747E+06              0.    -2.15255E+06
            1042     27.5440E+06    -7.58635E+06              0.    -2.15674E+06
            1043     28.1052E+06    -7.48648E+06              0.    -2.15678E+06
            1044     28.6670E+06    -7.36654E+06              0.    -2.15225E+06
            1045     29.2283E+06    -7.22511E+06              0.    -2.14269E+06
            1046     29.7878E+06    -7.06075E+06              0.    -2.12762E+06
            1047     30.3441E+06    -6.87192E+06              0.    -2.10649E+06
            1048     30.8957E+06    -6.65704E+06              0.    -2.07873E+06
            1049     31.4409E+06    -6.41447E+06              0.    -2.04370E+06
            1050     31.9781E+06    -6.14251E+06              0.    -2.00071E+06
            1051     32.5051E+06    -5.83942E+06              0.    -1.94901E+06
            1052     33.0199E+06    -5.50341E+06              0.    -1.88779E+06
            1053     33.5201E+06    -5.13264E+06              0.    -1.81614E+06
            1054     34.0033E+06    -4.72525E+06              0.    -1.73308E+06
            1055     34.4666E+06    -4.27937E+06              0.    -1.63752E+06
            1056     34.9070E+06    -3.79312E+06              0.    -1.52826E+06
            1057     35.3214E+06    -3.26462E+06              0.    -1.40398E+06
            1058     35.7062E+06    -2.69206E+06              0.    -1.26321E+06
            1059     36.0575E+06    -2.07368E+06              0.    -1.10430E+06
            1060     36.3714E+06    -1.40781E+06              0.    -925.424E+03
            1061     36.6432E+06     -692.97E+03              0.    -724.508E+03
            1062     36.8681E+06     72.1506E+03              0.    -499.216E+03
            1063     37.0411E+06     888.557E+03              0.    -246.900E+03
            1064     37.1564E+06     1.75688E+06              0.     35.4645E+03
            1065     37.2081E+06     2.67727E+06              0.     351.354E+03
            1066     37.1899E+06     3.64921E+06              0.     704.775E+03
            1067     37.0949E+06     4.67138E+06              0.     1.10038E+06
            1068     36.9163E+06     5.74132E+06              0.     1.54361E+06
            1069     36.6467E+06     6.85511E+06              0.     2.04083E+06
            1070     36.2791E+06     8.00700E+06              0.     2.59954E+06
            1071     35.8067E+06     9.18863E+06              0.     3.22860E+06
            1072     35.2239E+06     10.3884E+06              0.     3.93848E+06
            1073     34.5274E+06     11.5900E+06              0.     4.74144E+06
            1074     33.7175E+06     12.7714E+06              0.     5.65167E+06
            1075     32.8016E+06     13.9018E+06              0.     6.68510E+06
            1076     31.7990E+06     14.9394E+06              0.     7.85825E+06
            1077     30.7486E+06     15.8269E+06              0.     9.18542E+06
            1078     29.7216E+06     16.4865E+06              0.     10.6715E+06
            1079     28.8386E+06     16.8146E+06              0.     12.2954E+06
            1080     28.2857E+06     16.6801E+06              0.     13.9753E+06
            1081     28.3016E+06     15.9394E+06              0.     15.4971E+06
            1082     28.9913E+06     14.4842E+06              0.     16.4277E+06
            1083     30.1915E+06     12.7248E+06              0.     16.1277E+06
            1084     31.4647E+06     12.0940E+06              0.     14.2240E+06
            1085     33.3329E+06     14.9534E+06              0.     14.1360E+06
            1086     1.55459E+06     699.168E+03              0.    -87.5291E+03
            1087     1.54892E+06     646.086E+03              0.    -87.3702E+03
            1088     1.56625E+06     604.307E+03              0.    -86.4366E+03
            1089     1.58340E+06     563.376E+03              0.    -85.6001E+03
            1090     1.60039E+06     523.264E+03              0.    -84.8578E+03
            1091     1.61724E+06     483.942E+03              0.    -84.2072E+03
            1092     1.63397E+06     445.382E+03              0.    -83.6458E+03
            1093     1.65060E+06     407.557E+03              0.    -83.1715E+03
            1094     1.66715E+06     370.440E+03              0.    -82.7820E+03
            1095     1.68362E+06     334.007E+03              0.    -82.4756E+03
            1096     1.70005E+06     298.233E+03              0.    -82.2504E+03
            1097     1.71643E+06     263.093E+03              0.    -82.1048E+03
            1098     1.73280E+06     228.566E+03              0.    -82.0373E+03
            1099     1.74915E+06     194.626E+03              0.    -82.0465E+03
            1100     1.76552E+06     161.254E+03              0.    -82.1313E+03
            1101     1.78191E+06     128.428E+03              0.    -82.2904E+03
            1102     1.79834E+06     96.1253E+03              0.    -82.5231E+03
            1103     1.81482E+06     64.3279E+03              0.    -82.8283E+03
            1104     1.83137E+06     33.0146E+03              0.    -83.2054E+03
            1105     1.84800E+06     2.16638E+03              0.    -83.6537E+03
            1106     1.86473E+06    -28.2352E+03              0.    -84.1727E+03
            1107     1.88157E+06    -58.2096E+03              0.    -84.7621E+03
            1108     1.89853E+06    -87.7740E+03              0.    -85.4215E+03
            1109     1.91563E+06    -116.947E+03              0.    -86.1507E+03
            1110     1.93288E+06    -145.746E+03              0.    -86.9497E+03
            1111     1.95029E+06    -174.187E+03              0.    -87.8184E+03
            1112     1.96789E+06    -202.289E+03              0.    -88.7571E+03
            1113     1.98567E+06    -230.066E+03              0.    -89.7657E+03
            1114     2.00367E+06    -257.537E+03              0.    -90.8448E+03
            1115     2.02188E+06    -284.716E+03              0.    -91.9947E+03
            1116     2.04033E+06    -311.620E+03              0.    -93.2159E+03
            1117     2.05903E+06    -338.265E+03              0.    -94.5089E+03
            1118     2.07799E+06    -364.665E+03              0.    -95.8746E+03
            1119     2.09723E+06    -390.837E+03              0.    -97.3135E+03
            1120     2.11677E+06    -416.795E+03              0.    -98.8268E+03
            1121     2.13661E+06    -442.556E+03              0.    -100.415E+03
            1122     2.15677E+06    -468.133E+03              0.    -102.080E+03
            1123     2.17727E+06    -493.542E+03              0.    -103.822E+03
            1124     2.19813E+06    -518.798E+03              0.    -105.643E+03
            1125     2.21935E+06    -543.915E+03              0.    -107.544E+03
            1126     2.24096E+06    -568.909E+03              0.    -109.526E+03
            1127     2.26297E+06    -593.794E+03              0.    -111.591E+03
            1128     2.28540E+06    -618.585E+03              0.    -113.741E+03
            1129     2.30826E+06    -643.297E+03              0.    -115.978E+03
            1130     2.33158E+06    -667.945E+03              0.    -118.302E+03
            1131     2.35536E+06    -692.543E+03              0.    -120.717E+03
            1132     2.37964E+06    -717.106E+03              0.    -123.224E+03
            1133     2.40442E+06    -741.650E+03              0.    -125.826E+03
            1134     2.42972E+06    -766.190E+03              0.    -128.524E+03
            1135     2.45558E+06    -790.740E+03              0.    -131.321E+03
            1136     2.48199E+06    -815.315E+03              0.    -134.220E+03
            1137     2.50900E+06    -839.933E+03              0.    -137.223E+03
            1138     2.53661E+06    -864.606E+03              0.    -140.332E+03
            1139     2.56484E+06    -889.353E+03              0.    -143.551E+03
            1140     2.59373E+06    -914.187E+03              0.    -146.883E+03
            1141     2.62329E+06    -939.126E+03              0.    -150.330E+03
            1142     2.65355E+06    -964.185E+03              0.    -153.896E+03
            1143     2.68452E+06    -989.381E+03              0.    -157.584E+03
            1144     2.71624E+06    -1.01473E+06              0.    -161.398E+03
            1145     2.74873E+06    -1.04025E+06              0.    -165.340E+03
            1146     2.78202E+06    -1.06596E+06              0.    -169.415E+03
            1147     2.81613E+06    -1.09187E+06              0.    -173.627E+03
            1148     2.85109E+06    -1.11800E+06              0.    -177.980E+03
            1149     2.88693E+06    -1.14437E+06              0.    -182.476E+03
            1150     2.92367E+06    -1.17100E+06              0.    -187.122E+03
            1151     2.96135E+06    -1.19790E+06              0.    -191.921E+03
            1152     3.00000E+06    -1.22510E+06              0.    -196.878E+03
            1153     3.03966E+06    -1.25262E+06              0.    -201.998E+03
            1154     3.08034E+06    -1.28046E+06              0.    -207.284E+03
            1155     3.12209E+06    -1.30866E+06              0.    -212.743E+03
            1156     3.16495E+06    -1.33723E+06              0.    -218.380E+03
            1157     3.20894E+06    -1.36619E+06              0.    -224.199E+03
            1158     3.25411E+06    -1.39556E+06              0.    -230.207E+03
            1159     3.30049E+06    -1.42537E+06              0.    -236.409E+03
            1160     3.34812E+06    -1.45563E+06              0.    -242.810E+03
            1161     3.39705E+06    -1.48637E+06              0.    -249.418E+03
            1162     3.44731E+06    -1.51760E+06              0.    -256.237E+03
            1163     3.49894E+06    -1.54936E+06              0.    -263.275E+03
            1164     3.55200E+06    -1.58166E+06              0.    -270.538E+03
            1165     3.60653E+06    -1.61452E+06              0.    -278.033E+03
            1166     3.66257E+06    -1.64797E+06              0.    -285.766E+03
            1167     3.72017E+06    -1.68204E+06              0.    -293.745E+03
            1168     3.77938E+06    -1.71674E+06              0.    -301.977E+03
            1169     3.84026E+06    -1.75211E+06              0.    -310.469E+03
            1170     3.90285E+06    -1.78816E+06              0.    -319.230E+03
            1171     3.96721E+06    -1.82492E+06              0.    -328.267E+03
            1172     4.03340E+06    -1.86242E+06              0.    -337.588E+03
            1173     4.10148E+06    -1.90069E+06              0.    -347.201E+03
            1174     4.17150E+06    -1.93974E+06              0.    -357.116E+03
            1175     4.24352E+06    -1.97961E+06              0.    -367.340E+03
            1176     4.31761E+06    -2.02032E+06              0.    -377.882E+03
            1177     4.39383E+06    -2.06190E+06              0.    -388.752E+03
            1178     4.47225E+06    -2.10438E+06              0.    -399.959E+03
            1179     4.55294E+06    -2.14778E+06              0.    -411.512E+03
            1180     4.63597E+06    -2.19213E+06              0.    -423.421E+03
            1181     4.72141E+06    -2.23747E+06              0.    -435.695E+03
            1182     4.80933E+06    -2.28381E+06              0.    -448.345E+03
            1183     4.89981E+06    -2.33119E+06              0.    -461.381E+03
            1184     4.99294E+06    -2.37963E+06              0.    -474.813E+03
            1185     5.08878E+06    -2.42917E+06              0.    -488.652E+03
            1186     5.18743E+06    -2.47983E+06              0.    -502.908E+03
            1187     5.28897E+06    -2.53164E+06              0.    -517.592E+03
            1188     5.39348E+06    -2.58462E+06              0.    -532.715E+03
            1189     5.50106E+06    -2.63881E+06              0.    -548.288E+03
            1190     5.61180E+06    -2.69424E+06              0.    -564.322E+03
            1191     5.72579E+06    -2.75092E+06              0.    -580.829E+03
            1192     5.84313E+06    -2.80890E+06              0.    -597.820E+03
            1193     5.96392E+06    -2.86818E+06              0.    -615.307E+03
            1194     6.08826E+06    -2.92881E+06              0.    -633.300E+03
            1195     6.21625E+06    -2.99080E+06              0.    -651.811E+03
            1196     6.34800E+06    -3.05418E+06              0.    -670.852E+03
            1197     6.48363E+06    -3.11898E+06              0.    -690.434E+03
            1198     6.62323E+06    -3.18521E+06              0.    -710.569E+03
            1199     6.76692E+06    -3.25289E+06              0.    -731.269E+03
            1200     6.91483E+06    -3.32205E+06              0.    -752.543E+03
            1201     7.06707E+06    -3.39271E+06              0.    -774.403E+03
            1202     7.22375E+06    -3.46487E+06              0.    -796.861E+03
            1203     7.38501E+06    -3.53856E+06              0.    -819.927E+03
            1204     7.55096E+06    -3.61379E+06              0.    -843.611E+03
            1205     7.72175E+06    -3.69057E+06              0.    -867.923E+03
            1206     7.89749E+06     -3.7689E+06              0.    -892.874E+03
            1207     8.07832E+06    -3.84880E+06              0.    -918.472E+03
            1208     8.26437E+06    -3.93026E+06              0.    -944.725E+03
            1209     8.45579E+06    -4.01328E+06              0.    -971.643E+03
            1210     8.65270E+06    -4.09786E+06              0.    -999.233E+03
            1211     8.85525E+06    -4.18399E+06              0.    -1.02750E+06
            1212     9.06358E+06    -4.27166E+06              0.    -1.05645E+06
            1213     9.27784E+06    -4.36085E+06              0.    -1.08610E+06
            1214     9.49816E+06    -4.45154E+06              0.    -1.11643E+06
            1215     9.72470E+06    -4.54370E+06              0.    -1.14747E+06
            1216      9.9576E+06    -4.63730E+06              0.    -1.17920E+06
            1217     10.1970E+06    -4.73230E+06              0.    -1.21163E+06
            1218     10.4431E+06    -4.82865E+06              0.    -1.24476E+06
            1219     10.6959E+06    -4.92631E+06              0.    -1.27858E+06
            1220     10.9558E+06    -5.02520E+06              0.    -1.31310E+06
            1221     11.2227E+06    -5.12527E+06              0.    -1.34830E+06
            1222     11.4968E+06    -5.22644E+06              0.    -1.38418E+06
            1223     11.7784E+06    -5.32861E+06              0.    -1.42072E+06
            1224     12.0675E+06     -5.4317E+06              0.    -1.45792E+06
            1225     12.3643E+06    -5.53559E+06              0.    -1.49576E+06
            1226     12.6689E+06    -5.64017E+06              0.    -1.53421E+06
            1227     12.9814E+06     -5.7453E+06              0.    -1.57327E+06
            1228     13.3020E+06    -5.85084E+06              0.    -1.61289E+06
            1229     13.6308E+06    -5.95664E+06              0.    -1.65306E+06
            1230     13.9680E+06    -6.06251E+06              0.    -1.69374E+06
            1231     14.3136E+06    -6.16828E+06              0.    -1.73489E+06
            1232     14.6678E+06    -6.27373E+06              0.    -1.77648E+06
            1233     15.0306E+06    -6.37865E+06              0.    -1.81845E+06
            1234     15.4022E+06    -6.48279E+06              0.    -1.86076E+06
            1235     15.7826E+06    -6.58588E+06              0.    -1.90334E+06
            1236     16.1719E+06    -6.68766E+06              0.    -1.94614E+06
            1237     16.5702E+06    -6.78780E+06              0.    -1.98908E+06
            1238     16.9775E+06    -6.88599E+06              0.    -2.03209E+06
            1239     17.3938E+06    -6.98187E+06              0.    -2.07507E+06
            1240     17.8192E+06    -7.07505E+06              0.    -2.11795E+06
            1241     18.2537E+06    -7.16514E+06              0.    -2.16061E+06
            1242     18.6972E+06    -7.25169E+06              0.    -2.20294E+06
            1243     19.1496E+06    -7.33424E+06              0.    -2.24483E+06
            1244     19.6110E+06    -7.41229E+06              0.    -2.28613E+06
            1245     20.0812E+06    -7.48529E+06              0.    -2.32671E+06
            1246     20.5601E+06    -7.55269E+06              0.    -2.36641E+06
            1247     21.0476E+06    -7.61387E+06              0.    -2.40506E+06
            1248     21.5434E+06    -7.66819E+06              0.    -2.44247E+06
            1249     22.0473E+06    -7.71496E+06              0.    -2.47844E+06
            1250     22.5591E+06    -7.75345E+06              0.    -2.51276E+06
            1251     23.0785E+06    -7.78288E+06              0.    -2.54519E+06
            1252     23.6051E+06    -7.80244E+06              0.    -2.57548E+06
            1253     24.1385E+06    -7.81126E+06              0.    -2.60335E+06
            1254     24.6782E+06    -7.80841E+06              0.    -2.62851E+06
            1255     25.2238E+06    -7.79294E+06              0.    -2.65062E+06
            1256     25.7747E+06    -7.76380E+06              0.    -2.66936E+06
            1257     26.3302E+06    -7.71994E+06              0.    -2.68434E+06
            1258     26.8896E+06    -7.66021E+06              0.    -2.69515E+06
            1259     27.4522E+06    -7.58343E+06              0.    -2.70136E+06
            1260     28.0169E+06    -7.48835E+06              0.    -2.70249E+06
            1261     28.5830E+06    -7.37367E+06              0.    -2.69804E+06
            1262     29.1493E+06    -7.23802E+06              0.    -2.68745E+06
            1263     29.7146E+06    -7.07998E+06              0.    -2.67011E+06
            1264     30.2778E+06    -6.89808E+06              0.    -2.64539E+06
            1265     30.8373E+06    -6.69078E+06              0.    -2.61257E+06
            1266     31.3916E+06    -6.45649E+06              0.    -2.57089E+06
            1267     31.9392E+06    -6.19358E+06              0.    -2.51952E+06
            1268     32.4782E+06    -5.90038E+06              0.    -2.45756E+06
            1269     33.0067E+06    -5.57516E+06              0.    -2.38403E+06
            1270     33.5225E+06    -5.21617E+06              0.    -2.29785E+06
            1271     34.0234E+06    -4.82165E+06              0.    -2.19784E+06
            1272     34.5069E+06    -4.38982E+06              0.    -2.08274E+06
            1273     34.9703E+06    -3.91892E+06              0.    -1.95111E+06
            1274     35.4108E+06    -3.40722E+06              0.    -1.80141E+06
            1275     35.8253E+06    -2.85304E+06              0.    -1.63192E+06
            1276     36.2106E+06    -2.25480E+06              0.    -1.44074E+06
            1277     36.5630E+06    -1.61104E+06              0.    -1.22576E+06
            1278     36.8790E+06    -920.498E+03              0.    -984.636E+03
            1279     37.1545E+06    -182.135E+03              0.    -714.732E+03
            1280     37.3854E+06     604.742E+03              0.    -413.102E+03
            1281     37.5674E+06     1.44040E+06              0.    -76.4305E+03
            1282     37.6962E+06     2.32456E+06              0.     299.033E+03
            1283     37.7672E+06     3.25621E+06              0.     717.525E+03
            1284     37.7760E+06     4.23342E+06              0.     1.18386E+06
            1285     37.7186E+06     5.25304E+06              0.     1.70350E+06
            1286     37.5914E+06     6.31036E+06              0.     2.28263E+06
            1287     37.3918E+06     7.39869E+06              0.     2.92824E+06
            1288     37.1189E+06     8.50866E+06              0.     3.64812E+06
            1289     36.7744E+06     9.62754E+06              0.     4.45081E+06
            1290     36.3637E+06     10.7381E+06              0.     5.34533E+06
            1291     35.8988E+06     11.8175E+06              0.     6.34048E+06
            1292     35.4005E+06     12.8353E+06              0.     7.44348E+06
            1293     34.9035E+06     13.7520E+06              0.     8.65706E+06
            1294     34.4618E+06     14.5168E+06              0.     9.97402E+06
            1295     34.1550E+06     15.0672E+06              0.     11.3670E+06
            1296     34.0917E+06     15.3322E+06              0.     12.7705E+06
            1297     34.3984E+06     15.2467E+06              0.     14.0520E+06
            1298     35.1666E+06     14.7915E+06              0.     14.9797E+06
            1299     36.3783E+06     14.1282E+06              0.     15.2197E+06
            1300     37.8424E+06     13.7887E+06              0.     14.4531E+06
            1301     39.2644E+06     14.7760E+06              0.     12.6135E+06
            1302     41.1640E+06     18.3688E+06              0.     12.4753E+06
            1303     1.55188E+06     697.953E+03              0.    -104.943E+03
            1304     1.54622E+06     645.009E+03              0.    -104.753E+03
            1305     1.56350E+06     603.338E+03              0.    -103.634E+03
            1306     1.58061E+06     562.512E+03              0.    -102.631E+03
            1307     1.59755E+06     522.502E+03              0.    -101.741E+03
            1308     1.61436E+06     483.280E+03              0.    -100.961E+03
            1309     1.63105E+06     444.816E+03              0.    -100.287E+03
            1310     1.64764E+06     407.086E+03              0.    -99.7182E+03
            1311     1.66414E+06     370.061E+03              0.    -99.2508E+03
            1312     1.68057E+06     333.718E+03              0.    -98.8826E+03
            1313     1.69695E+06     298.032E+03              0.    -98.6118E+03
            1314     1.71329E+06     262.979E+03              0.    -98.4362E+03
            1315     1.72961E+06     228.536E+03              0.    -98.3541E+03
            1316     1.74592E+06     194.680E+03              0.    -98.3640E+03
            1317     1.76224E+06     161.390E+03              0.    -98.4642E+03
            1318     1.77859E+06     128.645E+03              0.    -98.6536E+03
            1319     1.79497E+06     96.4224E+03              0.    -98.9309E+03
            1320     1.81140E+06     64.7043E+03              0.    -99.2951E+03
            1321     1.82790E+06     33.4694E+03              0.    -99.7454E+03
            1322     1.84448E+06     2.69905E+03              0.    -100.281E+03
            1323     1.86116E+06    -27.6252E+03              0.    -100.901E+03
            1324     1.87794E+06    -57.5226E+03              0.    -101.606E+03
            1325     1.89485E+06    -87.0104E+03              0.    -102.394E+03
            1326     1.91189E+06    -116.107E+03              0.    -103.266E+03
            1327     1.92908E+06    -144.829E+03              0.    -104.221E+03
            1328     1.94644E+06    -173.194E+03              0.    -105.260E+03
            1329     1.96397E+06    -201.219E+03              0.    -106.383E+03
            1330     1.98169E+06    -228.920E+03              0.    -107.589E+03
            1331     1.99962E+06    -256.313E+03              0.    -108.880E+03
            1332     2.01777E+06    -283.414E+03              0.    -110.255E+03
            1333     2.03614E+06    -310.240E+03              0.    -111.716E+03
            1334     2.05477E+06    -336.805E+03              0.    -113.263E+03
            1335     2.07366E+06    -363.125E+03              0.    -114.897E+03
            1336     2.09282E+06    -389.216E+03              0.    -116.618E+03
            1337     2.11227E+06    -415.093E+03              0.    -118.429E+03
            1338     2.13203E+06    -440.770E+03              0.    -120.329E+03
            1339     2.15211E+06    -466.263E+03              0.    -122.321E+03
            1340     2.17252E+06    -491.587E+03              0.    -124.405E+03
            1341     2.19329E+06    -516.756E+03              0.    -126.584E+03
            1342     2.21441E+06    -541.784E+03              0.    -128.858E+03
            1343     2.23592E+06    -566.688E+03              0.    -131.230E+03
            1344     2.25783E+06    -591.482E+03              0.    -133.701E+03
            1345     2.28015E+06    -616.179E+03              0.    -136.274E+03
            1346     2.30291E+06    -640.795E+03              0.    -138.950E+03
            1347     2.32611E+06    -665.345E+03              0.    -141.732E+03
            1348     2.34978E+06    -689.843E+03              0.    -144.621E+03
            1349     2.37393E+06    -714.304E+03              0.    -147.621E+03
            1350     2.39859E+06    -738.744E+03              0.    -150.734E+03
            1351     2.42376E+06    -763.176E+03              0.    -153.962E+03
            1352     2.44948E+06    -787.616E+03              0.    -157.309E+03
            1353     2.47576E+06    -812.079E+03              0.    -160.778E+03
            1354     2.50261E+06    -836.581E+03              0.    -164.371E+03
            1355     2.53007E+06    -861.136E+03              0.    -168.091E+03
            1356     2.55815E+06    -885.761E+03              0.    -171.943E+03
            1357     2.58688E+06    -910.471E+03              0.    -175.930E+03
            1358     2.61627E+06    -935.281E+03              0.    -180.055E+03
            1359     2.64635E+06    -960.209E+03              0.    -184.321E+03
            1360     2.67715E+06    -985.269E+03              0.    -188.734E+03
            1361     2.70869E+06    -1.01048E+06              0.    -193.297E+03
            1362     2.74098E+06    -1.03585E+06              0.    -198.015E+03
            1363     2.77407E+06    -1.06141E+06              0.    -202.891E+03
            1364     2.80797E+06    -1.08717E+06              0.    -207.931E+03
            1365     2.84271E+06    -1.11315E+06              0.    -213.138E+03
            1366     2.87833E+06    -1.13936E+06              0.    -218.519E+03
            1367     2.91484E+06    -1.16582E+06              0.    -224.078E+03
            1368     2.95229E+06    -1.19256E+06              0.    -229.820E+03
            1369     2.99069E+06    -1.21958E+06              0.    -235.751E+03
            1370     3.03009E+06    -1.24691E+06              0.    -241.877E+03
            1371     3.07051E+06    -1.27457E+06              0.    -248.202E+03
            1372     3.11199E+06    -1.30258E+06              0.    -254.734E+03
            1373     3.15456E+06    -1.33095E+06              0.    -261.478E+03
            1374     3.19826E+06    -1.35971E+06              0.    -268.441E+03
            1375     3.24312E+06    -1.38887E+06              0.    -275.630E+03
            1376     3.28919E+06    -1.41846E+06              0.    -283.050E+03
            1377     3.33650E+06    -1.44850E+06              0.    -290.709E+03
            1378     3.38508E+06    -1.47901E+06              0.    -298.615E+03
            1379     3.43499E+06    -1.51001E+06              0.    -306.775E+03
            1380     3.48627E+06    -1.54152E+06              0.    -315.195E+03
            1381     3.53896E+06    -1.57357E+06              0.    -323.885E+03
            1382     3.59309E+06    -1.60618E+06              0.    -332.853E+03
            1383     3.64873E+06    -1.63937E+06              0.    -342.105E+03
            1384     3.70592E+06    -1.67316E+06              0.    -351.652E+03
            1385     3.76470E+06    -1.70758E+06              0.    -361.501E+03
            1386     3.82514E+06    -1.74266E+06              0.    -371.663E+03
            1387     3.88727E+06    -1.77841E+06              0.    -382.145E+03
            1388     3.95116E+06    -1.81487E+06              0.    -392.957E+03
            1389     4.01686E+06    -1.85205E+06              0.    -404.110E+03
            1390     4.08443E+06    -1.88999E+06              0.    -415.612E+03
            1391     4.15393E+06    -1.92871E+06              0.    -427.475E+03
            1392     4.22541E+06    -1.96824E+06              0.    -439.708E+03
            1393     4.29894E+06    -2.00859E+06              0.    -452.322E+03
            1394     4.37458E+06    -2.04981E+06              0.    -465.328E+03
            1395     4.45241E+06    -2.09191E+06              0.    -478.737E+03
            1396     4.53248E+06    -2.13493E+06              0.     -492.56E+03
            1397     4.61487E+06    -2.17889E+06              0.    -506.809E+03
            1398     4.69965E+06    -2.22382E+06              0.    -521.496E+03
            1399     4.78689E+06    -2.26975E+06              0.    -536.632E+03
            1400     4.87668E+06    -2.31670E+06              0.    -552.230E+03
            1401     4.96907E+06    -2.36470E+06              0.    -568.303E+03
            1402     5.06417E+06    -2.41379E+06              0.    -584.862E+03
            1403     5.16205E+06    -2.46398E+06              0.    -601.920E+03
            1404     5.26279E+06    -2.51532E+06              0.    -619.491E+03
            1405     5.36648E+06    -2.56782E+06              0.    -637.587E+03
            1406     5.47321E+06    -2.62151E+06              0.    -656.223E+03
            1407     5.58307E+06    -2.67642E+06              0.    -675.410E+03
            1408     5.69616E+06    -2.73259E+06              0.    -695.164E+03
            1409     5.81257E+06    -2.79002E+06              0.    -715.496E+03
            1410     5.93240E+06    -2.84876E+06              0.    -736.422E+03
            1411     6.05575E+06    -2.90883E+06              0.    -757.955E+03
            1412     6.18272E+06    -2.97025E+06              0.    -780.108E+03
            1413     6.31343E+06    -3.03304E+06              0.    -802.895E+03
            1414     6.44797E+06    -3.09724E+06              0.    -826.331E+03
            1415     6.58646E+06    -3.16286E+06              0.    -850.429E+03
            1416     6.72901E+06    -3.22992E+06              0.    -875.203E+03
            1417     6.87574E+06    -3.29844E+06              0.    -900.665E+03
            1418     7.02676E+06    -3.36845E+06              0.    -926.830E+03
            1419     7.18220E+06    -3.43995E+06              0.    -953.711E+03
            1420     7.34218E+06    -3.51297E+06              0.    -981.320E+03
            1421     7.50682E+06    -3.58752E+06              0.    -1.00967E+06
            1422     7.67625E+06    -3.66361E+06              0.    -1.03877E+06
            1423     7.85060E+06    -3.74124E+06              0.    -1.06864E+06
            1424     8.03001E+06    -3.82042E+06              0.    -1.09928E+06
            1425     8.21460E+06    -3.90116E+06              0.    -1.13071E+06
            1426     8.40451E+06    -3.98345E+06              0.    -1.16294E+06
            1427     8.59989E+06    -4.06729E+06              0.    -1.19597E+06
            1428     8.80086E+06    -4.15268E+06              0.    -1.22982E+06
            1429     9.00758E+06    -4.23959E+06              0.    -1.26449E+06
            1430     9.22019E+06    -4.32803E+06              0.    -1.29998E+06
            1431     9.43882E+06    -4.41796E+06              0.    -1.33631E+06
            1432     9.66363E+06    -4.50935E+06              0.    -1.37348E+06
            1433     9.89477E+06    -4.60219E+06              0.    -1.41148E+06
            1434     10.1324E+06    -4.69642E+06              0.    -1.45033E+06
            1435     10.3766E+06    -4.79202E+06              0.    -1.49001E+06
            1436     10.6276E+06    -4.88891E+06              0.    -1.53053E+06
            1437     10.8855E+06    -4.98706E+06              0.    -1.57188E+06
            1438     11.1505E+06    -5.08638E+06              0.    -1.61406E+06
            1439     11.4227E+06    -5.18681E+06              0.    -1.65705E+06
            1440     11.7022E+06    -5.28826E+06              0.    -1.70084E+06
            1441     11.9893E+06    -5.39064E+06              0.    -1.74542E+06
            1442     12.2840E+06    -5.49385E+06              0.    -1.79077E+06
            1443     12.5865E+06    -5.59776E+06              0.    -1.83687E+06
            1444     12.8969E+06    -5.70225E+06              0.    -1.88369E+06
            1445     13.2154E+06    -5.80718E+06              0.    -1.93121E+06
            1446     13.5421E+06    -5.91240E+06              0.    -1.97938E+06
            1447     13.8770E+06    -6.01773E+06              0.    -2.02818E+06
            1448     14.2205E+06    -6.12300E+06              0.    -2.07755E+06
            1449     14.5725E+06    -6.22801E+06              0.    -2.12745E+06
            1450     14.9331E+06    -6.33253E+06              0.    -2.17783E+06
            1451     15.3025E+06    -6.43633E+06              0.    -2.22862E+06
            1452     15.6808E+06    -6.53915E+06              0.    -2.27975E+06
            1453     16.0680E+06    -6.64073E+06              0.    -2.33116E+06
            1454     16.4641E+06    -6.74076E+06              0.    -2.38275E+06
            1455     16.8693E+06    -6.83892E+06              0.    -2.43444E+06
            1456     17.2836E+06    -6.93486E+06              0.    -2.48613E+06
            1457     17.7071E+06    -7.02822E+06              0.    -2.53771E+06
            1458     18.1396E+06    -7.11860E+06              0.    -2.58905E+06
            1459     18.5812E+06    -7.20557E+06              0.    -2.64003E+06
            1460     19.0320E+06    -7.28867E+06              0.    -2.69049E+06
            1461     19.4917E+06    -7.36741E+06              0.    -2.74030E+06
            1462     19.9604E+06    -7.44128E+06              0.    -2.78927E+06
            1463     20.4380E+06    -7.50972E+06              0.    -2.83722E+06
            1464     20.9242E+06    -7.57214E+06              0.    -2.88396E+06
            1465     21.4190E+06    -7.62790E+06              0.    -2.92925E+06
            1466     21.9221E+06    -7.67634E+06              0.    -2.97288E+06
            1467     22.4334E+06    -7.71674E+06              0.    -3.01458E+06
            1468     22.9525E+06    -7.74834E+06              0.    -3.05407E+06
            1469     23.4791E+06    -7.77036E+06              0.    -3.09107E+06
            1470     24.0128E+06    -7.78194E+06              0.    -3.12524E+06
            1471     24.5533E+06    -7.78219E+06              0.    -3.15624E+06
            1472     25.1001E+06    -7.77016E+06              0.    -3.18369E+06
            1473     25.6526E+06    -7.74487E+06              0.    -3.20718E+06
            1474     26.2102E+06    -7.70526E+06              0.    -3.22628E+06
            1475     26.7724E+06    -7.65024E+06              0.    -3.24051E+06
            1476     27.3383E+06    -7.57865E+06              0.    -3.24937E+06
            1477     27.9072E+06    -7.48928E+06              0.    -3.25229E+06
            1478     28.4783E+06    -7.38087E+06              0.    -3.24869E+06
            1479     29.0504E+06    -7.25210E+06              0.    -3.23791E+06
            1480     29.6226E+06    -7.10161E+06              0.    -3.21927E+06
            1481     30.1937E+06    -6.92795E+06              0.    -3.19202E+06
            1482     30.7625E+06    -6.72967E+06              0.    -3.15534E+06
            1483     31.3276E+06    -6.50523E+06              0.    -3.10834E+06
            1484     31.8874E+06    -6.25307E+06              0.    -3.05009E+06
            1485     32.4404E+06    -5.97158E+06              0.    -2.97954E+06
            1486     32.9849E+06    -5.65914E+06              0.    -2.89558E+06
            1487     33.5190E+06    -5.31408E+06              0.    -2.79698E+06
            1488     34.0406E+06    -4.93474E+06              0.    -2.68243E+06
            1489     34.5477E+06    -4.51945E+06              0.    -2.55046E+06
            1490     35.0380E+06    -4.06659E+06              0.    -2.39952E+06
            1491     35.5089E+06    -3.57456E+06              0.    -2.22786E+06
            1492     35.9580E+06    -3.04185E+06              0.    -2.03360E+06
            1493     36.3825E+06    -2.46704E+06              0.    -1.81467E+06
            1494     36.7797E+06    -1.84889E+06              0.    -1.56879E+06
            1495     37.1466E+06    -1.18637E+06              0.    -1.29344E+06
            1496     37.4801E+06    -478.680E+03              0.    -985.849E+03
            1497     37.7774E+06     274.561E+03              0.    -642.959E+03
            1498     38.0354E+06     1.07329E+06              0.    -261.391E+03
            1499     38.2514E+06     1.91686E+06              0.     162.597E+03
            1500     38.4227E+06     2.80383E+06              0.     633.119E+03
            1501     38.5473E+06     3.73182E+06              0.     1.15471E+06
            1502     38.6240E+06     4.69718E+06              0.     1.73229E+06
            1503     38.6525E+06     5.69469E+06              0.     2.37119E+06
            1504     38.6344E+06     6.71718E+06              0.     3.07700E+06
            1505     38.5735E+06     7.75493E+06              0.     3.85538E+06
            1506     38.4773E+06     8.79513E+06              0.     4.71171E+06
            1507     38.3580E+06     9.82108E+06              0.     5.65024E+06
            1508     38.2346E+06     10.8114E+06              0.     6.67288E+06
            1509     38.1352E+06     11.7392E+06              0.     7.77692E+06
            1510     38.0995E+06     12.5719E+06              0.     8.95121E+06
            1511     38.1818E+06     13.2720E+06              0.     10.1701E+06
            1512     38.4498E+06     13.8005E+06              0.     11.3837E+06
            1513     38.9796E+06     14.1274E+06              0.     12.5052E+06
            1514     39.8342E+06     14.2541E+06              0.     13.3966E+06
            1515     41.0301E+06     14.2638E+06              0.     13.8664E+06
            1516     42.4973E+06     14.3974E+06              0.     13.7028E+06
            1517     44.0725E+06     15.1225E+06              0.     12.7626E+06
            1518     45.5495E+06     17.0913E+06              0.     11.0985E+06
            1519     47.4440E+06     21.0807E+06              0.     10.9582E+06
            1520     1.54867E+06     696.518E+03              0.    -122.308E+03
            1521     1.54304E+06     643.739E+03              0.    -122.086E+03
            1522     1.56026E+06     602.195E+03              0.    -120.782E+03
            1523     1.57731E+06     561.492E+03              0.    -119.613E+03
            1524     1.59421E+06     521.603E+03              0.    -118.576E+03
            1525     1.61097E+06     482.497E+03              0.    -117.667E+03
            1526     1.62761E+06     444.147E+03              0.    -116.881E+03
            1527     1.64414E+06     406.528E+03              0.    -116.217E+03
            1528     1.66059E+06     369.612E+03              0.    -115.672E+03
            1529     1.67697E+06     333.375E+03              0.    -115.242E+03
            1530     1.69330E+06     297.794E+03              0.    -114.925E+03
            1531     1.70958E+06     262.842E+03              0.    -114.719E+03
            1532     1.72585E+06     228.500E+03              0.    -114.622E+03
            1533     1.74211E+06     194.742E+03              0.    -114.631E+03
            1534     1.75838E+06     161.549E+03              0.    -114.746E+03
            1535     1.77466E+06     128.899E+03              0.    -114.965E+03
            1536     1.79099E+06     96.7714E+03              0.    -115.286E+03
            1537     1.80737E+06     65.1466E+03              0.    -115.708E+03
            1538     1.82381E+06     34.0042E+03              0.    -116.230E+03
            1539     1.84033E+06     3.32561E+03              0.    -116.852E+03
            1540     1.85694E+06    -26.9075E+03              0.    -117.572E+03
            1541     1.87366E+06    -56.7142E+03              0.    -118.390E+03
            1542     1.89050E+06    -86.1115E+03              0.    -119.306E+03
            1543     1.90748E+06    -115.118E+03              0.    -120.318E+03
            1544     1.92460E+06    -143.750E+03              0.    -121.428E+03
            1545     1.94189E+06    -172.025E+03              0.    -122.636E+03
            1546     1.95934E+06    -199.959E+03              0.     -123.94E+03
            1547     1.97699E+06    -227.569E+03              0.    -125.342E+03
            1548     1.99484E+06    -254.871E+03              0.    -126.842E+03
            1549     2.01291E+06    -281.880E+03              0.    -128.441E+03
            1550     2.03121E+06    -308.613E+03              0.    -130.139E+03
            1551     2.04975E+06    -335.086E+03              0.    -131.937E+03
            1552     2.06855E+06    -361.312E+03              0.    -133.836E+03
            1553     2.08762E+06    -387.307E+03              0.    -135.838E+03
            1554     2.10698E+06    -413.087E+03              0.    -137.942E+03
            1555     2.12664E+06    -438.667E+03              0.    -140.152E+03
            1556     2.14661E+06    -464.061E+03              0.    -142.467E+03
            1557     2.16692E+06    -489.283E+03              0.    -144.890E+03
            1558     2.18758E+06    -514.350E+03              0.    -147.423E+03
            1559     2.20859E+06    -539.274E+03              0.    -150.068E+03
            1560     2.22999E+06    -564.072E+03              0.    -152.825E+03
            1561     2.25177E+06    -588.757E+03              0.    -155.698E+03
            1562     2.27397E+06    -613.344E+03              0.    -158.690E+03
            1563     2.29660E+06    -637.848E+03              0.    -161.801E+03
            1564     2.31967E+06    -662.282E+03              0.    -165.035E+03
            1565     2.34320E+06    -686.663E+03              0.    -168.395E+03
            1566     2.36721E+06    -711.004E+03              0.    -171.883E+03
            1567     2.39171E+06    -735.320E+03              0.    -175.502E+03
            1568     2.41673E+06    -759.625E+03              0.    -179.256E+03
            1569     2.44229E+06    -783.936E+03              0.    -183.147E+03
            1570     2.46840E+06    -808.267E+03              0.    -187.180E+03
            1571     2.49509E+06    -832.633E+03              0.    -191.358E+03
            1572     2.52237E+06    -857.048E+03              0.    -195.684E+03
            1573     2.55027E+06    -881.530E+03              0.    -200.163E+03
            1574     2.57880E+06    -906.092E+03              0.    -204.798E+03
            1575     2.60800E+06    -930.752E+03              0.    -209.594E+03
            1576     2.63788E+06    -955.524E+03              0.    -214.555E+03
            1577     2.66846E+06    -980.424E+03              0.    -219.686E+03
            1578     2.69977E+06    -1.00547E+06              0.    -224.991E+03
            1579     2.73184E+06    -1.03068E+06              0.    -230.476E+03
            1580     2.76470E+06    -1.05606E+06              0.    -236.146E+03
            1581     2.79835E+06    -1.08164E+06              0.    -242.005E+03
            1582     2.83284E+06    -1.10743E+06              0.    -248.060E+03
            1583     2.86820E+06    -1.13346E+06              0.    -254.316E+03
            1584     2.90444E+06    -1.15972E+06              0.    -260.779E+03
            1585     2.94161E+06    -1.18626E+06              0.    -267.455E+03
            1586     2.97972E+06    -1.21308E+06              0.    -274.351E+03
            1587     3.01882E+06    -1.24020E+06              0.    -281.473E+03
            1588     3.05893E+06    -1.26764E+06              0.    -288.828E+03
            1589     3.10008E+06    -1.29542E+06              0.    -296.422E+03
            1590     3.14232E+06    -1.32356E+06              0.    -304.263E+03
            1591     3.18567E+06    -1.35207E+06              0.    -312.358E+03
            1592     3.23018E+06    -1.38099E+06              0.    -320.716E+03
            1593     3.27587E+06    -1.41033E+06              0.    -329.343E+03
            1594     3.32279E+06    -1.44011E+06              0.    -338.248E+03
            1595     3.37099E+06    -1.47035E+06              0.    -347.440E+03
            1596     3.42048E+06    -1.50107E+06              0.    -356.926E+03
            1597     3.47134E+06    -1.53230E+06              0.    -366.716E+03
            1598     3.52358E+06    -1.56405E+06              0.    -376.820E+03
            1599     3.57726E+06    -1.59635E+06              0.    -387.245E+03
            1600     3.63243E+06    -1.62923E+06              0.    -398.002E+03
            1601     3.68913E+06    -1.66270E+06              0.    -409.102E+03
            1602     3.74741E+06    -1.69679E+06              0.    -420.553E+03
            1603     3.80732E+06    -1.73153E+06              0.    -432.366E+03
            1604     3.86892E+06    -1.76693E+06              0.    -444.553E+03
            1605     3.93225E+06    -1.80303E+06              0.    -457.124E+03
            1606     3.99737E+06    -1.83984E+06              0.    -470.090E+03
            1607     4.06435E+06    -1.87740E+06              0.    -483.463E+03
            1608     4.13322E+06    -1.91572E+06              0.    -497.255E+03
            1609     4.20407E+06    -1.95484E+06              0.    -511.478E+03
            1610     4.27694E+06    -1.99478E+06              0.    -526.144E+03
            1611     4.35191E+06    -2.03557E+06              0.    -541.265E+03
            1612     4.42903E+06    -2.07723E+06              0.    -556.855E+03
            1613     4.50837E+06    -2.11980E+06              0.    -572.927E+03
            1614     4.59001E+06    -2.16329E+06              0.    -589.494E+03
            1615     4.67401E+06    -2.20774E+06              0.     -606.57E+03
            1616     4.76046E+06    -2.25318E+06              0.    -624.169E+03
            1617     4.84941E+06    -2.29962E+06              0.    -642.305E+03
            1618     4.94095E+06    -2.34711E+06              0.    -660.992E+03
            1619     5.03517E+06    -2.39567E+06              0.    -680.246E+03
            1620     5.13214E+06    -2.44532E+06              0.    -700.080E+03
            1621     5.23194E+06    -2.49609E+06              0.    -720.511E+03
            1622     5.33466E+06    -2.54802E+06              0.    -741.553E+03
            1623     5.44039E+06    -2.60112E+06              0.    -763.222E+03
            1624     5.54922E+06    -2.65543E+06              0.    -785.533E+03
            1625     5.66125E+06    -2.71098E+06              0.    -808.503E+03
            1626     5.77656E+06    -2.76779E+06              0.    -832.146E+03
            1627     5.89526E+06    -2.82588E+06              0.     -856.48E+03
            1628     6.01744E+06    -2.88528E+06              0.    -881.520E+03
            1629     6.14322E+06    -2.94603E+06              0.    -907.282E+03
            1630     6.27268E+06    -3.00813E+06              0.    -933.783E+03
            1631     6.40595E+06    -3.07162E+06              0.    -961.038E+03
            1632     6.54313E+06    -3.13652E+06              0.    -989.064E+03
            1633     6.68433E+06    -3.20284E+06              0.    -1.01788E+06
            1634     6.82967E+06    -3.27062E+06              0.    -1.04749E+06
            1635     6.97927E+06    -3.33986E+06              0.    -1.07792E+06
            1636     7.13324E+06    -3.41059E+06              0.    -1.10919E+06
            1637     7.29170E+06    -3.48282E+06              0.    -1.14130E+06
            1638     7.45479E+06    -3.55656E+06              0.    -1.17428E+06
            1639     7.62263E+06    -3.63183E+06              0.    -1.20813E+06
            1640     7.79534E+06    -3.70863E+06              0.    -1.24288E+06
            1641     7.97307E+06    -3.78697E+06              0.    -1.27853E+06
            1642     8.15593E+06    -3.86685E+06              0.    -1.31510E+06
            1643     8.34408E+06    -3.94828E+06              0.    -1.35259E+06
            1644     8.53764E+06    -4.03125E+06              0.    -1.39102E+06
            1645     8.73675E+06    -4.11576E+06              0.    -1.43041E+06
            1646     8.94157E+06    -4.20179E+06              0.    -1.47075E+06
            1647     9.15222E+06    -4.28933E+06              0.    -1.51206E+06
            1648     9.36886E+06    -4.37836E+06              0.    -1.55434E+06
            1649     9.59163E+06    -4.46885E+06              0.    -1.59759E+06
            1650     9.82068E+06    -4.56078E+06              0.    -1.64183E+06
            1651     10.0562E+06    -4.65411E+06              0.    -1.68705E+06
            1652     10.2982E+06     -4.7488E+06              0.    -1.73324E+06
            1653     10.5470E+06    -4.84480E+06              0.    -1.78042E+06
            1654     10.8026E+06    -4.94205E+06              0.    -1.82857E+06
            1655     11.0653E+06    -5.04049E+06              0.    -1.87768E+06
            1656     11.3352E+06    -5.14005E+06              0.    -1.92775E+06
            1657     11.6123E+06    -5.24065E+06              0.    -1.97876E+06
            1658     11.8970E+06    -5.34219E+06              0.    -2.03069E+06
            1659     12.1892E+06    -5.44457E+06              0.    -2.08353E+06
            1660     12.4893E+06    -5.54769E+06              0.    -2.13724E+06
            1661     12.7972E+06    -5.65142E+06              0.    -2.19181E+06
            1662     13.1131E+06    -5.75562E+06              0.    -2.24719E+06
            1663     13.4373E+06    -5.86015E+06              0.    -2.30336E+06
            1664     13.7697E+06    -5.96483E+06              0.    -2.36025E+06
            1665     14.1106E+06    -6.06950E+06              0.    -2.41784E+06
            1666     14.4600E+06    -6.17396E+06              0.    -2.47605E+06
            1667     14.8180E+06    -6.27800E+06              0.    -2.53483E+06
            1668     15.1848E+06    -6.38139E+06              0.    -2.59411E+06
            1669     15.5605E+06    -6.48388E+06              0.    -2.65381E+06
            1670     15.9451E+06    -6.58520E+06              0.    -2.71385E+06
            1671     16.3388E+06    -6.68507E+06              0.    -2.77413E+06
            1672     16.7415E+06    -6.78317E+06              0.    -2.83455E+06
            1673     17.1534E+06    -6.87917E+06              0.    -2.89499E+06
            1674     17.5744E+06    -6.97271E+06              0.    -2.95533E+06
            1675     18.0047E+06     -7.0634E+06              0.    -3.01543E+06
            1676     18.4441E+06    -7.15083E+06              0.    -3.07514E+06
            1677     18.8927E+06    -7.23454E+06              0.    -3.13430E+06
            1678     19.3505E+06    -7.31408E+06              0.    -3.19273E+06
            1679     19.8174E+06    -7.38893E+06              0.    -3.25023E+06
            1680     20.2933E+06    -7.45856E+06              0.    -3.30660E+06
            1681     20.7780E+06    -7.52238E+06              0.    -3.36160E+06
            1682     21.2715E+06    -7.57978E+06              0.    -3.41500E+06
            1683     21.7736E+06    -7.63013E+06              0.    -3.46651E+06
            1684     22.2841E+06    -7.67271E+06              0.    -3.51585E+06
            1685     22.8028E+06    -7.70681E+06              0.    -3.56271E+06
            1686     23.3293E+06    -7.73165E+06              0.    -3.60675E+06
            1687     23.8633E+06    -7.74640E+06              0.    -3.64760E+06
            1688     24.4045E+06    -7.75021E+06              0.    -3.68486E+06
            1689     24.9525E+06    -7.74215E+06              0.    -3.71811E+06
            1690     25.5067E+06    -7.72126E+06              0.    -3.74688E+06
            1691     26.0667E+06    -7.68655E+06              0.    -3.77069E+06
            1692     26.6319E+06    -7.63693E+06              0.    -3.78899E+06
            1693     27.2016E+06    -7.57129E+06              0.    -3.80121E+06
            1694     27.7751E+06    -7.48848E+06              0.    -3.80672E+06
            1695     28.3516E+06    -7.38728E+06              0.    -3.80486E+06
            1696     28.9303E+06    -7.26640E+06              0.    -3.79490E+06
            1697     29.5102E+06    -7.12455E+06              0.    -3.77606E+06
            1698     30.0903E+06    -6.96034E+06              0.    -3.74751E+06
            1699     30.6695E+06    -6.77238E+06              0.    -3.70834E+06
            1700     31.2466E+06    -6.55919E+06              0.    -3.65757E+06
            1701     31.8202E+06    -6.31930E+06              0.    -3.59414E+06
            1702     32.3890E+06    -6.05117E+06              0.    -3.51692E+06
            1703     32.9515E+06    -5.75327E+06              0.    -3.42467E+06
            1704     33.5060E+06    -5.42403E+06              0.    -3.31606E+06
            1705     34.0509E+06    -5.06190E+06              0.    -3.18966E+06
            1706     34.5844E+06    -4.66532E+06              0.    -3.04388E+06
            1707     35.1046E+06    -4.23280E+06              0.    -2.87706E+06
            1708     35.6095E+06    -3.76287E+06              0.    -2.68734E+06
            1709     36.0971E+06    -3.25419E+06              0.    -2.47273E+06
            1710     36.5653E+06    -2.70551E+06              0.    -2.23107E+06
            1711     37.0119E+06    -2.11577E+06              0.    -1.96001E+06
            1712     37.4349E+06    -1.48415E+06              0.    -1.65700E+06
            1713     37.8323E+06    -810.084E+03              0.    -1.31926E+06
            1714     38.2020E+06    -93.4232E+03              0.    -943.793E+03
            1715     38.5426E+06     665.505E+03              0.    -527.377E+03
            1716     38.8527E+06     1.46578E+06              0.    -66.5298E+03
            1717     39.1315E+06     2.30569E+06              0.     442.435E+03
            1718     39.3791E+06     3.18261E+06              0.     1.00340E+06
            1719     39.5967E+06     4.09266E+06              0.     1.62033E+06
            1720     39.7870E+06     5.03055E+06              0.     2.29716E+06
            1721     39.9545E+06     5.98919E+06              0.     3.03754E+06
            1722     40.1070E+06     6.95931E+06              0.     3.84437E+06
            1723     40.2556E+06     7.92911E+06              0.     4.71925E+06
            1724     40.4163E+06     8.88390E+06              0.     5.66128E+06
            1725     40.6113E+06     9.80585E+06              0.     6.66549E+06
            1726     40.8701E+06     10.6743E+06              0.     7.72029E+06
            1727     41.2303E+06     11.4669E+06              0.     8.80369E+06
            1728     41.7370E+06     12.1624E+06              0.     9.87812E+06
            1729     42.4391E+06     12.7474E+06              0.     10.8838E+06
            1730     43.3798E+06     13.2287E+06              0.     11.7322E+06
            1731     44.5799E+06     13.6567E+06              0.     12.3044E+06
            1732     46.0173E+06     14.1586E+06              0.     12.4621E+06
            1733     47.6117E+06     14.9751E+06              0.     12.0820E+06
            1734     49.2317E+06     16.4689E+06              0.     11.1144E+06
            1735     50.7313E+06     19.0659E+06              0.     9.64332E+06
            1736     52.6205E+06     23.2989E+06              0.     9.51479E+06
            1737     1.54498E+06     694.866E+03              0.    -139.614E+03
            1738     1.53937E+06     642.274E+03              0.    -139.361E+03
            1739     1.55653E+06     600.877E+03              0.    -137.873E+03
            1740     1.57352E+06     560.317E+03              0.    -136.540E+03
            1741     1.59036E+06     520.566E+03              0.    -135.355E+03
            1742     1.60706E+06     481.595E+03              0.    -134.317E+03
            1743     1.62363E+06     443.376E+03              0.    -133.420E+03
            1744     1.64011E+06     405.885E+03              0.    -132.661E+03
            1745     1.65650E+06     369.094E+03              0.    -132.037E+03
            1746     1.67282E+06     332.979E+03              0.    -131.545E+03
            1747     1.68909E+06     297.517E+03              0.    -131.182E+03
            1748     1.70532E+06     262.683E+03              0.    -130.945E+03
            1749     1.72152E+06     228.456E+03              0.    -130.832E+03
            1750     1.73772E+06     194.811E+03              0.    -130.841E+03
            1751     1.75392E+06     161.730E+03              0.    -130.970E+03
            1752     1.77015E+06     129.190E+03              0.    -131.217E+03
            1753     1.78641E+06     97.1709E+03              0.    -131.580E+03
            1754     1.80272E+06     65.6535E+03              0.    -132.059E+03
            1755     1.81909E+06     34.6176E+03              0.    -132.652E+03
            1756     1.83554E+06     4.04455E+03              0.    -133.358E+03
            1757     1.85209E+06    -26.0836E+03              0.    -134.176E+03
            1758     1.86873E+06    -55.7860E+03              0.    -135.106E+03
            1759     1.88550E+06    -85.0793E+03              0.    -136.147E+03
            1760     1.90240E+06    -113.982E+03              0.    -137.298E+03
            1761     1.91944E+06    -142.510E+03              0.    -138.561E+03
            1762     1.93665E+06    -170.681E+03              0.    -139.934E+03
            1763     1.95402E+06    -198.512E+03              0.    -141.418E+03
            1764     1.97158E+06    -226.017E+03              0.    -143.013E+03
            1765     1.98934E+06    -253.214E+03              0.    -144.720E+03
            1766     2.00732E+06    -280.118E+03              0.    -146.539E+03
            1767     2.02552E+06    -306.745E+03              0.    -148.472E+03
            1768     2.04396E+06    -333.109E+03              0.    -150.518E+03
            1769     2.06266E+06    -359.227E+03              0.    -152.679E+03
            1770     2.08163E+06    -385.113E+03              0.    -154.957E+03
            1771     2.10088E+06    -410.782E+03              0.    -157.352E+03
            1772     2.12043E+06    -436.249E+03              0.    -159.867E+03
            1773     2.14029E+06    -461.529E+03              0.    -162.503E+03
            1774     2.16047E+06    -486.636E+03              0.    -165.261E+03
            1775     2.18101E+06    -511.584E+03              0.    -168.144E+03
            1776     2.20189E+06    -536.389E+03              0.    -171.154E+03
            1777     2.22315E+06    -561.064E+03              0.    -174.293E+03
            1778     2.24480E+06    -585.625E+03              0.    -177.564E+03
            1779     2.26686E+06    -610.085E+03              0.    -180.969E+03
            1780     2.28933E+06    -634.459E+03              0.    -184.511E+03
            1781     2.31225E+06    -658.761E+03              0.    -188.193E+03
            1782     2.33562E+06    -683.006E+03              0.    -192.017E+03
            1783     2.35946E+06    -707.209E+03              0.    -195.988E+03
            1784     2.38380E+06    -731.383E+03              0.    -200.108E+03
            1785     2.40864E+06    -755.544E+03              0.    -204.381E+03
            1786     2.43402E+06    -779.706E+03              0.    -208.811E+03
            1787     2.45994E+06    -803.884E+03              0.    -213.402E+03
            1788     2.48643E+06    -828.093E+03              0.    -218.158E+03
            1789     2.51351E+06    -852.349E+03              0.    -223.083E+03
            1790     2.54119E+06    -876.665E+03              0.    -228.181E+03
            1791     2.56951E+06    -901.059E+03              0.    -233.458E+03
            1792     2.59848E+06    -925.544E+03              0.    -238.917E+03
            1793     2.62812E+06    -950.138E+03              0.    -244.565E+03
            1794     2.65846E+06    -974.855E+03              0.    -250.406E+03
            1795     2.68952E+06    -999.712E+03              0.    -256.445E+03
            1796     2.72133E+06    -1.02472E+06              0.    -262.689E+03
            1797     2.75391E+06    -1.04991E+06              0.    -269.143E+03
            1798     2.78729E+06    -1.07528E+06              0.    -275.813E+03
            1799     2.82149E+06    -1.10087E+06              0.    -282.706E+03
            1800     2.85654E+06    -1.12667E+06              0.    -289.828E+03
            1801     2.89248E+06    -1.15271E+06              0.    -297.185E+03
            1802     2.92932E+06    -1.17902E+06              0.    -304.785E+03
            1803     2.96710E+06    -1.20560E+06              0.    -312.634E+03
            1804     3.00585E+06    -1.23247E+06              0.    -320.741E+03
            1805     3.04560E+06    -1.25966E+06              0.    -329.113E+03
            1806     3.08638E+06    -1.28718E+06              0.    -337.758E+03
            1807     3.12824E+06    -1.31506E+06              0.    -346.683E+03
            1808     3.17119E+06    -1.34330E+06              0.    -355.899E+03
            1809     3.21528E+06    -1.37193E+06              0.    -365.412E+03
            1810     3.26055E+06    -1.40098E+06              0.    -375.232E+03
            1811     3.30704E+06    -1.43046E+06              0.    -385.369E+03
            1812     3.35477E+06    -1.46038E+06              0.    -395.831E+03
            1813     3.40380E+06    -1.49079E+06              0.    -406.630E+03
            1814     3.45416E+06    -1.52169E+06              0.    -417.774E+03
            1815     3.50590E+06    -1.55310E+06              0.    -429.274E+03
            1816     3.55906E+06    -1.58506E+06              0.    -441.141E+03
            1817     3.61368E+06    -1.61757E+06              0.    -453.386E+03
            1818     3.66982E+06    -1.65068E+06              0.    -466.020E+03
            1819     3.72752E+06    -1.68439E+06              0.    -479.055E+03
            1820     3.78684E+06    -1.71873E+06              0.    -492.502E+03
            1821     3.84781E+06    -1.75373E+06              0.    -506.374E+03
            1822     3.91050E+06    -1.78941E+06              0.    -520.683E+03
            1823     3.97496E+06    -1.82580E+06              0.    -535.443E+03
            1824     4.04125E+06    -1.86291E+06              0.    -550.665E+03
            1825     4.10942E+06    -1.90079E+06              0.    -566.364E+03
            1826     4.17953E+06    -1.93944E+06              0.    -582.554E+03
            1827     4.25165E+06    -1.97890E+06              0.    -599.248E+03
            1828     4.32583E+06    -2.01920E+06              0.    -616.461E+03
            1829     4.40214E+06    -2.06035E+06              0.    -634.207E+03
            1830     4.48065E+06    -2.10240E+06              0.    -652.502E+03
            1831     4.56142E+06    -2.14536E+06              0.    -671.361E+03
            1832     4.64454E+06    -2.18926E+06              0.    -690.800E+03
            1833     4.73006E+06    -2.23413E+06              0.    -710.833E+03
            1834     4.81806E+06    -2.28000E+06              0.    -731.479E+03
            1835     4.90862E+06    -2.32689E+06              0.    -752.752E+03
            1836     5.00182E+06    -2.37483E+06              0.    -774.670E+03
            1837     5.09774E+06    -2.42386E+06              0.    -797.250E+03
            1838     5.19646E+06    -2.47399E+06              0.    -820.509E+03
            1839     5.29807E+06    -2.52525E+06              0.    -844.464E+03
            1840     5.40265E+06    -2.57768E+06              0.    -869.133E+03
            1841     5.51030E+06    -2.63130E+06              0.    -894.534E+03
            1842     5.62110E+06    -2.68614E+06              0.    -920.685E+03
            1843     5.73515E+06    -2.74222E+06              0.    -947.604E+03
            1844     5.85255E+06    -2.79957E+06              0.    -975.309E+03
            1845     5.97339E+06    -2.85821E+06              0.    -1.00382E+06
            1846     6.09778E+06    -2.91818E+06              0.    -1.03315E+06
            1847     6.22583E+06    -2.97948E+06              0.    -1.06333E+06
            1848     6.35763E+06    -3.04216E+06              0.    -1.09436E+06
            1849     6.49330E+06    -3.10623E+06              0.    -1.12627E+06
            1850     6.63295E+06    -3.17171E+06              0.    -1.15908E+06
            1851     6.77669E+06    -3.23862E+06              0.    -1.19281E+06
            1852     6.92464E+06    -3.30699E+06              0.    -1.22746E+06
            1853     7.07692E+06    -3.37682E+06              0.    -1.26307E+06
            1854     7.23365E+06    -3.44814E+06              0.    -1.29965E+06
            1855     7.39495E+06    -3.52095E+06              0.    -1.33720E+06
            1856     7.56095E+06    -3.59528E+06              0.    -1.37576E+06
            1857     7.73178E+06    -3.67112E+06              0.    -1.41534E+06
            1858     7.90757E+06    -3.74849E+06              0.    -1.45595E+06
            1859     8.08845E+06    -3.82739E+06              0.    -1.49760E+06
            1860     8.27456E+06    -3.90783E+06              0.    -1.54032E+06
            1861     8.46603E+06    -3.98979E+06              0.    -1.58411E+06
            1862     8.66300E+06    -4.07328E+06              0.    -1.62898E+06
            1863     8.86562E+06    -4.15828E+06              0.    -1.67495E+06
            1864     9.07403E+06    -4.24479E+06              0.    -1.72202E+06
            1865     9.28837E+06    -4.33278E+06              0.    -1.77020E+06
            1866     9.50879E+06    -4.42223E+06              0.    -1.81950E+06
            1867     9.73544E+06    -4.51312E+06              0.    -1.86992E+06
            1868     9.96846E+06    -4.60540E+06              0.    -1.92146E+06
            1869     10.2080E+06    -4.69905E+06              0.    -1.97413E+06
            1870     10.4542E+06    -4.79401E+06              0.    -2.02791E+06
            1871     10.7073E+06    -4.89023E+06              0.    -2.08281E+06
            1872     10.9673E+06    -4.98765E+06              0.    -2.13882E+06
            1873     11.2345E+06    -5.08619E+06              0.    -2.19593E+06
            1874     11.5089E+06    -5.18579E+06              0.    -2.25411E+06
            1875     11.7908E+06    -5.28636E+06              0.    -2.31336E+06
            1876     12.0802E+06    -5.38779E+06              0.    -2.37364E+06
            1877     12.3773E+06    -5.48999E+06              0.    -2.43494E+06
            1878     12.6824E+06    -5.59283E+06              0.    -2.49723E+06
            1879     12.9954E+06    -5.69618E+06              0.    -2.56045E+06
            1880     13.3166E+06    -5.79989E+06              0.    -2.62458E+06
            1881     13.6460E+06    -5.90382E+06              0.    -2.68956E+06
            1882     13.9839E+06    -6.00779E+06              0.    -2.75534E+06
            1883     14.3303E+06    -6.11161E+06              0.    -2.82186E+06
            1884     14.6854E+06    -6.21507E+06              0.    -2.88905E+06
            1885     15.0492E+06    -6.31796E+06              0.    -2.95683E+06
            1886     15.4219E+06    -6.42004E+06              0.    -3.02512E+06
            1887     15.8035E+06    -6.52105E+06              0.    -3.09381E+06
            1888     16.1942E+06    -6.62071E+06              0.    -3.16281E+06
            1889     16.5941E+06    -6.71872E+06              0.    -3.23200E+06
            1890     17.0031E+06    -6.81475E+06              0.    -3.30125E+06
            1891     17.4214E+06    -6.90845E+06              0.    -3.37042E+06
            1892     17.8489E+06    -6.99946E+06              0.    -3.43937E+06
            1893     18.2858E+06    -7.08737E+06              0.    -3.50791E+06
            1894     18.7319E+06    -7.17176E+06              0.    -3.57588E+06
            1895     19.1873E+06    -7.25215E+06              0.    -3.64307E+06
            1896     19.6520E+06    -7.32808E+06              0.    -3.70926E+06
            1897     20.1259E+06    -7.39900E+06              0.    -3.77422E+06
            1898     20.6088E+06    -7.46438E+06              0.    -3.83771E+06
            1899     21.1008E+06    -7.52361E+06              0.    -3.89943E+06
            1900     21.6016E+06    -7.57606E+06              0.    -3.95910E+06
            1901     22.1111E+06    -7.62108E+06              0.    -4.01639E+06
            1902     22.6291E+06    -7.65795E+06              0.    -4.07095E+06
            1903     23.1553E+06    -7.68593E+06              0.    -4.12240E+06
            1904     23.6895E+06    -7.70422E+06              0.    -4.17035E+06
            1905     24.2313E+06    -7.71199E+06              0.    -4.21434E+06
            1906     24.7805E+06    -7.70836E+06              0.    -4.25392E+06
            1907     25.3365E+06    -7.69240E+06              0.    -4.28856E+06
            1908     25.8989E+06    -7.66314E+06              0.    -4.31772E+06
            1909     26.4672E+06    -7.61956E+06              0.    -4.34082E+06
            1910     27.0409E+06    -7.56058E+06              0.    -4.35720E+06
            1911     27.6194E+06    -7.48508E+06              0.    -4.36621E+06
            1912     28.2018E+06    -7.39190E+06              0.    -4.36708E+06
            1913     28.7876E+06    -7.27983E+06              0.    -4.35905E+06
            1914     29.3758E+06    -7.14760E+06              0.    -4.34125E+06
            1915     29.9657E+06    -6.99391E+06              0.    -4.31277E+06
            1916     30.5562E+06    -6.81741E+06              0.    -4.27264E+06
            1917     31.1462E+06    -6.61672E+06              0.    -4.21978E+06
            1918     31.7348E+06    -6.39042E+06              0.    -4.15307E+06
            1919     32.3207E+06    -6.13708E+06              0.    -4.07129E+06
            1920     32.9027E+06    -5.85525E+06              0.    -3.97311E+06
            1921     33.4795E+06    -5.54344E+06              0.    -3.85713E+06
            1922     34.0497E+06    -5.20023E+06              0.    -3.72183E+06
            1923     34.6118E+06    -4.82416E+06              0.    -3.56556E+06
            1924     35.1644E+06    -4.41386E+06              0.    -3.38658E+06
            1925     35.7059E+06    -3.96800E+06              0.    -3.18298E+06
            1926     36.2349E+06    -3.48538E+06              0.    -2.95276E+06
            1927     36.7499E+06    -2.96489E+06              0.    -2.69372E+06
            1928     37.2494E+06    -2.40565E+06              0.    -2.40355E+06
            1929     37.7322E+06    -1.80697E+06              0.    -2.07975E+06
            1930     38.1971E+06    -1.16849E+06              0.    -1.71970E+06
            1931     38.6434E+06    -490.205E+03              0.    -1.32061E+06
            1932     39.0704E+06     227.392E+03              0.    -879.576E+03
            1933     39.4784E+06     983.250E+03              0.    -393.582E+03
            1934     39.8681E+06     1.77557E+06              0.     140.394E+03
            1935     40.2414E+06     2.60172E+06              0.     725.320E+03
            1936     40.6014E+06     3.45797E+06              0.     1.36393E+06
            1937     40.9528E+06     4.33935E+06              0.     2.05847E+06
            1938     41.3027E+06     5.23946E+06              0.     2.81038E+06
            1939     41.6608E+06     6.15026E+06              0.     3.61966E+06
            1940     42.0403E+06     7.06195E+06              0.     4.48415E+06
            1941     42.4585E+06     7.96305E+06              0.     5.39823E+06
            1942     42.9374E+06     8.84078E+06              0.     6.35118E+06
            1943     43.5040E+06     9.68215E+06              0.     7.32489E+06
            1944     44.1894E+06     10.4761E+06              0.     8.29074E+06
            1945     45.0268E+06     11.2176E+06              0.     9.20610E+06
            1946     46.0463E+06     11.9153E+06              0.     10.0110E+06
            1947     47.2664E+06     12.6027E+06              0.     10.6268E+06
            1948     48.6827E+06     13.3556E+06              0.     10.9608E+06
            1949     50.2572E+06     14.3107E+06              0.     10.9201E+06
            1950     51.9143E+06     15.6778E+06              0.     10.4386E+06
            1951     53.5507E+06     17.7285E+06              0.     9.51222E+06
            1952     55.0617E+06     20.7482E+06              0.     8.22616E+06
            1953     56.9464E+06     25.1417E+06              0.     8.11103E+06
            1954     1.54081E+06     692.997E+03              0.    -156.855E+03
            1955     1.53522E+06     640.618E+03              0.    -156.570E+03
            1956     1.55231E+06     599.387E+03              0.    -154.900E+03
            1957     1.56923E+06     558.987E+03              0.    -153.402E+03
            1958     1.58600E+06     519.392E+03              0.    -152.071E+03
            1959     1.60263E+06     480.573E+03              0.    -150.904E+03
            1960     1.61914E+06     442.503E+03              0.    -149.896E+03
            1961     1.63555E+06     405.156E+03              0.    -149.042E+03
            1962     1.65188E+06     368.506E+03              0.    -148.340E+03
            1963     1.66813E+06     332.529E+03              0.    -147.785E+03
            1964     1.68433E+06     297.202E+03              0.    -147.375E+03
            1965     1.70049E+06     262.501E+03              0.    -147.107E+03
            1966     1.71663E+06     228.403E+03              0.    -146.977E+03
            1967     1.73275E+06     194.887E+03              0.    -146.984E+03
            1968     1.74889E+06     161.932E+03              0.    -147.126E+03
            1969     1.76504E+06     129.516E+03              0.    -147.400E+03
            1970     1.78123E+06     97.6197E+03              0.    -147.805E+03
            1971     1.79746E+06     66.2237E+03              0.    -148.338E+03
            1972     1.81376E+06     35.3079E+03              0.    -149.000E+03
            1973     1.83013E+06     4.85420E+03              0.    -149.789E+03
            1974     1.84660E+06    -25.1555E+03              0.    -150.703E+03
            1975     1.86316E+06    -54.7400E+03              0.    -151.743E+03
            1976     1.87984E+06    -83.9158E+03              0.    -152.907E+03
            1977     1.89666E+06    -112.701E+03              0.    -154.196E+03
            1978     1.91361E+06    -141.113E+03              0.    -155.608E+03
            1979     1.93072E+06    -169.166E+03              0.    -157.145E+03
            1980     1.94800E+06    -196.879E+03              0.    -158.806E+03
            1981     1.96547E+06    -224.267E+03              0.    -160.591E+03
            1982     1.98313E+06    -251.345E+03              0.    -162.502E+03
            1983     2.00100E+06    -278.130E+03              0.    -164.538E+03
            1984     2.01909E+06    -304.636E+03              0.    -166.702E+03
            1985     2.03743E+06    -330.880E+03              0.    -168.993E+03
            1986     2.05601E+06    -356.875E+03              0.    -171.413E+03
            1987     2.07486E+06    -382.637E+03              0.    -173.963E+03
            1988     2.09399E+06    -408.181E+03              0.    -176.646E+03
            1989     2.11341E+06    -433.521E+03              0.    -179.462E+03
            1990     2.13314E+06    -458.672E+03              0.    -182.413E+03
            1991     2.15319E+06    -483.648E+03              0.    -185.502E+03
            1992     2.17358E+06    -508.463E+03              0.    -188.731E+03
            1993     2.19432E+06    -533.133E+03              0.    -192.102E+03
            1994     2.21543E+06    -557.670E+03              0.    -195.617E+03
            1995     2.23692E+06    -582.090E+03              0.    -199.280E+03
            1996     2.25882E+06    -606.407E+03              0.    -203.094E+03
            1997     2.28112E+06    -630.635E+03              0.    -207.060E+03
            1998     2.30387E+06    -654.787E+03              0.    -211.184E+03
            1999     2.32706E+06    -678.880E+03              0.    -215.467E+03
            2000     2.35072E+06    -702.926E+03              0.    -219.915E+03
            2001     2.37486E+06    -726.940E+03              0.    -224.529E+03
            2002     2.39950E+06    -750.937E+03              0.    -229.315E+03
            2003     2.42467E+06    -774.931E+03              0.    -234.277E+03
            2004     2.45038E+06    -798.938E+03              0.    -239.419E+03
            2005     2.47665E+06    -822.970E+03              0.    -244.745E+03
            2006     2.50349E+06    -847.045E+03              0.    -250.261E+03
            2007     2.53094E+06    -871.175E+03              0.    -255.971E+03
            2008     2.55901E+06    -895.378E+03              0.    -261.881E+03
            2009     2.58772E+06    -919.667E+03              0.    -267.996E+03
            2010     2.61710E+06    -944.059E+03              0.    -274.321E+03
            2011     2.64716E+06    -968.569E+03              0.    -280.863E+03
            2012     2.67794E+06    -993.213E+03              0.    -287.627E+03
            2013     2.70946E+06    -1.01801E+06              0.    -294.620E+03
            2014     2.74173E+06    -1.04297E+06              0.    -301.848E+03
            2015     2.77479E+06    -1.06811E+06              0.    -309.319E+03
            2016     2.80867E+06    -1.09345E+06              0.    -317.038E+03
            2017     2.84338E+06    -1.11901E+06              0.    -325.014E+03
            2018     2.87896E+06    -1.14480E+06              0.    -333.254E+03
            2019     2.91544E+06    -1.17085E+06              0.    -341.765E+03
            2020     2.95284E+06    -1.19716E+06              0.    -350.557E+03
            2021      2.9912E+06    -1.22376E+06              0.    -359.636E+03
            2022     3.03055E+06    -1.25066E+06              0.    -369.012E+03
            2023     3.07091E+06    -1.27789E+06              0.    -378.693E+03
            2024     3.11233E+06    -1.30546E+06              0.    -388.689E+03
            2025     3.15484E+06    -1.33340E+06              0.    -399.009E+03
            2026     3.19847E+06    -1.36171E+06              0.    -409.663E+03
            2027     3.24326E+06    -1.39043E+06              0.    -420.661E+03
            2028     3.28924E+06    -1.41956E+06              0.    -432.013E+03
            2029     3.33646E+06    -1.44914E+06              0.    -443.730E+03
            2030     3.38496E+06    -1.47919E+06              0.    -455.823E+03
            2031     3.43476E+06    -1.50971E+06              0.    -468.303E+03
            2032     3.48593E+06    -1.54075E+06              0.    -481.183E+03
            2033     3.53850E+06    -1.57231E+06              0.    -494.472E+03
            2034     3.59252E+06    -1.60442E+06              0.    -508.185E+03
            2035     3.64802E+06    -1.63711E+06              0.    -522.334E+03
            2036     3.70507E+06    -1.67039E+06              0.    -536.931E+03
            2037     3.76371E+06    -1.70429E+06              0.    -551.991E+03
            2038     3.82398E+06    -1.73883E+06              0.    -567.526E+03
            2039     3.88595E+06    -1.77405E+06              0.    -583.551E+03
            2040     3.94966E+06    -1.80995E+06              0.    -600.080E+03
            2041     4.01517E+06    -1.84657E+06              0.    -617.127E+03
            2042     4.08254E+06    -1.88393E+06              0.    -634.708E+03
            2043     4.15183E+06    -1.92206E+06              0.    -652.839E+03
            2044     4.22309E+06    -1.96098E+06              0.    -671.535E+03
            2045     4.29639E+06    -2.00072E+06              0.    -690.812E+03
            2046     4.37179E+06    -2.04131E+06              0.    -710.687E+03
            2047     4.44935E+06    -2.08276E+06              0.    -731.176E+03
            2048     4.52915E+06    -2.12512E+06              0.    -752.297E+03
            2049     4.61126E+06     -2.1684E+06              0.    -774.067E+03
            2050     4.69574E+06    -2.21263E+06              0.    -796.504E+03
            2051     4.78267E+06    -2.25785E+06              0.    -819.627E+03
            2052     4.87212E+06    -2.30406E+06              0.    -843.453E+03
            2053     4.96418E+06    -2.35132E+06              0.    -868.001E+03
            2054     5.05891E+06    -2.39963E+06              0.    -893.291E+03
            2055     5.15641E+06    -2.44904E+06              0.    -919.342E+03
            2056     5.25676E+06    -2.49956E+06              0.    -946.173E+03
            2057     5.36005E+06    -2.55123E+06              0.    -973.804E+03
            2058     5.46635E+06    -2.60406E+06              0.    -1.00226E+06
            2059     5.57577E+06    -2.65810E+06              0.    -1.03155E+06
            2060     5.68840E+06    -2.71336E+06              0.    -1.06170E+06
            2061     5.80433E+06    -2.76987E+06              0.    -1.09274E+06
            2062     5.92366E+06    -2.82765E+06              0.    -1.12467E+06
            2063     6.04649E+06    -2.88674E+06              0.    -1.15753E+06
            2064     6.17293E+06    -2.94715E+06              0.    -1.19134E+06
            2065     6.30308E+06    -3.00891E+06              0.    -1.22611E+06
            2066     6.43704E+06    -3.07204E+06              0.    -1.26186E+06
            2067     6.57494E+06    -3.13656E+06              0.    -1.29862E+06
            2068     6.71687E+06    -3.20250E+06              0.    -1.33640E+06
            2069     6.86297E+06    -3.26987E+06              0.    -1.37524E+06
            2070     7.01334E+06    -3.33869E+06              0.    -1.41513E+06
            2071     7.16810E+06    -3.40897E+06              0.    -1.45612E+06
            2072     7.32738E+06    -3.48074E+06              0.    -1.49821E+06
            2073     7.49131E+06    -3.55400E+06              0.    -1.54142E+06
            2074     7.66001E+06    -3.62876E+06              0.    -1.58577E+06
            2075     7.83361E+06    -3.70503E+06              0.    -1.63129E+06
            2076     8.01224E+06    -3.78282E+06              0.    -1.67798E+06
            2077     8.19604E+06    -3.86213E+06              0.    -1.72586E+06
            2078     8.38515E+06    -3.94295E+06              0.    -1.77495E+06
            2079     8.57970E+06    -4.02529E+06              0.    -1.82525E+06
            2080     8.77984E+06    -4.10914E+06              0.    -1.87679E+06
            2081     8.98571E+06    -4.19447E+06              0.    -1.92957E+06
            2082     9.19745E+06    -4.28129E+06              0.    -1.98359E+06
            2083     9.41521E+06    -4.36956E+06              0.    -2.03888E+06
            2084     9.63914E+06    -4.45925E+06              0.    -2.09543E+06
            2085     9.86938E+06    -4.55035E+06              0.    -2.15324E+06
            2086     10.1061E+06    -4.64281E+06              0.    -2.21232E+06
            2087     10.3494E+06    -4.73659E+06              0.    -2.27267E+06
            2088     10.5995E+06    -4.83163E+06              0.    -2.33427E+06
            2089     10.8565E+06    -4.92789E+06              0.    -2.39712E+06
            2090     11.1206E+06    -5.02528E+06              0.    -2.46121E+06
            2091     11.3920E+06    -5.12375E+06              0.    -2.52652E+06
            2092     11.6707E+06    -5.22320E+06              0.    -2.59304E+06
            2093     11.9569E+06    -5.32355E+06              0.    -2.66074E+06
            2094     12.2508E+06    -5.42469E+06              0.    -2.72958E+06
            2095     12.5525E+06    -5.52651E+06              0.    -2.79955E+06
            2096     12.8622E+06    -5.62888E+06              0.    -2.87058E+06
            2097     13.1801E+06    -5.73166E+06              0.    -2.94265E+06
            2098     13.5061E+06    -5.83471E+06              0.    -3.01570E+06
            2099     13.8406E+06    -5.93786E+06              0.    -3.08966E+06
            2100     14.1836E+06    -6.04093E+06              0.    -3.16448E+06
            2101     14.5352E+06    -6.14373E+06              0.    -3.24007E+06
            2102     14.8956E+06    -6.24603E+06              0.    -3.31636E+06
            2103     15.2649E+06    -6.34762E+06              0.    -3.39324E+06
            2104     15.6431E+06    -6.44824E+06              0.    -3.47061E+06
            2105     16.0305E+06    -6.54763E+06              0.    -3.54837E+06
            2106     16.4270E+06    -6.64549E+06              0.    -3.62638E+06
            2107     16.8328E+06    -6.74151E+06              0.    -3.70450E+06
            2108     17.2478E+06    -6.83536E+06              0.    -3.78258E+06
            2109     17.6723E+06    -6.92668E+06              0.    -3.86046E+06
            2110     18.1061E+06    -7.01509E+06              0.    -3.93795E+06
            2111     18.5494E+06    -7.10017E+06              0.    -4.01485E+06
            2112     19.0021E+06    -7.18147E+06              0.    -4.09094E+06
            2113     19.4642E+06    -7.25854E+06              0.    -4.16600E+06
            2114     19.9356E+06    -7.33086E+06              0.    -4.23976E+06
            2115     20.4165E+06    -7.39791E+06              0.    -4.31194E+06
            2116     20.9065E+06    -7.45911E+06              0.    -4.38225E+06
            2117     21.4057E+06    -7.51386E+06              0.    -4.45036E+06
            2118     21.9139E+06    -7.56151E+06              0.    -4.51592E+06
            2119     22.4310E+06    -7.60140E+06              0.    -4.57855E+06
            2120     22.9567E+06    -7.63280E+06              0.    -4.63784E+06
            2121     23.4908E+06    -7.65494E+06              0.    -4.69334E+06
            2122     24.0332E+06    -7.66704E+06              0.    -4.74459E+06
            2123     24.5833E+06    -7.66823E+06              0.    -4.79106E+06
            2124     25.1410E+06    -7.65765E+06              0.    -4.83221E+06
            2125     25.7059E+06    -7.63434E+06              0.    -4.86744E+06
            2126     26.2774E+06    -7.59734E+06              0.    -4.89612E+06
            2127     26.8553E+06    -7.54561E+06              0.    -4.91756E+06
            2128     27.4388E+06    -7.47810E+06              0.    -4.93103E+06
            2129     28.0274E+06    -7.39367E+06              0.    -4.93573E+06
            2130     28.6206E+06    -7.29118E+06              0.    -4.93082E+06
            2131     29.2176E+06    -7.16943E+06              0.    -4.91539E+06
            2132     29.8177E+06    -7.02717E+06              0.    -4.88847E+06
            2133     30.4201E+06    -6.86312E+06              0.    -4.84902E+06
            2134     31.0239E+06    -6.67599E+06              0.    -4.79591E+06
            2135     31.6283E+06    -6.46442E+06              0.    -4.72795E+06
            2136     32.2323E+06    -6.22706E+06              0.    -4.64386E+06
            2137     32.8350E+06    -5.96255E+06              0.    -4.54228E+06
            2138     33.4352E+06    -5.66951E+06              0.    -4.42173E+06
            2139     34.0320E+06    -5.34659E+06              0.    -4.28066E+06
            2140     34.6243E+06    -4.99247E+06              0.    -4.11739E+06
            2141     35.2109E+06    -4.60586E+06              0.    -3.93015E+06
            2142     35.7909E+06    -4.18557E+06              0.    -3.71707E+06
            2143     36.3632E+06    -3.73049E+06              0.    -3.47612E+06
            2144     36.9271E+06    -3.23965E+06              0.    -3.20522E+06
            2145     37.4816E+06    -2.71226E+06              0.    -2.90212E+06
            2146     38.0262E+06    -2.14777E+06              0.    -2.56453E+06
            2147     38.5607E+06    -1.54590E+06              0.    -2.19003E+06
            2148     39.0851E+06    -906.724E+03              0.    -1.77617E+06
            2149     39.6001E+06    -230.770E+03              0.    -1.32051E+06
            2150     40.1068E+06     480.936E+03              0.    -820.647E+03
            2151     40.6074E+06     1.22672E+06              0.    -274.365E+03
            2152     41.1051E+06     2.00419E+06              0.     320.248E+03
            2153     41.6043E+06     2.81009E+06              0.     964.556E+03
            2154     42.1112E+06     3.64022E+06              0.     1.65907E+06
            2155     42.6342E+06     4.48939E+06              0.     2.40303E+06
            2156     43.1838E+06     5.35137E+06              0.     3.19373E+06
            2157     43.7738E+06     6.21911E+06              0.     4.02575E+06
            2158     44.4206E+06     7.08512E+06              0.     4.88970E+06
            2159     45.1441E+06     7.94232E+06              0.     5.77083E+06
            2160     45.9665E+06     8.78566E+06              0.     6.64715E+06
            2161     46.9112E+06     9.61480E+06              0.     7.48736E+06
            2162     47.9996E+06     10.4385E+06              0.     8.24907E+06
            2163     49.2468E+06     11.2814E+06              0.     8.87792E+06
            2164     50.6549E+06     12.1927E+06              0.     9.30945E+06
            2165     52.2062E+06     13.2572E+06              0.     9.47555E+06
            2166     53.8582E+06     14.6037E+06              0.     9.31712E+06
            2167     55.5450E+06     16.4054E+06              0.     8.80285E+06
            2168     57.1864E+06     18.8653E+06              0.     7.94917E+06
            2169     58.7058E+06     22.1811E+06              0.     6.83254E+06
            2170     60.5891E+06     26.6867E+06              0.     6.72914E+06
            2171     1.53615E+06     690.912E+03              0.    -174.021E+03
            2172     1.53059E+06     638.770E+03              0.    -173.706E+03
            2173     1.54760E+06     597.723E+03              0.    -171.853E+03
            2174     1.56445E+06     557.503E+03              0.    -170.191E+03
            2175     1.58114E+06     518.082E+03              0.    -168.715E+03
            2176     1.59770E+06     479.432E+03              0.    -167.420E+03
            2177     1.61414E+06     441.527E+03              0.    -166.300E+03
            2178     1.63047E+06     404.341E+03              0.    -165.352E+03
            2179     1.64672E+06     367.848E+03              0.    -164.571E+03
            2180     1.66290E+06     332.025E+03              0.    -163.954E+03
            2181     1.67902E+06     296.849E+03              0.    -163.496E+03
            2182     1.69511E+06     262.295E+03              0.    -163.196E+03
            2183     1.71117E+06     228.342E+03              0.    -163.049E+03
            2184     1.72722E+06     194.969E+03              0.    -163.053E+03
            2185     1.74327E+06     162.153E+03              0.    -163.206E+03
            2186     1.75935E+06     129.876E+03              0.    -163.506E+03
            2187     1.77545E+06     98.1163E+03              0.    -163.951E+03
            2188     1.79160E+06     66.8554E+03              0.    -164.538E+03
            2189     1.80782E+06     36.0736E+03              0.    -165.267E+03
            2190     1.82410E+06     5.75267E+03              0.    -166.137E+03
            2191     1.84048E+06    -24.1251E+03              0.    -167.145E+03
            2192     1.85695E+06    -53.5783E+03              0.    -168.292E+03
            2193     1.87354E+06    -82.6234E+03              0.    -169.577E+03
            2194     1.89026E+06    -111.278E+03              0.    -171.000E+03
            2195     1.90711E+06    -139.559E+03              0.    -172.560E+03
            2196     1.92412E+06    -167.482E+03              0.    -174.257E+03
            2197     1.94130E+06    -195.064E+03              0.    -176.092E+03
            2198     1.95865E+06    -222.320E+03              0.    -178.064E+03
            2199     1.97620E+06    -249.267E+03              0.    -180.175E+03
            2200     1.99396E+06    -275.919E+03              0.    -182.426E+03
            2201     2.01193E+06    -302.292E+03              0.    -184.816E+03
            2202     2.03014E+06    -328.400E+03              0.    -187.348E+03
            2203     2.04860E+06    -354.260E+03              0.    -190.023E+03
            2204     2.06731E+06    -379.884E+03              0.    -192.842E+03
            2205     2.08631E+06    -405.288E+03              0.    -195.807E+03
            2206     2.10559E+06    -430.487E+03              0.    -198.920E+03
            2207     2.12517E+06    -455.494E+03              0.    -202.182E+03
            2208     2.14507E+06    -480.325E+03              0.    -205.597E+03
            2209     2.16530E+06    -504.992E+03              0.    -209.166E+03
            2210     2.18588E+06    -529.511E+03              0.    -212.893E+03
            2211     2.20682E+06    -553.895E+03              0.    -216.779E+03
            2212     2.22814E+06    -578.159E+03              0.    -220.829E+03
            2213     2.24986E+06    -602.316E+03              0.    -225.045E+03
            2214     2.27198E+06    -626.381E+03              0.    -229.430E+03
            2215     2.29453E+06    -650.367E+03              0.    -233.989E+03
            2216     2.31752E+06    -674.289E+03              0.    -238.725E+03
            2217     2.34097E+06    -698.162E+03              0.    -243.641E+03
            2218     2.36490E+06    -721.998E+03              0.    -248.743E+03
            2219     2.38932E+06    -745.813E+03              0.    -254.035E+03
            2220     2.41426E+06    -769.620E+03              0.    -259.520E+03
            2221     2.43973E+06    -793.435E+03              0.    -265.205E+03
            2222     2.46575E+06    -817.271E+03              0.    -271.094E+03
            2223     2.49234E+06    -841.144E+03              0.    -277.192E+03
            2224     2.51952E+06    -865.068E+03              0.    -283.506E+03
            2225     2.54732E+06    -889.058E+03              0.    -290.039E+03
            2226     2.57574E+06    -913.130E+03              0.    -296.800E+03
            2227     2.60483E+06    -937.298E+03              0.    -303.793E+03
            2228     2.63459E+06    -961.577E+03              0.    -311.025E+03
            2229     2.66505E+06    -985.984E+03              0.    -318.503E+03
            2230     2.69623E+06    -1.01053E+06              0.    -326.235E+03
            2231     2.72817E+06    -1.03524E+06              0.    -334.226E+03
            2232     2.76088E+06    -1.06013E+06              0.    -342.485E+03
            2233     2.79439E+06    -1.08521E+06              0.    -351.019E+03
            2234     2.82872E+06    -1.11049E+06              0.    -359.837E+03
            2235     2.86391E+06    -1.13600E+06              0.    -368.946E+03
            2236     2.89999E+06    -1.16176E+06              0.    -378.356E+03
            2237     2.93697E+06    -1.18777E+06              0.    -388.075E+03
            2238     2.97490E+06    -1.21406E+06              0.    -398.112E+03
            2239     3.01379E+06    -1.24065E+06              0.    -408.477E+03
            2240     3.05369E+06    -1.26756E+06              0.    -419.179E+03
            2241     3.09463E+06    -1.29479E+06              0.    -430.230E+03
            2242     3.13664E+06    -1.32238E+06              0.    -441.639E+03
            2243     3.17975E+06    -1.35034E+06              0.    -453.417E+03
            2244     3.22401E+06    -1.37869E+06              0.    -465.575E+03
            2245     3.26944E+06    -1.40745E+06              0.    -478.124E+03
            2246     3.31608E+06    -1.43664E+06              0.    -491.077E+03
            2247     3.36399E+06    -1.46628E+06              0.    -504.445E+03
            2248     3.41318E+06    -1.49640E+06              0.    -518.242E+03
            2249     3.46371E+06    -1.52701E+06              0.    -532.479E+03
            2250     3.51563E+06    -1.55813E+06              0.    -547.170E+03
            2251     3.56896E+06    -1.58979E+06              0.    -562.329E+03
            2252     3.62377E+06    -1.62201E+06              0.    -577.970E+03
            2253     3.68009E+06    -1.65482E+06              0.    -594.107E+03
            2254     3.73797E+06    -1.68823E+06              0.    -610.754E+03
            2255     3.79747E+06    -1.72227E+06              0.    -627.928E+03
            2256     3.85863E+06    -1.75696E+06              0.    -645.643E+03
            2257     3.92151E+06    -1.79232E+06              0.    -663.914E+03
            2258     3.98616E+06    -1.82839E+06              0.     -682.76E+03
            2259     4.05264E+06    -1.86518E+06              0.    -702.196E+03
            2260     4.12100E+06    -1.90273E+06              0.    -722.239E+03
            2261     4.19131E+06    -1.94105E+06              0.    -742.907E+03
            2262     4.26363E+06    -1.98017E+06              0.    -764.217E+03
            2263     4.33801E+06    -2.02012E+06              0.    -786.189E+03
            2264     4.41453E+06    -2.06092E+06              0.    -808.840E+03
            2265     4.49325E+06    -2.10261E+06              0.    -832.189E+03
            2266     4.57423E+06    -2.14520E+06              0.    -856.257E+03
            2267     4.65755E+06    -2.18872E+06              0.    -881.062E+03
            2268     4.74329E+06    -2.23320E+06              0.    -906.625E+03
            2269     4.83151E+06    -2.27868E+06              0.    -932.966E+03
            2270     4.92229E+06    -2.32516E+06              0.    -960.107E+03
            2271     5.01571E+06    -2.37269E+06              0.    -988.067E+03
            2272     5.11185E+06    -2.42129E+06              0.    -1.01687E+06
            2273     5.21080E+06    -2.47098E+06              0.    -1.04654E+06
            2274     5.31264E+06    -2.52180E+06              0.    -1.07709E+06
            2275     5.41746E+06    -2.57376E+06              0.    -1.10855E+06
            2276     5.52534E+06    -2.62690E+06              0.    -1.14093E+06
            2277     5.63638E+06    -2.68125E+06              0.    -1.17428E+06
            2278     5.75067E+06    -2.73682E+06              0.    -1.20859E+06
            2279     5.86832E+06    -2.79365E+06              0.    -1.24391E+06
            2280     5.98942E+06    -2.85176E+06              0.    -1.28025E+06
            2281     6.11407E+06    -2.91116E+06              0.    -1.31763E+06
            2282     6.24237E+06    -2.97190E+06              0.    -1.35608E+06
            2283     6.37444E+06    -3.03399E+06              0.    -1.39562E+06
            2284     6.51038E+06    -3.09745E+06              0.    -1.43628E+06
            2285     6.65031E+06    -3.16229E+06              0.    -1.47807E+06
            2286     6.79433E+06    -3.22856E+06              0.    -1.52102E+06
            2287     6.94257E+06    -3.29625E+06              0.    -1.56515E+06
            2288     7.09515E+06    -3.36538E+06              0.    -1.61049E+06
            2289     7.25218E+06    -3.43598E+06              0.    -1.65705E+06
            2290     7.41379E+06    -3.50805E+06              0.    -1.70486E+06
            2291     7.58012E+06    -3.58161E+06              0.    -1.75393E+06
            2292     7.75128E+06    -3.65665E+06              0.    -1.80429E+06
            2293     7.92741E+06    -3.73320E+06              0.    -1.85595E+06
            2294     8.10864E+06    -3.81125E+06              0.    -1.90894E+06
            2295     8.29511E+06    -3.89080E+06              0.    -1.96326E+06
            2296     8.48697E+06    -3.97186E+06              0.    -2.01894E+06
            2297     8.68434E+06    -4.05440E+06              0.    -2.07598E+06
            2298     8.88737E+06    -4.13843E+06              0.    -2.13440E+06
            2299     9.09621E+06    -4.22393E+06              0.    -2.19422E+06
            2300     9.31100E+06    -4.31087E+06              0.    -2.25543E+06
            2301     9.53189E+06    -4.39925E+06              0.    -2.31804E+06
            2302     9.75903E+06    -4.48902E+06              0.    -2.38206E+06
            2303     9.99258E+06    -4.58015E+06              0.    -2.44750E+06
            2304     10.2327E+06    -4.67260E+06              0.    -2.51434E+06
            2305     10.4795E+06    -4.76632E+06              0.    -2.58258E+06
            2306     10.7331E+06    -4.86127E+06              0.    -2.65222E+06
            2307     10.9938E+06    -4.95737E+06              0.    -2.72324E+06
            2308     11.2617E+06    -5.05457E+06              0.    -2.79563E+06
            2309     11.5368E+06    -5.15277E+06              0.    -2.86937E+06
            2310     11.8195E+06    -5.25189E+06              0.    -2.94442E+06
            2311     12.1097E+06    -5.35184E+06              0.    -3.02077E+06
            2312     12.4078E+06    -5.45250E+06              0.    -3.09837E+06
            2313     12.7138E+06    -5.55376E+06              0.    -3.17719E+06
            2314     13.0278E+06    -5.65548E+06              0.    -3.25716E+06
            2315     13.3501E+06    -5.75753E+06              0.    -3.33825E+06
            2316     13.6807E+06    -5.85975E+06              0.    -3.42038E+06
            2317     14.0199E+06    -5.96195E+06              0.    -3.50348E+06
            2318     14.3677E+06    -6.06397E+06              0.    -3.58747E+06
            2319     14.7242E+06    -6.16559E+06              0.    -3.67226E+06
            2320     15.0896E+06    -6.26659E+06              0.    -3.75775E+06
            2321     15.4641E+06    -6.36674E+06              0.    -3.84383E+06
            2322     15.8476E+06    -6.46578E+06              0.    -3.93038E+06
            2323     16.2403E+06    -6.56343E+06              0.    -4.01725E+06
            2324     16.6424E+06    -6.65940E+06              0.    -4.10430E+06
            2325     17.0538E+06    -6.75336E+06              0.    -4.19137E+06
            2326     17.4747E+06    -6.84497E+06              0.    -4.27828E+06
            2327     17.9051E+06    -6.93386E+06              0.    -4.36482E+06
            2328     18.3451E+06    -7.01964E+06              0.    -4.45079E+06
            2329     18.7946E+06    -7.10188E+06              0.    -4.53595E+06
            2330     19.2537E+06    -7.18013E+06              0.    -4.62005E+06
            2331     19.7224E+06    -7.25392E+06              0.    -4.70281E+06
            2332     20.2007E+06    -7.32272E+06              0.    -4.78394E+06
            2333     20.6885E+06    -7.38601E+06              0.    -4.86311E+06
            2334     21.1857E+06    -7.44319E+06              0.    -4.93997E+06
            2335     21.6923E+06    -7.49365E+06              0.    -5.01415E+06
            2336     22.2081E+06    -7.53675E+06              0.    -5.08524E+06
            2337      22.733E+06    -7.57179E+06              0.    -5.15280E+06
            2338     23.2668E+06    -7.59806E+06              0.    -5.21635E+06
            2339     23.8094E+06    -7.61478E+06              0.    -5.27540E+06
            2340     24.3604E+06    -7.62114E+06              0.    -5.32938E+06
            2341     24.9196E+06    -7.61630E+06              0.    -5.37773E+06
            2342     25.4868E+06    -7.59938E+06              0.    -5.41979E+06
            2343     26.0615E+06    -7.56942E+06              0.    -5.45490E+06
            2344     26.6433E+06    -7.52546E+06              0.    -5.48232E+06
            2345     27.2319E+06    -7.46648E+06              0.    -5.50129E+06
            2346     27.8269E+06    -7.39142E+06              0.    -5.51097E+06
            2347     28.4276E+06    -7.29918E+06              0.    -5.51046E+06
            2348     29.0335E+06    -7.18861E+06              0.    -5.49882E+06
            2349     29.6441E+06    -7.05855E+06              0.    -5.47502E+06
            2350     30.2588E+06    -6.90778E+06              0.    -5.43799E+06
            2351     30.8768E+06    -6.73506E+06              0.    -5.38655E+06
            2352     31.4975E+06    -6.53913E+06              0.    -5.31947E+06
            2353     32.1202E+06    -6.31872E+06              0.    -5.23544E+06
            2354     32.7442E+06    -6.07253E+06              0.    -5.13307E+06
            2355     33.3686E+06    -5.79930E+06              0.    -5.01086E+06
            2356     33.9928E+06    -5.49774E+06              0.    -4.86725E+06
            2357     34.6161E+06    -5.16663E+06              0.    -4.70057E+06
            2358     35.2377E+06    -4.80477E+06              0.    -4.50908E+06
            2359     35.8571E+06    -4.41106E+06              0.    -4.29094E+06
            2360     36.4737E+06    -3.98448E+06              0.    -4.04423E+06
            2361     37.0872E+06    -3.52414E+06              0.    -3.76697E+06
            2362     37.6974E+06    -3.02932E+06              0.    -3.45710E+06
            2363     38.3044E+06    -2.49951E+06              0.    -3.11255E+06
            2364     38.9088E+06    -1.93445E+06              0.    -2.73122E+06
            2365     39.5112E+06    -1.33418E+06              0.    -2.31109E+06
            2366     40.1133E+06    -699.144E+03              0.    -1.85025E+06
            2367     40.7171E+06    -30.1798E+03              0.    -1.34698E+06
            2368     41.3256E+06     671.352E+03              0.    -799.949E+03
            2369     41.9431E+06     1.40356E+06              0.    -208.329E+03
            2370     42.5747E+06     2.16394E+06              0.     427.894E+03
            2371     43.2275E+06     2.94941E+06              0.     1.10759E+06
            2372     43.9102E+06     3.75636E+06              0.     1.82804E+06
            2373     44.6333E+06     4.58082E+06              0.     2.58428E+06
            2374     45.4097E+06     5.41888E+06              0.     3.36836E+06
            2375     46.2541E+06     6.26729E+06              0.     4.16835E+06
            2376     47.1827E+06     7.12467E+06              0.     4.96715E+06
            2377     48.2126E+06     7.99329E+06              0.     5.74130E+06
            2378     49.3594E+06     8.88183E+06              0.     6.45983E+06
            2379     50.6349E+06     9.80937E+06              0.     7.08382E+06
            2380     52.0434E+06     10.8106E+06              0.     7.56712E+06
            2381     53.5768E+06     11.9419E+06              0.     7.85948E+06
            2382     55.2115E+06     13.2874E+06              0.     7.91294E+06
            2383     56.9063E+06     14.9612E+06              0.     7.69181E+06
            2384     58.6055E+06     17.1041E+06              0.     7.18497E+06
            2385     60.2467E+06     19.8690E+06              0.     6.41709E+06
            2386     61.7728E+06     23.3979E+06              0.     5.45353E+06
            2387     63.6555E+06     27.9836E+06              0.     5.35848E+06
            2388     1.53102E+06     688.614E+03              0.    -191.106E+03
            2389     1.52548E+06     636.733E+03              0.    -190.760E+03
            2390     1.54241E+06     595.889E+03              0.    -188.726E+03
            2391     1.55918E+06     555.865E+03              0.    -186.902E+03
            2392     1.57579E+06     516.635E+03              0.    -185.281E+03
            2393     1.59226E+06     478.172E+03              0.    -183.858E+03
            2394     1.60862E+06     440.449E+03              0.    -182.627E+03
            2395     1.62487E+06     403.440E+03              0.    -181.584E+03
            2396     1.64104E+06     367.120E+03              0.    -180.724E+03
            2397     1.65713E+06     331.466E+03              0.    -180.044E+03
            2398     1.67317E+06     296.455E+03              0.    -179.539E+03
            2399     1.68917E+06     262.064E+03              0.    -179.205E+03
            2400     1.70515E+06     228.271E+03              0.    -179.040E+03
            2401     1.72112E+06     195.054E+03              0.    -179.040E+03
            2402     1.73708E+06     162.393E+03              0.    -179.204E+03
            2403     1.75307E+06     130.268E+03              0.    -179.528E+03
            2404     1.76909E+06     98.6591E+03              0.    -180.011E+03
            2405     1.78515E+06     67.5470E+03              0.    -180.650E+03
            2406     1.80127E+06     36.9125E+03              0.    -181.444E+03
            2407     1.81746E+06     6.73777E+03              0.    -182.392E+03
            2408     1.83373E+06    -22.9948E+03              0.    -183.493E+03
            2409     1.85011E+06    -52.3035E+03              0.    -184.745E+03
            2410     1.86659E+06    -81.2046E+03              0.    -186.148E+03
            2411     1.88320E+06    -109.716E+03              0.    -187.702E+03
            2412     1.89995E+06    -137.853E+03              0.    -189.406E+03
            2413     1.91685E+06    -165.633E+03              0.    -191.261E+03
            2414     1.93391E+06    -193.071E+03              0.    -193.266E+03
            2415     1.95114E+06    -220.182E+03              0.    -195.422E+03
            2416     1.96857E+06    -246.984E+03              0.    -197.730E+03
            2417     1.98620E+06    -273.490E+03              0.    -200.190E+03
            2418     2.00404E+06    -299.715E+03              0.    -202.804E+03
            2419     2.02211E+06    -325.676E+03              0.    -205.573E+03
            2420     2.04043E+06    -351.385E+03              0.    -208.498E+03
            2421     2.05900E+06    -376.858E+03              0.    -211.581E+03
            2422     2.07784E+06    -402.108E+03              0.    -214.823E+03
            2423     2.09697E+06    -427.151E+03              0.    -218.227E+03
            2424     2.11639E+06    -452.001E+03              0.    -221.796E+03
            2425     2.13613E+06    -476.671E+03              0.    -225.531E+03
            2426     2.15619E+06    -501.176E+03              0.    -229.435E+03
            2427     2.17659E+06    -525.529E+03              0.    -233.511E+03
            2428     2.19735E+06    -549.744E+03              0.    -237.763E+03
            2429     2.21848E+06    -573.836E+03              0.    -242.193E+03
            2430     2.23999E+06    -597.818E+03              0.    -246.804E+03
            2431     2.26191E+06    -621.704E+03              0.    -251.602E+03
            2432     2.28425E+06    -645.507E+03              0.    -256.588E+03
            2433     2.30702E+06    -669.242E+03              0.    -261.769E+03
            2434     2.33024E+06    -692.924E+03              0.    -267.148E+03
            2435     2.35393E+06    -716.564E+03              0.    -272.729E+03
            2436     2.37811E+06    -740.179E+03              0.    -278.517E+03
            2437     2.40280E+06    -763.781E+03              0.    -284.518E+03
            2438     2.42800E+06    -787.385E+03              0.    -290.737E+03
            2439     2.45375E+06    -811.006E+03              0.    -297.180E+03
            2440     2.48006E+06    -834.657E+03              0.    -303.851E+03
            2441     2.50695E+06    -858.354E+03              0.    -310.757E+03
            2442     2.53444E+06    -882.111E+03              0.    -317.905E+03
            2443     2.56256E+06    -905.942E+03              0.    -325.300E+03
            2444     2.59132E+06    -929.864E+03              0.    -332.950E+03
            2445     2.62074E+06     -953.89E+03              0.    -340.862E+03
            2446     2.65086E+06    -978.037E+03              0.    -349.042E+03
            2447     2.68168E+06    -1.00232E+06              0.    -357.500E+03
            2448     2.71324E+06    -1.02675E+06              0.    -366.241E+03
            2449     2.74557E+06    -1.05136E+06              0.    -375.276E+03
            2450     2.77868E+06    -1.07614E+06              0.    -384.612E+03
            2451     2.81260E+06    -1.10113E+06              0.    -394.257E+03
            2452     2.84736E+06    -1.12633E+06              0.    -404.222E+03
            2453     2.88298E+06    -1.15177E+06              0.    -414.515E+03
            2454     2.91951E+06    -1.17745E+06              0.    -425.146E+03
            2455     2.95696E+06    -1.20341E+06              0.    -436.125E+03
            2456     2.99536E+06    -1.22965E+06              0.    -447.463E+03
            2457     3.03475E+06    -1.25619E+06              0.    -459.170E+03
            2458     3.07516E+06    -1.28306E+06              0.    -471.258E+03
            2459     3.11662E+06    -1.31027E+06              0.    -483.737E+03
            2460     3.15916E+06    -1.33784E+06              0.    -496.620E+03
            2461     3.20283E+06    -1.36579E+06              0.    -509.919E+03
            2462     3.24765E+06    -1.39413E+06              0.    -523.646E+03
            2463     3.29367E+06    -1.42289E+06              0.    -537.814E+03
            2464     3.34092E+06    -1.45210E+06              0.    -552.436E+03
            2465     3.38944E+06    -1.48176E+06              0.    -567.527E+03
            2466     3.43927E+06    -1.51190E+06              0.    -583.100E+03
            2467     3.49046E+06    -1.54255E+06              0.    -599.169E+03
            2468     3.54305E+06    -1.57371E+06              0.     -615.75E+03
            2469     3.59708E+06    -1.60542E+06              0.    -632.858E+03
            2470     3.65260E+06    -1.63770E+06              0.    -650.508E+03
            2471     3.70966E+06    -1.67057E+06              0.    -668.717E+03
            2472     3.76830E+06    -1.70405E+06              0.    -687.501E+03
            2473     3.82858E+06    -1.73817E+06              0.    -706.878E+03
            2474     3.89054E+06    -1.77295E+06              0.    -726.864E+03
            2475     3.95425E+06    -1.80841E+06              0.    -747.477E+03
            2476     4.01975E+06    -1.84458E+06              0.    -768.736E+03
            2477     4.08710E+06    -1.88148E+06              0.    -790.660E+03
            2478     4.15637E+06    -1.91914E+06              0.    -813.267E+03
            2479     4.22760E+06    -1.95758E+06              0.    -836.577E+03
            2480     4.30087E+06    -1.99683E+06              0.    -860.610E+03
            2481     4.37623E+06    -2.03691E+06              0.    -885.387E+03
            2482     4.45375E+06    -2.07786E+06              0.    -910.928E+03
            2483     4.53351E+06    -2.11969E+06              0.    -937.255E+03
            2484     4.61556E+06    -2.16243E+06              0.    -964.389E+03
            2485     4.69998E+06    -2.20611E+06              0.    -992.353E+03
            2486     4.78684E+06    -2.25076E+06              0.    -1.02117E+06
            2487     4.87622E+06    -2.29641E+06              0.    -1.05086E+06
            2488     4.96820E+06    -2.34307E+06              0.    -1.08145E+06
            2489     5.06285E+06    -2.39077E+06              0.    -1.11295E+06
            2490     5.16026E+06    -2.43955E+06              0.    -1.14541E+06
            2491     5.26050E+06    -2.48943E+06              0.    -1.17883E+06
            2492     5.36368E+06    -2.54044E+06              0.    -1.21325E+06
            2493     5.46987E+06    -2.59260E+06              0.    -1.24869E+06
            2494     5.57917E+06    -2.64594E+06              0.    -1.28517E+06
            2495     5.69166E+06    -2.70048E+06              0.    -1.32271E+06
            2496     5.80746E+06    -2.75626E+06              0.    -1.36136E+06
            2497     5.92664E+06    -2.81328E+06              0.    -1.40112E+06
            2498     6.04932E+06    -2.87159E+06              0.    -1.44202E+06
            2499     6.17560E+06    -2.93120E+06              0.     -1.4841E+06
            2500     6.30558E+06    -2.99214E+06              0.    -1.52737E+06
            2501     6.43937E+06    -3.05442E+06              0.    -1.57186E+06
            2502     6.57708E+06    -3.11807E+06              0.    -1.61760E+06
            2503     6.71883E+06    -3.18311E+06              0.    -1.66461E+06
            2504     6.86472E+06    -3.24956E+06              0.    -1.71292E+06
            2505     7.01489E+06    -3.31743E+06              0.    -1.76254E+06
            2506     7.16945E+06    -3.38674E+06              0.    -1.81351E+06
            2507     7.32851E+06    -3.45750E+06              0.    -1.86585E+06
            2508     7.49222E+06    -3.52972E+06              0.    -1.91957E+06
            2509     7.66069E+06    -3.60342E+06              0.    -1.97471E+06
            2510     7.83407E+06    -3.67859E+06              0.    -2.03128E+06
            2511     8.01247E+06    -3.75526E+06              0.    -2.08929E+06
            2512     8.19604E+06    -3.83340E+06              0.    -2.14878E+06
            2513     8.38491E+06    -3.91304E+06              0.    -2.20976E+06
            2514     8.57923E+06    -3.99415E+06              0.    -2.27224E+06
            2515     8.77914E+06    -4.07673E+06              0.    -2.33624E+06
            2516     8.98478E+06    -4.16077E+06              0.    -2.40176E+06
            2517     9.19629E+06    -4.24626E+06              0.    -2.46883E+06
            2518     9.41383E+06    -4.33316E+06              0.    -2.53744E+06
            2519     9.63755E+06    -4.42146E+06              0.    -2.60760E+06
            2520     9.86760E+06    -4.51112E+06              0.    -2.67932E+06
            2521     10.1041E+06    -4.60210E+06              0.    -2.75259E+06
            2522     10.3473E+06    -4.69436E+06              0.    -2.82741E+06
            2523     10.5972E+06    -4.78786E+06              0.    -2.90377E+06
            2524     10.8541E+06    -4.88252E+06              0.    -2.98166E+06
            2525     11.1181E+06    -4.97829E+06              0.    -3.06106E+06
            2526     11.3894E+06    -5.07510E+06              0.    -3.14196E+06
            2527     11.6680E+06    -5.17285E+06              0.    -3.22432E+06
            2528     11.9543E+06    -5.27147E+06              0.    -3.30812E+06
            2529     12.2483E+06    -5.37084E+06              0.    -3.39331E+06
            2530     12.5501E+06    -5.47085E+06              0.    -3.47986E+06
            2531     12.8600E+06    -5.57139E+06              0.    -3.56770E+06
            2532     13.1780E+06    -5.67230E+06              0.    -3.65679E+06
            2533     13.5044E+06    -5.77346E+06              0.    -3.74706E+06
            2534     13.8393E+06    -5.87468E+06              0.    -3.83842E+06
            2535     14.1828E+06    -5.97580E+06              0.    -3.93080E+06
            2536     14.5350E+06    -6.07662E+06              0.    -4.02410E+06
            2537     14.8962E+06    -6.17694E+06              0.    -4.11821E+06
            2538     15.2663E+06    -6.27652E+06              0.    -4.21302E+06
            2539     15.6456E+06    -6.37513E+06              0.    -4.30839E+06
            2540     16.0342E+06    -6.47250E+06              0.    -4.40417E+06
            2541     16.4320E+06    -6.56834E+06              0.    -4.50022E+06
            2542     16.8394E+06    -6.66235E+06              0.    -4.59635E+06
            2543     17.2563E+06    -6.75421E+06              0.    -4.69238E+06
            2544     17.6828E+06    -6.84356E+06              0.    -4.78810E+06
            2545     18.1190E+06    -6.93002E+06              0.    -4.88327E+06
            2546     18.5649E+06    -7.01319E+06              0.    -4.97766E+06
            2547     19.0206E+06    -7.09265E+06              0.    -5.07099E+06
            2548     19.4860E+06    -7.16794E+06              0.    -5.16298E+06
            2549     19.9613E+06    -7.23856E+06              0.    -5.25330E+06
            2550     20.4464E+06    -7.30401E+06              0.    -5.34161E+06
            2551     20.9412E+06    -7.36372E+06              0.    -5.42755E+06
            2552     21.4458E+06    -7.41711E+06              0.    -5.51072E+06
            2553     21.9600E+06    -7.46357E+06              0.    -5.59068E+06
            2554     22.4837E+06    -7.50245E+06              0.    -5.66697E+06
            2555     23.0169E+06    -7.53304E+06              0.    -5.73909E+06
            2556     23.5593E+06    -7.55462E+06              0.    -5.80651E+06
            2557     24.1109E+06    -7.56643E+06              0.    -5.86865E+06
            2558     24.6714E+06    -7.56764E+06              0.    -5.92490E+06
            2559     25.2405E+06    -7.55743E+06              0.    -5.97459E+06
            2560     25.8181E+06    -7.53490E+06              0.    -6.01701E+06
            2561     26.4039E+06    -7.49913E+06              0.    -6.05140E+06
            2562     26.9975E+06    -7.44914E+06              0.    -6.07696E+06
            2563     27.5985E+06    -7.38393E+06              0.    -6.09281E+06
            2564     28.2067E+06    -7.30247E+06              0.    -6.09803E+06
            2565     28.8216E+06    -7.20366E+06              0.    -6.09164E+06
            2566     29.4427E+06    -7.08640E+06              0.    -6.07259E+06
            2567     30.0697E+06    -6.94954E+06              0.    -6.03976E+06
            2568     30.7020E+06    -6.79192E+06              0.    -5.99197E+06
            2569     31.3392E+06    -6.61234E+06              0.    -5.92797E+06
            2570     31.9807E+06    -6.40960E+06              0.    -5.84642E+06
            2571     32.6262E+06    -6.18249E+06              0.    -5.74592E+06
            2572     33.2751E+06    -5.92980E+06              0.    -5.62501E+06
            2573     33.9269E+06    -5.65034E+06              0.    -5.48212E+06
            2574     34.5814E+06    -5.34295E+06              0.    -5.31564E+06
            2575     35.2381E+06    -5.00650E+06              0.    -5.12388E+06
            2576     35.8970E+06    -4.63997E+06              0.    -4.90509E+06
            2577     36.5578E+06    -4.24236E+06              0.    -4.65749E+06
            2578     37.2208E+06    -3.81284E+06              0.    -4.37924E+06
            2579     37.8863E+06    -3.35070E+06              0.    -4.06853E+06
            2580     38.5549E+06    -2.85540E+06              0.    -3.72356E+06
            2581     39.2278E+06    -2.32663E+06              0.    -3.34261E+06
            2582     39.9063E+06    -1.76430E+06              0.    -2.92411E+06
            2583     40.5927E+06    -1.16862E+06              0.    -2.46672E+06
            2584     41.2897E+06    -540.122E+03              0.    -1.96944E+06
            2585     42.0009E+06     120.333E+03              0.    -1.43179E+06
            2586     42.7310E+06     811.550E+03              0.    -853.984E+03
            2587     43.4857E+06     1.53201E+06              0.    -237.233E+03
            2588     44.2721E+06     2.27997E+06              0.     415.918E+03
            2589     45.0986E+06     3.05366E+06              0.     1.10116E+06
            2590     45.9751E+06     3.85156E+06              0.     1.81184E+06
            2591     46.9128E+06     4.67297E+06              0.     2.53834E+06
            2592     47.9240E+06     5.51880E+06              0.     3.26727E+06
            2593      49.021E+06     6.39279E+06              0.     3.98071E+06
            2594     50.2157E+06     7.30340E+06              0.     4.65557E+06
            2595     51.5173E+06     8.26621E+06              0.     5.26313E+06
            2596     52.9302E+06     9.30716E+06              0.     5.76952E+06
            2597     54.4513E+06     10.4663E+06              0.     6.13722E+06
            2598     56.0672E+06     11.8016E+06              0.     6.32844E+06
            2599     57.7522E+06     13.3915E+06              0.     6.31060E+06
            2600     59.4688E+06     15.3347E+06              0.     6.06358E+06
            2601     61.1705E+06     17.7449E+06              0.     5.58767E+06
            2602     62.8083E+06     20.7396E+06              0.     4.90966E+06
            2603     64.3387E+06     24.4246E+06              0.     4.08440E+06
            2604     66.2201E+06     29.0669E+06              0.     3.99471E+06
            2605     1.52541E+06     686.103E+03              0.    -208.101E+03
            2606     1.51990E+06     634.506E+03              0.    -207.724E+03
            2607     1.53675E+06     593.883E+03              0.    -205.511E+03
            2608     1.55342E+06     554.075E+03              0.    -203.525E+03
            2609     1.56994E+06     515.054E+03              0.    -201.760E+03
            2610     1.58632E+06     476.794E+03              0.    -200.209E+03
            2611     1.60259E+06     439.268E+03              0.    -198.868E+03
            2612     1.61875E+06     402.452E+03              0.    -197.730E+03
            2613     1.63483E+06     366.321E+03              0.    -196.792E+03
            2614     1.65083E+06     330.852E+03              0.    -196.048E+03
            2615     1.66679E+06     296.022E+03              0.    -195.494E+03
            2616     1.68270E+06     261.808E+03              0.    -195.126E+03
            2617     1.69858E+06     228.189E+03              0.    -194.942E+03
            2618     1.71445E+06     195.143E+03              0.    -194.938E+03
            2619     1.73033E+06     162.650E+03              0.    -195.110E+03
            2620     1.74621E+06     130.692E+03              0.    -195.457E+03
            2621     1.76213E+06     99.2463E+03              0.    -195.976E+03
            2622     1.77810E+06     68.2964E+03              0.    -196.665E+03
            2623     1.79411E+06     37.8226E+03              0.    -197.522E+03
            2624     1.81020E+06     7.80725E+03              0.    -198.546E+03
            2625     1.82637E+06    -21.7670E+03              0.    -199.736E+03
            2626     1.84263E+06    -50.9181E+03              0.    -201.091E+03
            2627     1.85901E+06    -79.6623E+03              0.    -202.609E+03
            2628     1.87550E+06    -108.017E+03              0.    -204.291E+03
            2629     1.89213E+06    -135.998E+03              0.    -206.137E+03
            2630     1.90890E+06    -163.621E+03              0.    -208.145E+03
            2631     1.92584E+06    -190.902E+03              0.    -210.317E+03
            2632     1.94294E+06    -217.856E+03              0.    -212.653E+03
            2633     1.96024E+06    -244.499E+03              0.    -215.154E+03
            2634     1.97773E+06    -270.846E+03              0.    -217.820E+03
            2635     1.99543E+06    -296.911E+03              0.    -220.652E+03
            2636     2.01335E+06    -322.710E+03              0.    -223.653E+03
            2637     2.03152E+06    -348.255E+03              0.    -226.824E+03
            2638     2.04993E+06    -373.563E+03              0.    -230.165E+03
            2639     2.06861E+06    -398.647E+03              0.    -233.680E+03
            2640     2.08757E+06    -423.520E+03              0.    -237.371E+03
            2641     2.10681E+06    -448.198E+03              0.    -241.239E+03
            2642     2.12637E+06    -472.693E+03              0.    -245.289E+03
            2643     2.14624E+06    -497.021E+03              0.    -249.521E+03
            2644     2.16645E+06    -521.193E+03              0.    -253.941E+03
            2645     2.18701E+06    -545.225E+03              0.    -258.550E+03
            2646     2.20793E+06    -569.129E+03              0.    -263.353E+03
            2647     2.22923E+06     -592.92E+03              0.    -268.354E+03
            2648     2.25093E+06    -616.611E+03              0.    -273.555E+03
            2649     2.27303E+06    -640.215E+03              0.    -278.963E+03
            2650     2.29556E+06    -663.747E+03              0.    -284.580E+03
            2651     2.31854E+06    -687.220E+03              0.    -290.412E+03
            2652     2.34197E+06    -710.647E+03              0.    -296.464E+03
            2653     2.36589E+06    -734.043E+03              0.    -302.741E+03
            2654     2.39030E+06    -757.422E+03              0.    -309.248E+03
            2655     2.41522E+06    -780.797E+03              0.    -315.991E+03
            2656     2.44067E+06    -804.183E+03              0.    -322.977E+03
            2657     2.46667E+06    -827.593E+03              0.    -330.210E+03
            2658     2.49325E+06    -851.042E+03              0.    -337.699E+03
            2659     2.52041E+06    -874.545E+03              0.    -345.449E+03
            2660     2.54818E+06    -898.115E+03              0.    -353.468E+03
            2661     2.57659E+06    -921.769E+03              0.    -361.763E+03
            2662     2.60565E+06    -945.519E+03              0.    -370.342E+03
            2663     2.63538E+06    -969.383E+03              0.    -379.212E+03
            2664     2.66582E+06    -993.374E+03              0.    -388.382E+03
            2665     2.69697E+06    -1.01751E+06              0.    -397.861E+03
            2666     2.72887E+06    -1.04180E+06              0.    -407.657E+03
            2667     2.76155E+06    -1.06627E+06              0.    -417.779E+03
            2668     2.79502E+06    -1.09093E+06              0.    -428.238E+03
            2669     2.82931E+06    -1.11579E+06              0.    -439.042E+03
            2670     2.86445E+06    -1.14088E+06              0.    -450.202E+03
            2671     2.90047E+06    -1.16622E+06              0.    -461.729E+03
            2672     2.93740E+06    -1.19180E+06              0.    -473.633E+03
            2673     2.97527E+06    -1.21767E+06              0.    -485.925E+03
            2674     3.01410E+06    -1.24382E+06              0.    -498.618E+03
            2675     3.05393E+06    -1.27029E+06              0.    -511.724E+03
            2676     3.09480E+06    -1.29708E+06              0.    -525.254E+03
            2677     3.13672E+06    -1.32423E+06              0.    -539.222E+03
            2678     3.17975E+06    -1.35174E+06              0.    -553.640E+03
            2679     3.22391E+06    -1.37963E+06              0.    -568.522E+03
            2680     3.26924E+06    -1.40793E+06              0.    -583.883E+03
            2681     3.31578E+06    -1.43665E+06              0.    -599.736E+03
            2682     3.36357E+06    -1.46582E+06              0.    -616.097E+03
            2683     3.41264E+06    -1.49546E+06              0.    -632.981E+03
            2684     3.46305E+06    -1.52558E+06              0.    -650.402E+03
            2685     3.51482E+06    -1.55620E+06              0.    -668.379E+03
            2686     3.56801E+06    -1.58736E+06              0.    -686.926E+03
            2687     3.62266E+06    -1.61907E+06              0.    -706.062E+03
            2688     3.67882E+06    -1.65134E+06              0.    -725.803E+03
            2689     3.73653E+06    -1.68422E+06              0.    -746.168E+03
            2690     3.79584E+06    -1.71771E+06              0.    -767.176E+03
            2691     3.85681E+06    -1.75185E+06              0.    -788.844E+03
            2692     3.91949E+06    -1.78665E+06              0.    -811.192E+03
            2693     3.98392E+06    -1.82214E+06              0.    -834.241E+03
            2694     4.05017E+06    -1.85834E+06              0.    -858.010E+03
            2695     4.11830E+06    -1.89528E+06              0.    -882.520E+03
            2696     4.18836E+06    -1.93298E+06              0.    -907.792E+03
            2697     4.26041E+06    -1.97147E+06              0.    -933.849E+03
            2698     4.33451E+06    -2.01077E+06              0.    -960.713E+03
            2699     4.41074E+06    -2.05091E+06              0.    -988.405E+03
            2700     4.48915E+06    -2.09191E+06              0.    -1.01695E+06
            2701     4.56981E+06    -2.13381E+06              0.    -1.04637E+06
            2702     4.65280E+06    -2.17662E+06              0.    -1.07669E+06
            2703     4.73819E+06    -2.22037E+06              0.    -1.10793E+06
            2704     4.82604E+06    -2.26509E+06              0.    -1.14013E+06
            2705     4.91644E+06    -2.31081E+06              0.    -1.17329E+06
            2706     5.00947E+06    -2.35754E+06              0.    -1.20746E+06
            2707     5.10520E+06    -2.40533E+06              0.    -1.24265E+06
            2708     5.20371E+06    -2.45419E+06              0.    -1.27890E+06
            2709      5.3051E+06    -2.50415E+06              0.    -1.31622E+06
            2710     5.40945E+06    -2.55524E+06              0.    -1.35465E+06
            2711     5.51684E+06    -2.60748E+06              0.    -1.39421E+06
            2712     5.62738E+06    -2.66090E+06              0.    -1.43493E+06
            2713     5.74115E+06    -2.71553E+06              0.    -1.47684E+06
            2714     5.85826E+06    -2.77138E+06              0.    -1.51997E+06
            2715     5.97879E+06    -2.82849E+06              0.    -1.56434E+06
            2716     6.10286E+06    -2.88687E+06              0.    -1.60998E+06
            2717     6.23056E+06    -2.94655E+06              0.    -1.65691E+06
            2718     6.36201E+06    -3.00755E+06              0.    -1.70518E+06
            2719     6.49730E+06    -3.06990E+06              0.    -1.75480E+06
            2720     6.63657E+06    -3.13360E+06              0.    -1.80580E+06
            2721     6.77991E+06    -3.19869E+06              0.    -1.85820E+06
            2722     6.92745E+06    -3.26518E+06              0.    -1.91205E+06
            2723     7.07930E+06    -3.33308E+06              0.    -1.96735E+06
            2724     7.23559E+06    -3.40241E+06              0.    -2.02414E+06
            2725     7.39644E+06    -3.47317E+06              0.    -2.08245E+06
            2726     7.56198E+06    -3.54539E+06              0.    -2.14229E+06
            2727     7.73234E+06    -3.61907E+06              0.    -2.20369E+06
            2728     7.90766E+06    -3.69422E+06              0.    -2.26666E+06
            2729     8.08805E+06    -3.77083E+06              0.    -2.33124E+06
            2730     8.27368E+06    -3.84891E+06              0.    -2.39744E+06
            2731     8.46466E+06    -3.92845E+06              0.    -2.46528E+06
            2732     8.66115E+06    -4.00945E+06              0.    -2.53477E+06
            2733     8.86329E+06    -4.09189E+06              0.    -2.60593E+06
            2734     9.07123E+06    -4.17577E+06              0.    -2.67878E+06
            2735     9.28511E+06    -4.26106E+06              0.    -2.75330E+06
            2736     9.50508E+06    -4.34775E+06              0.    -2.82953E+06
            2737     9.73130E+06    -4.43579E+06              0.    -2.90745E+06
            2738     9.96392E+06    -4.52516E+06              0.    -2.98708E+06
            2739     10.2031E+06    -4.61581E+06              0.    -3.06840E+06
            2740     10.4490E+06    -4.70771E+06              0.    -3.15141E+06
            2741     10.7017E+06    -4.80079E+06              0.    -3.23609E+06
            2742     10.9615E+06    -4.89500E+06              0.    -3.32244E+06
            2743     11.2285E+06    -4.99026E+06              0.    -3.41043E+06
            2744     11.5028E+06    -5.08650E+06              0.    -3.50004E+06
            2745     11.7846E+06    -5.18364E+06              0.    -3.59122E+06
            2746     12.0741E+06    -5.28157E+06              0.    -3.68395E+06
            2747     12.3714E+06    -5.38020E+06              0.    -3.77818E+06
            2748     12.6767E+06    -5.47940E+06              0.    -3.87385E+06
            2749     12.9901E+06    -5.57905E+06              0.    -3.97091E+06
            2750     13.3118E+06    -5.67901E+06              0.    -4.06928E+06
            2751     13.6420E+06    -5.77913E+06              0.    -4.16889E+06
            2752     13.9808E+06    -5.87923E+06              0.    -4.26964E+06
            2753     14.3283E+06    -5.97914E+06              0.    -4.37144E+06
            2754     14.6846E+06    -6.07865E+06              0.    -4.47417E+06
            2755     15.0501E+06    -6.17756E+06              0.    -4.57772E+06
            2756     15.4246E+06    -6.27564E+06              0.    -4.68194E+06
            2757     15.8085E+06    -6.37263E+06              0.    -4.78668E+06
            2758     16.2017E+06    -6.46826E+06              0.    -4.89178E+06
            2759     16.6045E+06    -6.56225E+06              0.    -4.99706E+06
            2760     17.0169E+06    -6.65429E+06              0.    -5.10230E+06
            2761     17.4390E+06    -6.74405E+06              0.    -5.20731E+06
            2762     17.8710E+06    -6.83115E+06              0.    -5.31183E+06
            2763     18.3128E+06    -6.91524E+06              0.    -5.41561E+06
            2764     18.7646E+06    -6.99590E+06              0.    -5.51837E+06
            2765     19.2263E+06    -7.07269E+06              0.    -5.61980E+06
            2766     19.6982E+06    -7.14515E+06              0.    -5.71957E+06
            2767     20.1801E+06    -7.21280E+06              0.    -5.81732E+06
            2768     20.6721E+06    -7.27510E+06              0.    -5.91266E+06
            2769     21.1741E+06    -7.33151E+06              0.    -6.00519E+06
            2770     21.6862E+06    -7.38144E+06              0.    -6.09444E+06
            2771     22.2084E+06    -7.42427E+06              0.    -6.17994E+06
            2772     22.7404E+06    -7.45933E+06              0.    -6.26117E+06
            2773     23.2824E+06    -7.48596E+06              0.    -6.33756E+06
            2774     23.8341E+06     -7.5034E+06              0.    -6.40852E+06
            2775     24.3954E+06    -7.51091E+06              0.    -6.47341E+06
            2776     24.9662E+06    -7.50767E+06              0.    -6.53154E+06
            2777     25.5464E+06    -7.49285E+06              0.    -6.58218E+06
            2778     26.1357E+06    -7.46557E+06              0.    -6.62454E+06
            2779     26.7339E+06    -7.42492E+06              0.    -6.65780E+06
            2780     27.3408E+06    -7.36994E+06              0.    -6.68105E+06
            2781     27.9562E+06    -7.29965E+06              0.    -6.69336E+06
            2782     28.5797E+06    -7.21303E+06              0.    -6.69372E+06
            2783     29.2111E+06    -7.10903E+06              0.    -6.68106E+06
            2784     29.8502E+06    -6.98656E+06              0.    -6.65426E+06
            2785     30.4965E+06    -6.84452E+06              0.    -6.61212E+06
            2786     31.1499E+06    -6.68178E+06              0.    -6.55339E+06
            2787     31.8101E+06    -6.49721E+06              0.    -6.47675E+06
            2788     32.4768E+06    -6.28966E+06              0.    -6.38081E+06
            2789     33.1498E+06    -6.05799E+06              0.    -6.26413E+06
            2790     33.8290E+06    -5.80106E+06              0.    -6.12519E+06
            2791     34.5142E+06    -5.51777E+06              0.    -5.96246E+06
            2792     35.2056E+06    -5.20704E+06              0.    -5.77433E+06
            2793     35.9032E+06    -4.86785E+06              0.    -5.55917E+06
            2794     36.6073E+06    -4.49926E+06              0.    -5.31535E+06
            2795     37.3186E+06    -4.10042E+06              0.    -5.04126E+06
            2796     38.0378E+06    -3.67056E+06              0.    -4.73530E+06
            2797     38.7660E+06    -3.20907E+06              0.    -4.39602E+06
            2798     39.5048E+06    -2.71549E+06              0.    -4.02206E+06
            2799     40.2560E+06    -2.18952E+06              0.    -3.61234E+06
            2800     41.0223E+06    -1.63105E+06              0.    -3.16607E+06
            2801     41.8069E+06    -1.04015E+06              0.    -2.68294E+06
            2802     42.6137E+06    -417.068E+03              0.    -2.16325E+06
            2803     43.4475E+06     237.850E+03              0.    -1.60814E+06
            2804     44.3141E+06     924.212E+03              0.    -1.01985E+06
            2805     45.2202E+06     1.64176E+06              0.    -402.037E+03
            2806     46.1736E+06     2.39065E+06              0.     239.824E+03
            2807     47.1828E+06     3.17182E+06              0.     897.975E+03
            2808     48.2573E+06     3.98762E+06              0.     1.56189E+06
            2809     49.4064E+06     4.84268E+06              0.     2.21774E+06
            2810     50.6389E+06     5.74511E+06              0.     2.84793E+06
            2811     51.9623E+06     6.70817E+06              0.     3.43090E+06
            2812     53.3804E+06     7.75225E+06              0.     3.94123E+06
            2813     54.8925E+06     8.90737E+06              0.     4.35054E+06
            2814     56.4908E+06     10.2156E+06              0.     4.62928E+06
            2815     58.1592E+06     11.7330E+06              0.     4.74985E+06
            2816     59.8727E+06     13.5308E+06              0.     4.69089E+06
            2817     61.5978E+06     15.6932E+06              0.     4.44245E+06
            2818     63.2960E+06     18.3128E+06              0.     4.01099E+06
            2819     64.9281E+06     21.4818E+06              0.     3.42257E+06
            2820     66.4604E+06     25.2816E+06              0.     2.72296E+06
            2821     68.3396E+06     29.9626E+06              0.     2.63617E+06
            2822     1.51934E+06     683.382E+03              0.    -224.999E+03
            2823     1.51386E+06     632.092E+03              0.    -224.591E+03
            2824     1.53060E+06     591.709E+03              0.    -222.200E+03
            2825     1.54717E+06     552.133E+03              0.    -220.053E+03
            2826     1.56360E+06     513.337E+03              0.    -218.145E+03
            2827     1.57988E+06     475.297E+03              0.    -216.468E+03
            2828     1.59605E+06     437.986E+03              0.    -215.016E+03
            2829     1.61212E+06     401.379E+03              0.    -213.784E+03
            2830     1.62810E+06     365.452E+03              0.    -212.766E+03
            2831     1.64401E+06     330.182E+03              0.    -211.958E+03
            2832     1.65986E+06     295.547E+03              0.    -211.355E+03
            2833     1.67568E+06     261.525E+03              0.    -210.953E+03
            2834     1.69146E+06     228.094E+03              0.    -210.748E+03
            2835     1.70723E+06     195.233E+03              0.    -210.737E+03
            2836     1.72300E+06     162.923E+03              0.    -210.917E+03
            2837     1.73879E+06     131.144E+03              0.    -211.285E+03
            2838     1.75460E+06     99.8758E+03              0.    -211.838E+03
            2839     1.77046E+06     69.1014E+03              0.    -212.575E+03
            2840     1.78636E+06     38.8015E+03              0.    -213.493E+03
            2841     1.80234E+06     8.95850E+03              0.    -214.591E+03
            2842     1.81839E+06    -20.4444E+03              0.    -215.868E+03
            2843     1.83454E+06    -49.4252E+03              0.    -217.322E+03
            2844     1.85079E+06    -77.9997E+03              0.    -218.952E+03
            2845     1.86716E+06    -106.185E+03              0.    -220.759E+03
            2846     1.88366E+06    -133.997E+03              0.    -222.742E+03
            2847     1.90030E+06    -161.450E+03              0.    -224.901E+03
            2848     1.91710E+06    -188.561E+03              0.    -227.236E+03
            2849     1.93407E+06    -215.345E+03              0.    -229.747E+03
            2850     1.95121E+06    -241.818E+03              0.    -232.436E+03
            2851     1.96855E+06    -267.992E+03              0.    -235.303E+03
            2852     1.98610E+06    -293.884E+03              0.    -238.350E+03
            2853     2.00387E+06    -319.507E+03              0.    -241.578E+03
            2854     2.02187E+06    -344.877E+03              0.    -244.988E+03
            2855     2.04011E+06    -370.006E+03              0.    -248.583E+03
            2856     2.05861E+06    -394.908E+03              0.    -252.365E+03
            2857     2.07739E+06    -419.599E+03              0.    -256.336E+03
            2858     2.09645E+06    -444.091E+03              0.    -260.498E+03
            2859     2.11580E+06    -468.398E+03              0.    -264.855E+03
            2860     2.13548E+06    -492.533E+03              0.    -269.410E+03
            2861     2.15548E+06    -516.511E+03              0.    -274.166E+03
            2862     2.17582E+06    -540.344E+03              0.    -279.126E+03
            2863     2.19651E+06    -564.046E+03              0.    -284.295E+03
            2864     2.21758E+06     -587.63E+03              0.    -289.676E+03
            2865     2.23904E+06    -611.110E+03              0.    -295.274E+03
            2866     2.26089E+06    -634.499E+03              0.    -301.093E+03
            2867     2.28317E+06    -657.811E+03              0.    -307.139E+03
            2868     2.30588E+06    -681.059E+03              0.    -313.415E+03
            2869     2.32903E+06    -704.256E+03              0.    -319.928E+03
            2870     2.35266E+06    -727.417E+03              0.    -326.683E+03
            2871     2.37677E+06    -750.554E+03              0.    -333.686E+03
            2872     2.40138E+06    -773.681E+03              0.    -340.944E+03
            2873     2.42652E+06    -796.813E+03              0.    -348.461E+03
            2874     2.45219E+06    -819.963E+03              0.    -356.247E+03
            2875     2.47842E+06    -843.145E+03              0.    -364.306E+03
            2876     2.50523E+06    -866.373E+03              0.    -372.647E+03
            2877     2.53263E+06    -889.661E+03              0.    -381.277E+03
            2878     2.56066E+06    -913.025E+03              0.    -390.204E+03
            2879     2.58932E+06    -936.478E+03              0.    -399.436E+03
            2880     2.61865E+06    -960.035E+03              0.    -408.982E+03
            2881     2.64866E+06    -983.712E+03              0.    -418.851E+03
            2882     2.67938E+06    -1.00752E+06              0.    -429.052E+03
            2883     2.71082E+06    -1.03148E+06              0.    -439.594E+03
            2884     2.74303E+06    -1.05561E+06              0.    -450.487E+03
            2885     2.77601E+06    -1.07991E+06              0.    -461.741E+03
            2886     2.80980E+06    -1.10442E+06              0.    -473.368E+03
            2887     2.84442E+06    -1.12913E+06              0.    -485.378E+03
            2888     2.87990E+06    -1.15408E+06              0.    -497.782E+03
            2889     2.91626E+06    -1.17927E+06              0.    -510.592E+03
            2890     2.95355E+06    -1.20473E+06              0.    -523.820E+03
            2891     2.99178E+06    -1.23046E+06              0.    -537.479E+03
            2892     3.03099E+06    -1.25649E+06              0.    -551.582E+03
            2893     3.07121E+06    -1.28284E+06              0.    -566.141E+03
            2894     3.11247E+06    -1.30953E+06              0.    -581.171E+03
            2895     3.15480E+06    -1.33656E+06              0.    -596.686E+03
            2896     3.19825E+06    -1.36397E+06              0.    -612.700E+03
            2897     3.24284E+06    -1.39177E+06              0.    -629.229E+03
            2898     3.28861E+06    -1.41997E+06              0.    -646.288E+03
            2899     3.33561E+06    -1.44861E+06              0.    -663.893E+03
            2900     3.38386E+06    -1.47769E+06              0.    -682.060E+03
            2901     3.43342E+06    -1.50725E+06              0.    -700.807E+03
            2902     3.48431E+06    -1.53729E+06              0.    -720.150E+03
            2903     3.53660E+06    -1.56785E+06              0.    -740.107E+03
            2904     3.59031E+06    -1.59894E+06              0.    -760.698E+03
            2905     3.64549E+06    -1.63058E+06              0.    -781.940E+03
            2906     3.70219E+06    -1.66280E+06              0.    -803.854E+03
            2907     3.76047E+06    -1.69562E+06              0.    -826.458E+03
            2908     3.82036E+06    -1.72906E+06              0.    -849.773E+03
            2909     3.88192E+06    -1.76315E+06              0.    -873.821E+03
            2910     3.94521E+06    -1.79790E+06              0.    -898.622E+03
            2911     4.01027E+06    -1.83335E+06              0.    -924.198E+03
            2912     4.07716E+06    -1.86951E+06              0.    -950.573E+03
            2913     4.14595E+06    -1.90641E+06              0.    -977.768E+03
            2914     4.21669E+06    -1.94408E+06              0.    -1.00581E+06
            2915     4.28944E+06    -1.98253E+06              0.    -1.03471E+06
            2916     4.36426E+06    -2.02180E+06              0.    -1.06451E+06
            2917     4.44122E+06    -2.06191E+06              0.    -1.09523E+06
            2918     4.52039E+06    -2.10289E+06              0.    -1.12689E+06
            2919     4.60183E+06    -2.14476E+06              0.    -1.15952E+06
            2920     4.68562E+06    -2.18754E+06              0.    -1.19314E+06
            2921     4.77182E+06    -2.23127E+06              0.    -1.22779E+06
            2922     4.86052E+06    -2.27596E+06              0.    -1.26348E+06
            2923     4.95179E+06    -2.32165E+06              0.    -1.30025E+06
            2924     5.04570E+06    -2.36836E+06              0.    -1.33813E+06
            2925     5.14235E+06    -2.41612E+06              0.    -1.37714E+06
            2926     5.24181E+06    -2.46495E+06              0.    -1.41731E+06
            2927     5.34416E+06    -2.51489E+06              0.    -1.45867E+06
            2928     5.44950E+06    -2.56594E+06              0.    -1.50126E+06
            2929     5.55792E+06    -2.61815E+06              0.    -1.54509E+06
            2930     5.66951E+06    -2.67153E+06              0.    -1.59020E+06
            2931     5.78436E+06    -2.72611E+06              0.    -1.63663E+06
            2932     5.90257E+06    -2.78192E+06              0.    -1.68439E+06
            2933     6.02425E+06    -2.83897E+06              0.    -1.73352E+06
            2934     6.14949E+06    -2.89729E+06              0.    -1.78406E+06
            2935     6.27840E+06    -2.95691E+06              0.    -1.83602E+06
            2936     6.41109E+06    -3.01783E+06              0.    -1.88945E+06
            2937     6.54767E+06    -3.08010E+06              0.    -1.94437E+06
            2938     6.68824E+06    -3.14371E+06              0.    -2.00080E+06
            2939     6.83294E+06    -3.20870E+06              0.    -2.05879E+06
            2940     6.98186E+06    -3.27508E+06              0.    -2.11835E+06
            2941     7.13515E+06    -3.34285E+06              0.    -2.17952E+06
            2942     7.29291E+06    -3.41204E+06              0.    -2.24232E+06
            2943     7.45527E+06    -3.48266E+06              0.    -2.30678E+06
            2944     7.62237E+06    -3.55472E+06              0.    -2.37293E+06
            2945     7.79434E+06    -3.62821E+06              0.    -2.44078E+06
            2946     7.97130E+06    -3.70316E+06              0.    -2.51037E+06
            2947     8.15340E+06    -3.77955E+06              0.    -2.58171E+06
            2948     8.34078E+06    -3.85738E+06              0.    -2.65482E+06
            2949     8.53357E+06    -3.93666E+06              0.    -2.72972E+06
            2950     8.73191E+06    -4.01737E+06              0.    -2.80643E+06
            2951     8.93597E+06    -4.09951E+06              0.    -2.88496E+06
            2952     9.14587E+06    -4.18305E+06              0.    -2.96533E+06
            2953     9.36178E+06    -4.26797E+06              0.    -3.04753E+06
            2954     9.58385E+06    -4.35425E+06              0.    -3.13158E+06
            2955     9.81223E+06    -4.44186E+06              0.    -3.21747E+06
            2956     10.0471E+06    -4.53076E+06              0.    -3.30521E+06
            2957     10.2885E+06    -4.62091E+06              0.    -3.39478E+06
            2958     10.5368E+06    -4.71225E+06              0.    -3.48619E+06
            2959     10.7920E+06    -4.80474E+06              0.    -3.57941E+06
            2960     11.0543E+06    -4.89832E+06              0.    -3.67442E+06
            2961     11.3239E+06    -4.99290E+06              0.    -3.77119E+06
            2962     11.6009E+06    -5.08841E+06              0.    -3.86970E+06
            2963     11.8855E+06    -5.18476E+06              0.    -3.96991E+06
            2964     12.1778E+06    -5.28186E+06              0.    -4.07176E+06
            2965     12.4781E+06    -5.37958E+06              0.    -4.17520E+06
            2966     12.7865E+06    -5.47783E+06              0.    -4.28018E+06
            2967     13.1031E+06    -5.57645E+06              0.    -4.38662E+06
            2968     13.4281E+06    -5.67532E+06              0.    -4.49443E+06
            2969     13.7617E+06    -5.77427E+06              0.    -4.60353E+06
            2970     14.1040E+06    -5.87313E+06              0.    -4.71382E+06
            2971     14.4551E+06    -5.97172E+06              0.    -4.82518E+06
            2972     14.8153E+06    -6.06984E+06              0.    -4.93747E+06
            2973     15.1847E+06    -6.16727E+06              0.    -5.05057E+06
            2974     15.5634E+06    -6.26378E+06              0.    -5.16430E+06
            2975     15.9515E+06    -6.35910E+06              0.    -5.27851E+06
            2976     16.3492E+06    -6.45298E+06              0.    -5.39300E+06
            2977     16.7566E+06    -6.54512E+06              0.    -5.50756E+06
            2978     17.1739E+06    -6.63521E+06              0.    -5.62196E+06
            2979     17.6010E+06    -6.72290E+06              0.    -5.73597E+06
            2980     18.0383E+06    -6.80785E+06              0.    -5.84931E+06
            2981     18.4856E+06    -6.88966E+06              0.    -5.96168E+06
            2982     18.9432E+06    -6.96793E+06              0.    -6.07278E+06
            2983     19.4110E+06    -7.04222E+06              0.    -6.18225E+06
            2984     19.8892E+06    -7.11207E+06              0.    -6.28973E+06
            2985     20.3779E+06    -7.17698E+06              0.    -6.39482E+06
            2986     20.8769E+06    -7.23644E+06              0.    -6.49709E+06
            2987     21.3864E+06    -7.28989E+06              0.    -6.59607E+06
            2988     21.9064E+06    -7.33674E+06              0.    -6.69126E+06
            2989     22.4369E+06    -7.37638E+06              0.    -6.78212E+06
            2990     22.9778E+06    -7.40815E+06              0.    -6.86809E+06
            2991     23.5291E+06    -7.43137E+06              0.    -6.94854E+06
            2992     24.0908E+06    -7.44531E+06              0.    -7.02282E+06
            2993     24.6628E+06    -7.44922E+06              0.    -7.09022E+06
            2994     25.2450E+06    -7.44231E+06              0.    -7.14999E+06
            2995     25.8374E+06    -7.42375E+06              0.    -7.20134E+06
            2996     26.4398E+06    -7.39267E+06              0.    -7.24342E+06
            2997     27.0520E+06    -7.34817E+06              0.    -7.27531E+06
            2998     27.6741E+06    -7.28933E+06              0.    -7.29607E+06
            2999     28.3058E+06    -7.21518E+06              0.    -7.30468E+06
            3000     28.9470E+06    -7.12473E+06              0.    -7.30007E+06
            3001     29.5976E+06    -7.01694E+06              0.    -7.28111E+06
            3002     30.2575E+06    -6.89079E+06              0.    -7.24661E+06
            3003     30.9265E+06    -6.74519E+06              0.    -7.19535E+06
            3004     31.6047E+06    -6.57907E+06              0.    -7.12601E+06
            3005     32.2920E+06    -6.39134E+06              0.    -7.03724E+06
            3006     32.9883E+06    -6.18089E+06              0.    -6.92766E+06
            3007     33.6939E+06    -5.94664E+06              0.    -6.79583E+06
            3008     34.4089E+06    -5.68752E+06              0.    -6.64027E+06
            3009     35.1337E+06    -5.40247E+06              0.    -6.45950E+06
            3010     35.8686E+06    -5.09048E+06              0.    -6.25204E+06
            3011     36.6144E+06    -4.75057E+06              0.    -6.01644E+06
            3012     37.3719E+06    -4.38184E+06              0.    -5.75127E+06
            3013     38.1422E+06    -3.98345E+06              0.    -5.45525E+06
            3014     38.9269E+06    -3.55464E+06              0.    -5.12720E+06
            3015     39.7278E+06    -3.09472E+06              0.    -4.76617E+06
            3016     40.5472E+06    -2.60312E+06              0.    -4.37152E+06
            3017     41.3878E+06    -2.07932E+06              0.    -3.94300E+06
            3018     42.2531E+06    -1.52283E+06              0.    -3.48089E+06
            3019     43.1471E+06    -933.198E+03              0.    -2.98619E+06
            3020     44.0745E+06    -309.828E+03              0.    -2.46077E+06
            3021     45.0408E+06     348.086E+03              0.    -1.90768E+06
            3022     46.0520E+06     1.04181E+06              0.    -1.33138E+06
            3023     47.1150E+06     1.77337E+06              0.    -738.076E+03
            3024     48.2369E+06     2.54602E+06              0.    -136.091E+03
            3025     49.4250E+06     3.36486E+06              0.     463.809E+03
            3026     50.6860E+06     4.23766E+06              0.     1.04808E+06
            3027     52.0256E+06     5.17601E+06              0.     1.60026E+06
            3028     53.4474E+06     6.19663E+06              0.     2.10099E+06
            3029     54.9515E+06     7.32300E+06              0.     2.52853E+06
            3030     56.5334E+06     8.58704E+06              0.     2.85978E+06
            3031     58.1829E+06     10.0306E+06              0.     3.07205E+06
            3032     59.8829E+06     11.7065E+06              0.     3.14571E+06
            3033     61.6098E+06     13.6781E+06              0.     3.06744E+06
            3034     63.3344E+06     16.0173E+06              0.     2.83381E+06
            3035     65.0246E+06     18.8002E+06              0.     2.45435E+06
            3036     66.6488E+06     22.1012E+06              0.     1.95321E+06
            3037     68.1800E+06     25.9847E+06              0.     1.36857E+06
            3038     70.0553E+06     30.6896E+06              0.     1.28238E+06
            3039     1.51280E+06     680.452E+03              0.    -241.792E+03
            3040     1.50735E+06     629.493E+03              0.    -241.354E+03
            3041     1.52399E+06     589.366E+03              0.    -238.786E+03
            3042     1.54045E+06     550.040E+03              0.    -236.480E+03
            3043     1.55677E+06     511.487E+03              0.    -234.429E+03
            3044     1.57295E+06     473.683E+03              0.    -232.625E+03
            3045     1.58902E+06     436.601E+03              0.    -231.064E+03
            3046     1.60498E+06     400.219E+03              0.    -229.737E+03
            3047     1.62086E+06     364.511E+03              0.    -228.640E+03
            3048     1.63667E+06     329.456E+03              0.    -227.767E+03
            3049     1.65242E+06     295.031E+03              0.    -227.115E+03
            3050     1.66812E+06     261.214E+03              0.    -226.677E+03
            3051     1.68380E+06     227.986E+03              0.    -226.451E+03
            3052     1.69946E+06     195.324E+03              0.    -226.432E+03
            3053     1.71513E+06     163.209E+03              0.    -226.618E+03
            3054     1.73080E+06     131.623E+03              0.    -227.005E+03
            3055     1.74650E+06     100.546E+03              0.    -227.591E+03
            3056     1.76224E+06     69.9598E+03              0.    -228.373E+03
            3057     1.77803E+06     39.8466E+03              0.    -229.349E+03
            3058     1.79388E+06     10.1888E+03              0.    -230.518E+03
            3059     1.80981E+06    -19.0302E+03              0.    -231.878E+03
            3060     1.82583E+06    -47.8279E+03              0.    -233.428E+03
            3061     1.84195E+06    -76.2200E+03              0.    -235.168E+03
            3062     1.85819E+06    -104.223E+03              0.    -237.096E+03
            3063     1.87455E+06    -131.853E+03              0.    -239.212E+03
            3064     1.89105E+06    -159.125E+03              0.    -241.517E+03
            3065     1.90770E+06    -186.054E+03              0.    -244.011E+03
            3066     1.92452E+06    -212.655E+03              0.    -246.693E+03
            3067     1.94151E+06    -238.944E+03              0.    -249.566E+03
            3068     1.95869E+06    -264.933E+03              0.    -252.629E+03
            3069     1.97607E+06    -290.639E+03              0.    -255.885E+03
            3070     1.99367E+06    -316.075E+03              0.    -259.335E+03
            3071     2.01149E+06    -341.254E+03              0.    -262.979E+03
            3072     2.02955E+06    -366.191E+03              0.    -266.822E+03
            3073     2.04786E+06    -390.900E+03              0.    -270.864E+03
            3074     2.06644E+06    -415.394E+03              0.    -275.109E+03
            3075     2.08530E+06    -439.687E+03              0.    -279.558E+03
            3076     2.10445E+06    -463.791E+03              0.    -284.216E+03
            3077     2.12390E+06    -487.721E+03              0.    -289.086E+03
            3078     2.14368E+06    -511.489E+03              0.    -294.170E+03
            3079     2.16378E+06    -535.109E+03              0.    -299.474E+03
            3080     2.18424E+06    -558.593E+03              0.    -305.000E+03
            3081     2.20506E+06    -581.956E+03              0.    -310.754E+03
            3082     2.22626E+06    -605.210E+03              0.    -316.739E+03
            3083     2.24785E+06    -628.369E+03              0.    -322.961E+03
            3084     2.26984E+06    -651.444E+03              0.    -329.425E+03
            3085     2.29226E+06    -674.451E+03              0.    -336.136E+03
            3086     2.31513E+06    -697.401E+03              0.    -343.100E+03
            3087     2.33844E+06    -720.309E+03              0.    -350.323E+03
            3088     2.36224E+06    -743.187E+03              0.    -357.812E+03
            3089     2.38652E+06    -766.049E+03              0.    -365.572E+03
            3090     2.41131E+06    -788.909E+03              0.    -373.610E+03
            3091     2.43663E+06    -811.779E+03              0.    -381.935E+03
            3092     2.46249E+06    -834.674E+03              0.    -390.552E+03
            3093     2.48892E+06    -857.608E+03              0.    -399.471E+03
            3094     2.51593E+06    -880.594E+03              0.    -408.698E+03
            3095     2.54355E+06    -903.647E+03              0.    -418.244E+03
            3096     2.57179E+06    -926.781E+03              0.    -428.115E+03
            3097     2.60067E+06    -950.010E+03              0.    -438.322E+03
            3098     2.63023E+06    -973.349E+03              0.    -448.874E+03
            3099     2.66048E+06    -996.812E+03              0.    -459.781E+03
            3100     2.69144E+06    -1.02042E+06              0.    -471.052E+03
            3101     2.72313E+06    -1.04417E+06              0.    -482.699E+03
            3102     2.75559E+06    -1.06810E+06              0.    -494.732E+03
            3103     2.78884E+06    -1.09222E+06              0.    -507.163E+03
            3104      2.8229E+06    -1.11653E+06              0.    -520.004E+03
            3105     2.85780E+06    -1.14106E+06              0.    -533.266E+03
            3106     2.89357E+06    -1.16583E+06              0.    -546.962E+03
            3107     2.93023E+06    -1.19085E+06              0.    -561.104E+03
            3108     2.96781E+06    -1.21613E+06              0.    -575.707E+03
            3109     3.00636E+06    -1.24170E+06              0.    -590.785E+03
            3110     3.04588E+06    -1.26757E+06              0.    -606.350E+03
            3111     3.08643E+06    -1.29376E+06              0.    -622.419E+03
            3112     3.12802E+06    -1.32029E+06              0.    -639.006E+03
            3113     3.17070E+06    -1.34718E+06              0.    -656.127E+03
            3114     3.21450E+06    -1.37443E+06              0.    -673.798E+03
            3115     3.25945E+06    -1.40209E+06              0.    -692.035E+03
            3116     3.30560E+06    -1.43015E+06              0.    -710.855E+03
            3117     3.35297E+06    -1.45865E+06              0.    -730.277E+03
            3118     3.40162E+06    -1.48759E+06              0.    -750.318E+03
            3119     3.45157E+06    -1.51702E+06              0.    -770.997E+03
            3120     3.50288E+06    -1.54693E+06              0.    -792.333E+03
            3121     3.55558E+06    -1.57736E+06              0.    -814.346E+03
            3122     3.60972E+06    -1.60832E+06              0.    -837.055E+03
            3123     3.66535E+06    -1.63984E+06              0.    -860.481E+03
            3124     3.72250E+06    -1.67193E+06              0.    -884.646E+03
            3125     3.78124E+06    -1.70463E+06              0.    -909.572E+03
            3126     3.84161E+06    -1.73795E+06              0.    -935.280E+03
            3127     3.90366E+06    -1.77192E+06              0.    -961.794E+03
            3128     3.96745E+06    -1.80655E+06              0.    -989.138E+03
            3129     4.03303E+06    -1.84188E+06              0.    -1.01733E+06
            3130     4.10045E+06    -1.87792E+06              0.    -1.04641E+06
            3131     4.16978E+06    -1.91470E+06              0.    -1.07638E+06
            3132     4.24107E+06    -1.95225E+06              0.    -1.10729E+06
            3133     4.31439E+06    -1.99059E+06              0.    -1.13915E+06
            3134     4.38980E+06    -2.02974E+06              0.    -1.17199E+06
            3135     4.46736E+06    -2.06973E+06              0.    -1.20584E+06
            3136     4.54714E+06    -2.11059E+06              0.    -1.24072E+06
            3137     4.62922E+06    -2.15233E+06              0.    -1.27667E+06
            3138     4.71365E+06    -2.19499E+06              0.    -1.31372E+06
            3139     4.80052E+06    -2.23859E+06              0.    -1.35188E+06
            3140     4.88990E+06    -2.28315E+06              0.    -1.39120E+06
            3141     4.98187E+06    -2.32871E+06              0.    -1.43170E+06
            3142     5.07651E+06    -2.37529E+06              0.    -1.47341E+06
            3143     5.17389E+06    -2.42291E+06              0.    -1.51637E+06
            3144     5.27411E+06    -2.47159E+06              0.    -1.56060E+06
            3145     5.37724E+06    -2.52138E+06              0.    -1.60614E+06
            3146     5.48339E+06    -2.57228E+06              0.    -1.65302E+06
            3147     5.59263E+06    -2.62432E+06              0.    -1.70127E+06
            3148     5.70506E+06    -2.67754E+06              0.    -1.75092E+06
            3149     5.82079E+06    -2.73194E+06              0.    -1.80201E+06
            3150     5.93990E+06    -2.78757E+06              0.    -1.85457E+06
            3151     6.06249E+06    -2.84443E+06              0.    -1.90862E+06
            3152     6.18868E+06    -2.90256E+06              0.    -1.96421E+06
            3153     6.31856E+06    -2.96196E+06              0.    -2.02137E+06
            3154     6.45225E+06    -3.02267E+06              0.    -2.08012E+06
            3155     6.58986E+06    -3.08471E+06              0.    -2.14050E+06
            3156     6.73149E+06    -3.14808E+06              0.    -2.20255E+06
            3157     6.87728E+06    -3.21281E+06              0.    -2.26629E+06
            3158     7.02733E+06    -3.27892E+06              0.    -2.33175E+06
            3159     7.18177E+06    -3.34641E+06              0.    -2.39896E+06
            3160     7.34072E+06    -3.41531E+06              0.    -2.46795E+06
            3161     7.50431E+06    -3.48561E+06              0.    -2.53876E+06
            3162     7.67268E+06    -3.55733E+06              0.    -2.61140E+06
            3163     7.84594E+06    -3.63047E+06              0.    -2.68590E+06
            3164     8.02425E+06    -3.70504E+06              0.    -2.76228E+06
            3165     8.20774E+06    -3.78104E+06              0.    -2.84058E+06
            3166     8.39654E+06    -3.85846E+06              0.    -2.92080E+06
            3167     8.59081E+06    -3.93730E+06              0.    -3.00296E+06
            3168     8.79068E+06    -4.01755E+06              0.    -3.08709E+06
            3169     8.99630E+06    -4.09919E+06              0.    -3.17319E+06
            3170     9.20784E+06    -4.18221E+06              0.    -3.26128E+06
            3171     9.42543E+06    -4.26658E+06              0.    -3.35135E+06
            3172     9.64923E+06    -4.35228E+06              0.    -3.44342E+06
            3173     9.87941E+06    -4.43928E+06              0.    -3.53749E+06
            3174     10.1161E+06    -4.52753E+06              0.    -3.63354E+06
            3175     10.3595E+06    -4.61699E+06              0.    -3.73158E+06
            3176     10.6098E+06    -4.70762E+06              0.    -3.83158E+06
            3177     10.8670E+06    -4.79935E+06              0.    -3.93353E+06
            3178     11.1315E+06    -4.89212E+06              0.    -4.03739E+06
            3179     11.4033E+06    -4.98585E+06              0.    -4.14315E+06
            3180     11.6826E+06    -5.08047E+06              0.    -4.25075E+06
            3181     11.9696E+06    -5.17588E+06              0.    -4.36016E+06
            3182     12.2644E+06    -5.27198E+06              0.    -4.47132E+06
            3183     12.5673E+06    -5.36867E+06              0.    -4.58416E+06
            3184     12.8783E+06    -5.46581E+06              0.    -4.69862E+06
            3185     13.1977E+06    -5.56329E+06              0.    -4.81460E+06
            3186     13.5257E+06    -5.66094E+06              0.    -4.93202E+06
            3187     13.8623E+06    -5.75862E+06              0.    -5.05078E+06
            3188     14.2078E+06    -5.85615E+06              0.    -5.17074E+06
            3189     14.5623E+06    -5.95334E+06              0.    -5.29179E+06
            3190     14.9259E+06    -6.05000E+06              0.    -5.41378E+06
            3191     15.2989E+06    -6.14590E+06              0.    -5.53654E+06
            3192     15.6814E+06    -6.24080E+06              0.    -5.65990E+06
            3193     16.0736E+06    -6.33446E+06              0.    -5.78366E+06
            3194     16.4755E+06    -6.42659E+06              0.    -5.90762E+06
            3195     16.8873E+06    -6.51691E+06              0.    -6.03154E+06
            3196     17.3092E+06    -6.60510E+06              0.    -6.15516E+06
            3197     17.7412E+06    -6.69083E+06              0.    -6.27821E+06
            3198     18.1836E+06    -6.77373E+06              0.    -6.40039E+06
            3199     18.6364E+06    -6.85342E+06              0.    -6.52137E+06
            3200     19.0997E+06    -6.92949E+06              0.    -6.64081E+06
            3201     19.5737E+06    -7.00151E+06              0.    -6.75832E+06
            3202     20.0584E+06    -7.06901E+06              0.    -6.87348E+06
            3203     20.5538E+06    -7.13151E+06              0.    -6.98587E+06
            3204     21.0602E+06    -7.18848E+06              0.    -7.09499E+06
            3205     21.5775E+06    -7.23937E+06              0.    -7.20035E+06
            3206     22.1057E+06    -7.28361E+06              0.    -7.30140E+06
            3207     22.6450E+06    -7.32057E+06              0.    -7.39754E+06
            3208     23.1954E+06    -7.34962E+06              0.    -7.48815E+06
            3209     23.7568E+06    -7.37008E+06              0.    -7.57256E+06
            3210     24.3293E+06    -7.38123E+06              0.    -7.65006E+06
            3211     24.9130E+06    -7.38233E+06              0.    -7.71989E+06
            3212     25.5077E+06    -7.37260E+06              0.    -7.78123E+06
            3213     26.1136E+06    -7.35122E+06              0.    -7.83324E+06
            3214     26.7306E+06    -7.31734E+06              0.    -7.87500E+06
            3215     27.3586E+06    -7.27009E+06              0.    -7.90556E+06
            3216     27.9978E+06    -7.20856E+06              0.    -7.92390E+06
            3217     28.6480E+06    -7.13180E+06              0.    -7.92896E+06
            3218     29.3094E+06    -7.03885E+06              0.    -7.91963E+06
            3219     29.9819E+06    -6.92870E+06              0.    -7.89473E+06
            3220     30.6657E+06    -6.80035E+06              0.    -7.85306E+06
            3221     31.3609E+06    -6.65276E+06              0.    -7.79335E+06
            3222     32.0676E+06    -6.48487E+06              0.    -7.71431E+06
            3223     32.7861E+06    -6.29562E+06              0.    -7.61459E+06
            3224     33.5167E+06    -6.08395E+06              0.    -7.49286E+06
            3225     34.2599E+06    -5.84880E+06              0.    -7.34773E+06
            3226     35.0163E+06    -5.58912E+06              0.    -7.17785E+06
            3227     35.7865E+06    -5.30385E+06              0.    -6.98189E+06
            3228     36.5714E+06    -4.99197E+06              0.    -6.75858E+06
            3229     37.3723E+06    -4.65249E+06              0.    -6.50673E+06
            3230     38.1905E+06    -4.28443E+06              0.    -6.22530E+06
            3231     39.0277E+06    -3.88684E+06              0.    -5.91343E+06
            3232     39.8861E+06    -3.45878E+06              0.    -5.57053E+06
            3233     40.7680E+06    -2.99930E+06              0.    -5.19637E+06
            3234     41.6763E+06    -2.50742E+06              0.    -4.79115E+06
            3235     42.6146E+06    -1.98207E+06              0.    -4.35567E+06
            3236     43.5866E+06    -1.42200E+06              0.    -3.89147E+06
            3237     44.5968E+06    -825.654E+03              0.    -3.40101E+06
            3238     45.6502E+06    -191.034E+03              0.    -2.88788E+06
            3239     46.7520E+06     484.594E+03              0.    -2.35702E+06
            3240     47.9078E+06     1.20503E+06              0.    -1.81501E+06
            3241     49.1234E+06     1.97557E+06              0.    -1.27027E+06
            3242     50.4039E+06     2.80367E+06              0.    -733.299E+03
            3243     51.7539E+06     3.69964E+06              0.    -216.816E+03
            3244     53.1762E+06     4.67762E+06              0.     264.281E+03
            3245     54.6716E+06     5.75670E+06              0.     693.181E+03
            3246     56.2373E+06     6.96204E+06              0.     1.05175E+06
            3247     57.8665E+06     8.32602E+06              0.     1.32164E+06
            3248     59.5477E+06     9.88906E+06              0.     1.48584E+06
            3249     61.2640E+06     11.6998E+06              0.     1.53080E+06
            3250     62.9936E+06     13.8145E+06              0.     1.44890E+06
            3251     64.7113E+06     16.2947E+06              0.     1.24078E+06
            3252     66.3898E+06     19.2041E+06              0.     917.317E+03
            3253     68.0033E+06     22.6037E+06              0.     500.325E+03
            3254     69.5298E+06     26.5464E+06              0.     21.7731E+03
            3255     71.3986E+06     31.2624E+06              0.    -65.4874E+03
            3256     1.50579E+06     677.316E+03              0.    -258.472E+03
            3257     1.50039E+06     626.709E+03              0.    -258.004E+03
            3258     1.51691E+06     586.857E+03              0.    -255.261E+03
            3259     1.53326E+06     547.797E+03              0.    -252.797E+03
            3260     1.54947E+06     509.503E+03              0.    -250.604E+03
            3261     1.56554E+06     471.951E+03              0.    -248.675E+03
            3262     1.58149E+06     435.116E+03              0.    -247.004E+03
            3263     1.59734E+06     398.973E+03              0.    -245.583E+03
            3264     1.61311E+06     363.499E+03              0.    -244.406E+03
            3265     1.62881E+06     328.673E+03              0.    -243.469E+03
            3266     1.64444E+06     294.472E+03              0.    -242.765E+03
            3267     1.66004E+06     260.875E+03              0.    -242.291E+03
            3268     1.67560E+06     227.862E+03              0.    -242.042E+03
            3269     1.69115E+06     195.413E+03              0.    -242.014E+03
            3270     1.70669E+06     163.507E+03              0.    -242.204E+03
            3271     1.72225E+06     132.127E+03              0.    -242.608E+03
            3272     1.73783E+06     101.254E+03              0.    -243.224E+03
            3273     1.75344E+06     70.8691E+03              0.    -244.049E+03
            3274     1.76911E+06     40.9552E+03              0.    -245.081E+03
            3275     1.78483E+06     11.4953E+03              0.    -246.318E+03
            3276     1.80063E+06    -17.5272E+03              0.    -247.759E+03
            3277     1.81651E+06    -46.1296E+03              0.    -249.402E+03
            3278     1.83250E+06    -74.3269E+03              0.    -251.246E+03
            3279     1.84859E+06    -102.136E+03              0.    -253.292E+03
            3280     1.86480E+06    -129.572E+03              0.    -255.538E+03
            3281     1.88115E+06    -156.649E+03              0.    -257.985E+03
            3282     1.89765E+06    -183.384E+03              0.    -260.633E+03
            3283     1.91430E+06    -209.790E+03              0.    -263.482E+03
            3284     1.93113E+06    -235.882E+03              0.    -266.533E+03
            3285     1.94814E+06    -261.674E+03              0.    -269.787E+03
            3286     1.96534E+06    -287.181E+03              0.    -273.246E+03
            3287     1.98276E+06    -312.417E+03              0.    -276.911E+03
            3288     2.00039E+06    -337.394E+03              0.    -280.785E+03
            3289     2.01826E+06    -362.126E+03              0.    -284.868E+03
            3290     2.03637E+06    -386.628E+03              0.    -289.165E+03
            3291     2.05474E+06    -410.912E+03              0.    -293.676E+03
            3292     2.07338E+06    -434.992E+03              0.    -298.406E+03
            3293     2.09230E+06    -458.880E+03              0.    -303.358E+03
            3294     2.11153E+06    -482.590E+03              0.    -308.534E+03
            3295     2.13106E+06    -506.135E+03              0.    -313.939E+03
            3296     2.15092E+06    -529.528E+03              0.    -319.577E+03
            3297     2.17112E+06    -552.781E+03              0.    -325.452E+03
            3298     2.19168E+06    -575.908E+03              0.    -331.569E+03
            3299     2.21260E+06    -598.920E+03              0.    -337.933E+03
            3300     2.23390E+06    -621.832E+03              0.    -344.548E+03
            3301     2.25561E+06    -644.657E+03              0.    -351.421E+03
            3302     2.27772E+06    -667.406E+03              0.    -358.556E+03
            3303     2.30027E+06    -690.093E+03              0.    -365.961E+03
            3304     2.32326E+06    -712.731E+03              0.    -373.640E+03
            3305     2.34671E+06    -735.333E+03              0.    -381.602E+03
            3306     2.37064E+06    -757.912E+03              0.    -389.853E+03
            3307     2.39506E+06    -780.481E+03              0.    -398.400E+03
            3308     2.42000E+06    -803.053E+03              0.    -407.250E+03
            3309     2.44548E+06    -825.643E+03              0.    -416.413E+03
            3310     2.47150E+06    -848.263E+03              0.    -425.895E+03
            3311     2.49809E+06    -870.927E+03              0.    -435.706E+03
            3312     2.52527E+06    -893.649E+03              0.    -445.855E+03
            3313     2.55306E+06    -916.442E+03              0.    -456.350E+03
            3314     2.58148E+06    -939.322E+03              0.    -467.202E+03
            3315     2.61055E+06    -962.301E+03              0.    -478.421E+03
            3316     2.64030E+06    -985.394E+03              0.    -490.016E+03
            3317     2.67074E+06    -1.00862E+06              0.    -502.000E+03
            3318     2.70190E+06    -1.03198E+06              0.    -514.382E+03
            3319     2.73380E+06    -1.05551E+06              0.    -527.175E+03
            3320     2.76647E+06    -1.07921E+06              0.    -540.391E+03
            3321     2.79993E+06    -1.10309E+06              0.    -554.042E+03
            3322     2.83421E+06    -1.12719E+06              0.    -568.140E+03
            3323     2.86934E+06    -1.15150E+06              0.    -582.701E+03
            3324     2.90534E+06    -1.17605E+06              0.    -597.736E+03
            3325     2.94224E+06    -1.20086E+06              0.    -613.260E+03
            3326     2.98007E+06    -1.22593E+06              0.    -629.288E+03
            3327     3.01886E+06    -1.25129E+06              0.    -645.835E+03
            3328     3.05864E+06    -1.27696E+06              0.    -662.917E+03
            3329     3.09945E+06    -1.30295E+06              0.    -680.550E+03
            3330     3.14131E+06    -1.32927E+06              0.    -698.750E+03
            3331     3.18426E+06    -1.35596E+06              0.    -717.534E+03
            3332     3.22834E+06    -1.38302E+06              0.    -736.920E+03
            3333     3.27358E+06    -1.41047E+06              0.    -756.927E+03
            3334     3.32002E+06    -1.43834E+06              0.    -777.572E+03
            3335     3.36769E+06    -1.46665E+06              0.    -798.876E+03
            3336     3.41664E+06    -1.49540E+06              0.    -820.858E+03
            3337     3.46691E+06    -1.52463E+06              0.    -843.538E+03
            3338     3.51854E+06    -1.55435E+06              0.    -866.937E+03
            3339     3.57156E+06    -1.58458E+06              0.    -891.077E+03
            3340     3.62604E+06    -1.61535E+06              0.    -915.979E+03
            3341     3.68201E+06    -1.64668E+06              0.    -941.666E+03
            3342     3.73952E+06    -1.67858E+06              0.    -968.162E+03
            3343     3.79861E+06    -1.71109E+06              0.    -995.490E+03
            3344     3.85935E+06    -1.74421E+06              0.    -1.02367E+06
            3345     3.92178E+06    -1.77798E+06              0.    -1.05274E+06
            3346     3.98595E+06    -1.81242E+06              0.    -1.08271E+06
            3347     4.05192E+06    -1.84755E+06              0.    -1.11362E+06
            3348     4.11974E+06    -1.88339E+06              0.    -1.14549E+06
            3349     4.18948E+06    -1.91997E+06              0.    -1.17834E+06
            3350     4.26120E+06    -1.95732E+06              0.    -1.21221E+06
            3351     4.33495E+06    -1.99544E+06              0.    -1.24712E+06
            3352     4.41080E+06    -2.03438E+06              0.    -1.28310E+06
            3353     4.48881E+06    -2.07416E+06              0.    -1.32019E+06
            3354     4.56906E+06    -2.11479E+06              0.    -1.35841E+06
            3355     4.65161E+06    -2.15631E+06              0.    -1.39779E+06
            3356     4.73653E+06    -2.19874E+06              0.    -1.43837E+06
            3357     4.82390E+06    -2.24211E+06              0.    -1.48017E+06
            3358     4.91379E+06    -2.28644E+06              0.    -1.52324E+06
            3359     5.00628E+06    -2.33175E+06              0.    -1.56759E+06
            3360     5.10146E+06    -2.37807E+06              0.    -1.61326E+06
            3361     5.19939E+06    -2.42543E+06              0.    -1.66030E+06
            3362     5.30017E+06    -2.47385E+06              0.    -1.70872E+06
            3363     5.40389E+06    -2.52336E+06              0.    -1.75857E+06
            3364     5.51063E+06    -2.57398E+06              0.    -1.80988E+06
            3365     5.62048E+06    -2.62574E+06              0.    -1.86269E+06
            3366     5.73355E+06    -2.67865E+06              0.    -1.91702E+06
            3367     5.84991E+06    -2.73275E+06              0.    -1.97292E+06
            3368     5.96969E+06    -2.78805E+06              0.    -2.03042E+06
            3369     6.09297E+06    -2.84458E+06              0.    -2.08955E+06
            3370     6.21985E+06    -2.90236E+06              0.    -2.15035E+06
            3371     6.35046E+06    -2.96141E+06              0.    -2.21286E+06
            3372     6.48489E+06    -3.02175E+06              0.    -2.27710E+06
            3373     6.62326E+06    -3.08340E+06              0.    -2.34311E+06
            3374     6.76569E+06    -3.14638E+06              0.    -2.41094E+06
            3375     6.91228E+06    -3.21070E+06              0.    -2.48060E+06
            3376     7.06317E+06    -3.27637E+06              0.    -2.55213E+06
            3377     7.21847E+06    -3.34342E+06              0.    -2.62556E+06
            3378     7.37832E+06    -3.41184E+06              0.    -2.70092E+06
            3379     7.54283E+06    -3.48166E+06              0.    -2.77825E+06
            3380     7.71215E+06    -3.55288E+06              0.    -2.85757E+06
            3381     7.88640E+06    -3.62550E+06              0.    -2.93890E+06
            3382     8.06573E+06    -3.69952E+06              0.    -3.02228E+06
            3383     8.25026E+06    -3.77495E+06              0.    -3.10771E+06
            3384     8.44016E+06    -3.85178E+06              0.    -3.19523E+06
            3385     8.63555E+06    -3.93000E+06              0.    -3.28485E+06
            3386     8.83659E+06    -4.00960E+06              0.    -3.37659E+06
            3387     9.04343E+06    -4.09057E+06              0.    -3.47046E+06
            3388     9.25622E+06    -4.17289E+06              0.    -3.56646E+06
            3389     9.47512E+06    -4.25653E+06              0.    -3.66461E+06
            3390     9.70028E+06    -4.34147E+06              0.    -3.76490E+06
            3391     9.93187E+06    -4.42767E+06              0.    -3.86733E+06
            3392     10.1701E+06    -4.51510E+06              0.    -3.97190E+06
            3393     10.4150E+06    -4.60371E+06              0.    -4.07859E+06
            3394     10.6668E+06    -4.69344E+06              0.    -4.18738E+06
            3395     10.9258E+06    -4.78424E+06              0.    -4.29825E+06
            3396     11.1919E+06    -4.87604E+06              0.    -4.41117E+06
            3397     11.4656E+06    -4.96876E+06              0.    -4.52609E+06
            3398     11.7468E+06    -5.06233E+06              0.    -4.64298E+06
            3399     12.0358E+06    -5.15665E+06              0.    -4.76178E+06
            3400     12.3327E+06    -5.25163E+06              0.    -4.88242E+06
            3401     12.6378E+06    -5.34714E+06              0.    -5.00484E+06
            3402     12.9511E+06    -5.44306E+06              0.    -5.12894E+06
            3403     13.2729E+06    -5.53927E+06              0.    -5.25464E+06
            3404     13.6034E+06    -5.63562E+06              0.    -5.38183E+06
            3405     13.9427E+06    -5.73194E+06              0.    -5.51039E+06
            3406     14.2910E+06    -5.82806E+06              0.    -5.64018E+06
            3407     14.6485E+06    -5.92380E+06              0.    -5.77107E+06
            3408     15.0153E+06    -6.01896E+06              0.    -5.90288E+06
            3409     15.3916E+06     -6.1133E+06              0.    -6.03543E+06
            3410     15.7776E+06    -6.20660E+06              0.    -6.16853E+06
            3411     16.1735E+06    -6.29861E+06              0.    -6.30196E+06
            3412     16.5794E+06    -6.38905E+06              0.    -6.43549E+06
            3413     16.9954E+06    -6.47762E+06              0.    -6.56885E+06
            3414     17.4217E+06    -6.56402E+06              0.    -6.70177E+06
            3415     17.8585E+06    -6.64790E+06              0.    -6.83393E+06
            3416     18.3060E+06    -6.72892E+06              0.    -6.96501E+06
            3417     18.7641E+06    -6.80669E+06              0.    -7.09465E+06
            3418     19.2332E+06     -6.8808E+06              0.    -7.22247E+06
            3419     19.7133E+06    -6.95082E+06              0.    -7.34803E+06
            3420     20.2046E+06    -7.01630E+06              0.    -7.47091E+06
            3421     20.7071E+06    -7.07674E+06              0.    -7.59060E+06
            3422     21.2210E+06    -7.13164E+06              0.    -7.70660E+06
            3423     21.7464E+06    -7.18045E+06              0.    -7.81835E+06
            3424     22.2833E+06    -7.22259E+06              0.    -7.92526E+06
            3425     22.8320E+06    -7.25747E+06              0.    -8.02669E+06
            3426     23.3925E+06    -7.28444E+06              0.    -8.12197E+06
            3427     23.9648E+06    -7.30284E+06              0.    -8.21039E+06
            3428     24.5491E+06    -7.31196E+06              0.    -8.29116E+06
            3429     25.1455E+06    -7.31107E+06              0.    -8.36350E+06
            3430     25.7540E+06    -7.29941E+06              0.    -8.42653E+06
            3431     26.3748E+06    -7.27618E+06              0.    -8.47936E+06
            3432     27.0080E+06    -7.24055E+06              0.    -8.52104E+06
            3433     27.6536E+06    -7.19165E+06              0.    -8.55056E+06
            3434     28.3119E+06    -7.12859E+06              0.    -8.56687E+06
            3435     28.9830E+06    -7.05045E+06              0.    -8.56889E+06
            3436     29.6671E+06    -6.95628E+06              0.    -8.55547E+06
            3437     30.3644E+06    -6.84510E+06              0.    -8.52544E+06
            3438     31.0752E+06    -6.71592E+06              0.    -8.47759E+06
            3439     31.7999E+06    -6.56771E+06              0.    -8.41068E+06
            3440     32.5389E+06    -6.39942E+06              0.    -8.32345E+06
            3441     33.2928E+06    -6.21001E+06              0.    -8.21463E+06
            3442     34.0621E+06    -5.99841E+06              0.    -8.08297E+06
            3443     34.8477E+06    -5.76352E+06              0.    -7.92724E+06
            3444     35.6505E+06    -5.50426E+06              0.    -7.74627E+06
            3445     36.4716E+06    -5.21952E+06              0.    -7.53896E+06
            3446     37.3124E+06    -4.90818E+06              0.    -7.30435E+06
            3447     38.1744E+06    -4.56909E+06              0.    -7.04165E+06
            3448     39.0596E+06    -4.20107E+06              0.    -6.75027E+06
            3449     39.9700E+06    -3.80287E+06              0.    -6.42995E+06
            3450     40.9082E+06    -3.37316E+06              0.    -6.08079E+06
            3451     41.8771E+06    -2.91044E+06              0.    -5.70340E+06
            3452     42.8799E+06    -2.41302E+06              0.    -5.29896E+06
            3453     43.9204E+06    -1.87886E+06              0.    -4.86943E+06
            3454     45.0024E+06    -1.30547E+06              0.    -4.41765E+06
            3455     46.1302E+06    -689.684E+03              0.    -3.94752E+06
            3456     47.3084E+06    -27.4134E+03              0.    -3.46422E+06
            3457     48.5412E+06     686.707E+03              0.    -2.97434E+06
            3458     49.8329E+06     1.45975E+06              0.    -2.48607E+06
            3459     51.1870E+06     2.30105E+06              0.    -2.00927E+06
            3460     52.6059E+06     3.22288E+06              0.    -1.55550E+06
            3461     54.0903E+06     4.24119E+06              0.    -1.13785E+06
            3462     55.6387E+06     5.37647E+06              0.    -770.564E+03
            3463     57.2465E+06     6.65456E+06              0.    -468.420E+03
            3464     58.9056E+06     8.10735E+06              0.    -245.679E+03
            3465     60.6037E+06     9.77310E+06              0.    -114.770E+03
            3466     62.3248E+06     11.6963E+06              0.    -84.6381E+03
            3467     64.0491E+06     13.9269E+06              0.    -158.965E+03
            3468     65.7546E+06     16.5179E+06              0.    -334.556E+03
            3469     67.4182E+06     19.5236E+06              0.    -600.191E+03
            3470     69.0181E+06     22.9950E+06              0.    -936.367E+03
            3471     70.5360E+06     26.9768E+06              0.    -1.31618E+06
            3472     72.3960E+06     31.6928E+06              0.    -1.40558E+06
            3473     1.49833E+06     673.975E+03              0.    -275.033E+03
            3474     1.49297E+06     623.743E+03              0.    -274.535E+03
            3475     1.50937E+06     584.182E+03              0.    -271.618E+03
            3476     1.52560E+06     545.405E+03              0.    -268.998E+03
            3477     1.54168E+06     507.387E+03              0.    -266.664E+03
            3478     1.55764E+06     470.103E+03              0.    -264.611E+03
            3479     1.57348E+06     433.528E+03              0.    -262.830E+03
            3480     1.58921E+06     397.640E+03              0.    -261.314E+03
            3481     1.60486E+06     362.415E+03              0.    -260.058E+03
            3482     1.62044E+06     327.832E+03              0.    -259.055E+03
            3483     1.63596E+06     293.870E+03              0.    -258.300E+03
            3484     1.65143E+06     260.506E+03              0.    -257.789E+03
            3485     1.66687E+06     227.723E+03              0.    -257.516E+03
            3486     1.68230E+06     195.499E+03              0.    -257.477E+03
            3487     1.69772E+06     163.815E+03              0.    -257.669E+03
            3488     1.71315E+06     132.655E+03              0.    -258.088E+03
            3489     1.72860E+06     101.997E+03              0.    -258.732E+03
            3490     1.74408E+06     71.8266E+03              0.    -259.597E+03
            3491     1.75961E+06     42.1245E+03              0.    -260.682E+03
            3492     1.77520E+06     12.8747E+03              0.    -261.984E+03
            3493     1.79086E+06    -15.9391E+03              0.    -263.502E+03
            3494     1.80660E+06    -44.3338E+03              0.    -265.234E+03
            3495     1.82243E+06    -72.3244E+03              0.    -267.180E+03
            3496     1.83837E+06    -99.9270E+03              0.    -269.339E+03
            3497     1.85443E+06    -127.157E+03              0.    -271.711E+03
            3498     1.87062E+06    -154.028E+03              0.    -274.295E+03
            3499     1.88695E+06    -180.556E+03              0.    -277.092E+03
            3500     1.90344E+06    -206.754E+03              0.    -280.102E+03
            3501     1.92009E+06    -232.638E+03              0.    -283.327E+03
            3502     1.93692E+06    -258.221E+03              0.    -286.766E+03
            3503     1.95393E+06    -283.517E+03              0.    -290.423E+03
            3504     1.97115E+06    -308.540E+03              0.    -294.298E+03
            3505     1.98858E+06    -333.302E+03              0.    -298.393E+03
            3506     2.00624E+06    -357.817E+03              0.    -302.711E+03
            3507     2.02414E+06    -382.099E+03              0.    -307.254E+03
            3508     2.04229E+06    -406.161E+03              0.    -312.025E+03
            3509     2.06070E+06    -430.015E+03              0.    -317.028E+03
            3510     2.07939E+06    -453.674E+03              0.    -322.265E+03
            3511     2.09837E+06    -477.151E+03              0.    -327.740E+03
            3512     2.11765E+06    -500.459E+03              0.    -333.458E+03
            3513     2.13725E+06    -523.610E+03              0.    -339.422E+03
            3514     2.15718E+06    -546.617E+03              0.    -345.636E+03
            3515     2.17745E+06    -569.493E+03              0.    -352.107E+03
            3516     2.19808E+06    -592.250E+03              0.    -358.839E+03
            3517     2.21908E+06    -614.901E+03              0.    -365.837E+03
            3518     2.24047E+06    -637.458E+03              0.    -373.108E+03
            3519     2.26226E+06    -659.935E+03              0.    -380.656E+03
            3520     2.28447E+06    -682.342E+03              0.    -388.489E+03
            3521     2.30711E+06    -704.694E+03              0.    -396.614E+03
            3522     2.33020E+06    -727.003E+03              0.    -405.037E+03
            3523     2.35376E+06    -749.282E+03              0.    -413.765E+03
            3524     2.37780E+06    -771.544E+03              0.    -422.807E+03
            3525     2.40234E+06    -793.800E+03              0.    -432.171E+03
            3526     2.42740E+06    -816.066E+03              0.    -441.864E+03
            3527     2.45299E+06    -838.353E+03              0.    -451.895E+03
            3528     2.47913E+06    -860.676E+03              0.    -462.274E+03
            3529     2.50585E+06    -883.046E+03              0.    -473.010E+03
            3530     2.53317E+06    -905.479E+03              0.    -484.113E+03
            3531     2.56109E+06    -927.987E+03              0.    -495.593E+03
            3532     2.58965E+06    -950.585E+03              0.    -507.461E+03
            3533     2.61886E+06    -973.286E+03              0.    -519.727E+03
            3534     2.64875E+06    -996.105E+03              0.    -532.404E+03
            3535     2.67934E+06    -1.01906E+06              0.    -545.503E+03
            3536     2.71066E+06    -1.04215E+06              0.    -559.035E+03
            3537     2.74271E+06    -1.06541E+06              0.    -573.015E+03
            3538     2.77554E+06    -1.08885E+06              0.    -587.455E+03
            3539     2.80917E+06    -1.11248E+06              0.    -602.369E+03
            3540     2.84362E+06    -1.13631E+06              0.    -617.770E+03
            3541     2.87891E+06    -1.16037E+06              0.    -633.673E+03
            3542     2.91508E+06    -1.18466E+06              0.    -650.094E+03
            3543     2.95216E+06    -1.20921E+06              0.    -667.048E+03
            3544     2.99017E+06    -1.23403E+06              0.    -684.550E+03
            3545     3.02914E+06    -1.25914E+06              0.    -702.618E+03
            3546     3.06911E+06    -1.28456E+06              0.    -721.268E+03
            3547     3.11011E+06    -1.31029E+06              0.    -740.518E+03
            3548     3.15216E+06    -1.33637E+06              0.    -760.386E+03
            3549     3.19531E+06    -1.36280E+06              0.    -780.891E+03
            3550     3.23959E+06    -1.38961E+06              0.    -802.052E+03
            3551     3.28504E+06    -1.41682E+06              0.    -823.888E+03
            3552     3.33168E+06    -1.44443E+06              0.    -846.420E+03
            3553     3.37957E+06    -1.47248E+06              0.    -869.670E+03
            3554     3.42874E+06    -1.50098E+06              0.    -893.657E+03
            3555     3.47922E+06    -1.52996E+06              0.    -918.406E+03
            3556     3.53107E+06    -1.55942E+06              0.    -943.937E+03
            3557     3.58433E+06    -1.58940E+06              0.    -970.275E+03
            3558     3.63904E+06    -1.61991E+06              0.    -997.443E+03
            3559     3.69524E+06    -1.65097E+06              0.    -1.02547E+06
            3560     3.75299E+06    -1.68261E+06              0.    -1.05437E+06
            3561     3.81233E+06    -1.71484E+06              0.    -1.08418E+06
            3562     3.87332E+06    -1.74770E+06              0.    -1.11492E+06
            3563     3.93600E+06    -1.78119E+06              0.    -1.14663E+06
            3564     4.00043E+06    -1.81535E+06              0.    -1.17931E+06
            3565     4.06666E+06    -1.85019E+06              0.    -1.21302E+06
            3566     4.13475E+06    -1.88575E+06              0.    -1.24777E+06
            3567     4.20476E+06    -1.92203E+06              0.    -1.28359E+06
            3568     4.27676E+06    -1.95908E+06              0.    -1.32052E+06
            3569     4.35079E+06    -1.99690E+06              0.    -1.35858E+06
            3570     4.42693E+06    -2.03553E+06              0.    -1.39781E+06
            3571     4.50523E+06    -2.07499E+06              0.    -1.43824E+06
            3572     4.58578E+06    -2.11530E+06              0.    -1.47990E+06
            3573     4.66864E+06    -2.15649E+06              0.    -1.52283E+06
            3574     4.75387E+06    -2.19858E+06              0.    -1.56705E+06
            3575     4.84156E+06    -2.24160E+06              0.    -1.61260E+06
            3576     4.93178E+06    -2.28557E+06              0.    -1.65953E+06
            3577     5.02461E+06    -2.33052E+06              0.    -1.70785E+06
            3578     5.12012E+06    -2.37647E+06              0.    -1.75761E+06
            3579     5.21840E+06    -2.42345E+06              0.    -1.80885E+06
            3580     5.31954E+06    -2.47148E+06              0.    -1.86159E+06
            3581     5.42363E+06    -2.52058E+06              0.    -1.91589E+06
            3582     5.53074E+06    -2.57079E+06              0.    -1.97176E+06
            3583     5.64098E+06    -2.62212E+06              0.    -2.02926E+06
            3584     5.75444E+06    -2.67459E+06              0.    -2.08842E+06
            3585     5.87121E+06    -2.72823E+06              0.    -2.14927E+06
            3586     5.99140E+06    -2.78307E+06              0.    -2.21186E+06
            3587     6.11511E+06    -2.83912E+06              0.    -2.27621E+06
            3588     6.24244E+06    -2.89641E+06              0.    -2.34238E+06
            3589     6.37350E+06    -2.95495E+06              0.    -2.41039E+06
            3590     6.50840E+06    -3.01476E+06              0.    -2.48028E+06
            3591     6.64725E+06    -3.07586E+06              0.    -2.55208E+06
            3592     6.79018E+06    -3.13828E+06              0.    -2.62584E+06
            3593     6.93729E+06    -3.20202E+06              0.    -2.70159E+06
            3594     7.08871E+06    -3.26710E+06              0.    -2.77936E+06
            3595     7.24457E+06    -3.33352E+06              0.    -2.85918E+06
            3596     7.40499E+06    -3.40131E+06              0.    -2.94109E+06
            3597     7.57010E+06    -3.47047E+06              0.    -3.02512E+06
            3598     7.74003E+06    -3.54101E+06              0.    -3.11129E+06
            3599     7.91493E+06    -3.61292E+06              0.    -3.19964E+06
            3600     8.09492E+06    -3.68622E+06              0.    -3.29018E+06
            3601     8.28016E+06     -3.7609E+06              0.    -3.38295E+06
            3602     8.47078E+06    -3.83695E+06              0.    -3.47795E+06
            3603     8.66693E+06    -3.91437E+06              0.    -3.57521E+06
            3604     8.86877E+06    -3.99315E+06              0.    -3.67475E+06
            3605     9.07644E+06    -4.07327E+06              0.    -3.77657E+06
            3606     9.29011E+06    -4.15470E+06              0.    -3.88069E+06
            3607     9.50992E+06    -4.23744E+06              0.    -3.98710E+06
            3608     9.73605E+06    -4.32144E+06              0.    -4.09580E+06
            3609     9.96865E+06    -4.40668E+06              0.    -4.20680E+06
            3610     10.2079E+06    -4.49311E+06              0.    -4.32007E+06
            3611     10.4540E+06    -4.58068E+06              0.    -4.43560E+06
            3612     10.7070E+06    -4.66935E+06              0.    -4.55338E+06
            3613     10.9672E+06    -4.75906E+06              0.    -4.67336E+06
            3614     11.2347E+06    -4.84973E+06              0.    -4.79552E+06
            3615     11.5097E+06     -4.9413E+06              0.    -4.91980E+06
            3616     11.7924E+06    -5.03368E+06              0.    -5.04616E+06
            3617     12.0830E+06    -5.12677E+06              0.    -5.17452E+06
            3618     12.3816E+06    -5.22049E+06              0.    -5.30483E+06
            3619     12.6884E+06    -5.31471E+06              0.    -5.43700E+06
            3620     13.0037E+06    -5.40931E+06              0.    -5.57092E+06
            3621     13.3275E+06    -5.50416E+06              0.    -5.70651E+06
            3622     13.6602E+06    -5.59911E+06              0.    -5.84363E+06
            3623     14.0018E+06    -5.69401E+06              0.    -5.98215E+06
            3624     14.3525E+06    -5.78867E+06              0.    -6.12192E+06
            3625     14.7126E+06    -5.88293E+06              0.    -6.26279E+06
            3626     15.0822E+06    -5.97656E+06              0.    -6.40456E+06
            3627     15.4616E+06    -6.06936E+06              0.    -6.54705E+06
            3628     15.8508E+06    -6.16109E+06              0.    -6.69002E+06
            3629     16.2501E+06    -6.25150E+06              0.    -6.83325E+06
            3630     16.6597E+06    -6.34032E+06              0.    -6.97646E+06
            3631     17.0797E+06    -6.42725E+06              0.    -7.11938E+06
            3632     17.5103E+06    -6.51200E+06              0.    -7.26170E+06
            3633     17.9517E+06    -6.59422E+06              0.    -7.40308E+06
            3634     18.4041E+06    -6.67356E+06              0.    -7.54316E+06
            3635     18.8676E+06    -6.74965E+06              0.    -7.68155E+06
            3636     19.3425E+06    -6.82209E+06              0.    -7.81782E+06
            3637     19.8288E+06    -6.89044E+06              0.    -7.95154E+06
            3638     20.3268E+06    -6.95426E+06              0.    -8.08221E+06
            3639     20.8365E+06    -7.01307E+06              0.    -8.20931E+06
            3640     21.3583E+06    -7.06636E+06              0.    -8.33228E+06
            3641     21.8922E+06    -7.11360E+06              0.    -8.45052E+06
            3642     22.4384E+06    -7.15422E+06              0.    -8.56342E+06
            3643     22.9970E+06    -7.18763E+06              0.    -8.67027E+06
            3644     23.5683E+06    -7.21319E+06              0.    -8.77038E+06
            3645     24.1524E+06    -7.23027E+06              0.    -8.86298E+06
            3646     24.7495E+06    -7.23816E+06              0.    -8.94726E+06
            3647     25.3597E+06    -7.23614E+06              0.    -9.02238E+06
            3648     25.9833E+06    -7.22347E+06              0.    -9.08743E+06
            3649     26.6205E+06    -7.19935E+06              0.    -9.14150E+06
            3650     27.2715E+06    -7.16298E+06              0.    -9.18358E+06
            3651     27.9366E+06    -7.11349E+06              0.    -9.21266E+06
            3652     28.6161E+06    -7.05001E+06              0.    -9.22768E+06
            3653     29.3103E+06    -6.97163E+06              0.    -9.22753E+06
            3654     30.0196E+06    -6.87740E+06              0.    -9.21109E+06
            3655     30.7444E+06    -6.76634E+06              0.    -9.17719E+06
            3656     31.4852E+06    -6.63746E+06              0.    -9.12467E+06
            3657     32.2428E+06    -6.48972E+06              0.    -9.05236E+06
            3658     33.0176E+06    -6.32205E+06              0.    -8.95907E+06
            3659     33.8106E+06    -6.13336E+06              0.    -8.84366E+06
            3660     34.6227E+06    -5.92253E+06              0.    -8.70505E+06
            3661     35.4550E+06    -5.68837E+06              0.    -8.54221E+06
            3662     36.3088E+06    -5.42969E+06              0.    -8.35421E+06
            3663     37.1855E+06    -5.14520E+06              0.    -8.14031E+06
            3664     38.0868E+06    -4.83357E+06              0.    -7.89990E+06
            3665     39.0146E+06    -4.49335E+06              0.    -7.63268E+06
            3666     39.9712E+06    -4.12297E+06              0.    -7.33864E+06
            3667     40.9591E+06    -3.72068E+06              0.    -7.01816E+06
            3668     41.9809E+06    -3.28446E+06              0.    -6.67215E+06
            3669     43.0397E+06    -2.81200E+06              0.    -6.30209E+06
            3670     44.1388E+06    -2.30050E+06              0.    -5.91018E+06
            3671     45.2816E+06    -1.74655E+06              0.    -5.49949E+06
            3672     46.4717E+06    -1.14593E+06              0.    -5.07403E+06
            3673     47.7126E+06    -493.356E+03              0.    -4.63897E+06
            3674     49.0077E+06     217.892E+03              0.    -4.20068E+06
            3675     50.3597E+06     996.334E+03              0.    -3.76683E+06
            3676     51.7705E+06     1.85280E+06              0.    -3.34642E+06
            3677     53.2410E+06     2.80095E+06              0.    -2.94966E+06
            3678     54.7701E+06     3.85791E+06              0.    -2.58778E+06
            3679     56.3547E+06     5.04488E+06              0.    -2.27259E+06
            3680     57.9889E+06     6.38767E+06              0.    -2.01586E+06
            3681     59.6639E+06     7.91708E+06              0.    -1.82840E+06
            3682     61.3675E+06     9.66900E+06              0.    -1.71903E+06
            3683     63.0844E+06     11.6840E+06              0.    -1.69324E+06
            3684     64.7970E+06     14.0063E+06              0.    -1.75197E+06
            3685     66.4858E+06     16.6826E+06              0.    -1.89050E+06
            3686     68.1311E+06     19.7593E+06              0.    -2.09779E+06
            3687     69.7145E+06     23.2804E+06              0.    -2.35650E+06
            3688     71.2203E+06     27.2845E+06              0.    -2.64380E+06
            3689     73.0694E+06     31.9905E+06              0.    -2.73642E+06
            3690     1.49042E+06     670.433E+03              0.    -291.467E+03
            3691     1.48510E+06     620.597E+03              0.    -290.940E+03
            3692     1.50137E+06     581.344E+03              0.    -287.851E+03
            3693     1.51748E+06     542.866E+03              0.    -285.075E+03
            3694     1.53344E+06     505.139E+03              0.    -282.602E+03
            3695     1.54926E+06     468.139E+03              0.    -280.425E+03
            3696     1.56498E+06     431.840E+03              0.    -278.534E+03
            3697     1.58059E+06     396.221E+03              0.    -276.925E+03
            3698     1.59611E+06     361.259E+03              0.    -275.588E+03
            3699     1.61156E+06     326.933E+03              0.    -274.520E+03
            3700     1.62696E+06     293.223E+03              0.    -273.713E+03
            3701     1.64231E+06     260.107E+03              0.    -273.162E+03
            3702     1.65762E+06     227.566E+03              0.    -272.864E+03
            3703     1.67292E+06     195.580E+03              0.    -272.813E+03
            3704     1.68821E+06     164.132E+03              0.    -273.005E+03
            3705     1.70350E+06     133.202E+03              0.    -273.437E+03
            3706     1.71882E+06     102.774E+03              0.    -274.106E+03
            3707     1.73416E+06     72.8295E+03              0.    -275.009E+03
            3708     1.74955E+06     43.3515E+03              0.    -276.143E+03
            3709     1.76499E+06     14.3239E+03              0.    -277.507E+03
            3710     1.78050E+06    -14.2692E+03              0.    -279.099E+03
            3711     1.79609E+06    -42.4444E+03              0.    -280.917E+03
            3712     1.81177E+06    -70.2162E+03              0.    -282.960E+03
            3713     1.82755E+06    -97.6007E+03              0.    -285.228E+03
            3714     1.84345E+06    -124.612E+03              0.    -287.720E+03
            3715     1.85947E+06    -151.265E+03              0.    -290.437E+03
            3716     1.87562E+06    -177.575E+03              0.    -293.378E+03
            3717     1.89193E+06    -203.554E+03              0.    -296.544E+03
            3718     1.90839E+06    -229.218E+03              0.    -299.936E+03
            3719     1.92503E+06    -254.580E+03              0.    -303.556E+03
            3720     1.94185E+06    -279.652E+03              0.    -307.403E+03
            3721     1.95886E+06    -304.450E+03              0.    -311.482E+03
            3722     1.97608E+06    -328.985E+03              0.    -315.792E+03
            3723     1.99352E+06    -353.271E+03              0.    -320.338E+03
            3724     2.01120E+06    -377.321E+03              0.    -325.120E+03
            3725     2.02911E+06    -401.147E+03              0.    -330.144E+03
            3726     2.04728E+06    -424.762E+03              0.    -335.411E+03
            3727     2.06572E+06    -448.179E+03              0.    -340.925E+03
            3728     2.08444E+06    -471.410E+03              0.    -346.690E+03
            3729     2.10345E+06    -494.468E+03              0.    -352.711E+03
            3730     2.12278E+06    -517.364E+03              0.    -358.991E+03
            3731     2.14242E+06    -540.112E+03              0.    -365.536E+03
            3732     2.16239E+06    -562.723E+03              0.    -372.351E+03
            3733     2.18271E+06    -585.210E+03              0.    -379.440E+03
            3734     2.20340E+06    -607.585E+03              0.    -386.810E+03
            3735     2.22445E+06    -629.861E+03              0.    -394.467E+03
            3736     2.24590E+06    -652.049E+03              0.    -402.418E+03
            3737     2.26776E+06    -674.162E+03              0.    -410.668E+03
            3738     2.29003E+06    -696.212E+03              0.    -419.224E+03
            3739     2.31274E+06    -718.212E+03              0.    -428.095E+03
            3740     2.33591E+06    -740.173E+03              0.    -437.288E+03
            3741     2.35954E+06    -762.110E+03              0.    -446.811E+03
            3742     2.38366E+06    -784.034E+03              0.    -456.673E+03
            3743     2.40827E+06    -805.957E+03              0.    -466.881E+03
            3744     2.43341E+06    -827.893E+03              0.    -477.446E+03
            3745     2.45909E+06    -849.855E+03              0.    -488.377E+03
            3746     2.48532E+06    -871.856E+03              0.    -499.684E+03
            3747     2.51213E+06    -893.908E+03              0.    -511.377E+03
            3748     2.53953E+06    -916.024E+03              0.    -523.468E+03
            3749     2.56755E+06    -938.220E+03              0.    -535.966E+03
            3750     2.59620E+06    -960.507E+03              0.    -548.884E+03
            3751     2.62551E+06    -982.901E+03              0.    -562.234E+03
            3752     2.65550E+06    -1.00541E+06              0.    -576.028E+03
            3753     2.68619E+06    -1.02806E+06              0.    -590.279E+03
            3754     2.71760E+06    -1.05086E+06              0.    -605.001E+03
            3755     2.74977E+06    -1.07381E+06              0.    -620.207E+03
            3756     2.78270E+06    -1.09695E+06              0.    -635.912E+03
            3757     2.81643E+06    -1.12028E+06              0.    -652.130E+03
            3758     2.85098E+06    -1.14381E+06              0.    -668.877E+03
            3759     2.88639E+06    -1.16757E+06              0.    -686.169E+03
            3760     2.92267E+06    -1.19156E+06              0.    -704.021E+03
            3761     2.95985E+06    -1.21582E+06              0.    -722.451E+03
            3762     2.99798E+06    -1.24034E+06              0.    -741.476E+03
            3763     3.03706E+06    -1.26515E+06              0.    -761.114E+03
            3764     3.07714E+06    -1.29026E+06              0.    -781.384E+03
            3765     3.11826E+06    -1.31570E+06              0.    -802.304E+03
            3766     3.16043E+06    -1.34147E+06              0.    -823.895E+03
            3767     3.20369E+06    -1.36760E+06              0.    -846.176E+03
            3768     3.24809E+06    -1.39410E+06              0.    -869.168E+03
            3769     3.29365E+06    -1.42100E+06              0.    -892.893E+03
            3770     3.34041E+06    -1.44830E+06              0.    -917.372E+03
            3771     3.38842E+06    -1.47604E+06              0.    -942.629E+03
            3772     3.43770E+06    -1.50422E+06              0.    -968.687E+03
            3773     3.48831E+06    -1.53287E+06              0.    -995.569E+03
            3774     3.54028E+06    -1.56201E+06              0.    -1.02330E+06
            3775     3.59366E+06    -1.59166E+06              0.    -1.05191E+06
            3776     3.64848E+06    -1.62183E+06              0.    -1.08141E+06
            3777     3.70481E+06    -1.65256E+06              0.    -1.11185E+06
            3778     3.76268E+06    -1.68385E+06              0.    -1.14323E+06
            3779     3.82214E+06    -1.71574E+06              0.    -1.17560E+06
            3780     3.88325E+06    -1.74823E+06              0.    -1.20898E+06
            3781     3.94605E+06    -1.78137E+06              0.    -1.24340E+06
            3782     4.01060E+06    -1.81516E+06              0.    -1.27889E+06
            3783     4.07696E+06    -1.84963E+06              0.    -1.31548E+06
            3784     4.14517E+06    -1.88480E+06              0.    -1.35320E+06
            3785     4.21531E+06    -1.92070E+06              0.    -1.39209E+06
            3786     4.28742E+06    -1.95735E+06              0.    -1.43217E+06
            3787     4.36158E+06    -1.99477E+06              0.    -1.47348E+06
            3788     4.43784E+06    -2.03298E+06              0.    -1.51605E+06
            3789     4.51628E+06    -2.07202E+06              0.    -1.55993E+06
            3790     4.59695E+06    -2.11189E+06              0.    -1.60513E+06
            3791     4.67993E+06    -2.15264E+06              0.    -1.65170E+06
            3792     4.76530E+06    -2.19428E+06              0.    -1.69968E+06
            3793     4.85311E+06    -2.23683E+06              0.    -1.74910E+06
            3794     4.94346E+06    -2.28033E+06              0.    -1.79999E+06
            3795     5.03642E+06    -2.32479E+06              0.    -1.85240E+06
            3796     5.13206E+06    -2.37024E+06              0.    -1.90637E+06
            3797     5.23048E+06    -2.41671E+06              0.    -1.96193E+06
            3798     5.33175E+06    -2.46421E+06              0.    -2.01912E+06
            3799     5.43597E+06    -2.51277E+06              0.    -2.07799E+06
            3800     5.54323E+06    -2.56242E+06              0.    -2.13856E+06
            3801     5.65361E+06    -2.61318E+06              0.    -2.20089E+06
            3802     5.76721E+06    -2.66507E+06              0.    -2.26500E+06
            3803     5.88414E+06    -2.71811E+06              0.    -2.33095E+06
            3804     6.00448E+06    -2.77233E+06              0.    -2.39877E+06
            3805     6.12834E+06    -2.82775E+06              0.    -2.46849E+06
            3806     6.25584E+06    -2.88438E+06              0.    -2.54016E+06
            3807     6.38707E+06    -2.94225E+06              0.    -2.61383E+06
            3808     6.52214E+06    -3.00137E+06              0.    -2.68952E+06
            3809     6.66118E+06    -3.06177E+06              0.    -2.76727E+06
            3810     6.80430E+06    -3.12346E+06              0.    -2.84713E+06
            3811     6.95161E+06    -3.18645E+06              0.    -2.92913E+06
            3812     7.10325E+06    -3.25075E+06              0.    -3.01330E+06
            3813     7.25933E+06    -3.31639E+06              0.    -3.09968E+06
            3814     7.41998E+06    -3.38337E+06              0.    -3.18830E+06
            3815     7.58534E+06    -3.45169E+06              0.    -3.27920E+06
            3816     7.75554E+06    -3.52136E+06              0.    -3.37240E+06
            3817     7.93072E+06    -3.59240E+06              0.    -3.46793E+06
            3818     8.11102E+06    -3.66479E+06              0.    -3.56582E+06
            3819     8.29658E+06    -3.73853E+06              0.    -3.66609E+06
            3820     8.48755E+06    -3.81363E+06              0.    -3.76876E+06
            3821     8.68408E+06    -3.89007E+06              0.    -3.87385E+06
            3822     8.88632E+06    -3.96783E+06              0.    -3.98137E+06
            3823     9.09443E+06    -4.04692E+06              0.    -4.09133E+06
            3824     9.30856E+06    -4.12729E+06              0.    -4.20374E+06
            3825     9.52888E+06    -4.20894E+06              0.    -4.31860E+06
            3826     9.75555E+06    -4.29183E+06              0.    -4.43591E+06
            3827     9.98875E+06    -4.37592E+06              0.    -4.55565E+06
            3828     10.2286E+06    -4.46118E+06              0.    -4.67781E+06
            3829     10.4754E+06    -4.54756E+06              0.    -4.80238E+06
            3830     10.7292E+06    -4.63501E+06              0.    -4.92932E+06
            3831     10.9902E+06    -4.72347E+06              0.    -5.05861E+06
            3832     11.2586E+06    -4.81287E+06              0.    -5.19019E+06
            3833     11.5346E+06    -4.90313E+06              0.    -5.32401E+06
            3834     11.8183E+06    -4.99418E+06              0.    -5.46002E+06
            3835     12.1100E+06    -5.08593E+06              0.    -5.59814E+06
            3836     12.4099E+06    -5.17827E+06              0.    -5.73829E+06
            3837     12.7181E+06    -5.27109E+06              0.    -5.88038E+06
            3838     13.0348E+06    -5.36427E+06              0.    -6.02431E+06
            3839     13.3603E+06    -5.45769E+06              0.    -6.16995E+06
            3840     13.6947E+06    -5.55118E+06              0.    -6.31717E+06
            3841     14.0382E+06    -5.64461E+06              0.    -6.46582E+06
            3842      14.391E+06    -5.73779E+06              0.    -6.61574E+06
            3843     14.7534E+06    -5.83054E+06              0.    -6.76675E+06
            3844     15.1254E+06    -5.92267E+06              0.    -6.91865E+06
            3845     15.5075E+06    -6.01396E+06              0.    -7.07121E+06
            3846     15.8996E+06    -6.10418E+06              0.    -7.22421E+06
            3847     16.3021E+06    -6.19308E+06              0.    -7.37737E+06
            3848     16.7151E+06    -6.28039E+06              0.    -7.53042E+06
            3849     17.1389E+06    -6.36583E+06              0.    -7.68304E+06
            3850     17.5737E+06    -6.44910E+06              0.    -7.83490E+06
            3851     18.0196E+06    -6.52986E+06              0.    -7.98563E+06
            3852     18.4768E+06    -6.60778E+06              0.    -8.13485E+06
            3853     18.9457E+06    -6.68247E+06              0.    -8.28214E+06
            3854     19.4263E+06    -6.75356E+06              0.    -8.42703E+06
            3855     19.9190E+06    -6.82061E+06              0.    -8.56905E+06
            3856     20.4238E+06    -6.88318E+06              0.    -8.70768E+06
            3857     20.9411E+06    -6.94081E+06              0.    -8.84236E+06
            3858     21.4711E+06    -6.99300E+06              0.    -8.97249E+06
            3859     22.0139E+06    -7.03922E+06              0.    -9.09745E+06
            3860     22.5698E+06    -7.07891E+06              0.    -9.21656E+06
            3861     23.1390E+06    -7.11150E+06              0.    -9.32912E+06
            3862     23.7219E+06    -7.13637E+06              0.    -9.43436E+06
            3863     24.3186E+06    -7.15287E+06              0.    -9.53151E+06
            3864     24.9294E+06    -7.16032E+06              0.    -9.61971E+06
            3865     25.5546E+06    -7.15802E+06              0.    -9.69810E+06
            3866     26.1946E+06    -7.14522E+06              0.    -9.76575E+06
            3867     26.8496E+06    -7.12114E+06              0.    -9.82171E+06
            3868     27.5201E+06    -7.08498E+06              0.    -9.86499E+06
            3869     28.2064E+06    -7.03587E+06              0.    -9.89455E+06
            3870     28.9091E+06    -6.97295E+06              0.    -9.90935E+06
            3871     29.6286E+06    -6.89529E+06              0.    -9.90830E+06
            3872     30.3654E+06    -6.80194E+06              0.    -9.89031E+06
            3873     31.1203E+06    -6.69189E+06              0.    -9.85427E+06
            3874     31.8940E+06    -6.56411E+06              0.    -9.79910E+06
            3875     32.6873E+06    -6.41752E+06              0.    -9.72371E+06
            3876     33.5011E+06    -6.25097E+06              0.    -9.62709E+06
            3877     34.3366E+06    -6.06328E+06              0.    -9.50825E+06
            3878     35.1948E+06    -5.85318E+06              0.    -9.36631E+06
            3879     36.0773E+06    -5.61935E+06              0.    -9.20052E+06
            3880     36.9854E+06    -5.36033E+06              0.    -9.01028E+06
            3881     37.9211E+06    -5.07458E+06              0.    -8.79522E+06
            3882     38.8861E+06    -4.76038E+06              0.    -8.55519E+06
            3883     39.8827E+06    -4.41580E+06              0.    -8.29043E+06
            3884     40.9132E+06    -4.03869E+06              0.    -8.00152E+06
            3885     41.9801E+06    -3.62652E+06              0.    -7.68958E+06
            3886     43.0862E+06    -3.17636E+06              0.    -7.35626E+06
            3887     44.2342E+06    -2.68471E+06              0.    -7.00390E+06
            3888     45.4272E+06    -2.14734E+06              0.    -6.63562E+06
            3889     46.6679E+06    -1.55907E+06              0.    -6.25540E+06
            3890     47.9590E+06    -913.587E+03              0.    -5.86819E+06
            3891     49.3027E+06    -203.052E+03              0.    -5.47995E+06
            3892     50.7006E+06     582.197E+03              0.    -5.09767E+06
            3893     52.1535E+06     1.45409E+06              0.    -4.72932E+06
            3894     53.6606E+06     2.42724E+06              0.    -4.38374E+06
            3895     55.2197E+06     3.51944E+06              0.    -4.07033E+06
            3896     56.8265E+06     4.75207E+06              0.    -3.79865E+06
            3897     58.4743E+06     6.15043E+06              0.    -3.57786E+06
            3898      60.154E+06     7.74397E+06              0.    -3.41593E+06
            3899     61.8537E+06     9.56612E+06              0.    -3.31882E+06
            3900     63.5593E+06     11.6539E+06              0.    -3.28946E+06
            3901     65.2547E+06     14.0469E+06              0.    -3.32686E+06
            3902     66.9227E+06     16.7862E+06              0.    -3.42545E+06
            3903     68.5463E+06     19.9126E+06              0.    -3.57464E+06
            3904     70.1095E+06     23.4645E+06              0.    -3.75903E+06
            3905     71.5986E+06     27.4762E+06              0.    -3.95905E+06
            3906     73.4332E+06     32.1619E+06              0.    -4.05572E+06
            3907     1.48207E+06     666.691E+03              0.    -307.768E+03
            3908     1.47679E+06     617.272E+03              0.    -307.211E+03
            3909     1.49293E+06     578.344E+03              0.    -303.952E+03
            3910     1.50890E+06     540.181E+03              0.    -301.022E+03
            3911     1.52472E+06     502.761E+03              0.    -298.411E+03
            3912     1.54042E+06     466.058E+03              0.    -296.110E+03
            3913     1.55600E+06     430.050E+03              0.    -294.111E+03
            3914     1.57148E+06     394.715E+03              0.    -292.407E+03
            3915     1.58688E+06     360.030E+03              0.    -290.991E+03
            3916     1.60220E+06     325.975E+03              0.    -289.856E+03
            3917     1.61746E+06     292.530E+03              0.    -288.996E+03
            3918     1.63267E+06     259.674E+03              0.    -288.406E+03
            3919     1.64785E+06     227.389E+03              0.    -288.080E+03
            3920     1.66301E+06     195.655E+03              0.    -288.015E+03
            3921     1.67816E+06     164.454E+03              0.    -288.205E+03
            3922     1.69332E+06     133.769E+03              0.    -288.648E+03
            3923     1.70849E+06     103.581E+03              0.    -289.339E+03
            3924     1.72369E+06     73.8748E+03              0.    -290.277E+03
            3925     1.73893E+06     44.6328E+03              0.    -291.458E+03
            3926     1.75422E+06     15.8392E+03              0.    -292.880E+03
            3927     1.76958E+06    -12.5214E+03              0.    -294.542E+03
            3928     1.78500E+06    -40.4653E+03              0.    -296.441E+03
            3929     1.80052E+06    -68.0068E+03              0.    -298.578E+03
            3930     1.81613E+06    -95.1616E+03              0.    -300.950E+03
            3931     1.83185E+06    -121.944E+03              0.    -303.559E+03
            3932     1.84769E+06    -148.367E+03              0.    -306.403E+03
            3933     1.86367E+06    -174.447E+03              0.    -309.483E+03
            3934     1.87978E+06    -200.195E+03              0.    -312.799E+03
            3935     1.89605E+06    -225.627E+03              0.    -316.353E+03
            3936     1.91248E+06    -250.756E+03              0.    -320.146E+03
            3937     1.92910E+06    -275.594E+03              0.    -324.178E+03
            3938     1.94590E+06    -300.155E+03              0.    -328.453E+03
            3939     1.96290E+06    -324.451E+03              0.    -332.972E+03
            3940     1.98011E+06    -348.495E+03              0.    -337.737E+03
            3941     1.99754E+06    -372.301E+03              0.    -342.752E+03
            3942     2.01521E+06    -395.879E+03              0.    -348.019E+03
            3943     2.03313E+06    -419.244E+03              0.    -353.542E+03
            3944     2.05131E+06    -442.406E+03              0.    -359.325E+03
            3945     2.06975E+06    -465.378E+03              0.    -365.371E+03
            3946     2.08849E+06    -488.172E+03              0.    -371.685E+03
            3947     2.10752E+06    -510.801E+03              0.    -378.272E+03
            3948     2.12685E+06    -533.276E+03              0.    -385.137E+03
            3949     2.14652E+06    -555.608E+03              0.    -392.285E+03
            3950     2.16651E+06    -577.812E+03              0.    -399.721E+03
            3951     2.18686E+06    -599.897E+03              0.    -407.452E+03
            3952     2.20757E+06    -621.876E+03              0.    -415.483E+03
            3953     2.22866E+06    -643.761E+03              0.    -423.823E+03
            3954     2.25015E+06    -665.564E+03              0.    -432.477E+03
            3955     2.27204E+06    -687.297E+03              0.    -441.452E+03
            3956     2.29435E+06    -708.971E+03              0.    -450.758E+03
            3957     2.31710E+06    -730.600E+03              0.    -460.401E+03
            3958     2.34030E+06    -752.195E+03              0.    -470.390E+03
            3959     2.36397E+06    -773.769E+03              0.    -480.734E+03
            3960     2.38813E+06    -795.333E+03              0.    -491.443E+03
            3961     2.41279E+06    -816.900E+03              0.    -502.525E+03
            3962     2.43797E+06    -838.483E+03              0.    -513.991E+03
            3963     2.46370E+06    -860.094E+03              0.    -525.851E+03
            3964     2.48997E+06    -881.746E+03              0.    -538.117E+03
            3965     2.51683E+06    -903.452E+03              0.    -550.798E+03
            3966     2.54428E+06    -925.225E+03              0.    -563.908E+03
            3967     2.57234E+06    -947.077E+03              0.    -577.458E+03
            3968     2.60104E+06    -969.023E+03              0.    -591.460E+03
            3969     2.63040E+06    -991.076E+03              0.    -605.928E+03
            3970     2.66043E+06    -1.01325E+06              0.    -620.876E+03
            3971     2.69117E+06    -1.03556E+06              0.    -636.316E+03
            3972     2.72263E+06    -1.05801E+06              0.    -652.265E+03
            3973     2.75484E+06    -1.08063E+06              0.    -668.736E+03
            3974     2.78781E+06    -1.10343E+06              0.    -685.746E+03
            3975     2.82159E+06    -1.12641E+06              0.    -703.310E+03
            3976     2.85619E+06    -1.14961E+06              0.    -721.444E+03
            3977     2.89163E+06    -1.17302E+06              0.    -740.167E+03
            3978     2.92795E+06    -1.19668E+06              0.    -759.495E+03
            3979     2.96518E+06    -1.22058E+06              0.    -779.448E+03
            3980     3.00334E+06    -1.24476E+06              0.    -800.043E+03
            3981     3.04246E+06    -1.26921E+06              0.    -821.299E+03
            3982     3.08258E+06    -1.29397E+06              0.    -843.238E+03
            3983     3.12372E+06    -1.31905E+06              0.     -865.88E+03
            3984     3.16592E+06    -1.34447E+06              0.    -889.246E+03
            3985     3.20922E+06    -1.37023E+06              0.    -913.357E+03
            3986     3.25364E+06    -1.39637E+06              0.    -938.236E+03
            3987     3.29922E+06    -1.42289E+06              0.    -963.907E+03
            3988     3.34601E+06    -1.44982E+06              0.    -990.393E+03
            3989     3.39403E+06    -1.47717E+06              0.    -1.01772E+06
            3990     3.44333E+06    -1.50497E+06              0.    -1.04591E+06
            3991     3.49395E+06    -1.53323E+06              0.    -1.07499E+06
            3992     3.54593E+06    -1.56197E+06              0.    -1.10499E+06
            3993     3.59931E+06    -1.59121E+06              0.    -1.13593E+06
            3994     3.65414E+06    -1.62098E+06              0.    -1.16784E+06
            3995     3.71046E+06    -1.65128E+06              0.    -1.20076E+06
            3996     3.76833E+06    -1.68215E+06              0.    -1.23470E+06
            3997     3.82778E+06    -1.71361E+06              0.    -1.26971E+06
            3998     3.88887E+06    -1.74566E+06              0.    -1.30580E+06
            3999     3.95166E+06    -1.77835E+06              0.    -1.34302E+06
            4000     4.01619E+06    -1.81168E+06              0.    -1.38139E+06
            4001     4.08251E+06    -1.84568E+06              0.    -1.42095E+06
            4002     4.15070E+06    -1.88037E+06              0.    -1.46173E+06
            4003     4.22080E+06    -1.91578E+06              0.    -1.50376E+06
            4004     4.29287E+06    -1.95193E+06              0.    -1.54709E+06
            4005     4.36698E+06    -1.98883E+06              0.    -1.59174E+06
            4006     4.44319E+06    -2.02653E+06              0.    -1.63775E+06
            4007     4.52157E+06    -2.06503E+06              0.    -1.68516E+06
            4008     4.60219E+06    -2.10436E+06              0.    -1.73401E+06
            4009      4.6851E+06    -2.14454E+06              0.    -1.78433E+06
            4010     4.77039E+06    -2.18561E+06              0.    -1.83617E+06
            4011     4.85813E+06    -2.22758E+06              0.    -1.88956E+06
            4012     4.94840E+06    -2.27047E+06              0.    -1.94454E+06
            4013     5.04127E+06    -2.31431E+06              0.    -2.00116E+06
            4014     5.13682E+06    -2.35913E+06              0.    -2.05944E+06
            4015     5.23514E+06    -2.40495E+06              0.    -2.11945E+06
            4016     5.33632E+06    -2.45178E+06              0.    -2.18121E+06
            4017     5.44043E+06    -2.49967E+06              0.    -2.24477E+06
            4018     5.54757E+06    -2.54862E+06              0.    -2.31016E+06
            4019     5.65784E+06    -2.59866E+06              0.    -2.37745E+06
            4020     5.77132E+06    -2.64981E+06              0.    -2.44665E+06
            4021     5.88812E+06    -2.70210E+06              0.    -2.51782E+06
            4022     6.00834E+06    -2.75554E+06              0.    -2.59101E+06
            4023     6.13208E+06    -2.81016E+06              0.    -2.66624E+06
            4024     6.25944E+06    -2.86598E+06              0.    -2.74357E+06
            4025     6.39054E+06    -2.92301E+06              0.    -2.82303E+06
            4026     6.52548E+06    -2.98128E+06              0.    -2.90467E+06
            4027     6.66439E+06    -3.04080E+06              0.    -2.98852E+06
            4028     6.80737E+06    -3.10158E+06              0.    -3.07463E+06
            4029     6.95455E+06    -3.16365E+06              0.    -3.16303E+06
            4030     7.10606E+06    -3.22701E+06              0.    -3.25376E+06
            4031     7.26201E+06    -3.29167E+06              0.    -3.34686E+06
            4032     7.42255E+06    -3.35766E+06              0.    -3.44236E+06
            4033     7.58780E+06    -3.42496E+06              0.    -3.54029E+06
            4034     7.75789E+06    -3.49360E+06              0.    -3.64069E+06
            4035     7.93297E+06    -3.56356E+06              0.    -3.74358E+06
            4036     8.11319E+06    -3.63486E+06              0.    -3.84899E+06
            4037     8.29868E+06    -3.70749E+06              0.    -3.95694E+06
            4038     8.48959E+06    -3.78144E+06              0.    -4.06745E+06
            4039     8.68609E+06    -3.85671E+06              0.    -4.18054E+06
            4040     8.88831E+06    -3.93329E+06              0.    -4.29622E+06
            4041     9.09643E+06    -4.01116E+06              0.    -4.41450E+06
            4042     9.31061E+06    -4.09029E+06              0.    -4.53538E+06
            4043       9.531E+06    -4.17067E+06              0.    -4.65887E+06
            4044     9.75778E+06    -4.25227E+06              0.    -4.78496E+06
            4045     9.99113E+06    -4.33505E+06              0.    -4.91364E+06
            4046     10.2312E+06    -4.41898E+06              0.    -5.04488E+06
            4047     10.4782E+06    -4.50400E+06              0.    -5.17866E+06
            4048     10.7323E+06    -4.59007E+06              0.    -5.31496E+06
            4049     10.9937E+06    -4.67713E+06              0.    -5.45373E+06
            4050     11.2625E+06    -4.76511E+06              0.    -5.59491E+06
            4051     11.5390E+06    -4.85394E+06              0.    -5.73846E+06
            4052     11.8234E+06    -4.94355E+06              0.    -5.88430E+06
            4053     12.1158E+06    -5.03383E+06              0.    -6.03236E+06
            4054     12.4164E+06    -5.12469E+06              0.    -6.18254E+06
            4055     12.7255E+06    -5.21603E+06              0.    -6.33474E+06
            4056     13.0433E+06    -5.30772E+06              0.    -6.48884E+06
            4057     13.3699E+06    -5.39963E+06              0.    -6.64471E+06
            4058     13.7057E+06    -5.49163E+06              0.    -6.80221E+06
            4059     14.0507E+06    -5.58355E+06              0.    -6.96117E+06
            4060     14.4052E+06    -5.67524E+06              0.    -7.12141E+06
            4061     14.7694E+06    -5.76651E+06              0.    -7.28274E+06
            4062     15.1436E+06    -5.85717E+06              0.    -7.44493E+06
            4063     15.5280E+06    -5.94701E+06              0.    -7.60776E+06
            4064     15.9228E+06    -6.03580E+06              0.    -7.77095E+06
            4065     16.3282E+06     -6.1233E+06              0.    -7.93423E+06
            4066     16.7444E+06    -6.20925E+06              0.    -8.09728E+06
            4067     17.1718E+06    -6.29337E+06              0.    -8.25978E+06
            4068     17.6105E+06    -6.37537E+06              0.    -8.42137E+06
            4069     18.0607E+06    -6.45492E+06              0.    -8.58165E+06
            4070     18.5228E+06    -6.53168E+06              0.    -8.74021E+06
            4071     18.9970E+06    -6.60530E+06              0.    -8.89659E+06
            4072     19.4834E+06    -6.67538E+06              0.    -9.05032E+06
            4073     19.9825E+06    -6.74153E+06              0.    -9.20088E+06
            4074     20.4944E+06    -6.80329E+06              0.    -9.34772E+06
            4075     21.0194E+06    -6.86023E+06              0.    -9.49025E+06
            4076     21.5579E+06    -6.91183E+06              0.    -9.62785E+06
            4077     22.1100E+06    -6.95760E+06              0.    -9.75985E+06
            4078     22.6762E+06    -6.99699E+06              0.    -9.88556E+06
            4079     23.2566E+06    -7.02942E+06              0.    -10.0042E+06
            4080     23.8518E+06    -7.05428E+06              0.    -10.1151E+06
            4081     24.4619E+06    -7.07095E+06              0.    -10.2173E+06
            4082     25.0874E+06    -7.07873E+06              0.    -10.3101E+06
            4083     25.7288E+06    -7.07695E+06              0.    -10.3924E+06
            4084     26.3863E+06    -7.06484E+06              0.    -10.4635E+06
            4085     27.0606E+06    -7.04163E+06              0.    -10.5223E+06
            4086     27.7520E+06    -7.00650E+06              0.    -10.5678E+06
            4087     28.4613E+06    -6.95859E+06              0.    -10.5991E+06
            4088     29.1889E+06    -6.89701E+06              0.    -10.6151E+06
            4089     29.9356E+06     -6.8208E+06              0.    -10.6148E+06
            4090     30.7022E+06    -6.72896E+06              0.    -10.5972E+06
            4091     31.4894E+06    -6.62044E+06              0.    -10.5612E+06
            4092     32.2982E+06    -6.49412E+06              0.    -10.5058E+06
            4093     33.1297E+06    -6.34881E+06              0.    -10.4302E+06
            4094     33.9850E+06    -6.18325E+06              0.    -10.3334E+06
            4095     34.8654E+06    -5.99608E+06              0.    -10.2148E+06
            4096     35.7723E+06    -5.78581E+06              0.    -10.0737E+06
            4097     36.7072E+06    -5.55084E+06              0.    -9.90965E+06
            4098     37.6720E+06    -5.28937E+06              0.    -9.72242E+06
            4099     38.6684E+06    -4.99943E+06              0.    -9.51205E+06
            4100     39.6986E+06    -4.67875E+06              0.    -9.27892E+06
            4101     40.7646E+06    -4.32475E+06              0.    -9.02375E+06
            4102     41.8688E+06    -3.93445E+06              0.    -8.74779E+06
            4103     43.0135E+06    -3.50433E+06              0.    -8.45275E+06
            4104     44.2012E+06    -3.03025E+06              0.    -8.14101E+06
            4105     45.4341E+06    -2.50723E+06              0.    -7.81561E+06
            4106     46.7143E+06    -1.92932E+06              0.    -7.48035E+06
            4107     48.0438E+06    -1.28930E+06              0.    -7.13982E+06
            4108     49.4239E+06    -578.465E+03              0.    -6.79944E+06
            4109     50.8550E+06     213.718E+03              0.    -6.46541E+06
            4110     52.3368E+06     1.09995E+06              0.    -6.14464E+06
            4111     53.8676E+06     2.09542E+06              0.    -5.84456E+06
            4112     55.4441E+06     3.21819E+06              0.    -5.57288E+06
            4113     57.0614E+06     4.48947E+06              0.    -5.33714E+06
            4114     58.7123E+06     5.93378E+06              0.    -5.14426E+06
            4115     60.3875E+06     7.57906E+06              0.    -4.99990E+06
            4116     62.0757E+06     9.45641E+06              0.    -4.90775E+06
            4117     63.7638E+06     11.5996E+06              0.    -4.86883E+06
            4118     65.4372E+06     14.0445E+06              0.    -4.88084E+06
            4119     67.0806E+06     16.8277E+06              0.    -4.93771E+06
            4120     68.6789E+06     19.9853E+06              0.    -5.02944E+06
            4121     70.2180E+06     23.5517E+06              0.    -5.14226E+06
            4122     71.6856E+06     27.5578E+06              0.    -5.25926E+06
            4123     73.5024E+06     32.2133E+06              0.    -5.36001E+06
            4124     1.47327E+06     662.752E+03              0.    -323.928E+03
            4125     1.46805E+06     613.770E+03              0.    -323.342E+03
            4126     1.48404E+06     575.183E+03              0.    -319.916E+03
            4127     1.49987E+06     537.351E+03              0.    -316.833E+03
            4128     1.51555E+06     500.252E+03              0.    -314.085E+03
            4129     1.53111E+06     463.863E+03              0.    -311.661E+03
            4130     1.54656E+06     428.160E+03              0.    -309.554E+03
            4131     1.56190E+06     393.122E+03              0.    -307.756E+03
            4132     1.57716E+06     358.728E+03              0.    -306.259E+03
            4133     1.59234E+06     324.958E+03              0.    -305.057E+03
            4134     1.60746E+06     291.791E+03              0.    -304.143E+03
            4135     1.62254E+06     259.209E+03              0.    -303.512E+03
            4136     1.63758E+06     227.191E+03              0.    -303.158E+03
            4137     1.65259E+06     195.721E+03              0.    -303.076E+03
            4138      1.6676E+06     164.780E+03              0.    -303.263E+03
            4139     1.68261E+06     134.350E+03              0.    -303.714E+03
            4140     1.69763E+06     104.416E+03              0.    -304.425E+03
            4141     1.71268E+06     74.9595E+03              0.    -305.394E+03
            4142     1.72776E+06     45.9652E+03              0.    -306.619E+03
            4143     1.74289E+06     17.4172E+03              0.    -308.096E+03
            4144     1.75808E+06    -10.6996E+03              0.    -309.823E+03
            4145     1.77334E+06    -38.4009E+03              0.    -311.800E+03
            4146     1.78869E+06    -65.7007E+03              0.    -314.025E+03
            4147     1.80412E+06    -92.6144E+03              0.    -316.498E+03
            4148     1.81966E+06    -119.156E+03              0.    -319.217E+03
            4149     1.83532E+06    -145.338E+03              0.    -322.183E+03
            4150     1.85110E+06    -171.177E+03              0.    -325.397E+03
            4151     1.86701E+06    -196.683E+03              0.    -328.858E+03
            4152     1.88308E+06    -221.872E+03              0.    -332.567E+03
            4153     1.89930E+06    -246.756E+03              0.    -336.526E+03
            4154     1.91569E+06    -271.348E+03              0.    -340.737E+03
            4155     1.93227E+06    -295.661E+03              0.    -345.201E+03
            4156     1.94904E+06    -319.707E+03              0.     -349.92E+03
            4157     1.96601E+06    -343.498E+03              0.    -354.897E+03
            4158     1.98319E+06    -367.047E+03              0.    -360.136E+03
            4159     2.00061E+06    -390.366E+03              0.    -365.639E+03
            4160     2.01826E+06    -413.467E+03              0.    -371.409E+03
            4161     2.03616E+06    -436.362E+03              0.    -377.451E+03
            4162     2.05432E+06    -459.063E+03              0.    -383.769E+03
            4163     2.07276E+06    -481.582E+03              0.    -390.367E+03
            4164     2.09148E+06    -503.929E+03              0.    -397.250E+03
            4165     2.11051E+06    -526.118E+03              0.    -404.424E+03
            4166     2.12984E+06    -548.160E+03              0.    -411.894E+03
            4167     2.14950E+06    -570.065E+03              0.    -419.665E+03
            4168      2.1695E+06    -591.847E+03              0.    -427.745E+03
            4169     2.18985E+06    -613.515E+03              0.    -436.139E+03
            4170     2.21056E+06    -635.083E+03              0.    -444.854E+03
            4171     2.23166E+06    -656.562E+03              0.    -453.899E+03
            4172     2.25314E+06    -677.962E+03              0.    -463.280E+03
            4173     2.27503E+06    -699.297E+03              0.    -473.005E+03
            4174     2.29735E+06    -720.577E+03              0.    -483.083E+03
            4175     2.32010E+06    -741.815E+03              0.    -493.524E+03
            4176     2.34331E+06    -763.021E+03              0.    -504.335E+03
            4177     2.36699E+06    -784.209E+03              0.    -515.526E+03
            4178     2.39115E+06    -805.390E+03              0.    -527.109E+03
            4179     2.41582E+06    -826.577E+03              0.    -539.092E+03
            4180     2.44100E+06    -847.780E+03              0.    -551.487E+03
            4181     2.46673E+06    -869.014E+03              0.    -564.305E+03
            4182     2.49301E+06    -890.289E+03              0.    -577.559E+03
            4183     2.51986E+06    -911.619E+03              0.    -591.259E+03
            4184     2.54731E+06    -933.017E+03              0.    -605.419E+03
            4185     2.57537E+06    -954.495E+03              0.    -620.052E+03
            4186     2.60407E+06    -976.066E+03              0.    -635.172E+03
            4187     2.63342E+06    -997.744E+03              0.    -650.792E+03
            4188     2.66345E+06    -1.01954E+06              0.    -666.928E+03
            4189     2.69417E+06    -1.04147E+06              0.    -683.593E+03
            4190     2.72562E+06    -1.06355E+06              0.    -700.805E+03
            4191     2.75781E+06    -1.08579E+06              0.    -718.580E+03
            4192     2.79077E+06    -1.10820E+06              0.    -736.933E+03
            4193     2.82452E+06    -1.13081E+06              0.    -755.882E+03
            4194     2.85909E+06    -1.15361E+06              0.    -775.445E+03
            4195     2.89451E+06    -1.17664E+06              0.    -795.642E+03
            4196     2.93080E+06    -1.19990E+06              0.    -816.489E+03
            4197     2.96799E+06    -1.22341E+06              0.    -838.008E+03
            4198     3.00611E+06    -1.24718E+06              0.    -860.218E+03
            4199     3.04519E+06    -1.27124E+06              0.    -883.141E+03
            4200     3.08525E+06    -1.29559E+06              0.    -906.798E+03
            4201     3.12634E+06    -1.32025E+06              0.    -931.211E+03
            4202     3.16848E+06    -1.34525E+06              0.    -956.403E+03
            4203     3.21171E+06    -1.37059E+06              0.    -982.397E+03
            4204     3.25606E+06    -1.39630E+06              0.    -1.00922E+06
            4205     3.30157E+06    -1.42238E+06              0.    -1.03689E+06
            4206     3.34827E+06    -1.44887E+06              0.    -1.06544E+06
            4207     3.39620E+06    -1.47577E+06              0.    -1.09489E+06
            4208     3.44541E+06    -1.50311E+06              0.    -1.12527E+06
            4209     3.49592E+06    -1.53090E+06              0.    -1.15662E+06
            4210     3.54779E+06    -1.55917E+06              0.    -1.18894E+06
            4211     3.60106E+06    -1.58793E+06              0.    -1.22229E+06
            4212     3.65576E+06    -1.61720E+06              0.    -1.25667E+06
            4213     3.71195E+06    -1.64700E+06              0.    -1.29214E+06
            4214     3.76967E+06    -1.67736E+06              0.    -1.32871E+06
            4215     3.82897E+06    -1.70829E+06              0.    -1.36643E+06
            4216     3.88991E+06    -1.73981E+06              0.    -1.40531E+06
            4217     3.95253E+06    -1.77195E+06              0.    -1.44540E+06
            4218     4.01688E+06    -1.80472E+06              0.    -1.48674E+06
            4219     4.08302E+06    -1.83816E+06              0.    -1.52935E+06
            4220     4.15101E+06    -1.87227E+06              0.    -1.57327E+06
            4221     4.22090E+06    -1.90708E+06              0.    -1.61854E+06
            4222     4.29276E+06    -1.94262E+06              0.    -1.66519E+06
            4223     4.36664E+06    -1.97891E+06              0.    -1.71328E+06
            4224     4.44262E+06    -2.01596E+06              0.    -1.76282E+06
            4225     4.52075E+06    -2.05381E+06              0.    -1.81387E+06
            4226     4.60110E+06    -2.09247E+06              0.    -1.86645E+06
            4227     4.68374E+06    -2.13198E+06              0.    -1.92063E+06
            4228     4.76875E+06    -2.17234E+06              0.    -1.97642E+06
            4229      4.8562E+06    -2.21359E+06              0.    -2.03389E+06
            4230     4.94616E+06    -2.25575E+06              0.    -2.09306E+06
            4231     5.03871E+06    -2.29884E+06              0.    -2.15399E+06
            4232     5.13394E+06    -2.34289E+06              0.    -2.21671E+06
            4233     5.23192E+06    -2.38791E+06              0.    -2.28127E+06
            4234     5.33274E+06    -2.43394E+06              0.    -2.34771E+06
            4235     5.43649E+06    -2.48099E+06              0.    -2.41608E+06
            4236     5.54326E+06    -2.52909E+06              0.    -2.48643E+06
            4237     5.65313E+06    -2.57826E+06              0.    -2.55879E+06
            4238     5.76622E+06    -2.62852E+06              0.    -2.63322E+06
            4239     5.88261E+06    -2.67989E+06              0.    -2.70975E+06
            4240     6.00240E+06    -2.73240E+06              0.    -2.78843E+06
            4241     6.12571E+06    -2.78606E+06              0.    -2.86931E+06
            4242     6.25263E+06    -2.84089E+06              0.    -2.95242E+06
            4243     6.38327E+06    -2.89692E+06              0.    -3.03782E+06
            4244     6.51776E+06    -2.95416E+06              0.    -3.12555E+06
            4245     6.65619E+06    -3.01262E+06              0.    -3.21565E+06
            4246     6.79870E+06    -3.07233E+06              0.    -3.30816E+06
            4247     6.94540E+06    -3.13329E+06              0.    -3.40311E+06
            4248     7.09641E+06    -3.19553E+06              0.    -3.50056E+06
            4249     7.25187E+06    -3.25904E+06              0.    -3.60053E+06
            4250     7.41191E+06    -3.32384E+06              0.    -3.70306E+06
            4251     7.57666E+06    -3.38995E+06              0.    -3.80819E+06
            4252     7.74626E+06    -3.45735E+06              0.    -3.91594E+06
            4253     7.92084E+06    -3.52606E+06              0.    -4.02635E+06
            4254     8.10056E+06    -3.59608E+06              0.    -4.13944E+06
            4255     8.28557E+06    -3.66741E+06              0.    -4.25524E+06
            4256     8.47601E+06    -3.74004E+06              0.    -4.37376E+06
            4257     8.67204E+06    -3.81396E+06              0.    -4.49502E+06
            4258     8.87381E+06    -3.88916E+06              0.    -4.61903E+06
            4259     9.08150E+06    -3.96563E+06              0.    -4.74581E+06
            4260     9.29527E+06    -4.04335E+06              0.    -4.87534E+06
            4261     9.51528E+06    -4.12229E+06              0.    -5.00764E+06
            4262     9.74171E+06    -4.20243E+06              0.    -5.14269E+06
            4263     9.97474E+06    -4.28373E+06              0.    -5.28048E+06
            4264     10.2145E+06    -4.36616E+06              0.    -5.42097E+06
            4265     10.4613E+06    -4.44966E+06              0.    -5.56416E+06
            4266     10.7152E+06    -4.53421E+06              0.    -5.70999E+06
            4267     10.9765E+06    -4.61973E+06              0.    -5.85842E+06
            4268     11.2453E+06    -4.70616E+06              0.    -6.00940E+06
            4269     11.5218E+06    -4.79343E+06              0.    -6.16286E+06
            4270     11.8063E+06    -4.88147E+06              0.    -6.31872E+06
            4271     12.0989E+06    -4.97018E+06              0.    -6.47690E+06
            4272     12.3999E+06    -5.05948E+06              0.    -6.63729E+06
            4273     12.7095E+06    -5.14925E+06              0.    -6.79978E+06
            4274     13.0279E+06    -5.23938E+06              0.    -6.96424E+06
            4275     13.3552E+06    -5.32975E+06              0.    -7.13054E+06
            4276     13.6919E+06    -5.42022E+06              0.    -7.29850E+06
            4277     14.0379E+06    -5.51064E+06              0.    -7.46796E+06
            4278     14.3937E+06    -5.60085E+06              0.    -7.63872E+06
            4279     14.7595E+06    -5.69067E+06              0.    -7.81055E+06
            4280     15.1354E+06    -5.77992E+06              0.    -7.98324E+06
            4281     15.5218E+06    -5.86839E+06              0.    -8.15652E+06
            4282     15.9189E+06    -5.95587E+06              0.    -8.33011E+06
            4283     16.3269E+06    -6.04211E+06              0.    -8.50372E+06
            4284     16.7461E+06    -6.12687E+06              0.    -8.67700E+06
            4285     17.1768E+06    -6.20987E+06              0.     -8.8496E+06
            4286     17.6193E+06    -6.29083E+06              0.    -9.02114E+06
            4287     18.0737E+06    -6.36943E+06              0.    -9.19121E+06
            4288     18.5405E+06    -6.44535E+06              0.    -9.35937E+06
            4289     19.0200E+06    -6.51823E+06              0.    -9.52513E+06
            4290     19.5123E+06    -6.58769E+06              0.    -9.68799E+06
            4291     20.0178E+06    -6.65335E+06              0.    -9.84740E+06
            4292     20.5370E+06    -6.71476E+06              0.    -10.0028E+06
            4293     21.0700E+06    -6.77149E+06              0.    -10.1536E+06
            4294     21.6172E+06    -6.82305E+06              0.    -10.2990E+06
            4295     22.1791E+06    -6.86895E+06              0.    -10.4386E+06
            4296     22.7559E+06    -6.90863E+06              0.    -10.5714E+06
            4297     23.3482E+06    -6.94153E+06              0.    -10.6968E+06
            4298     23.9563E+06    -6.96706E+06              0.    -10.8139E+06
            4299     24.5806E+06    -6.98457E+06              0.    -10.9219E+06
            4300     25.2217E+06    -6.99340E+06              0.    -11.0200E+06
            4301     25.8801E+06    -6.99283E+06              0.    -11.1073E+06
            4302     26.5563E+06    -6.98211E+06              0.    -11.1829E+06
            4303     27.2510E+06    -6.96046E+06              0.    -11.2457E+06
            4304     27.9648E+06    -6.92703E+06              0.    -11.2949E+06
            4305     28.6984E+06    -6.88092E+06              0.    -11.3294E+06
            4306     29.4525E+06    -6.82119E+06              0.    -11.3484E+06
            4307     30.2281E+06    -6.74682E+06              0.    -11.3508E+06
            4308     31.0260E+06    -6.65675E+06              0.    -11.3357E+06
            4309     31.8473E+06    -6.54981E+06              0.    -11.3023E+06
            4310     32.6930E+06    -6.42477E+06              0.    -11.2496E+06
            4311     33.5645E+06    -6.28025E+06              0.    -11.1770E+06
            4312     34.4629E+06    -6.11480E+06              0.    -11.0837E+06
            4313     35.3897E+06    -5.92679E+06              0.    -10.9693E+06
            4314     36.3465E+06    -5.71443E+06              0.    -10.8335E+06
            4315     37.3350E+06    -5.47571E+06              0.    -10.6761E+06
            4316     38.3569E+06    -5.20836E+06              0.    -10.4973E+06
            4317     39.4141E+06    -4.90982E+06              0.    -10.2976E+06
            4318     40.5086E+06    -4.57711E+06              0.    -10.0777E+06
            4319     41.6423E+06     -4.2068E+06              0.    -9.83895E+06
            4320     42.8173E+06    -3.79487E+06              0.    -9.58307E+06
            4321     44.0355E+06    -3.33658E+06              0.    -9.31233E+06
            4322     45.2986E+06    -2.82636E+06              0.    -9.02960E+06
            4323     46.6082E+06    -2.25755E+06              0.    -8.73838E+06
            4324     47.9653E+06    -1.62226E+06              0.    -8.44283E+06
            4325     49.3705E+06    -911.102E+03              0.    -8.14773E+06
            4326     50.8233E+06    -112.912E+03              0.    -7.85845E+06
            4327     52.3227E+06     785.495E+03              0.    -7.58079E+06
            4328     53.8660E+06     1.79961E+06              0.    -7.32089E+06
            4329     55.4493E+06     2.94745E+06              0.    -7.08485E+06
            4330     57.0671E+06     4.24981E+06              0.    -6.87848E+06
            4331     58.7120E+06     5.73029E+06              0.    -6.70679E+06
            4332     60.3750E+06     7.41530E+06              0.    -6.57352E+06
            4333     62.0452E+06     9.33376E+06              0.    -6.48061E+06
            4334     63.7104E+06     11.5167E+06              0.    -6.42762E+06
            4335     65.3574E+06     13.9967E+06              0.    -6.41135E+06
            4336     66.9724E+06     16.8067E+06              0.    -6.42549E+06
            4337     68.5419E+06     19.9794E+06              0.    -6.46060E+06
            4338     70.0532E+06     23.5459E+06              0.    -6.50431E+06
            4339     71.4953E+06     27.5347E+06              0.    -6.54186E+06
            4340     73.2915E+06     32.1511E+06              0.    -6.64673E+06
            4341     1.46405E+06     658.619E+03              0.    -339.941E+03
            4342     1.45887E+06     610.095E+03              0.    -339.326E+03
            4343     1.47471E+06     571.863E+03              0.    -335.734E+03
            4344     1.49039E+06     534.378E+03              0.    -332.500E+03
            4345     1.50593E+06     497.615E+03              0.    -329.616E+03
            4346     1.52135E+06     461.553E+03              0.    -327.071E+03
            4347     1.53665E+06     426.169E+03              0.    -324.856E+03
            4348     1.55185E+06     391.443E+03              0.    -322.964E+03
            4349     1.56696E+06     357.353E+03              0.    -321.386E+03
            4350     1.58200E+06     323.880E+03              0.    -320.116E+03
            4351     1.59698E+06     291.005E+03              0.    -319.147E+03
            4352     1.61191E+06     258.708E+03              0.    -318.474E+03
            4353     1.62680E+06     226.971E+03              0.    -318.090E+03
            4354     1.64167E+06     195.776E+03              0.    -317.990E+03
            4355     1.65652E+06     165.107E+03              0.    -318.171E+03
            4356     1.67138E+06     134.945E+03              0.    -318.627E+03
            4357     1.68624E+06     105.275E+03              0.    -319.356E+03
            4358     1.70113E+06     76.0805E+03              0.    -320.354E+03
            4359     1.71605E+06     47.3451E+03              0.    -321.618E+03
            4360     1.73101E+06     19.0539E+03              0.    -323.146E+03
            4361     1.74603E+06    -8.80774E+03              0.    -324.936E+03
            4362     1.76112E+06    -36.2554E+03              0.    -326.986E+03
            4363     1.77628E+06    -63.3025E+03              0.    -329.295E+03
            4364     1.79153E+06    -89.9642E+03              0.    -331.862E+03
            4365     1.80688E+06    -116.254E+03              0.    -334.688E+03
            4366     1.82234E+06    -142.185E+03              0.    -337.770E+03
            4367     1.83792E+06    -167.771E+03              0.    -341.111E+03
            4368     1.85363E+06    -193.024E+03              0.    -344.710E+03
            4369     1.86948E+06    -217.959E+03              0.    -348.568E+03
            4370     1.88549E+06    -242.588E+03              0.    -352.688E+03
            4371     1.90165E+06    -266.922E+03              0.    -357.069E+03
            4372     1.91799E+06    -290.976E+03              0.    -361.715E+03
            4373     1.93452E+06    -314.760E+03              0.    -366.627E+03
            4374     1.95124E+06    -338.286E+03              0.    -371.809E+03
            4375     1.96816E+06    -361.568E+03              0.    -377.262E+03
            4376     1.98531E+06    -384.616E+03              0.    -382.992E+03
            4377     2.00268E+06    -407.443E+03              0.    -389.000E+03
            4378     2.02030E+06    -430.059E+03              0.    -395.292E+03
            4379     2.03816E+06    -452.476E+03              0.    -401.871E+03
            4380     2.05629E+06    -474.707E+03              0.    -408.743E+03
            4381     2.07470E+06    -496.761E+03              0.    -415.912E+03
            4382     2.09339E+06    -518.652E+03              0.    -423.383E+03
            4383     2.11239E+06    -540.388E+03              0.    -431.164E+03
            4384     2.13169E+06    -561.983E+03              0.    -439.258E+03
            4385     2.15133E+06    -583.448E+03              0.    -447.673E+03
            4386     2.17130E+06    -604.793E+03              0.    -456.417E+03
            4387     2.19162E+06    -626.029E+03              0.    -465.495E+03
            4388     2.21230E+06    -647.169E+03              0.    -474.916E+03
            4389     2.23337E+06    -668.223E+03              0.    -484.688E+03
            4390     2.25483E+06    -689.203E+03              0.    -494.818E+03
            4391     2.27669E+06    -710.119E+03              0.    -505.316E+03
            4392     2.29898E+06    -730.984E+03              0.    -516.191E+03
            4393      2.3217E+06    -751.808E+03              0.    -527.453E+03
            4394     2.34488E+06    -772.603E+03              0.    -539.110E+03
            4395     2.36852E+06    -793.382E+03              0.    -551.174E+03
            4396     2.39265E+06    -814.154E+03              0.    -563.657E+03
            4397     2.41727E+06    -834.933E+03              0.    -576.567E+03
            4398     2.44242E+06    -855.730E+03              0.    -589.919E+03
            4399     2.46810E+06    -876.557E+03              0.    -603.723E+03
            4400     2.49434E+06    -897.425E+03              0.    -617.993E+03
            4401     2.52114E+06    -918.348E+03              0.    -632.742E+03
            4402     2.54854E+06    -939.338E+03              0.    -647.983E+03
            4403     2.57655E+06    -960.407E+03              0.    -663.730E+03
            4404     2.60518E+06    -981.568E+03              0.    -679.999E+03
            4405     2.63447E+06    -1.00283E+06              0.    -696.804E+03
            4406     2.66443E+06    -1.02422E+06              0.    -714.161E+03
            4407     2.69508E+06    -1.04573E+06              0.    -732.086E+03
            4408     2.72645E+06    -1.06739E+06              0.    -750.597E+03
            4409     2.75856E+06    -1.08921E+06              0.    -769.710E+03
            4410     2.79144E+06    -1.11119E+06              0.    -789.444E+03
            4411     2.82510E+06    -1.13337E+06              0.    -809.818E+03
            4412     2.85957E+06    -1.15574E+06              0.    -830.849E+03
            4413     2.89488E+06    -1.17833E+06              0.    -852.559E+03
            4414     2.93106E+06    -1.20114E+06              0.    -874.968E+03
            4415     2.96813E+06    -1.22420E+06              0.    -898.096E+03
            4416     3.00613E+06    -1.24752E+06              0.    -921.967E+03
            4417     3.04507E+06    -1.27112E+06              0.    -946.601E+03
            4418     3.08500E+06    -1.29500E+06              0.    -972.022E+03
            4419     3.12594E+06    -1.31919E+06              0.    -998.254E+03
            4420     3.16792E+06    -1.34370E+06              0.    -1.02532E+06
            4421     3.21099E+06    -1.36856E+06              0.    -1.05325E+06
            4422     3.25516E+06    -1.39376E+06              0.    -1.08206E+06
            4423     3.30049E+06    -1.41934E+06              0.    -1.11179E+06
            4424     3.34699E+06    -1.44531E+06              0.    -1.14246E+06
            4425     3.39472E+06    -1.47169E+06              0.    -1.17409E+06
            4426     3.44371E+06    -1.49850E+06              0.    -1.20673E+06
            4427     3.49400E+06    -1.52574E+06              0.    -1.24039E+06
            4428     3.54563E+06    -1.55346E+06              0.    -1.27511E+06
            4429     3.59865E+06    -1.58165E+06              0.    -1.31092E+06
            4430     3.65309E+06    -1.61034E+06              0.    -1.34784E+06
            4431     3.70901E+06    -1.63955E+06              0.    -1.38593E+06
            4432     3.76645E+06    -1.66931E+06              0.    -1.42520E+06
            4433     3.82545E+06    -1.69962E+06              0.    -1.46569E+06
            4434     3.88607E+06    -1.73051E+06              0.    -1.50744E+06
            4435     3.94836E+06    -1.76201E+06              0.    -1.55048E+06
            4436     4.01237E+06    -1.79412E+06              0.    -1.59485E+06
            4437     4.07816E+06    -1.82688E+06              0.    -1.64058E+06
            4438     4.14578E+06    -1.86031E+06              0.    -1.68773E+06
            4439     4.21528E+06    -1.89442E+06              0.    -1.73632E+06
            4440     4.28674E+06    -1.92923E+06              0.    -1.78639E+06
            4441     4.36020E+06    -1.96478E+06              0.    -1.83799E+06
            4442     4.43574E+06    -2.00108E+06              0.    -1.89115E+06
            4443     4.51342E+06    -2.03815E+06              0.    -1.94592E+06
            4444     4.59330E+06    -2.07602E+06              0.    -2.00234E+06
            4445     4.67546E+06    -2.11471E+06              0.    -2.06046E+06
            4446     4.75996E+06    -2.15424E+06              0.    -2.12032E+06
            4447     4.84688E+06    -2.19464E+06              0.    -2.18196E+06
            4448     4.93630E+06    -2.23593E+06              0.    -2.24542E+06
            4449     5.02829E+06    -2.27812E+06              0.    -2.31077E+06
            4450     5.12294E+06    -2.32125E+06              0.    -2.37803E+06
            4451     5.22032E+06    -2.36534E+06              0.    -2.44725E+06
            4452     5.32052E+06    -2.41041E+06              0.    -2.51849E+06
            4453     5.42363E+06    -2.45648E+06              0.    -2.59179E+06
            4454     5.52974E+06    -2.50357E+06              0.    -2.66720E+06
            4455     5.63894E+06    -2.55171E+06              0.    -2.74476E+06
            4456     5.75133E+06    -2.60091E+06              0.    -2.82452E+06
            4457     5.86701E+06    -2.65121E+06              0.    -2.90654E+06
            4458     5.98607E+06    -2.70261E+06              0.    -2.99084E+06
            4459     6.10862E+06    -2.75514E+06              0.    -3.07750E+06
            4460     6.23476E+06    -2.80882E+06              0.    -3.16654E+06
            4461     6.36462E+06    -2.86367E+06              0.    -3.25801E+06
            4462     6.49829E+06    -2.91970E+06              0.    -3.35196E+06
            4463     6.63590E+06    -2.97693E+06              0.    -3.44844E+06
            4464     6.77757E+06    -3.03537E+06              0.    -3.54749E+06
            4465     6.92341E+06    -3.09505E+06              0.    -3.64914E+06
            4466     7.07356E+06    -3.15597E+06              0.    -3.75345E+06
            4467     7.22814E+06    -3.21815E+06              0.    -3.86044E+06
            4468     7.38728E+06    -3.28158E+06              0.    -3.97015E+06
            4469     7.55112E+06    -3.34630E+06              0.    -4.08263E+06
            4470     7.71981E+06    -3.41228E+06              0.    -4.19789E+06
            4471     7.89348E+06    -3.47956E+06              0.    -4.31598E+06
            4472     8.07228E+06    -3.54811E+06              0.    -4.43691E+06
            4473     8.25636E+06    -3.61795E+06              0.    -4.56072E+06
            4474     8.44588E+06    -3.68906E+06              0.    -4.68741E+06
            4475     8.64099E+06    -3.76145E+06              0.    -4.81701E+06
            4476     8.84186E+06    -3.83509E+06              0.    -4.94953E+06
            4477     9.04865E+06    -3.90998E+06              0.    -5.08496E+06
            4478     9.26153E+06    -3.98610E+06              0.    -5.22333E+06
            4479     9.48068E+06    -4.06343E+06              0.    -5.36460E+06
            4480     9.70628E+06    -4.14194E+06              0.    -5.50879E+06
            4481     9.93851E+06     -4.2216E+06              0.    -5.65586E+06
            4482     10.1776E+06    -4.30237E+06              0.    -5.80579E+06
            4483     10.4236E+06    -4.38422E+06              0.    -5.95856E+06
            4484     10.6769E+06    -4.46709E+06              0.    -6.11410E+06
            4485     10.9375E+06    -4.55093E+06              0.    -6.27238E+06
            4486     11.2058E+06    -4.63569E+06              0.    -6.43334E+06
            4487     11.4819E+06    -4.72129E+06              0.    -6.59689E+06
            4488     11.7660E+06    -4.80765E+06              0.    -6.76296E+06
            4489     12.0583E+06    -4.89471E+06              0.    -6.93145E+06
            4490     12.3592E+06    -4.98236E+06              0.    -7.10224E+06
            4491     12.6687E+06    -5.07051E+06              0.    -7.27522E+06
            4492     12.9872E+06    -5.15904E+06              0.    -7.45025E+06
            4493     13.3148E+06    -5.24784E+06              0.    -7.62716E+06
            4494     13.6519E+06    -5.33677E+06              0.    -7.80579E+06
            4495     13.9986E+06    -5.42570E+06              0.    -7.98595E+06
            4496     14.3553E+06    -5.51446E+06              0.    -8.16743E+06
            4497     14.7221E+06    -5.60289E+06              0.    -8.35000E+06
            4498     15.0994E+06    -5.69080E+06              0.     -8.5334E+06
            4499     15.4874E+06    -5.77801E+06              0.    -8.71737E+06
            4500     15.8864E+06    -5.86430E+06              0.    -8.90159E+06
            4501     16.2968E+06    -5.94944E+06              0.    -9.08576E+06
            4502     16.7187E+06     -6.0332E+06              0.    -9.26953E+06
            4503     17.1525E+06    -6.11530E+06              0.    -9.45250E+06
            4504     17.5985E+06    -6.19548E+06              0.    -9.63429E+06
            4505     18.0570E+06    -6.27342E+06              0.    -9.81446E+06
            4506     18.5284E+06    -6.34881E+06              0.    -9.99253E+06
            4507     19.0130E+06    -6.42131E+06              0.    -10.1680E+06
            4508     19.5112E+06    -6.49054E+06              0.    -10.3404E+06
            4509     20.0233E+06    -6.55613E+06              0.    -10.5091E+06
            4510     20.5497E+06    -6.61765E+06              0.    -10.6735E+06
            4511     21.0909E+06    -6.67467E+06              0.    -10.8330E+06
            4512     21.6472E+06    -6.72671E+06              0.    -10.9869E+06
            4513     22.2191E+06    -6.77327E+06              0.    -11.1345E+06
            4514     22.8071E+06    -6.81381E+06              0.    -11.2751E+06
            4515     23.4116E+06    -6.84778E+06              0.    -11.4079E+06
            4516     24.0331E+06    -6.87457E+06              0.    -11.5321E+06
            4517     24.6723E+06    -6.89354E+06              0.    -11.6469E+06
            4518     25.3298E+06    -6.90401E+06              0.    -11.7514E+06
            4519     26.0060E+06    -6.90524E+06              0.    -11.8448E+06
            4520     26.7018E+06    -6.89648E+06              0.    -11.9260E+06
            4521     27.4179E+06    -6.87687E+06              0.    -11.9944E+06
            4522      28.155E+06    -6.84555E+06              0.    -12.0488E+06
            4523     28.9140E+06    -6.80155E+06              0.    -12.0884E+06
            4524     29.6958E+06    -6.74385E+06              0.    -12.1124E+06
            4525     30.5014E+06    -6.67134E+06              0.    -12.1198E+06
            4526     31.3318E+06    -6.58283E+06              0.    -12.1099E+06
            4527     32.1882E+06    -6.47699E+06              0.    -12.0818E+06
            4528     33.0719E+06    -6.35240E+06              0.    -12.0349E+06
            4529     33.9841E+06    -6.20745E+06              0.    -11.9687E+06
            4530     34.9262E+06    -6.04040E+06              0.    -11.8828E+06
            4531     35.8999E+06    -5.84926E+06              0.    -11.7768E+06
            4532     36.9065E+06    -5.63182E+06              0.    -11.6508E+06
            4533     37.9479E+06    -5.38555E+06              0.    -11.5050E+06
            4534     39.0257E+06    -5.10757E+06              0.    -11.3399E+06
            4535     40.1416E+06    -4.79457E+06              0.    -11.1563E+06
            4536     41.2973E+06    -4.44271E+06              0.    -10.9555E+06
            4537     42.4945E+06    -4.04752E+06              0.    -10.7390E+06
            4538     43.7346E+06    -3.60377E+06              0.    -10.5091E+06
            4539     45.0189E+06    -3.10537E+06              0.    -10.2683E+06
            4540     46.3482E+06    -2.54512E+06              0.    -10.0198E+06
            4541     47.7231E+06    -1.91459E+06              0.    -9.76719E+06
            4542     49.1432E+06    -1.20389E+06              0.    -9.51459E+06
            4543     50.6077E+06    -401.467E+03              0.    -9.26651E+06
            4544     52.1145E+06     506.144E+03              0.    -9.02772E+06
            4545     53.6605E+06     1.53449E+06              0.    -8.80309E+06
            4546     55.2413E+06     2.70137E+06              0.    -8.59732E+06
            4547     56.8511E+06     4.02700E+06              0.    -8.41467E+06
            4548     58.4824E+06     5.53396E+06              0.    -8.25855E+06
            4549     60.1265E+06     7.24719E+06              0.    -8.13115E+06
            4550     61.7730E+06     9.19364E+06              0.    -8.03299E+06
            4551     63.4106E+06     11.4020E+06              0.    -7.96255E+06
            4552     65.0270E+06     13.9020E+06              0.    -7.91597E+06
            4553     66.6099E+06     16.7237E+06              0.    -7.88686E+06
            4554     68.1470E+06     19.8971E+06              0.    -7.86632E+06
            4555     69.6266E+06     23.4505E+06              0.    -7.84313E+06
            4556     71.0382E+06     27.4106E+06              0.    -7.80424E+06
            4557     72.8099E+06     31.9787E+06              0.    -7.91283E+06
            4558     1.45439E+06     654.295E+03              0.      -355.8E+03
            4559     1.44926E+06     606.247E+03              0.    -355.157E+03
            4560     1.46495E+06     568.387E+03              0.    -351.401E+03
            4561     1.48048E+06     531.262E+03              0.    -348.018E+03
            4562     1.49587E+06     494.850E+03              0.    -344.999E+03
            4563     1.51113E+06     459.129E+03              0.    -342.333E+03
            4564     1.52628E+06     424.078E+03              0.    -340.011E+03
            4565     1.54133E+06     389.676E+03              0.    -338.025E+03
            4566     1.55630E+06     355.904E+03              0.    -336.366E+03
            4567     1.57119E+06     322.741E+03              0.    -335.028E+03
            4568     1.58601E+06     290.169E+03              0.    -334.004E+03
            4569     1.60079E+06     258.170E+03              0.    -333.286E+03
            4570     1.61553E+06     226.726E+03              0.    -332.870E+03
            4571     1.63024E+06     195.819E+03              0.    -332.751E+03
            4572     1.64494E+06     165.433E+03              0.    -332.923E+03
            4573     1.65963E+06     135.550E+03              0.    -333.382E+03
            4574     1.67434E+06     106.156E+03              0.    -334.125E+03
            4575     1.68906E+06     77.2341E+03              0.    -335.149E+03
            4576     1.70381E+06     48.7687E+03              0.    -336.449E+03
            4577     1.71860E+06     20.7454E+03              0.    -338.024E+03
            4578     1.73344E+06    -6.85034E+03              0.    -339.872E+03
            4579     1.74834E+06    -34.0335E+03              0.    -341.990E+03
            4580     1.76332E+06    -60.8172E+03              0.    -344.379E+03
            4581     1.77838E+06    -87.2161E+03              0.    -347.036E+03
            4582     1.79353E+06    -113.243E+03              0.    -349.962E+03
            4583     1.80879E+06    -138.912E+03              0.    -353.155E+03
            4584     1.82416E+06    -164.235E+03              0.    -356.617E+03
            4585     1.83965E+06    -189.225E+03              0.    -360.348E+03
            4586     1.85528E+06    -213.895E+03              0.    -364.349E+03
            4587     1.87105E+06    -238.257E+03              0.    -368.621E+03
            4588     1.88698E+06    -262.324E+03              0.    -373.166E+03
            4589     1.90308E+06    -286.107E+03              0.    -377.986E+03
            4590     1.91935E+06    -309.619E+03              0.    -383.083E+03
            4591     1.93581E+06    -332.870E+03              0.    -388.460E+03
            4592     1.95247E+06    -355.873E+03              0.    -394.120E+03
            4593     1.96933E+06    -378.638E+03              0.    -400.067E+03
            4594     1.98642E+06    -401.179E+03              0.    -406.304E+03
            4595     2.00373E+06    -423.505E+03              0.    -412.836E+03
            4596     2.02129E+06    -445.627E+03              0.    -419.666E+03
            4597     2.03910E+06    -467.558E+03              0.    -426.800E+03
            4598     2.05718E+06    -489.307E+03              0.    -434.244E+03
            4599     2.07553E+06    -510.887E+03              0.    -442.001E+03
            4600     2.09417E+06    -532.307E+03              0.    -450.080E+03
            4601     2.11311E+06    -553.579E+03              0.    -458.485E+03
            4602     2.13236E+06    -574.713E+03              0.    -467.223E+03
            4603     2.15194E+06    -595.721E+03              0.    -476.303E+03
            4604     2.17185E+06    -616.614E+03              0.    -485.730E+03
            4605     2.19211E+06    -637.401E+03              0.    -495.513E+03
            4606     2.21274E+06    -658.095E+03              0.    -505.660E+03
            4607     2.23374E+06    -678.705E+03              0.    -516.180E+03
            4608     2.25514E+06    -699.243E+03              0.    -527.082E+03
            4609     2.27694E+06    -719.720E+03              0.    -538.375E+03
            4610     2.29916E+06    -740.146E+03              0.    -550.069E+03
            4611     2.32181E+06    -760.534E+03              0.    -562.174E+03
            4612     2.34492E+06    -780.893E+03              0.    -574.702E+03
            4613     2.36848E+06    -801.235E+03              0.    -587.663E+03
            4614     2.39253E+06    -821.572E+03              0.    -601.070E+03
            4615     2.41708E+06    -841.915E+03              0.    -614.934E+03
            4616     2.44214E+06    -862.276E+03              0.    -629.268E+03
            4617     2.46773E+06    -882.665E+03              0.    -644.085E+03
            4618     2.49387E+06    -903.095E+03              0.    -659.399E+03
            4619     2.52057E+06    -923.577E+03              0.    -675.224E+03
            4620     2.54786E+06    -944.124E+03              0.    -691.575E+03
            4621     2.57576E+06    -964.748E+03              0.    -708.466E+03
            4622     2.60428E+06    -985.461E+03              0.    -725.914E+03
            4623     2.63344E+06    -1.00627E+06              0.    -743.936E+03
            4624     2.66327E+06    -1.02720E+06              0.    -762.547E+03
            4625     2.69379E+06    -1.04826E+06              0.    -781.765E+03
            4626     2.72501E+06    -1.06945E+06              0.    -801.608E+03
            4627     2.75697E+06    -1.09080E+06              0.    -822.096E+03
            4628     2.78969E+06    -1.11232E+06              0.    -843.247E+03
            4629     2.82318E+06    -1.13401E+06              0.    -865.081E+03
            4630     2.85748E+06    -1.15590E+06              0.    -887.619E+03
            4631     2.89260E+06    -1.17799E+06              0.    -910.881E+03
            4632     2.92859E+06    -1.20031E+06              0.    -934.891E+03
            4633     2.96545E+06    -1.22287E+06              0.    -959.671E+03
            4634     3.00323E+06    -1.24567E+06              0.    -985.243E+03
            4635     3.04195E+06    -1.26875E+06              0.    -1.01163E+06
            4636     3.08164E+06    -1.29210E+06              0.    -1.03886E+06
            4637     3.12234E+06    -1.31575E+06              0.    -1.06696E+06
            4638     3.16406E+06    -1.33972E+06              0.    -1.09595E+06
            4639     3.20685E+06    -1.36401E+06              0.    -1.12586E+06
            4640     3.25074E+06    -1.38865E+06              0.    -1.15672E+06
            4641     3.29577E+06    -1.41365E+06              0.    -1.18855E+06
            4642     3.34197E+06    -1.43903E+06              0.    -1.22139E+06
            4643     3.38937E+06    -1.46481E+06              0.    -1.25526E+06
            4644     3.43802E+06    -1.49100E+06              0.    -1.29020E+06
            4645     3.48795E+06    -1.51762E+06              0.    -1.32624E+06
            4646     3.53922E+06    -1.54469E+06              0.    -1.36341E+06
            4647     3.59184E+06    -1.57223E+06              0.    -1.40174E+06
            4648     3.64588E+06    -1.60025E+06              0.    -1.44127E+06
            4649     3.70138E+06    -1.62878E+06              0.    -1.48204E+06
            4650     3.75838E+06    -1.65784E+06              0.    -1.52407E+06
            4651     3.81692E+06    -1.68744E+06              0.    -1.56740E+06
            4652     3.87707E+06    -1.71760E+06              0.    -1.61208E+06
            4653     3.93886E+06    -1.74835E+06              0.    -1.65814E+06
            4654     4.00236E+06    -1.77970E+06              0.    -1.70562E+06
            4655     4.06761E+06    -1.81167E+06              0.    -1.75457E+06
            4656     4.13467E+06    -1.84429E+06              0.    -1.80501E+06
            4657     4.20360E+06    -1.87758E+06              0.    -1.85699E+06
            4658     4.27445E+06    -1.91156E+06              0.    -1.91056E+06
            4659     4.34729E+06    -1.94625E+06              0.    -1.96575E+06
            4660     4.42219E+06    -1.98166E+06              0.    -2.02262E+06
            4661     4.49920E+06    -2.01783E+06              0.    -2.08121E+06
            4662     4.57838E+06    -2.05478E+06              0.    -2.14155E+06
            4663     4.65982E+06    -2.09252E+06              0.    -2.20371E+06
            4664     4.74359E+06    -2.13109E+06              0.    -2.26771E+06
            4665     4.82974E+06    -2.17049E+06              0.    -2.33362E+06
            4666     4.91836E+06    -2.21076E+06              0.    -2.40148E+06
            4667     5.00954E+06    -2.25192E+06              0.    -2.47134E+06
            4668     5.10333E+06    -2.29398E+06              0.    -2.54324E+06
            4669     5.19984E+06    -2.33698E+06              0.    -2.61724E+06
            4670     5.29914E+06    -2.38093E+06              0.    -2.69338E+06
            4671     5.40133E+06    -2.42586E+06              0.    -2.77171E+06
            4672     5.50648E+06    -2.47178E+06              0.    -2.85230E+06
            4673     5.61470E+06    -2.51873E+06              0.    -2.93517E+06
            4674     5.72608E+06    -2.56671E+06              0.    -3.02039E+06
            4675     5.84071E+06    -2.61575E+06              0.    -3.10800E+06
            4676     5.95871E+06    -2.66588E+06              0.    -3.19805E+06
            4677     6.08016E+06    -2.71711E+06              0.    -3.29060E+06
            4678     6.20519E+06    -2.76945E+06              0.    -3.38569E+06
            4679     6.33390E+06    -2.82294E+06              0.    -3.48337E+06
            4680     6.46640E+06    -2.87758E+06              0.    -3.58368E+06
            4681     6.60281E+06    -2.93339E+06              0.    -3.68667E+06
            4682     6.74325E+06    -2.99039E+06              0.    -3.79239E+06
            4683     6.88785E+06    -3.04860E+06              0.    -3.90088E+06
            4684     7.03672E+06    -3.10801E+06              0.    -4.01218E+06
            4685     7.19001E+06    -3.16866E+06              0.    -4.12634E+06
            4686     7.34784E+06    -3.23055E+06              0.    -4.24338E+06
            4687     7.51035E+06    -3.29368E+06              0.    -4.36335E+06
            4688     7.67769E+06    -3.35806E+06              0.    -4.48627E+06
            4689     7.85000E+06    -3.42370E+06              0.    -4.61219E+06
            4690     8.02743E+06    -3.49060E+06              0.    -4.74112E+06
            4691     8.21012E+06    -3.55875E+06              0.    -4.87309E+06
            4692     8.39825E+06    -3.62817E+06              0.    -5.00811E+06
            4693     8.59197E+06    -3.69883E+06              0.    -5.14621E+06
            4694     8.79145E+06    -3.77074E+06              0.    -5.28739E+06
            4695     8.99685E+06    -3.84387E+06              0.    -5.43166E+06
            4696     9.20836E+06    -3.91822E+06              0.    -5.57901E+06
            4697     9.42616E+06    -3.99377E+06              0.    -5.72943E+06
            4698     9.65041E+06    -4.07048E+06              0.    -5.88292E+06
            4699     9.88133E+06    -4.14834E+06              0.    -6.03946E+06
            4700     10.1191E+06    -4.22730E+06              0.      -6.199E+06
            4701     10.3639E+06    -4.30734E+06              0.    -6.36152E+06
            4702     10.6160E+06    -4.38840E+06              0.    -6.52696E+06
            4703     10.8755E+06    -4.47044E+06              0.    -6.69528E+06
            4704     11.1427E+06    -4.55340E+06              0.    -6.86639E+06
            4705     11.4178E+06    -4.63722E+06              0.    -7.04023E+06
            4706     11.7010E+06    -4.72183E+06              0.    -7.21670E+06
            4707     11.9926E+06    -4.80715E+06              0.    -7.39569E+06
            4708     12.2928E+06    -4.89309E+06              0.    -7.57709E+06
            4709     12.6018E+06    -4.97956E+06              0.    -7.76076E+06
            4710     12.9198E+06    -5.06646E+06              0.    -7.94655E+06
            4711     13.2473E+06    -5.15367E+06              0.    -8.13430E+06
            4712     13.5843E+06    -5.24107E+06              0.    -8.32382E+06
            4713     13.9312E+06    -5.32852E+06              0.    -8.51491E+06
            4714     14.2883E+06    -5.41588E+06              0.    -8.70734E+06
            4715     14.6557E+06    -5.50299E+06              0.    -8.90087E+06
            4716     15.0340E+06    -5.58967E+06              0.    -9.09524E+06
            4717     15.4232E+06    -5.67574E+06              0.    -9.29015E+06
            4718     15.8239E+06    -5.76099E+06              0.    -9.48529E+06
            4719     16.2361E+06    -5.84522E+06              0.    -9.68032E+06
            4720     16.6604E+06    -5.92817E+06              0.    -9.87487E+06
            4721     17.0970E+06    -6.00962E+06              0.    -10.0685E+06
            4722     17.5464E+06    -6.08927E+06              0.    -10.2609E+06
            4723     18.0088E+06    -6.16685E+06              0.    -10.4515E+06
            4724     18.4846E+06    -6.24204E+06              0.    -10.6399E+06
            4725     18.9743E+06    -6.31452E+06              0.    -10.8256E+06
            4726     19.4783E+06    -6.38391E+06              0.    -11.0079E+06
            4727     19.9969E+06    -6.44985E+06              0.    -11.1864E+06
            4728     20.5307E+06    -6.51192E+06              0.    -11.3603E+06
            4729     21.0801E+06    -6.56970E+06              0.    -11.5291E+06
            4730     21.6456E+06    -6.62270E+06              0.    -11.6921E+06
            4731     22.2278E+06    -6.67043E+06              0.    -11.8486E+06
            4732     22.8271E+06    -6.71236E+06              0.    -11.9978E+06
            4733     23.4442E+06    -6.74791E+06              0.    -12.1389E+06
            4734     24.0797E+06    -6.77647E+06              0.    -12.2712E+06
            4735     24.7342E+06    -6.79739E+06              0.    -12.3938E+06
            4736     25.4085E+06    -6.80995E+06              0.    -12.5060E+06
            4737     26.1032E+06    -6.81340E+06              0.    -12.6067E+06
            4738     26.8192E+06    -6.80692E+06              0.    -12.6953E+06
            4739     27.5572E+06    -6.78962E+06              0.    -12.7707E+06
            4740     28.3183E+06    -6.76053E+06              0.    -12.8323E+06
            4741     29.1034E+06    -6.71862E+06              0.    -12.8790E+06
            4742     29.9134E+06    -6.66275E+06              0.    -12.9102E+06
            4743     30.7495E+06    -6.59165E+06              0.    -12.9251E+06
            4744     31.6129E+06    -6.50396E+06              0.    -12.9230E+06
            4745     32.5047E+06    -6.39814E+06              0.    -12.9033E+06
            4746     33.4263E+06    -6.27250E+06              0.    -12.8655E+06
            4747     34.3791E+06    -6.12514E+06              0.    -12.8093E+06
            4748     35.3644E+06    -5.95391E+06              0.    -12.7345E+06
            4749     36.3838E+06    -5.75639E+06              0.    -12.6410E+06
            4750     37.4387E+06    -5.52982E+06              0.    -12.5292E+06
            4751     38.5307E+06    -5.27104E+06              0.    -12.3994E+06
            4752     39.6612E+06    -4.97644E+06              0.    -12.2526E+06
            4753     40.8317E+06    -4.64181E+06              0.    -12.0899E+06
            4754     42.0433E+06    -4.26231E+06              0.    -11.9128E+06
            4755     43.2971E+06    -3.83232E+06              0.    -11.7231E+06
            4756     44.5940E+06    -3.34530E+06              0.    -11.5231E+06
            4757     45.9343E+06    -2.79366E+06              0.    -11.3157E+06
            4758     47.3178E+06    -2.16856E+06              0.    -11.1038E+06
            4759     48.7438E+06    -1.45979E+06              0.    -10.8909E+06
            4760     50.2107E+06    -655.558E+03              0.    -10.6805E+06
            4761     51.7161E+06     257.690E+03              0.    -10.4766E+06
            4762     53.2562E+06     1.29539E+06              0.    -10.2828E+06
            4763     54.8265E+06     2.47497E+06              0.    -10.1026E+06
            4764     56.4208E+06     3.81598E+06              0.    -9.93890E+06
            4765     58.0319E+06     5.33998E+06              0.    -9.79370E+06
            4766     59.6512E+06     7.07051E+06              0.    -9.66793E+06
            4767     61.2689E+06     9.03276E+06              0.    -9.56101E+06
            4768     62.8744E+06     11.2533E+06              0.    -9.47058E+06
            4769     64.4564E+06     13.7597E+06              0.    -9.39230E+06
            4770     66.0036E+06     16.5795E+06              0.    -9.31978E+06
            4771     67.5045E+06     19.7405E+06              0.    -9.24459E+06
            4772     68.9486E+06     23.2691E+06              0.    -9.15648E+06
            4773     70.3264E+06     27.1904E+06              0.    -9.04380E+06
            4774     72.0713E+06     31.7018E+06              0.    -9.15583E+06
            4775     1.44432E+06     649.782E+03              0.    -371.499E+03
            4776     1.43924E+06     602.230E+03              0.    -370.828E+03
            4777     1.45477E+06     564.756E+03              0.    -366.910E+03
            4778     1.47014E+06     528.005E+03              0.    -363.380E+03
            4779     1.48537E+06     491.958E+03              0.    -360.228E+03
            4780     1.50048E+06     456.592E+03              0.    -357.442E+03
            4781     1.51547E+06     421.887E+03              0.    -355.013E+03
            4782     1.53037E+06     387.823E+03              0.    -352.933E+03
            4783     1.54517E+06     354.380E+03              0.    -351.194E+03
            4784     1.55991E+06     321.539E+03              0.    -349.786E+03
            4785     1.57458E+06     289.284E+03              0.    -348.705E+03
            4786     1.58920E+06     257.594E+03              0.    -347.943E+03
            4787     1.60377E+06     226.455E+03              0.    -347.493E+03
            4788     1.61833E+06     195.847E+03              0.    -347.352E+03
            4789     1.63286E+06     165.755E+03              0.    -347.513E+03
            4790     1.64739E+06     136.163E+03              0.    -347.973E+03
            4791     1.66192E+06     107.055E+03              0.    -348.727E+03
            4792     1.67647E+06     78.4171E+03              0.    -349.772E+03
            4793     1.69104E+06     50.2325E+03              0.    -351.105E+03
            4794     1.70565E+06     22.4875E+03              0.    -352.723E+03
            4795     1.72031E+06    -4.83165E+03              0.    -354.624E+03
            4796     1.73503E+06    -31.7398E+03              0.    -356.807E+03
            4797     1.74981E+06    -58.2497E+03              0.    -359.270E+03
            4798     1.76467E+06    -84.3755E+03              0.    -362.011E+03
            4799     1.77961E+06    -110.130E+03              0.    -365.032E+03
            4800     1.79466E+06    -135.526E+03              0.    -368.330E+03
            4801     1.80981E+06    -160.576E+03              0.    -371.907E+03
            4802     1.82508E+06    -185.292E+03              0.    -375.763E+03
            4803     1.84048E+06    -209.687E+03              0.    -379.899E+03
            4804     1.85602E+06    -233.773E+03              0.    -384.317E+03
            4805     1.87170E+06    -257.561E+03              0.    -389.017E+03
            4806     1.88754E+06    -281.063E+03              0.    -394.003E+03
            4807     1.90355E+06    -304.291E+03              0.    -399.277E+03
            4808     1.91974E+06    -327.257E+03              0.    -404.841E+03
            4809     1.93612E+06    -349.970E+03              0.    -410.699E+03
            4810     1.95270E+06    -372.443E+03              0.    -416.853E+03
            4811     1.96948E+06    -394.686E+03              0.    -423.309E+03
            4812     1.98649E+06    -416.711E+03              0.    -430.070E+03
            4813     2.00373E+06    -438.527E+03              0.    -437.141E+03
            4814     2.02121E+06    -460.146E+03              0.    -444.527E+03
            4815     2.03894E+06    -481.579E+03              0.    -452.233E+03
            4816     2.05693E+06    -502.836E+03              0.    -460.265E+03
            4817     2.07521E+06    -523.928E+03              0.    -468.629E+03
            4818     2.09376E+06    -544.864E+03              0.    -477.332E+03
            4819     2.11262E+06    -565.657E+03              0.    -486.380E+03
            4820     2.13179E+06    -586.315E+03              0.    -495.781E+03
            4821     2.15128E+06    -606.850E+03              0.    -505.542E+03
            4822     2.17111E+06    -627.272E+03              0.    -515.673E+03
            4823     2.19128E+06    -647.592E+03              0.    -526.180E+03
            4824     2.21182E+06    -667.819E+03              0.    -537.073E+03
            4825     2.23272E+06    -687.965E+03              0.    -548.361E+03
            4826     2.25402E+06    -708.039E+03              0.    -560.055E+03
            4827     2.27572E+06    -728.054E+03              0.    -572.164E+03
            4828     2.29783E+06    -748.018E+03              0.    -584.698E+03
            4829     2.32037E+06    -767.943E+03              0.    -597.671E+03
            4830     2.34336E+06    -787.840E+03              0.    -611.091E+03
            4831     2.36681E+06    -807.719E+03              0.    -624.973E+03
            4832     2.39073E+06    -827.592E+03              0.    -639.328E+03
            4833     2.41515E+06    -847.468E+03              0.    -654.169E+03
            4834     2.44007E+06    -867.360E+03              0.    -669.511E+03
            4835     2.46552E+06    -887.279E+03              0.    -685.367E+03
            4836     2.49150E+06    -907.236E+03              0.    -701.751E+03
            4837     2.51805E+06    -927.242E+03              0.    -718.680E+03
            4838     2.54518E+06    -947.309E+03              0.    -736.168E+03
            4839     2.57290E+06    -967.449E+03              0.    -754.231E+03
            4840     2.60125E+06    -987.673E+03              0.    -772.888E+03
            4841     2.63022E+06    -1.00799E+06              0.    -792.155E+03
            4842     2.65985E+06    -1.02842E+06              0.    -812.051E+03
            4843     2.69017E+06    -1.04898E+06              0.    -832.593E+03
            4844     2.72118E+06    -1.06966E+06              0.    -853.802E+03
            4845     2.75291E+06    -1.09049E+06              0.    -875.697E+03
            4846     2.78539E+06    -1.11148E+06              0.    -898.299E+03
            4847     2.81863E+06    -1.13265E+06              0.    -921.629E+03
            4848     2.85267E+06    -1.15400E+06              0.    -945.709E+03
            4849     2.88753E+06    -1.17555E+06              0.    -970.562E+03
            4850     2.92323E+06    -1.19731E+06              0.    -996.211E+03
            4851     2.95980E+06    -1.21930E+06              0.    -1.02268E+06
            4852     2.99727E+06    -1.24153E+06              0.    -1.04999E+06
            4853     3.03566E+06    -1.26402E+06              0.    -1.07818E+06
            4854     3.07502E+06    -1.28678E+06              0.    -1.10726E+06
            4855     3.11536E+06    -1.30983E+06              0.    -1.13727E+06
            4856     3.15671E+06    -1.33317E+06              0.    -1.16822E+06
            4857     3.19912E+06    -1.35684E+06              0.    -1.20016E+06
            4858     3.24261E+06    -1.38083E+06              0.    -1.23311E+06
            4859     3.28722E+06    -1.40518E+06              0.    -1.26710E+06
            4860     3.33298E+06    -1.42989E+06              0.    -1.30216E+06
            4861     3.37993E+06    -1.45498E+06              0.    -1.33832E+06
            4862     3.42810E+06    -1.48047E+06              0.    -1.37562E+06
            4863     3.47754E+06    -1.50638E+06              0.    -1.41409E+06
            4864     3.52829E+06    -1.53272E+06              0.    -1.45377E+06
            4865     3.58038E+06    -1.55952E+06              0.    -1.49468E+06
            4866     3.63387E+06    -1.58678E+06              0.    -1.53687E+06
            4867     3.68879E+06    -1.61453E+06              0.    -1.58038E+06
            4868     3.74518E+06    -1.64278E+06              0.    -1.62523E+06
            4869     3.80310E+06    -1.67157E+06              0.    -1.67148E+06
            4870     3.86260E+06    -1.70089E+06              0.    -1.71915E+06
            4871     3.92372E+06    -1.73078E+06              0.    -1.76830E+06
            4872     3.98652E+06    -1.76126E+06              0.    -1.81896E+06
            4873     4.05104E+06    -1.79234E+06              0.    -1.87117E+06
            4874     4.11735E+06    -1.82404E+06              0.    -1.92498E+06
            4875     4.18550E+06    -1.85639E+06              0.    -1.98044E+06
            4876     4.25554E+06    -1.88940E+06              0.    -2.03758E+06
            4877     4.32755E+06    -1.92310E+06              0.    -2.09645E+06
            4878     4.40157E+06    -1.95751E+06              0.    -2.15710E+06
            4879     4.47768E+06    -1.99264E+06              0.    -2.21958E+06
            4880     4.55594E+06    -2.02853E+06              0.    -2.28393E+06
            4881     4.63642E+06    -2.06519E+06              0.    -2.35021E+06
            4882     4.71919E+06    -2.10264E+06              0.    -2.41845E+06
            4883     4.80432E+06    -2.14091E+06              0.    -2.48872E+06
            4884     4.89188E+06    -2.18001E+06              0.    -2.56107E+06
            4885     4.98196E+06    -2.21997E+06              0.    -2.63553E+06
            4886     5.07463E+06    -2.26082E+06              0.    -2.71217E+06
            4887     5.16998E+06    -2.30257E+06              0.    -2.79104E+06
            4888     5.26808E+06    -2.34524E+06              0.    -2.87218E+06
            4889     5.36903E+06    -2.38886E+06              0.    -2.95566E+06
            4890     5.47292E+06    -2.43345E+06              0.    -3.04152E+06
            4891     5.57983E+06    -2.47903E+06              0.    -3.12981E+06
            4892     5.68987E+06    -2.52562E+06              0.    -3.22059E+06
            4893     5.80313E+06    -2.57324E+06              0.    -3.31392E+06
            4894     5.91971E+06    -2.62191E+06              0.    -3.40983E+06
            4895     6.03971E+06    -2.67165E+06              0.    -3.50839E+06
            4896     6.16325E+06    -2.72248E+06              0.    -3.60965E+06
            4897     6.29044E+06    -2.77442E+06              0.    -3.71364E+06
            4898     6.42138E+06    -2.82749E+06              0.    -3.82044E+06
            4899     6.55620E+06    -2.88170E+06              0.    -3.93007E+06
            4900     6.69502E+06    -2.93706E+06              0.    -4.04259E+06
            4901     6.83795E+06    -2.99360E+06              0.    -4.15805E+06
            4902     6.98513E+06    -3.05133E+06              0.    -4.27648E+06
            4903     7.13670E+06    -3.11025E+06              0.    -4.39793E+06
            4904     7.29277E+06    -3.17039E+06              0.    -4.52244E+06
            4905     7.45351E+06    -3.23175E+06              0.    -4.65004E+06
            4906     7.61904E+06    -3.29433E+06              0.    -4.78077E+06
            4907     7.78952E+06    -3.35814E+06              0.    -4.91466E+06
            4908     7.96510E+06    -3.42320E+06              0.    -5.05174E+06
            4909     8.14593E+06    -3.48949E+06              0.    -5.19202E+06
            4910     8.33218E+06    -3.55701E+06              0.    -5.33553E+06
            4911     8.52401E+06    -3.62577E+06              0.    -5.48228E+06
            4912     8.72159E+06    -3.69576E+06              0.    -5.63228E+06
            4913     8.92509E+06    -3.76696E+06              0.    -5.78553E+06
            4914     9.13471E+06    -3.83937E+06              0.    -5.94203E+06
            4915     9.35061E+06    -3.91296E+06              0.    -6.10177E+06
            4916     9.57300E+06    -3.98771E+06              0.    -6.26474E+06
            4917     9.80206E+06    -4.06361E+06              0.    -6.43090E+06
            4918     10.0380E+06    -4.14062E+06              0.    -6.60023E+06
            4919     10.2810E+06    -4.21871E+06              0.    -6.77269E+06
            4920     10.5314E+06    -4.29783E+06              0.    -6.94821E+06
            4921     10.7892E+06    -4.37795E+06              0.    -7.12674E+06
            4922     11.0548E+06    -4.45901E+06              0.    -7.30821E+06
            4923     11.3284E+06    -4.54095E+06              0.    -7.49252E+06
            4924     11.6101E+06    -4.62371E+06              0.    -7.67958E+06
            4925     11.9004E+06    -4.70721E+06              0.    -7.86928E+06
            4926     12.1993E+06    -4.79139E+06              0.    -8.06149E+06
            4927     12.5073E+06    -4.87615E+06              0.    -8.25606E+06
            4928     12.8244E+06    -4.96140E+06              0.    -8.45285E+06
            4929     13.1511E+06    -5.04702E+06              0.    -8.65166E+06
            4930     13.4876E+06    -5.13290E+06              0.     -8.8523E+06
            4931     13.8342E+06    -5.21892E+06              0.    -9.05456E+06
            4932     14.1911E+06    -5.30494E+06              0.    -9.25821E+06
            4933     14.5588E+06    -5.39081E+06              0.    -9.46298E+06
            4934     14.9375E+06    -5.47636E+06              0.    -9.66859E+06
            4935     15.3276E+06    -5.56142E+06              0.    -9.87475E+06
            4936     15.7294E+06    -5.64580E+06              0.    -10.0811E+06
            4937     16.1433E+06    -5.72929E+06              0.    -10.2873E+06
            4938     16.5696E+06    -5.81167E+06              0.    -10.4930E+06
            4939     17.0087E+06    -5.89269E+06              0.    -10.6978E+06
            4940     17.4611E+06    -5.97210E+06              0.    -10.9011E+06
            4941     17.9271E+06    -6.04961E+06              0.    -11.1027E+06
            4942     18.4071E+06    -6.12493E+06              0.    -11.3018E+06
            4943     18.9017E+06    -6.19773E+06              0.    -11.4981E+06
            4944     19.4113E+06    -6.26766E+06              0.    -11.6910E+06
            4945     19.9364E+06    -6.33435E+06              0.    -11.8798E+06
            4946     20.4775E+06    -6.39738E+06              0.    -12.0640E+06
            4947     21.0351E+06    -6.45634E+06              0.    -12.2428E+06
            4948     21.6099E+06    -6.51074E+06              0.    -12.4157E+06
            4949     22.2023E+06    -6.56008E+06              0.    -12.5819E+06
            4950     22.8132E+06    -6.60382E+06              0.    -12.7406E+06
            4951     23.4430E+06    -6.64137E+06              0.    -12.8911E+06
            4952     24.0926E+06    -6.67209E+06              0.    -13.0326E+06
            4953     24.7627E+06    -6.69530E+06              0.    -13.1643E+06
            4954     25.4540E+06    -6.71025E+06              0.    -13.2854E+06
            4955     26.1674E+06    -6.71611E+06              0.    -13.3951E+06
            4956     26.9038E+06    -6.71202E+06              0.    -13.4926E+06
            4957     27.6641E+06    -6.69698E+06              0.    -13.5770E+06
            4958     28.4493E+06    -6.66994E+06              0.    -13.6476E+06
            4959     29.2605E+06    -6.62972E+06              0.    -13.7037E+06
            4960     30.0988E+06    -6.57502E+06              0.    -13.7446E+06
            4961     30.9652E+06    -6.50439E+06              0.    -13.7695E+06
            4962     31.8611E+06    -6.41623E+06              0.    -13.7780E+06
            4963     32.7878E+06    -6.30872E+06              0.    -13.7697E+06
            4964     33.7464E+06    -6.17985E+06              0.    -13.7442E+06
            4965     34.7383E+06    -6.02729E+06              0.    -13.7013E+06
            4966     35.7649E+06    -5.84847E+06              0.    -13.6411E+06
            4967     36.8275E+06    -5.64039E+06              0.    -13.5639E+06
            4968     37.9275E+06    -5.39966E+06              0.    -13.4699E+06
            4969     39.0660E+06    -5.12240E+06              0.    -13.3601E+06
            4970     40.2441E+06    -4.80411E+06              0.    -13.2353E+06
            4971     41.4628E+06    -4.43964E+06              0.    -13.0969E+06
            4972     42.7228E+06    -4.02304E+06              0.    -12.9465E+06
            4973     44.0243E+06    -3.54745E+06              0.    -12.7861E+06
            4974     45.3674E+06    -3.00497E+06              0.    -12.6179E+06
            4975     46.7513E+06    -2.38651E+06              0.    -12.4444E+06
            4976     48.1749E+06    -1.68166E+06              0.    -12.2683E+06
            4977     49.6361E+06    -878.529E+03              0.    -12.0925E+06
            4978     51.1320E+06     36.3708E+03              0.    -11.9198E+06
            4979     52.6587E+06     1.07824E+06              0.    -11.7529E+06
            4980     54.2113E+06     2.26407E+06              0.    -11.5942E+06
            4981     55.7836E+06     3.61267E+06              0.    -11.4453E+06
            4982     57.3685E+06     5.14459E+06              0.    -11.3071E+06
            4983     58.9577E+06     6.88208E+06              0.    -11.1796E+06
            4984     60.5420E+06     8.84879E+06              0.    -11.0612E+06
            4985     62.1113E+06     11.0695E+06              0.    -10.9489E+06
            4986     63.6551E+06     13.5697E+06              0.    -10.8380E+06
            4987     65.1629E+06     16.3753E+06              0.    -10.7221E+06
            4988     66.6240E+06     19.5119E+06              0.    -10.5932E+06
            4989     68.0283E+06     23.0044E+06              0.    -10.4419E+06
            4990     69.3667E+06     26.8768E+06              0.    -10.2576E+06
            4991     71.0801E+06     31.3218E+06              0.    -10.3726E+06
            4992     1.43383E+06     645.084E+03              0.    -387.033E+03
            4993     1.42881E+06     598.046E+03              0.    -386.333E+03
            4994     1.44417E+06     560.972E+03              0.    -382.256E+03
            4995     1.45937E+06      524.61E+03              0.    -378.581E+03
            4996     1.47444E+06     488.940E+03              0.    -375.296E+03
            4997     1.48939E+06     453.943E+03              0.    -372.392E+03
            4998     1.50422E+06     419.596E+03              0.    -369.857E+03
            4999     1.51895E+06     385.882E+03              0.    -367.683E+03
            5000     1.53360E+06     352.781E+03              0.    -365.862E+03
            5001     1.54817E+06     320.275E+03              0.    -364.385E+03
            5002     1.56268E+06     288.347E+03              0.    -363.246E+03
            5003     1.57713E+06     256.979E+03              0.    -362.437E+03
            5004     1.59155E+06     226.155E+03              0.    -361.952E+03
            5005     1.60593E+06     195.857E+03              0.    -361.787E+03
            5006     1.62029E+06     166.071E+03              0.    -361.935E+03
            5007     1.63465E+06     136.780E+03              0.    -362.392E+03
            5008     1.64901E+06     107.970E+03              0.    -363.154E+03
            5009     1.66337E+06     79.6257E+03              0.    -364.218E+03
            5010     1.67777E+06     51.7323E+03              0.    -365.579E+03
            5011     1.69219E+06     24.2761E+03              0.    -367.237E+03
            5012     1.70666E+06    -2.75638E+03              0.    -369.187E+03
            5013     1.72118E+06    -29.3794E+03              0.    -371.429E+03
            5014     1.73576E+06    -55.6054E+03              0.    -373.960E+03
            5015     1.75041E+06    -81.4481E+03              0.    -376.781E+03
            5016     1.76515E+06    -106.920E+03              0.    -379.890E+03
            5017     1.77997E+06    -132.033E+03              0.    -383.287E+03
            5018     1.79490E+06    -156.799E+03              0.    -386.973E+03
            5019     1.80994E+06    -181.232E+03              0.    -390.947E+03
            5020     1.82510E+06    -205.342E+03              0.    -395.212E+03
            5021     1.84039E+06    -229.141E+03              0.    -399.767E+03
            5022     1.85582E+06    -252.641E+03              0.    -404.616E+03
            5023     1.87140E+06    -275.852E+03              0.    -409.760E+03
            5024     1.88714E+06    -298.787E+03              0.    -415.201E+03
            5025     1.90305E+06    -321.456E+03              0.    -420.943E+03
            5026     1.91913E+06    -343.870E+03              0.    -426.988E+03
            5027     1.93541E+06    -366.039E+03              0.    -433.341E+03
            5028     1.95189E+06    -387.975E+03              0.    -440.005E+03
            5029     1.96858E+06    -409.687E+03              0.    -446.985E+03
            5030     1.98548E+06    -431.187E+03              0.    -454.285E+03
            5031     2.00262E+06    -452.484E+03              0.    -461.911E+03
            5032     2.02000E+06    -473.589E+03              0.    -469.868E+03
            5033     2.03763E+06    -494.512E+03              0.    -478.162E+03
            5034     2.05552E+06    -515.264E+03              0.    -486.798E+03
            5035     2.07368E+06    -535.854E+03              0.    -495.785E+03
            5036     2.09213E+06    -556.292E+03              0.    -505.129E+03
            5037     2.11088E+06    -576.589E+03              0.    -514.838E+03
            5038     2.12993E+06    -596.754E+03              0.    -524.918E+03
            5039     2.14931E+06    -616.798E+03              0.     -535.38E+03
            5040     2.16901E+06    -636.731E+03              0.    -546.231E+03
            5041     2.18906E+06    -656.562E+03              0.    -557.481E+03
            5042     2.20947E+06    -676.302E+03              0.    -569.139E+03
            5043     2.23024E+06    -695.961E+03              0.    -581.215E+03
            5044     2.25140E+06    -715.549E+03              0.    -593.720E+03
            5045     2.27295E+06    -735.076E+03              0.    -606.665E+03
            5046     2.29492E+06    -754.553E+03              0.    -620.061E+03
            5047     2.31731E+06    -773.988E+03              0.    -633.920E+03
            5048     2.34013E+06    -793.394E+03              0.    -648.256E+03
            5049     2.36341E+06    -812.781E+03              0.    -663.080E+03
            5050     2.38716E+06    -832.158E+03              0.    -678.406E+03
            5051     2.41139E+06    -851.536E+03              0.    -694.248E+03
            5052     2.43613E+06    -870.927E+03              0.    -710.620E+03
            5053     2.46138E+06    -890.340E+03              0.    -727.539E+03
            5054     2.48716E+06    -909.787E+03              0.    -745.019E+03
            5055     2.51349E+06    -929.279E+03              0.    -763.076E+03
            5056     2.54039E+06    -948.827E+03              0.    -781.727E+03
            5057     2.56788E+06    -968.442E+03              0.    -800.991E+03
            5058     2.59598E+06    -988.136E+03              0.    -820.884E+03
            5059     2.62470E+06    -1.00792E+06              0.    -841.425E+03
            5060     2.65406E+06    -1.02781E+06              0.    -862.634E+03
            5061     2.68409E+06    -1.04781E+06              0.    -884.530E+03
            5062     2.71481E+06    -1.06793E+06              0.    -907.135E+03
            5063     2.74624E+06    -1.08820E+06              0.    -930.469E+03
            5064     2.77840E+06    -1.10861E+06              0.    -954.554E+03
            5065     2.81131E+06    -1.12919E+06              0.    -979.413E+03
            5066     2.84500E+06    -1.14995E+06              0.    -1.00507E+06
            5067     2.87950E+06    -1.17089E+06              0.    -1.03155E+06
            5068     2.91482E+06    -1.19204E+06              0.    -1.05887E+06
            5069     2.95100E+06    -1.21340E+06              0.    -1.08707E+06
            5070     2.98806E+06    -1.23500E+06              0.    -1.11616E+06
            5071     3.02603E+06    -1.25683E+06              0.    -1.14618E+06
            5072     3.06494E+06    -1.27893E+06              0.    -1.17716E+06
            5073     3.10481E+06    -1.30130E+06              0.    -1.20911E+06
            5074     3.14568E+06    -1.32396E+06              0.    -1.24208E+06
            5075     3.18759E+06    -1.34691E+06              0.    -1.27609E+06
            5076     3.23055E+06    -1.37019E+06              0.    -1.31117E+06
            5077     3.27461E+06    -1.39380E+06              0.    -1.34736E+06
            5078     3.31981E+06    -1.41776E+06              0.    -1.38469E+06
            5079     3.36616E+06    -1.44208E+06              0.    -1.42319E+06
            5080     3.41372E+06    -1.46679E+06              0.    -1.46290E+06
            5081     3.46253E+06    -1.49189E+06              0.    -1.50385E+06
            5082     3.51261E+06    -1.51741E+06              0.    -1.54609E+06
            5083     3.56401E+06    -1.54336E+06              0.    -1.58964E+06
            5084     3.61678E+06    -1.56976E+06              0.    -1.63454E+06
            5085     3.67095E+06    -1.59663E+06              0.    -1.68084E+06
            5086     3.72658E+06    -1.62398E+06              0.    -1.72858E+06
            5087     3.78370E+06    -1.65184E+06              0.    -1.77780E+06
            5088     3.84236E+06    -1.68022E+06              0.    -1.82853E+06
            5089     3.90262E+06    -1.70914E+06              0.    -1.88082E+06
            5090     3.96452E+06    -1.73863E+06              0.    -1.93473E+06
            5091     4.02812E+06    -1.76869E+06              0.    -1.99028E+06
            5092     4.09346E+06    -1.79935E+06              0.    -2.04753E+06
            5093     4.16062E+06    -1.83063E+06              0.    -2.10652E+06
            5094     4.22963E+06    -1.86255E+06              0.    -2.16730E+06
            5095     4.30057E+06    -1.89513E+06              0.    -2.22993E+06
            5096     4.37350E+06    -1.92839E+06              0.    -2.29444E+06
            5097     4.44847E+06    -1.96236E+06              0.    -2.36088E+06
            5098     4.52555E+06    -1.99704E+06              0.    -2.42932E+06
            5099     4.60481E+06    -2.03247E+06              0.    -2.49980E+06
            5100     4.68632E+06    -2.06866E+06              0.    -2.57237E+06
            5101     4.77016E+06    -2.10564E+06              0.    -2.64708E+06
            5102     4.85638E+06    -2.14343E+06              0.    -2.72399E+06
            5103     4.94508E+06    -2.18205E+06              0.    -2.80315E+06
            5104     5.03633E+06    -2.22151E+06              0.    -2.88462E+06
            5105     5.13021E+06    -2.26185E+06              0.    -2.96845E+06
            5106     5.22680E+06    -2.30308E+06              0.    -3.05469E+06
            5107     5.32620E+06    -2.34523E+06              0.    -3.14340E+06
            5108     5.42848E+06    -2.38831E+06              0.    -3.23463E+06
            5109     5.53375E+06    -2.43235E+06              0.    -3.32845E+06
            5110      5.6421E+06    -2.47736E+06              0.    -3.42490E+06
            5111     5.75362E+06    -2.52338E+06              0.    -3.52404E+06
            5112     5.86842E+06    -2.57041E+06              0.    -3.62592E+06
            5113     5.98660E+06    -2.61849E+06              0.    -3.73060E+06
            5114     6.10827E+06    -2.66761E+06              0.    -3.83814E+06
            5115     6.23354E+06    -2.71782E+06              0.    -3.94857E+06
            5116     6.36252E+06    -2.76912E+06              0.    -4.06196E+06
            5117     6.49533E+06    -2.82153E+06              0.    -4.17835E+06
            5118     6.63209E+06    -2.87507E+06              0.    -4.29780E+06
            5119     6.77293E+06    -2.92975E+06              0.    -4.42034E+06
            5120     6.91798E+06    -2.98559E+06              0.    -4.54603E+06
            5121     7.06737E+06    -3.04260E+06              0.    -4.67491E+06
            5122     7.22123E+06    -3.10079E+06              0.    -4.80701E+06
            5123     7.37972E+06    -3.16018E+06              0.    -4.94238E+06
            5124     7.54296E+06    -3.22077E+06              0.    -5.08105E+06
            5125     7.71112E+06    -3.28257E+06              0.    -5.22305E+06
            5126     7.88435E+06    -3.34558E+06              0.    -5.36841E+06
            5127     8.06281E+06    -3.40981E+06              0.    -5.51715E+06
            5128     8.24666E+06    -3.47526E+06              0.    -5.66929E+06
            5129     8.43607E+06    -3.54193E+06              0.    -5.82484E+06
            5130     8.63122E+06    -3.60982E+06              0.    -5.98382E+06
            5131     8.83229E+06    -3.67891E+06              0.    -6.14621E+06
            5132     9.03946E+06    -3.74920E+06              0.    -6.31202E+06
            5133     9.25292E+06    -3.82067E+06              0.    -6.48124E+06
            5134     9.47288E+06    -3.89331E+06              0.    -6.65385E+06
            5135     9.69953E+06    -3.96710E+06              0.    -6.82981E+06
            5136     9.93308E+06    -4.04201E+06              0.    -7.00910E+06
            5137     10.1738E+06    -4.11801E+06              0.    -7.19167E+06
            5138     10.4218E+06    -4.19507E+06              0.    -7.37745E+06
            5139     10.6774E+06    -4.27315E+06              0.    -7.56638E+06
            5140     10.9408E+06    -4.35220E+06              0.    -7.75839E+06
            5141     11.2122E+06    -4.43218E+06              0.    -7.95338E+06
            5142     11.4920E+06    -4.51301E+06              0.    -8.15124E+06
            5143     11.7803E+06    -4.59465E+06              0.    -8.35186E+06
            5144     12.0775E+06    -4.67702E+06              0.    -8.55510E+06
            5145     12.3837E+06    -4.76003E+06              0.    -8.76080E+06
            5146     12.6994E+06    -4.84361E+06              0.    -8.96881E+06
            5147     13.0248E+06    -4.92765E+06              0.    -9.17893E+06
            5148     13.3602E+06    -5.01205E+06              0.    -9.39095E+06
            5149     13.7059E+06    -5.09669E+06              0.    -9.60466E+06
            5150     14.0623E+06    -5.18144E+06              0.     -9.8198E+06
            5151     14.4296E+06    -5.26616E+06              0.    -10.0361E+06
            5152     14.8083E+06    -5.35070E+06              0.    -10.2533E+06
            5153     15.1988E+06    -5.43490E+06              0.    -10.4710E+06
            5154     15.6013E+06    -5.51857E+06              0.    -10.6890E+06
            5155     16.0163E+06    -5.60152E+06              0.    -10.9067E+06
            5156     16.4442E+06    -5.68353E+06              0.    -11.1240E+06
            5157     16.8854E+06    -5.76437E+06              0.    -11.3402E+06
            5158     17.3404E+06    -5.84380E+06              0.    -11.5551E+06
            5159     17.8097E+06    -5.92153E+06              0.    -11.7680E+06
            5160     18.2936E+06    -5.99729E+06              0.    -11.9785E+06
            5161     18.7929E+06    -6.07074E+06              0.    -12.1860E+06
            5162     19.3078E+06    -6.14155E+06              0.    -12.3900E+06
            5163     19.8391E+06    -6.20934E+06              0.    -12.5899E+06
            5164     20.3873E+06    -6.27371E+06              0.    -12.7851E+06
            5165     20.9530E+06    -6.33421E+06              0.    -12.9748E+06
            5166     21.5369E+06    -6.39037E+06              0.    -13.1584E+06
            5167     22.1396E+06    -6.44168E+06              0.    -13.3352E+06
            5168     22.7618E+06    -6.48755E+06              0.    -13.5045E+06
            5169     23.4043E+06    -6.52739E+06              0.    -13.6655E+06
            5170     24.0679E+06    -6.56051E+06              0.    -13.8175E+06
            5171     24.7534E+06    -6.58617E+06              0.    -13.9597E+06
            5172     25.4617E+06    -6.60358E+06              0.    -14.0913E+06
            5173     26.1937E+06    -6.61183E+06              0.    -14.2116E+06
            5174     26.9503E+06    -6.60994E+06              0.    -14.3197E+06
            5175     27.7325E+06    -6.59682E+06              0.    -14.4151E+06
            5176     28.5415E+06    -6.57127E+06              0.    -14.4969E+06
            5177     29.3782E+06    -6.53193E+06              0.    -14.5645E+06
            5178     30.2439E+06    -6.47730E+06              0.    -14.6173E+06
            5179     31.1398E+06    -6.40569E+06              0.    -14.6549E+06
            5180     32.0669E+06    -6.31520E+06              0.    -14.6767E+06
            5181     33.0266E+06    -6.20367E+06              0.    -14.6826E+06
            5182     34.0201E+06    -6.06868E+06              0.    -14.6723E+06
            5183     35.0486E+06    -5.90745E+06              0.    -14.6458E+06
            5184     36.1132E+06    -5.71683E+06              0.    -14.6033E+06
            5185     37.2151E+06    -5.49322E+06              0.    -14.5452E+06
            5186     38.3552E+06    -5.23250E+06              0.    -14.4721E+06
            5187     39.5344E+06    -4.92995E+06              0.    -14.3848E+06
            5188     40.7532E+06    -4.58018E+06              0.    -14.2844E+06
            5189     42.0121E+06    -4.17698E+06              0.    -14.1722E+06
            5190     43.3109E+06    -3.71326E+06              0.    -14.0498E+06
            5191     44.6492E+06    -3.18093E+06              0.    -13.9189E+06
            5192     46.0260E+06    -2.57073E+06              0.    -13.7814E+06
            5193     47.4397E+06    -1.87219E+06              0.    -13.6395E+06
            5194     48.8878E+06    -1.07343E+06              0.    -13.4952E+06
            5195     50.3671E+06    -161.137E+03              0.    -13.3504E+06
            5196     51.8736E+06     879.577E+03              0.    -13.2069E+06
            5197     53.4021E+06     2.06518E+06              0.    -13.0661E+06
            5198     54.9466E+06     3.41374E+06              0.    -12.9286E+06
            5199     56.5000E+06     4.94485E+06              0.    -12.7943E+06
            5200     58.0544E+06     6.67957E+06              0.    -12.6623E+06
            5201     59.6009E+06     8.64015E+06              0.    -12.5303E+06
            5202     61.1301E+06     10.8498E+06              0.    -12.3947E+06
            5203     62.6321E+06     13.3324E+06              0.    -12.2506E+06
            5204     64.0969E+06     16.1122E+06              0.    -12.0915E+06
            5205     65.5146E+06     19.2134E+06              0.    -11.9099E+06
            5206     66.8753E+06     22.6595E+06              0.    -11.6968E+06
            5207     68.1701E+06     26.4736E+06              0.    -11.4426E+06
            5208     69.8485E+06     30.8434E+06              0.    -11.5590E+06
            5209     1.42293E+06     640.204E+03              0.    -402.394E+03
            5210     1.41797E+06     593.697E+03              0.    -401.667E+03
            5211     1.43316E+06     557.037E+03              0.    -397.433E+03
            5212     1.44819E+06     521.077E+03              0.    -393.615E+03
            5213     1.46309E+06     485.798E+03              0.    -390.199E+03
            5214     1.47787E+06     451.181E+03              0.    -387.177E+03
            5215     1.49254E+06     417.206E+03              0.    -384.536E+03
            5216     1.50710E+06     383.854E+03              0.    -382.269E+03
            5217     1.52158E+06     351.107E+03              0.    -380.366E+03
            5218     1.53598E+06     318.947E+03              0.    -378.819E+03
            5219     1.55032E+06     287.358E+03              0.    -377.620E+03
            5220     1.56461E+06     256.322E+03              0.    -376.764E+03
            5221     1.57885E+06     225.825E+03              0.    -376.242E+03
            5222     1.59306E+06     195.848E+03              0.    -376.050E+03
            5223     1.60725E+06     166.378E+03              0.    -376.183E+03
            5224     1.62143E+06     137.399E+03              0.    -376.634E+03
            5225     1.63560E+06     108.896E+03              0.    -377.401E+03
            5226     1.64979E+06     80.8563E+03              0.    -378.480E+03
            5227     1.66399E+06     53.2642E+03              0.    -379.866E+03
            5228     1.67822E+06     26.1067E+03              0.    -381.558E+03
            5229     1.69249E+06        -629.214              0.    -383.553E+03
            5230     1.70681E+06    -26.9573E+03              0.    -385.849E+03
            5231     1.72118E+06    -52.8896E+03              0.    -388.444E+03
            5232     1.73562E+06    -78.4395E+03              0.    -391.338E+03
            5233     1.75014E+06    -103.619E+03              0.    -394.530E+03
            5234     1.76474E+06    -128.439E+03              0.    -398.020E+03
            5235     1.77943E+06    -152.913E+03              0.    -401.807E+03
            5236     1.79423E+06    -177.052E+03              0.    -405.893E+03
            5237     1.80915E+06    -200.867E+03              0.    -410.278E+03
            5238     1.82418E+06    -224.370E+03              0.    -414.964E+03
            5239     1.83935E+06    -247.572E+03              0.    -419.952E+03
            5240     1.85466E+06    -270.483E+03              0.    -425.245E+03
            5241     1.87012E+06    -293.115E+03              0.    -430.845E+03
            5242     1.88574E+06    -315.477E+03              0.    -436.756E+03
            5243     1.90153E+06    -337.581E+03              0.    -442.979E+03
            5244     1.91750E+06    -359.437E+03              0.    -449.520E+03
            5245     1.93366E+06    -381.055E+03              0.    -456.382E+03
            5246     1.95001E+06    -402.445E+03              0.    -463.570E+03
            5247     1.96658E+06    -423.618E+03              0.    -471.088E+03
            5248     1.98336E+06    -444.582E+03              0.    -478.942E+03
            5249     2.00037E+06    -465.349E+03              0.    -487.137E+03
            5250     2.01762E+06    -485.928E+03              0.    -495.679E+03
            5251     2.03512E+06    -506.328E+03              0.    -504.576E+03
            5252     2.05288E+06     -526.56E+03              0.    -513.833E+03
            5253     2.07091E+06    -546.633E+03              0.    -523.458E+03
            5254     2.08922E+06    -566.557E+03              0.    -533.459E+03
            5255     2.10783E+06    -586.341E+03              0.    -543.844E+03
            5256     2.12673E+06    -605.995E+03              0.    -554.621E+03
            5257     2.14596E+06    -625.529E+03              0.    -565.799E+03
            5258     2.16551E+06    -644.952E+03              0.    -577.388E+03
            5259     2.18539E+06    -664.273E+03              0.    -589.397E+03
            5260     2.20563E+06    -683.504E+03              0.    -601.838E+03
            5261     2.22623E+06    -702.652E+03              0.    -614.720E+03
            5262     2.24721E+06    -721.728E+03              0.    -628.055E+03
            5263     2.26858E+06    -740.742E+03              0.    -641.855E+03
            5264     2.29035E+06    -759.702E+03              0.    -656.132E+03
            5265     2.31254E+06    -778.620E+03              0.    -670.898E+03
            5266     2.33516E+06    -797.505E+03              0.    -686.168E+03
            5267     2.35822E+06    -816.367E+03              0.    -701.955E+03
            5268     2.38174E+06    -835.216E+03              0.    -718.273E+03
            5269     2.40574E+06    -854.062E+03              0.    -735.137E+03
            5270     2.43022E+06    -872.916E+03              0.    -752.563E+03
            5271     2.45521E+06    -891.787E+03              0.    -770.567E+03
            5272     2.48073E+06    -910.686E+03              0.    -789.166E+03
            5273     2.50678E+06    -929.624E+03              0.    -808.376E+03
            5274     2.53340E+06    -948.612E+03              0.    -828.215E+03
            5275     2.56058E+06    -967.659E+03              0.    -848.703E+03
            5276     2.58836E+06    -986.778E+03              0.    -869.858E+03
            5277     2.61675E+06    -1.00598E+06              0.    -891.700E+03
            5278     2.64578E+06    -1.02527E+06              0.    -914.250E+03
            5279     2.67545E+06    -1.04467E+06              0.    -937.529E+03
            5280     2.70580E+06    -1.06419E+06              0.    -961.558E+03
            5281     2.73684E+06    -1.08383E+06              0.    -986.360E+03
            5282     2.76859E+06    -1.10362E+06              0.    -1.01196E+06
            5283     2.80108E+06    -1.12355E+06              0.    -1.03838E+06
            5284     2.83433E+06    -1.14366E+06              0.    -1.06564E+06
            5285     2.86837E+06    -1.16393E+06              0.    -1.09378E+06
            5286     2.90322E+06    -1.18440E+06              0.    -1.12281E+06
            5287     2.93890E+06    -1.20507E+06              0.    -1.15277E+06
            5288     2.97544E+06    -1.22596E+06              0.    -1.18368E+06
            5289     3.01287E+06    -1.24708E+06              0.    -1.21557E+06
            5290     3.05122E+06    -1.26844E+06              0.    -1.24847E+06
            5291     3.09051E+06    -1.29006E+06              0.    -1.28242E+06
            5292     3.13078E+06    -1.31195E+06              0.    -1.31743E+06
            5293     3.17205E+06    -1.33412E+06              0.    -1.35355E+06
            5294     3.21436E+06    -1.35660E+06              0.    -1.39081E+06
            5295     3.25774E+06    -1.37938E+06              0.    -1.42925E+06
            5296     3.30223E+06    -1.40251E+06              0.    -1.46889E+06
            5297     3.34785E+06    -1.42597E+06              0.    -1.50977E+06
            5298     3.39465E+06    -1.44980E+06              0.    -1.55194E+06
            5299     3.44266E+06    -1.47400E+06              0.    -1.59542E+06
            5300     3.49192E+06    -1.49860E+06              0.    -1.64026E+06
            5301     3.54247E+06    -1.52361E+06              0.    -1.68649E+06
            5302     3.59435E+06    -1.54905E+06              0.    -1.73417E+06
            5303     3.64760E+06    -1.57493E+06              0.    -1.78332E+06
            5304     3.70227E+06    -1.60127E+06              0.    -1.83399E+06
            5305      3.7584E+06    -1.62810E+06              0.    -1.88623E+06
            5306     3.81604E+06    -1.65541E+06              0.    -1.94008E+06
            5307     3.87524E+06    -1.68325E+06              0.    -1.99558E+06
            5308     3.93604E+06    -1.71162E+06              0.    -2.05278E+06
            5309     3.99850E+06    -1.74054E+06              0.    -2.11174E+06
            5310     4.06267E+06    -1.77003E+06              0.    -2.17249E+06
            5311     4.12860E+06    -1.80012E+06              0.    -2.23508E+06
            5312     4.19635E+06    -1.83082E+06              0.    -2.29957E+06
            5313     4.26599E+06    -1.86214E+06              0.    -2.36601E+06
            5314     4.33756E+06    -1.89412E+06              0.    -2.43445E+06
            5315     4.41114E+06    -1.92677E+06              0.    -2.50494E+06
            5316     4.48678E+06    -1.96010E+06              0.    -2.57753E+06
            5317     4.56456E+06    -1.99415E+06              0.    -2.65229E+06
            5318     4.64454E+06    -2.02894E+06              0.    -2.72925E+06
            5319     4.72679E+06    -2.06447E+06              0.    -2.80849E+06
            5320     4.81138E+06    -2.10078E+06              0.    -2.89005E+06
            5321     4.89840E+06    -2.13789E+06              0.    -2.97399E+06
            5322     4.98791E+06    -2.17581E+06              0.    -3.06036E+06
            5323     5.08000E+06    -2.21457E+06              0.    -3.14924E+06
            5324     5.17476E+06    -2.25418E+06              0.    -3.24066E+06
            5325     5.27226E+06    -2.29468E+06              0.    -3.33470E+06
            5326     5.37260E+06    -2.33608E+06              0.    -3.43140E+06
            5327     5.47587E+06    -2.37840E+06              0.    -3.53083E+06
            5328     5.58216E+06    -2.42166E+06              0.    -3.63305E+06
            5329     5.69157E+06    -2.46589E+06              0.    -3.73810E+06
            5330     5.80420E+06    -2.51110E+06              0.    -3.84605E+06
            5331     5.92016E+06    -2.55731E+06              0.    -3.95695E+06
            5332     6.03955E+06    -2.60455E+06              0.    -4.07087E+06
            5333     6.16249E+06    -2.65283E+06              0.    -4.18784E+06
            5334     6.28908E+06    -2.70216E+06              0.    -4.30794E+06
            5335     6.41945E+06    -2.75258E+06              0.    -4.43120E+06
            5336     6.55372E+06    -2.80410E+06              0.    -4.55768E+06
            5337     6.69201E+06    -2.85672E+06              0.    -4.68743E+06
            5338     6.83446E+06    -2.91048E+06              0.    -4.82049E+06
            5339     6.98119E+06    -2.96537E+06              0.    -4.95692E+06
            5340     7.13236E+06    -3.02142E+06              0.    -5.09674E+06
            5341     7.28809E+06    -3.07864E+06              0.    -5.24001E+06
            5342     7.44855E+06    -3.13704E+06              0.    -5.38674E+06
            5343     7.61388E+06    -3.19663E+06              0.    -5.53699E+06
            5344     7.78423E+06    -3.25741E+06              0.    -5.69076E+06
            5345     7.95979E+06    -3.31940E+06              0.    -5.84810E+06
            5346     8.14070E+06    -3.38259E+06              0.    -6.00901E+06
            5347     8.32714E+06    -3.44698E+06              0.    -6.17351E+06
            5348     8.51930E+06    -3.51259E+06              0.    -6.34160E+06
            5349     8.71736E+06    -3.57940E+06              0.    -6.51329E+06
            5350     8.92152E+06     -3.6474E+06              0.    -6.68857E+06
            5351     9.13196E+06    -3.71659E+06              0.    -6.86742E+06
            5352     9.34889E+06    -3.78696E+06              0.    -7.04983E+06
            5353     9.57253E+06    -3.85849E+06              0.    -7.23577E+06
            5354     9.80310E+06    -3.93116E+06              0.    -7.42518E+06
            5355     10.0408E+06    -4.00495E+06              0.    -7.61804E+06
            5356     10.2859E+06    -4.07982E+06              0.    -7.81426E+06
            5357     10.5386E+06    -4.15575E+06              0.    -8.01379E+06
            5358     10.7992E+06     -4.2327E+06              0.    -8.21654E+06
            5359     11.0679E+06    -4.31062E+06              0.    -8.42241E+06
            5360     11.3451E+06    -4.38947E+06              0.    -8.63128E+06
            5361     11.6309E+06    -4.46918E+06              0.    -8.84304E+06
            5362     11.9256E+06    -4.54970E+06              0.    -9.05753E+06
            5363     12.2296E+06    -4.63095E+06              0.    -9.27461E+06
            5364     12.5432E+06    -4.71286E+06              0.    -9.49409E+06
            5365     12.8667E+06    -4.79533E+06              0.    -9.71578E+06
            5366     13.2004E+06    -4.87828E+06              0.    -9.93947E+06
            5367     13.5447E+06    -4.96159E+06              0.    -10.1649E+06
            5368     13.8998E+06    -5.04515E+06              0.    -10.3919E+06
            5369     14.2663E+06    -5.12883E+06              0.    -10.6200E+06
            5370     14.6445E+06    -5.21248E+06              0.    -10.8491E+06
            5371     15.0347E+06    -5.29596E+06              0.    -11.0788E+06
            5372     15.4374E+06    -5.37908E+06              0.    -11.3087E+06
            5373     15.8530E+06    -5.46168E+06              0.    -11.5385E+06
            5374     16.2820E+06    -5.54353E+06              0.    -11.7677E+06
            5375     16.7249E+06    -5.62443E+06              0.    -11.9960E+06
            5376     17.1821E+06    -5.70412E+06              0.    -12.2228E+06
            5377     17.6542E+06    -5.78235E+06              0.    -12.4476E+06
            5378     18.1416E+06    -5.85882E+06              0.    -12.6701E+06
            5379     18.6451E+06    -5.93323E+06              0.    -12.8895E+06
            5380     19.1650E+06    -6.00522E+06              0.    -13.1054E+06
            5381     19.7022E+06    -6.07442E+06              0.    -13.3171E+06
            5382     20.2571E+06    -6.14042E+06              0.    -13.5241E+06
            5383     20.8306E+06    -6.20276E+06              0.    -13.7255E+06
            5384     21.4232E+06    -6.26095E+06              0.    -13.9209E+06
            5385     22.0358E+06    -6.31446E+06              0.    -14.1095E+06
            5386     22.6690E+06    -6.36266E+06              0.    -14.2905E+06
            5387     23.3239E+06    -6.40492E+06              0.    -14.4633E+06
            5388     24.0011E+06     -6.4405E+06              0.    -14.6271E+06
            5389     24.7016E+06    -6.46859E+06              0.    -14.7812E+06
            5390     25.4262E+06    -6.48830E+06              0.    -14.9249E+06
            5391     26.1761E+06    -6.49863E+06              0.    -15.0574E+06
            5392     26.9522E+06    -6.49848E+06              0.    -15.1780E+06
            5393     27.7555E+06    -6.48660E+06              0.    -15.2862E+06
            5394     28.5871E+06    -6.46161E+06              0.    -15.3812E+06
            5395     29.4482E+06    -6.42194E+06              0.    -15.4625E+06
            5396     30.3398E+06    -6.36582E+06              0.    -15.5296E+06
            5397     31.2631E+06    -6.29128E+06              0.    -15.5822E+06
            5398     32.2192E+06    -6.19606E+06              0.    -15.6198E+06
            5399     33.2093E+06    -6.07761E+06              0.    -15.6423E+06
            5400     34.2343E+06    -5.93303E+06              0.    -15.6497E+06
            5401     35.2954E+06      -5.759E+06              0.    -15.6420E+06
            5402     36.3934E+06    -5.55177E+06              0.    -15.6195E+06
            5403     37.5290E+06    -5.30704E+06              0.    -15.5827E+06
            5404     38.7029E+06    -5.01991E+06              0.    -15.5322E+06
            5405     39.9153E+06    -4.68479E+06              0.    -15.4687E+06
            5406     41.1663E+06    -4.29532E+06              0.    -15.3934E+06
            5407     42.4556E+06    -3.84426E+06              0.    -15.3073E+06
            5408     43.7823E+06    -3.32339E+06              0.    -15.2117E+06
            5409     45.1450E+06    -2.72341E+06              0.    -15.1081E+06
            5410     46.5419E+06    -2.03386E+06              0.    -14.9978E+06
            5411     47.9702E+06    -1.24299E+06              0.    -14.8821E+06
            5412     49.4266E+06    -337.716E+03              0.    -14.7623E+06
            5413     50.9067E+06     696.461E+03              0.    -14.6391E+06
            5414     52.4055E+06     1.87545E+06              0.    -14.5131E+06
            5415     53.9168E+06     3.21659E+06              0.    -14.3841E+06
            5416     55.4339E+06     4.73857E+06              0.    -14.2512E+06
            5417     56.9490E+06     6.46133E+06              0.    -14.1125E+06
            5418     58.4537E+06     8.40589E+06              0.    -13.9652E+06
            5419     59.9391E+06     10.5941E+06              0.    -13.8054E+06
            5420     61.3958E+06     13.0485E+06              0.    -13.6277E+06
            5421     62.8142E+06     15.7920E+06              0.    -13.4258E+06
            5422     64.1849E+06     18.8473E+06              0.    -13.1923E+06
            5423     65.4987E+06     22.2373E+06              0.    -12.9188E+06
            5424     66.7470E+06     25.9840E+06              0.    -12.5963E+06
            5425     68.3882E+06     30.2708E+06              0.    -12.7134E+06
            5426     1.41164E+06     635.145E+03              0.    -417.578E+03
            5427     1.40674E+06     589.186E+03              0.    -416.824E+03
            5428     1.42175E+06     552.953E+03              0.    -412.436E+03
            5429     1.43661E+06     517.408E+03              0.    -408.475E+03
            5430     1.45133E+06     482.533E+03              0.    -404.931E+03
            5431     1.46593E+06     448.309E+03              0.    -401.791E+03
            5432     1.48043E+06     414.717E+03              0.    -399.046E+03
            5433     1.49482E+06     381.739E+03              0.    -396.685E+03
            5434     1.50913E+06     349.357E+03              0.    -394.700E+03
            5435     1.52336E+06     317.554E+03              0.    -393.082E+03
            5436     1.53752E+06     286.315E+03              0.    -391.823E+03
            5437     1.55163E+06     255.623E+03              0.    -390.917E+03
            5438     1.56570E+06     225.462E+03              0.    -390.357E+03
            5439     1.57973E+06     195.817E+03              0.    -390.137E+03
            5440     1.59374E+06     166.673E+03              0.    -390.250E+03
            5441     1.60773E+06     138.016E+03              0.    -390.694E+03
            5442     1.62172E+06     109.831E+03              0.    -391.462E+03
            5443     1.63571E+06     82.1051E+03              0.    -392.552E+03
            5444     1.64972E+06     54.8240E+03              0.    -393.959E+03
            5445     1.66376E+06     27.9748E+03              0.    -395.681E+03
            5446     1.67782E+06     1.54506E+03              0.    -397.716E+03
            5447     1.69193E+06    -24.4786E+03              0.    -400.061E+03
            5448     1.70609E+06    -50.1079E+03              0.    -402.715E+03
            5449     1.72031E+06    -75.3555E+03              0.    -405.676E+03
            5450     1.73460E+06    -100.233E+03              0.    -408.945E+03
            5451     1.74897E+06    -124.752E+03              0.    -412.520E+03
            5452     1.76343E+06    -148.924E+03              0.    -416.402E+03
            5453     1.77798E+06    -172.760E+03              0.    -420.592E+03
            5454     1.79264E+06    -196.271E+03              0.    -425.090E+03
            5455     1.80741E+06    -219.469E+03              0.    -429.899E+03
            5456     1.82231E+06    -242.363E+03              0.    -435.018E+03
            5457     1.83734E+06    -264.964E+03              0.    -440.452E+03
            5458     1.85251E+06    -287.283E+03              0.    -446.202E+03
            5459     1.86784E+06    -309.330E+03              0.    -452.271E+03
            5460     1.88332E+06    -331.115E+03              0.    -458.663E+03
            5461     1.89897E+06    -352.648E+03              0.    -465.381E+03
            5462      1.9148E+06    -373.938E+03              0.    -472.430E+03
            5463     1.93082E+06    -394.996E+03              0.    -479.814E+03
            5464     1.94703E+06    -415.832E+03              0.    -487.538E+03
            5465     1.96345E+06    -436.454E+03              0.    -495.608E+03
            5466     1.98009E+06    -456.872E+03              0.    -504.029E+03
            5467     1.99695E+06    -477.096E+03              0.    -512.807E+03
            5468     2.01404E+06    -497.135E+03              0.    -521.949E+03
            5469     2.03139E+06    -516.998E+03              0.    -531.463E+03
            5470     2.04898E+06    -536.695E+03              0.    -541.354E+03
            5471     2.06685E+06    -556.235E+03              0.    -551.632E+03
            5472     2.08499E+06    -575.626E+03              0.    -562.305E+03
            5473     2.10342E+06    -594.879E+03              0.    -573.381E+03
            5474     2.12214E+06    -614.003E+03              0.    -584.869E+03
            5475     2.14118E+06    -633.005E+03              0.    -596.779E+03
            5476     2.16053E+06    -651.896E+03              0.    -609.122E+03
            5477     2.18022E+06    -670.686E+03              0.    -621.908E+03
            5478     2.20025E+06    -689.382E+03              0.    -635.147E+03
            5479     2.22064E+06    -707.994E+03              0.    -648.852E+03
            5480     2.24139E+06    -726.532E+03              0.    -663.034E+03
            5481     2.26253E+06    -745.004E+03              0.    -677.706E+03
            5482     2.28405E+06    -763.420E+03              0.    -692.882E+03
            5483     2.30599E+06    -781.790E+03              0.    -708.574E+03
            5484     2.32835E+06    -800.122E+03              0.    -724.797E+03
            5485     2.35114E+06    -818.426E+03              0.    -741.566E+03
            5486     2.37438E+06    -836.713E+03              0.    -758.896E+03
            5487     2.39808E+06    -854.990E+03              0.    -776.803E+03
            5488     2.42226E+06    -873.269E+03              0.    -795.303E+03
            5489     2.44694E+06    -891.559E+03              0.    -814.414E+03
            5490     2.47212E+06    -909.870E+03              0.    -834.152E+03
            5491     2.49783E+06    -928.212E+03              0.    -854.537E+03
            5492     2.52408E+06    -946.596E+03              0.    -875.588E+03
            5493     2.55090E+06    -965.030E+03              0.    -897.323E+03
            5494     2.57829E+06    -983.527E+03              0.    -919.764E+03
            5495     2.60627E+06    -1.00210E+06              0.    -942.931E+03
            5496     2.63487E+06    -1.02075E+06              0.    -966.847E+03
            5497     2.66411E+06    -1.03949E+06              0.    -991.533E+03
            5498     2.69399E+06    -1.05835E+06              0.    -1.01701E+06
            5499     2.72456E+06    -1.07731E+06              0.    -1.04331E+06
            5500     2.75582E+06    -1.09641E+06              0.    -1.07045E+06
            5501     2.78779E+06    -1.11564E+06              0.    -1.09846E+06
            5502     2.82051E+06    -1.13503E+06              0.    -1.12736E+06
            5503     2.85399E+06    -1.15458E+06              0.    -1.15718E+06
            5504     2.88825E+06    -1.17430E+06              0.    -1.18796E+06
            5505     2.92333E+06    -1.19421E+06              0.    -1.21971E+06
            5506     2.95924E+06    -1.21432E+06              0.    -1.25246E+06
            5507     2.99602E+06    -1.23465E+06              0.    -1.28626E+06
            5508     3.03369E+06    -1.25520E+06              0.    -1.32113E+06
            5509     3.07227E+06    -1.27599E+06              0.    -1.35709E+06
            5510     3.11181E+06    -1.29703E+06              0.    -1.39419E+06
            5511     3.15232E+06    -1.31834E+06              0.    -1.43247E+06
            5512     3.19383E+06    -1.33992E+06              0.    -1.47194E+06
            5513     3.23639E+06    -1.36181E+06              0.    -1.51266E+06
            5514     3.28002E+06    -1.38400E+06              0.    -1.55465E+06
            5515     3.32476E+06    -1.40651E+06              0.    -1.59796E+06
            5516     3.37063E+06    -1.42937E+06              0.    -1.64262E+06
            5517     3.41769E+06    -1.45258E+06              0.    -1.68867E+06
            5518     3.46596E+06    -1.47615E+06              0.    -1.73616E+06
            5519     3.51548E+06    -1.50012E+06              0.    -1.78513E+06
            5520     3.56629E+06    -1.52448E+06              0.    -1.83562E+06
            5521     3.61844E+06    -1.54927E+06              0.    -1.88767E+06
            5522     3.67197E+06    -1.57449E+06              0.    -1.94132E+06
            5523     3.72691E+06    -1.60016E+06              0.    -1.99664E+06
            5524     3.78333E+06    -1.62630E+06              0.    -2.05365E+06
            5525     3.84125E+06    -1.65292E+06              0.    -2.11241E+06
            5526     3.90074E+06    -1.68005E+06              0.    -2.17297E+06
            5527     3.96184E+06    -1.70771E+06              0.    -2.23538E+06
            5528     4.02460E+06    -1.73590E+06              0.    -2.29969E+06
            5529     4.08907E+06    -1.76466E+06              0.    -2.36595E+06
            5530     4.15532E+06    -1.79399E+06              0.    -2.43421E+06
            5531     4.22340E+06    -1.82392E+06              0.    -2.50453E+06
            5532     4.29337E+06    -1.85447E+06              0.    -2.57695E+06
            5533     4.36529E+06    -1.88565E+06              0.    -2.65155E+06
            5534     4.43921E+06    -1.91749E+06              0.    -2.72836E+06
            5535     4.51522E+06    -1.95001E+06              0.    -2.80746E+06
            5536     4.59337E+06    -1.98322E+06              0.    -2.88889E+06
            5537     4.67374E+06    -2.01715E+06              0.    -2.97272E+06
            5538     4.75639E+06    -2.05182E+06              0.    -3.05900E+06
            5539     4.84141E+06    -2.08725E+06              0.    -3.14779E+06
            5540     4.92886E+06    -2.12345E+06              0.    -3.23916E+06
            5541     5.01883E+06    -2.16046E+06              0.    -3.33316E+06
            5542     5.11140E+06    -2.19829E+06              0.    -3.42985E+06
            5543     5.20666E+06    -2.23696E+06              0.    -3.52929E+06
            5544     5.30469E+06    -2.27649E+06              0.    -3.63155E+06
            5545     5.40558E+06    -2.31691E+06              0.    -3.73668E+06
            5546     5.50943E+06    -2.35823E+06              0.    -3.84474E+06
            5547     5.61634E+06    -2.40048E+06              0.    -3.95579E+06
            5548     5.72640E+06    -2.44368E+06              0.    -4.06990E+06
            5549     5.83972E+06    -2.48784E+06              0.    -4.18712E+06
            5550     5.95641E+06    -2.53299E+06              0.    -4.30752E+06
            5551     6.07657E+06    -2.57914E+06              0.    -4.43113E+06
            5552     6.20033E+06    -2.62632E+06              0.    -4.55803E+06
            5553     6.32780E+06    -2.67455E+06              0.    -4.68827E+06
            5554     6.45911E+06    -2.72384E+06              0.    -4.82189E+06
            5555     6.59438E+06    -2.77421E+06              0.    -4.95895E+06
            5556     6.73373E+06    -2.82568E+06              0.    -5.09950E+06
            5557     6.87732E+06    -2.87826E+06              0.    -5.24358E+06
            5558     7.02528E+06    -2.93197E+06              0.    -5.39124E+06
            5559     7.17775E+06    -2.98682E+06              0.    -5.54251E+06
            5560     7.33488E+06    -3.04283E+06              0.    -5.69744E+06
            5561     7.49684E+06    -3.10001E+06              0.    -5.85605E+06
            5562     7.66377E+06    -3.15837E+06              0.    -6.01838E+06
            5563     7.83586E+06    -3.21792E+06              0.    -6.18444E+06
            5564     8.01326E+06    -3.27866E+06              0.    -6.35425E+06
            5565     8.19616E+06    -3.34060E+06              0.    -6.52783E+06
            5566     8.38474E+06    -3.40374E+06              0.    -6.70519E+06
            5567     8.57920E+06    -3.46809E+06              0.    -6.88632E+06
            5568     8.77973E+06    -3.53364E+06              0.    -7.07121E+06
            5569     8.98654E+06    -3.60039E+06              0.    -7.25986E+06
            5570     9.19983E+06    -3.66834E+06              0.    -7.45223E+06
            5571     9.41983E+06    -3.73746E+06              0.    -7.64830E+06
            5572     9.64677E+06    -3.80775E+06              0.    -7.84802E+06
            5573     9.88089E+06     -3.8792E+06              0.    -8.05134E+06
            5574     10.1224E+06    -3.95177E+06              0.    -8.25820E+06
            5575     10.3716E+06    -4.02545E+06              0.    -8.46851E+06
            5576     10.6288E+06    -4.10021E+06              0.     -8.6822E+06
            5577     10.8941E+06    -4.17600E+06              0.    -8.89916E+06
            5578     11.1679E+06    -4.25279E+06              0.    -9.11926E+06
            5579     11.4505E+06    -4.33053E+06              0.    -9.34239E+06
            5580     11.7422E+06    -4.40916E+06              0.    -9.56838E+06
            5581     12.0433E+06    -4.48863E+06              0.    -9.79708E+06
            5582     12.3542E+06    -4.56887E+06              0.    -10.0283E+06
            5583     12.6751E+06    -4.64980E+06              0.    -10.2619E+06
            5584     13.0065E+06    -4.73134E+06              0.    -10.4975E+06
            5585     13.3486E+06    -4.81338E+06              0.    -10.7350E+06
            5586     13.7020E+06    -4.89583E+06              0.    -10.9741E+06
            5587     14.0669E+06    -4.97856E+06              0.    -11.2145E+06
            5588     14.4439E+06    -5.06144E+06              0.    -11.4558E+06
            5589     14.8333E+06    -5.14433E+06              0.    -11.6979E+06
            5590     15.2356E+06    -5.22708E+06              0.    -11.9402E+06
            5591     15.6512E+06    -5.30950E+06              0.    -12.1824E+06
            5592     16.0808E+06    -5.39139E+06              0.    -12.4241E+06
            5593     16.5247E+06    -5.47255E+06              0.    -12.6649E+06
            5594     16.9835E+06    -5.55274E+06              0.    -12.9043E+06
            5595     17.4579E+06     -5.6317E+06              0.    -13.1418E+06
            5596     17.9483E+06    -5.70914E+06              0.    -13.3768E+06
            5597     18.4554E+06    -5.78475E+06              0.    -13.6089E+06
            5598     18.9798E+06    -5.85816E+06              0.    -13.8374E+06
            5599     19.5222E+06    -5.92901E+06              0.    -14.0618E+06
            5600     20.0834E+06    -5.99686E+06              0.    -14.2814E+06
            5601     20.6640E+06    -6.06124E+06              0.    -14.4956E+06
            5602     21.2648E+06    -6.12163E+06              0.    -14.7038E+06
            5603     21.8866E+06    -6.17745E+06              0.    -14.9052E+06
            5604     22.5303E+06    -6.22804E+06              0.    -15.0992E+06
            5605     23.1967E+06    -6.27269E+06              0.    -15.2851E+06
            5606     23.8867E+06    -6.31060E+06              0.    -15.4621E+06
            5607     24.6013E+06    -6.34087E+06              0.    -15.6296E+06
            5608     25.3414E+06    -6.36249E+06              0.    -15.7869E+06
            5609     26.1080E+06    -6.37434E+06              0.    -15.9333E+06
            5610     26.9023E+06    -6.37516E+06              0.    -16.0683E+06
            5611     27.7251E+06    -6.36350E+06              0.    -16.1911E+06
            5612     28.5776E+06    -6.33778E+06              0.    -16.3012E+06
            5613     29.4609E+06    -6.29615E+06              0.    -16.3982E+06
            5614     30.3760E+06    -6.23658E+06              0.    -16.4816E+06
            5615     31.3239E+06    -6.15671E+06              0.    -16.5511E+06
            5616     32.3057E+06    -6.05390E+06              0.    -16.6065E+06
            5617     33.3222E+06    -5.92515E+06              0.    -16.6476E+06
            5618     34.3744E+06    -5.76701E+06              0.    -16.6744E+06
            5619     35.4629E+06    -5.57562E+06              0.    -16.6871E+06
            5620     36.5882E+06    -5.34653E+06              0.    -16.6859E+06
            5621     37.7508E+06    -5.07471E+06              0.    -16.6712E+06
            5622     38.9507E+06    -4.75448E+06              0.    -16.6436E+06
            5623     40.1876E+06    -4.37934E+06              0.    -16.6037E+06
            5624     41.4609E+06    -3.94198E+06              0.    -16.5523E+06
            5625     42.7695E+06    -3.43416E+06              0.    -16.4902E+06
            5626     44.1119E+06    -2.84660E+06              0.    -16.4182E+06
            5627     45.4857E+06    -2.16894E+06              0.    -16.3370E+06
            5628     46.8882E+06    -1.38961E+06              0.    -16.2475E+06
            5629     48.3157E+06    -495.829E+03              0.    -16.1499E+06
            5630     49.7640E+06     526.460E+03              0.    -16.0444E+06
            5631     51.2278E+06     1.69260E+06              0.    -15.9307E+06
            5632     52.7012E+06     3.01922E+06              0.    -15.8077E+06
            5633     54.1775E+06     4.52412E+06              0.    -15.6740E+06
            5634     55.6493E+06     6.22627E+06              0.    -15.5269E+06
            5635     57.1085E+06     8.14557E+06              0.    -15.3631E+06
            5636     58.5464E+06     10.3027E+06              0.    -15.1782E+06
            5637     59.9543E+06     12.7190E+06              0.    -14.9669E+06
            5638     61.3230E+06     15.4161E+06              0.    -14.7226E+06
            5639     62.6433E+06     18.4159E+06              0.    -14.4381E+06
            5640     63.9062E+06     21.7402E+06              0.    -14.1055E+06
            5641     65.1030E+06     25.4104E+06              0.    -13.7161E+06
            5642     66.7026E+06     29.6049E+06              0.    -13.8330E+06
            5643     1.39996E+06     629.910E+03              0.    -432.579E+03
            5644     1.39512E+06     584.516E+03              0.    -431.798E+03
            5645     1.40994E+06     548.723E+03              0.    -427.258E+03
            5646     1.42462E+06     513.605E+03              0.    -423.158E+03
            5647     1.43916E+06     479.146E+03              0.    -419.486E+03
            5648     1.45359E+06     445.327E+03              0.    -416.230E+03
            5649     1.46790E+06     412.129E+03              0.    -413.380E+03
            5650     1.48212E+06     379.536E+03              0.    -410.926E+03
            5651     1.49625E+06     347.530E+03              0.    -408.859E+03
            5652     1.51030E+06     316.096E+03              0.    -407.169E+03
            5653     1.52429E+06     285.218E+03              0.    -405.850E+03
            5654     1.53822E+06     254.879E+03              0.    -404.893E+03
            5655     1.55210E+06     225.065E+03              0.    -404.292E+03
            5656     1.56595E+06     195.761E+03              0.    -404.040E+03
            5657     1.57977E+06     166.954E+03              0.    -404.133E+03
            5658     1.59358E+06     138.628E+03              0.    -404.565E+03
            5659     1.60737E+06     110.770E+03              0.    -405.332E+03
            5660     1.62117E+06     83.3680E+03              0.    -406.428E+03
            5661     1.63498E+06     56.4073E+03              0.    -407.853E+03
            5662     1.64881E+06     29.8757E+03              0.    -409.601E+03
            5663     1.66266E+06     3.76129E+03              0.    -411.670E+03
            5664     1.67656E+06    -21.9489E+03              0.    -414.059E+03
            5665     1.69050E+06    -47.2660E+03              0.    -416.765E+03
            5666     1.70449E+06    -72.2025E+03              0.    -419.788E+03
            5667     1.71855E+06    -96.7693E+03              0.    -423.128E+03
            5668     1.73268E+06    -120.977E+03              0.    -426.782E+03
            5669     1.74689E+06    -144.839E+03              0.    -430.752E+03
            5670     1.76119E+06    -168.363E+03              0.    -435.039E+03
            5671     1.77559E+06    -191.561E+03              0.    -439.642E+03
            5672     1.79010E+06    -214.444E+03              0.    -444.564E+03
            5673     1.80472E+06    -237.022E+03              0.    -449.807E+03
            5674     1.81946E+06    -259.305E+03              0.    -455.372E+03
            5675     1.83434E+06    -281.302E+03              0.    -461.262E+03
            5676     1.84936E+06    -303.025E+03              0.    -467.480E+03
            5677     1.86452E+06    -324.481E+03              0.    -474.030E+03
            5678     1.87985E+06    -345.682E+03              0.    -480.915E+03
            5679     1.89534E+06    -366.636E+03              0.    -488.140E+03
            5680     1.91101E+06    -387.352E+03              0.    -495.709E+03
            5681     1.92686E+06    -407.841E+03              0.    -503.627E+03
            5682     1.94291E+06    -428.111E+03              0.    -511.900E+03
            5683     1.95916E+06    -448.171E+03              0.    -520.534E+03
            5684     1.97562E+06    -468.031E+03              0.    -529.534E+03
            5685     1.99230E+06    -487.698E+03              0.    -538.908E+03
            5686     2.00921E+06    -507.183E+03              0.    -548.663E+03
            5687     2.02637E+06    -526.493E+03              0.    -558.806E+03
            5688     2.04377E+06    -545.639E+03              0.    -569.345E+03
            5689     2.06144E+06    -564.627E+03              0.    -580.289E+03
            5690     2.07937E+06    -583.468E+03              0.    -591.647E+03
            5691     2.09759E+06    -602.170E+03              0.    -603.428E+03
            5692     2.11610E+06    -620.741E+03              0.    -615.642E+03
            5693     2.13491E+06    -639.191E+03              0.    -628.299E+03
            5694     2.15403E+06    -657.527E+03              0.    -641.410E+03
            5695     2.17347E+06    -675.759E+03              0.    -654.986E+03
            5696     2.19325E+06    -693.895E+03              0.    -669.040E+03
            5697     2.21338E+06    -711.944E+03              0.    -683.583E+03
            5698     2.23386E+06    -729.915E+03              0.    -698.628E+03
            5699     2.25472E+06    -747.817E+03              0.    -714.189E+03
            5700     2.27595E+06    -765.657E+03              0.    -730.280E+03
            5701     2.29759E+06    -783.446E+03              0.    -746.914E+03
            5702     2.31963E+06    -801.192E+03              0.    -764.108E+03
            5703     2.34209E+06    -818.904E+03              0.    -781.877E+03
            5704     2.36499E+06    -836.592E+03              0.    -800.236E+03
            5705     2.38834E+06    -854.263E+03              0.    -819.204E+03
            5706     2.41215E+06    -871.928E+03              0.    -838.797E+03
            5707     2.43644E+06    -889.596E+03              0.    -859.033E+03
            5708     2.46123E+06    -907.276E+03              0.    -879.932E+03
            5709     2.48652E+06    -924.978E+03              0.    -901.512E+03
            5710     2.51235E+06    -942.711E+03              0.    -923.794E+03
            5711     2.53871E+06    -960.486E+03              0.    -946.798E+03
            5712     2.56563E+06    -978.311E+03              0.    -970.547E+03
            5713     2.59313E+06    -996.197E+03              0.    -995.062E+03
            5714     2.62123E+06    -1.01415E+06              0.    -1.02037E+06
            5715     2.64993E+06    -1.03219E+06              0.    -1.04648E+06
            5716     2.67928E+06    -1.05032E+06              0.    -1.07344E+06
            5717     2.70927E+06    -1.06856E+06              0.    -1.10126E+06
            5718     2.73993E+06    -1.08690E+06              0.    -1.12996E+06
            5719     2.77129E+06    -1.10537E+06              0.    -1.15958E+06
            5720     2.80337E+06    -1.12398E+06              0.    -1.19015E+06
            5721     2.83618E+06    -1.14273E+06              0.    -1.22169E+06
            5722     2.86976E+06    -1.16164E+06              0.    -1.25423E+06
            5723     2.90411E+06    -1.18072E+06              0.    -1.28780E+06
            5724     2.93928E+06    -1.19998E+06              0.    -1.32244E+06
            5725     2.97528E+06    -1.21943E+06              0.    -1.35817E+06
            5726     3.01214E+06    -1.23909E+06              0.    -1.39503E+06
            5727     3.04989E+06    -1.25897E+06              0.    -1.43305E+06
            5728     3.08856E+06    -1.27908E+06              0.    -1.47227E+06
            5729     3.12816E+06    -1.29944E+06              0.    -1.51272E+06
            5730     3.16874E+06    -1.32005E+06              0.    -1.55445E+06
            5731     3.21033E+06    -1.34094E+06              0.    -1.59748E+06
            5732     3.25295E+06    -1.36211E+06              0.    -1.64186E+06
            5733     3.29664E+06    -1.38357E+06              0.    -1.68763E+06
            5734     3.34143E+06    -1.40536E+06              0.    -1.73482E+06
            5735     3.38736E+06    -1.42747E+06              0.    -1.78349E+06
            5736     3.43446E+06    -1.44992E+06              0.    -1.83367E+06
            5737     3.48278E+06    -1.47273E+06              0.    -1.88541E+06
            5738     3.53234E+06    -1.49591E+06              0.    -1.93875E+06
            5739     3.58319E+06    -1.51949E+06              0.    -1.99374E+06
            5740     3.63537E+06    -1.54346E+06              0.    -2.05043E+06
            5741     3.68893E+06    -1.56786E+06              0.    -2.10886E+06
            5742     3.74390E+06    -1.59270E+06              0.    -2.16909E+06
            5743     3.80033E+06    -1.61799E+06              0.    -2.23116E+06
            5744     3.85828E+06    -1.64375E+06              0.    -2.29513E+06
            5745     3.91778E+06    -1.67001E+06              0.    -2.36104E+06
            5746     3.97889E+06    -1.69676E+06              0.    -2.42896E+06
            5747     4.04166E+06    -1.72405E+06              0.    -2.49893E+06
            5748     4.10615E+06    -1.75188E+06              0.    -2.57101E+06
            5749     4.17241E+06    -1.78026E+06              0.    -2.64526E+06
            5750     4.24050E+06    -1.80923E+06              0.    -2.72174E+06
            5751     4.31047E+06    -1.83880E+06              0.    -2.80050E+06
            5752      4.3824E+06    -1.86899E+06              0.    -2.88160E+06
            5753     4.45634E+06    -1.89981E+06              0.    -2.96510E+06
            5754     4.53236E+06    -1.93130E+06              0.    -3.05106E+06
            5755     4.61053E+06    -1.96346E+06              0.    -3.13954E+06
            5756     4.69092E+06    -1.99632E+06              0.    -3.23061E+06
            5757     4.77360E+06    -2.02989E+06              0.    -3.32432E+06
            5758     4.85865E+06    -2.06421E+06              0.    -3.42074E+06
            5759     4.94614E+06    -2.09929E+06              0.    -3.51993E+06
            5760     5.03617E+06    -2.13515E+06              0.    -3.62196E+06
            5761     5.12880E+06    -2.17181E+06              0.    -3.72688E+06
            5762     5.22414E+06    -2.20929E+06              0.    -3.83476E+06
            5763     5.32226E+06    -2.24761E+06              0.    -3.94567E+06
            5764     5.42327E+06    -2.28681E+06              0.    -4.05966E+06
            5765     5.52726E+06    -2.32688E+06              0.    -4.17680E+06
            5766     5.63433E+06    -2.36787E+06              0.    -4.29715E+06
            5767     5.74458E+06    -2.40978E+06              0.    -4.42078E+06
            5768     5.85812E+06    -2.45264E+06              0.    -4.54773E+06
            5769     5.97506E+06    -2.49648E+06              0.    -4.67808E+06
            5770     6.09552E+06    -2.54130E+06              0.    -4.81187E+06
            5771     6.21961E+06    -2.58713E+06              0.    -4.94917E+06
            5772     6.34747E+06    -2.63399E+06              0.    -5.09003E+06
            5773     6.47920E+06    -2.68190E+06              0.    -5.23451E+06
            5774     6.61496E+06    -2.73088E+06              0.    -5.38264E+06
            5775     6.75488E+06    -2.78095E+06              0.    -5.53449E+06
            5776     6.89909E+06    -2.83211E+06              0.    -5.69009E+06
            5777     7.04775E+06    -2.88440E+06              0.    -5.84948E+06
            5778     7.20101E+06    -2.93782E+06              0.    -6.01271E+06
            5779     7.35902E+06    -2.99240E+06              0.    -6.17981E+06
            5780     7.52196E+06    -3.04814E+06              0.    -6.35080E+06
            5781     7.68999E+06    -3.10505E+06              0.    -6.52571E+06
            5782     7.86328E+06    -3.16316E+06              0.    -6.70456E+06
            5783     8.04203E+06    -3.22246E+06              0.    -6.88735E+06
            5784     8.22642E+06    -3.28297E+06              0.    -7.07411E+06
            5785     8.41664E+06    -3.34468E+06              0.    -7.26482E+06
            5786     8.61291E+06    -3.40762E+06              0.    -7.45948E+06
            5787     8.81544E+06    -3.47177E+06              0.    -7.65807E+06
            5788     9.02444E+06    -3.53713E+06              0.    -7.86056E+06
            5789     9.24014E+06    -3.60371E+06              0.    -8.06693E+06
            5790     9.46279E+06    -3.67149E+06              0.    -8.27713E+06
            5791     9.69262E+06    -3.74047E+06              0.    -8.49109E+06
            5792     9.92990E+06    -3.81064E+06              0.    -8.70877E+06
            5793     10.1749E+06    -3.88196E+06              0.    -8.93007E+06
            5794     10.4279E+06    -3.95443E+06              0.    -9.15490E+06
            5795     10.6891E+06    -4.02802E+06              0.    -9.38316E+06
            5796     10.9590E+06    -4.10269E+06              0.    -9.61472E+06
            5797     11.2377E+06    -4.17841E+06              0.    -9.84945E+06
            5798     11.5256E+06    -4.25513E+06              0.    -10.0872E+06
            5799     11.8231E+06    -4.33281E+06              0.    -10.3278E+06
            5800     12.1305E+06    -4.41139E+06              0.    -10.5710E+06
            5801     12.4482E+06    -4.49079E+06              0.    -10.8167E+06
            5802     12.7765E+06    -4.57095E+06              0.    -11.0647E+06
            5803     13.1158E+06    -4.65179E+06              0.    -11.3145E+06
            5804     13.4666E+06    -4.73320E+06              0.    -11.5661E+06
            5805     13.8293E+06    -4.81508E+06              0.    -11.8191E+06
            5806     14.2044E+06    -4.89730E+06              0.    -12.0732E+06
            5807     14.5923E+06    -4.97975E+06              0.    -12.3280E+06
            5808     14.9934E+06    -5.06225E+06              0.    -12.5832E+06
            5809     15.4085E+06    -5.14465E+06              0.    -12.8384E+06
            5810     15.8378E+06    -5.22677E+06              0.    -13.0932E+06
            5811     16.2821E+06    -5.30838E+06              0.    -13.3471E+06
            5812     16.7419E+06    -5.38926E+06              0.    -13.5996E+06
            5813     17.2177E+06    -5.46914E+06              0.    -13.8504E+06
            5814     17.7104E+06    -5.54775E+06              0.    -14.0987E+06
            5815     18.2204E+06    -5.62474E+06              0.    -14.3442E+06
            5816     18.7485E+06    -5.69977E+06              0.    -14.5862E+06
            5817     19.2955E+06    -5.77243E+06              0.    -14.8241E+06
            5818     19.8621E+06    -5.84227E+06              0.    -15.0574E+06
            5819     20.4490E+06    -5.90878E+06              0.    -15.2854E+06
            5820     21.0571E+06    -5.97140E+06              0.    -15.5074E+06
            5821     21.6872E+06    -6.02951E+06              0.    -15.7228E+06
            5822     22.3402E+06    -6.08238E+06              0.    -15.9310E+06
            5823     23.0171E+06    -6.12922E+06              0.    -16.1312E+06
            5824     23.7187E+06    -6.16914E+06              0.    -16.3228E+06
            5825     24.4460E+06    -6.20112E+06              0.    -16.5052E+06
            5826     25.2000E+06    -6.22403E+06              0.    -16.6777E+06
            5827     25.9818E+06    -6.23657E+06              0.    -16.8396E+06
            5828     26.7922E+06    -6.23729E+06              0.    -16.9904E+06
            5829     27.6324E+06    -6.22454E+06              0.    -17.1295E+06
            5830     28.5033E+06    -6.19646E+06              0.    -17.2564E+06
            5831     29.4059E+06    -6.15093E+06              0.    -17.3707E+06
            5832     30.3411E+06    -6.08556E+06              0.    -17.4720E+06
            5833     31.3099E+06    -5.99760E+06              0.    -17.5601E+06
            5834     32.3130E+06    -5.88399E+06              0.    -17.6345E+06
            5835     33.3511E+06    -5.74120E+06              0.    -17.6954E+06
            5836     34.4248E+06    -5.56525E+06              0.    -17.7426E+06
            5837     35.5343E+06    -5.35165E+06              0.    -17.7762E+06
            5838     36.6799E+06    -5.09526E+06              0.    -17.7963E+06
            5839     37.8614E+06    -4.79033E+06              0.    -17.8033E+06
            5840     39.0783E+06    -4.43034E+06              0.    -17.7974E+06
            5841     40.3298E+06    -4.00796E+06              0.    -17.7789E+06
            5842     41.6144E+06    -3.51497E+06              0.    -17.7483E+06
            5843     42.9305E+06    -2.94221E+06              0.    -17.7058E+06
            5844     44.2756E+06    -2.27944E+06              0.    -17.6517E+06
            5845     45.6467E+06    -1.51538E+06              0.    -17.5859E+06
            5846     47.0401E+06    -637.581E+03              0.    -17.5082E+06
            5847     48.4514E+06     367.560E+03              0.    -17.4181E+06
            5848     49.8755E+06     1.51480E+06              0.    -17.3144E+06
            5849     51.3065E+06     2.82008E+06              0.    -17.1955E+06
            5850     52.7379E+06     4.30039E+06              0.    -17.0591E+06
            5851     54.1626E+06     5.97376E+06              0.    -16.9023E+06
            5852     55.5726E+06     7.85910E+06              0.    -16.7211E+06
            5853     56.9598E+06     9.97607E+06              0.    -16.5107E+06
            5854     58.3157E+06     12.3450E+06              0.    -16.2657E+06
            5855     59.6312E+06     14.9864E+06              0.    -15.9794E+06
            5856     60.8977E+06     17.9214E+06              0.    -15.6448E+06
            5857     62.1061E+06     21.1710E+06              0.    -15.2541E+06
            5858     63.2478E+06     24.7562E+06              0.    -14.7991E+06
            5859     64.8021E+06     28.8495E+06              0.    -14.9141E+06
            5860     1.38789E+06     624.504E+03              0.    -447.391E+03
            5861     1.38311E+06     579.690E+03              0.    -446.584E+03
            5862     1.39774E+06     544.348E+03              0.    -441.894E+03
            5863     1.41224E+06     509.670E+03              0.    -437.657E+03
            5864     1.42660E+06     475.638E+03              0.    -433.859E+03
            5865     1.44084E+06     442.235E+03              0.    -430.488E+03
            5866     1.45497E+06     409.443E+03              0.    -427.535E+03
            5867     1.46901E+06     377.246E+03              0.    -424.988E+03
            5868     1.48295E+06     345.627E+03              0.    -422.838E+03
            5869     1.49682E+06     314.571E+03              0.    -421.076E+03
            5870     1.51063E+06     284.063E+03              0.    -419.694E+03
            5871     1.52437E+06     254.088E+03              0.    -418.685E+03
            5872     1.53807E+06     224.632E+03              0.    -418.041E+03
            5873     1.55173E+06     195.679E+03              0.    -417.756E+03
            5874     1.56536E+06     167.217E+03              0.    -417.825E+03
            5875     1.57897E+06     139.232E+03              0.    -418.243E+03
            5876     1.59257E+06     111.711E+03              0.    -419.004E+03
            5877     1.60616E+06     84.6413E+03              0.    -420.104E+03
            5878     1.61977E+06     58.0099E+03              0.    -421.541E+03
            5879     1.63338E+06     31.8048E+03              0.     -423.31E+03
            5880     1.64702E+06     6.01457E+03              0.    -425.409E+03
            5881     1.66070E+06    -19.3734E+03              0.    -427.837E+03
            5882     1.67441E+06    -44.3697E+03              0.    -430.590E+03
            5883     1.68818E+06    -68.9863E+03              0.    -433.669E+03
            5884     1.70200E+06    -93.2339E+03              0.    -437.072E+03
            5885     1.71588E+06    -117.123E+03              0.    -440.799E+03
            5886     1.72984E+06    -140.665E+03              0.    -444.850E+03
            5887     1.74388E+06    -163.869E+03              0.    -449.225E+03
            5888     1.75802E+06    -186.746E+03              0.    -453.926E+03
            5889     1.77225E+06    -209.306E+03              0.    -458.954E+03
            5890     1.78658E+06    -231.559E+03              0.    -464.310E+03
            5891     1.80103E+06    -253.514E+03              0.    -469.997E+03
            5892     1.81561E+06    -275.182E+03              0.    -476.018E+03
            5893     1.83031E+06    -296.570E+03              0.    -482.375E+03
            5894     1.84515E+06    -317.690E+03              0.    -489.073E+03
            5895     1.86015E+06    -338.550E+03              0.    -496.114E+03
            5896     1.87529E+06    -359.158E+03              0.    -503.503E+03
            5897     1.89060E+06    -379.525E+03              0.    -511.245E+03
            5898     1.90609E+06    -399.658E+03              0.    -519.345E+03
            5899     1.92175E+06    -419.567E+03              0.    -527.809E+03
            5900     1.93760E+06    -439.260E+03              0.    -536.641E+03
            5901     1.95366E+06    -458.745E+03              0.    -545.850E+03
            5902     1.96992E+06    -478.032E+03              0.    -555.442E+03
            5903     1.98639E+06    -497.129E+03              0.    -565.423E+03
            5904     2.00309E+06    -516.043E+03              0.    -575.802E+03
            5905     2.02003E+06    -534.784E+03              0.    -586.586E+03
            5906     2.03721E+06    -553.360E+03              0.    -597.786E+03
            5907     2.05464E+06    -571.779E+03              0.    -609.408E+03
            5908     2.07233E+06    -590.049E+03              0.    -621.463E+03
            5909     2.09030E+06    -608.178E+03              0.    -633.962E+03
            5910     2.10855E+06    -626.175E+03              0.    -646.914E+03
            5911     2.12709E+06    -644.048E+03              0.    -660.331E+03
            5912     2.14594E+06    -661.804E+03              0.    -674.223E+03
            5913     2.16509E+06    -679.453E+03              0.    -688.604E+03
            5914     2.18458E+06    -697.002E+03              0.    -703.486E+03
            5915     2.20439E+06    -714.459E+03              0.    -718.881E+03
            5916     2.22456E+06    -731.834E+03              0.    -734.803E+03
            5917     2.24508E+06    -749.133E+03              0.    -751.268E+03
            5918     2.26597E+06    -766.366E+03              0.    -768.288E+03
            5919     2.28725E+06    -783.540E+03              0.    -785.880E+03
            5920     2.30892E+06    -800.665E+03              0.    -804.060E+03
            5921     2.33100E+06    -817.748E+03              0.    -822.844E+03
            5922     2.35349E+06    -834.798E+03              0.    -842.250E+03
            5923     2.37642E+06    -851.823E+03              0.    -862.295E+03
            5924     2.39980E+06    -868.833E+03              0.    -882.997E+03
            5925     2.42364E+06    -885.836E+03              0.    -904.377E+03
            5926     2.44796E+06    -902.841E+03              0.    -926.453E+03
            5927     2.47276E+06    -919.856E+03              0.    -949.246E+03
            5928     2.49808E+06    -936.891E+03              0.    -972.779E+03
            5929     2.52391E+06    -953.955E+03              0.    -997.071E+03
            5930     2.55028E+06    -971.058E+03              0.    -1.02215E+06
            5931     2.57721E+06    -988.208E+03              0.    -1.04803E+06
            5932     2.60471E+06    -1.00541E+06              0.    -1.07474E+06
            5933     2.63280E+06    -1.02269E+06              0.    -1.10231E+06
            5934     2.66150E+06    -1.04004E+06              0.    -1.13076E+06
            5935     2.69083E+06    -1.05747E+06              0.    -1.16012E+06
            5936     2.72080E+06    -1.07501E+06              0.    -1.19042E+06
            5937     2.75144E+06    -1.09265E+06              0.    -1.22168E+06
            5938     2.78277E+06    -1.11040E+06              0.    -1.25393E+06
            5939     2.81480E+06    -1.12829E+06              0.    -1.28721E+06
            5940     2.84757E+06    -1.14631E+06              0.    -1.32154E+06
            5941     2.88109E+06    -1.16449E+06              0.    -1.35696E+06
            5942     2.91539E+06    -1.18282E+06              0.    -1.39350E+06
            5943     2.95048E+06    -1.20133E+06              0.    -1.43119E+06
            5944     2.98640E+06    -1.22002E+06              0.    -1.47007E+06
            5945     3.02318E+06    -1.23890E+06              0.    -1.51018E+06
            5946     3.06083E+06    -1.25800E+06              0.    -1.55154E+06
            5947     3.09939E+06    -1.27731E+06              0.    -1.59421E+06
            5948     3.13888E+06    -1.29686E+06              0.    -1.63821E+06
            5949     3.17934E+06    -1.31665E+06              0.    -1.68359E+06
            5950     3.22079E+06    -1.33670E+06              0.    -1.73039E+06
            5951     3.26326E+06    -1.35702E+06              0.    -1.77865E+06
            5952     3.30680E+06    -1.37762E+06              0.    -1.82842E+06
            5953     3.35142E+06    -1.39853E+06              0.    -1.87973E+06
            5954     3.39717E+06    -1.41975E+06              0.    -1.93264E+06
            5955     3.44409E+06    -1.44129E+06              0.    -1.98719E+06
            5956     3.49220E+06    -1.46318E+06              0.    -2.04342E+06
            5957     3.54155E+06    -1.48542E+06              0.    -2.10139E+06
            5958     3.59218E+06    -1.50804E+06              0.    -2.16114E+06
            5959     3.64413E+06    -1.53104E+06              0.    -2.22274E+06
            5960     3.69744E+06    -1.55445E+06              0.    -2.28621E+06
            5961     3.75215E+06    -1.57827E+06              0.    -2.35163E+06
            5962     3.80831E+06    -1.60253E+06              0.    -2.41905E+06
            5963     3.86598E+06    -1.62725E+06              0.    -2.48851E+06
            5964     3.92519E+06    -1.65243E+06              0.    -2.56008E+06
            5965     3.98600E+06    -1.67810E+06              0.    -2.63381E+06
            5966     4.04845E+06    -1.70428E+06              0.    -2.70977E+06
            5967     4.11262E+06    -1.73097E+06              0.    -2.78800E+06
            5968     4.17854E+06    -1.75821E+06              0.    -2.86857E+06
            5969     4.24628E+06    -1.78600E+06              0.    -2.95154E+06
            5970     4.31590E+06    -1.81438E+06              0.    -3.03698E+06
            5971     4.38746E+06    -1.84334E+06              0.    -3.12494E+06
            5972     4.46103E+06    -1.87293E+06              0.    -3.21548E+06
            5973     4.53667E+06    -1.90315E+06              0.    -3.30868E+06
            5974     4.61446E+06    -1.93403E+06              0.    -3.40459E+06
            5975     4.69445E+06    -1.96558E+06              0.    -3.50328E+06
            5976     4.77674E+06    -1.99783E+06              0.    -3.60482E+06
            5977     4.86139E+06    -2.03079E+06              0.    -3.70926E+06
            5978     4.94849E+06    -2.06450E+06              0.    -3.81669E+06
            5979     5.03812E+06    -2.09896E+06              0.    -3.92716E+06
            5980     5.13036E+06    -2.13420E+06              0.    -4.04073E+06
            5981     5.22531E+06    -2.17024E+06              0.    -4.15748E+06
            5982     5.32306E+06    -2.20711E+06              0.    -4.27747E+06
            5983     5.42369E+06    -2.24482E+06              0.    -4.40077E+06
            5984     5.52732E+06    -2.28340E+06              0.    -4.52744E+06
            5985     5.63405E+06    -2.32286E+06              0.    -4.65754E+06
            5986     5.74397E+06    -2.36323E+06              0.    -4.79114E+06
            5987     5.85721E+06    -2.40454E+06              0.    -4.92829E+06
            5988     5.97388E+06    -2.44680E+06              0.    -5.06906E+06
            5989     6.09410E+06    -2.49003E+06              0.    -5.21352E+06
            5990     6.21798E+06    -2.53426E+06              0.    -5.36170E+06
            5991     6.34567E+06    -2.57950E+06              0.    -5.51368E+06
            5992     6.47729E+06    -2.62579E+06              0.    -5.66949E+06
            5993     6.61299E+06    -2.67313E+06              0.    -5.82919E+06
            5994     6.75290E+06    -2.72155E+06              0.    -5.99283E+06
            5995     6.89717E+06    -2.77107E+06              0.    -6.16045E+06
            5996     7.04597E+06    -2.82170E+06              0.    -6.33209E+06
            5997     7.19945E+06    -2.87347E+06              0.    -6.50777E+06
            5998     7.35778E+06    -2.92640E+06              0.    -6.68754E+06
            5999     7.52114E+06    -2.98049E+06              0.    -6.87142E+06
            6000     7.68970E+06    -3.03577E+06              0.    -7.05942E+06
            6001     7.86365E+06    -3.09225E+06              0.    -7.25156E+06
            6002     8.04319E+06    -3.14994E+06              0.    -7.44785E+06
            6003     8.22853E+06    -3.20886E+06              0.    -7.64828E+06
            6004     8.41986E+06    -3.26900E+06              0.    -7.85284E+06
            6005     8.61743E+06    -3.33039E+06              0.    -8.06152E+06
            6006     8.82144E+06    -3.39303E+06              0.    -8.27430E+06
            6007     9.03214E+06    -3.45692E+06              0.    -8.49113E+06
            6008     9.24979E+06    -3.52206E+06              0.    -8.71197E+06
            6009     9.47463E+06    -3.58846E+06              0.    -8.93676E+06
            6010     9.70693E+06    -3.65610E+06              0.    -9.16544E+06
            6011     9.94698E+06    -3.72497E+06              0.    -9.39792E+06
            6012     10.1951E+06    -3.79507E+06              0.    -9.63411E+06
            6013     10.4515E+06    -3.86638E+06              0.    -9.87389E+06
            6014     10.7166E+06    -3.93888E+06              0.    -10.1171E+06
            6015     10.9906E+06    -4.01254E+06              0.    -10.3637E+06
            6016     11.2740E+06    -4.08732E+06              0.    -10.6135E+06
            6017     11.5671E+06    -4.16319E+06              0.    -10.8663E+06
            6018     11.8703E+06    -4.24010E+06              0.    -11.1218E+06
            6019     12.1839E+06    -4.31800E+06              0.    -11.3800E+06
            6020     12.5084E+06    -4.39683E+06              0.    -11.6405E+06
            6021     12.8441E+06    -4.47650E+06              0.    -11.9032E+06
            6022     13.1916E+06    -4.55695E+06              0.    -12.1676E+06
            6023     13.5513E+06    -4.63806E+06              0.    -12.4336E+06
            6024     13.9236E+06    -4.71973E+06              0.    -12.7009E+06
            6025     14.3092E+06    -4.80183E+06              0.    -12.9689E+06
            6026     14.7084E+06    -4.88423E+06              0.    -13.2375E+06
            6027     15.1220E+06    -4.96676E+06              0.    -13.5062E+06
            6028     15.5503E+06    -5.04923E+06              0.    -13.7746E+06
            6029     15.9941E+06    -5.13144E+06              0.    -14.0422E+06
            6030     16.4539E+06    -5.21316E+06              0.    -14.3086E+06
            6031     16.9305E+06    -5.29413E+06              0.    -14.5733E+06
            6032     17.4244E+06    -5.37404E+06              0.    -14.8357E+06
            6033     17.9365E+06    -5.45255E+06              0.    -15.0954E+06
            6034     18.4674E+06    -5.52929E+06              0.    -15.3517E+06
            6035     19.0178E+06    -5.60384E+06              0.    -15.6041E+06
            6036     19.5887E+06    -5.67570E+06              0.    -15.8520E+06
            6037     20.1808E+06    -5.74432E+06              0.    -16.0948E+06
            6038     20.7950E+06    -5.80910E+06              0.    -16.3317E+06
            6039     21.4321E+06    -5.86933E+06              0.    -16.5623E+06
            6040     22.0931E+06    -5.92422E+06              0.    -16.7859E+06
            6041     22.7789E+06    -5.97288E+06              0.    -17.0017E+06
            6042     23.4904E+06    -6.01430E+06              0.    -17.2092E+06
            6043     24.2286E+06    -6.04732E+06              0.    -17.4077E+06
            6044     24.9944E+06    -6.07065E+06              0.    -17.5967E+06
            6045     25.7889E+06    -6.08281E+06              0.    -17.7755E+06
            6046     26.6129E+06    -6.08212E+06              0.    -17.9435E+06
            6047     27.4675E+06    -6.06670E+06              0.    -18.1003E+06
            6048     28.3535E+06    -6.03437E+06              0.    -18.2453E+06
            6049     29.2717E+06    -5.98271E+06              0.    -18.3781E+06
            6050     30.2229E+06    -5.90893E+06              0.    -18.4984E+06
            6051     31.2078E+06    -5.80989E+06              0.    -18.6057E+06
            6052     32.2270E+06    -5.68203E+06              0.    -18.6999E+06
            6053     33.2807E+06    -5.52131E+06              0.    -18.7808E+06
            6054     34.3693E+06    -5.32319E+06              0.    -18.8482E+06
            6055     35.4926E+06    -5.08251E+06              0.    -18.9020E+06
            6056     36.6502E+06    -4.79349E+06              0.    -18.9423E+06
            6057     37.8417E+06    -4.44964E+06              0.    -18.9688E+06
            6058     39.0657E+06    -4.04366E+06              0.    -18.9817E+06
            6059     40.3210E+06    -3.56744E+06              0.    -18.9808E+06
            6060     41.6054E+06    -3.01194E+06              0.    -18.9659E+06
            6061     42.9165E+06    -2.36716E+06              0.    -18.9367E+06
            6062     44.2511E+06    -1.62211E+06              0.    -18.8925E+06
            6063     45.6054E+06    -764.706E+03              0.    -18.8326E+06
            6064     46.9751E+06     218.161E+03              0.    -18.7558E+06
            6065     48.3551E+06     1.34068E+06              0.    -18.6602E+06
            6066     49.7397E+06     2.61811E+06              0.    -18.5437E+06
            6067     51.1224E+06     4.06667E+06              0.    -18.4034E+06
            6068     52.4963E+06     5.70356E+06              0.    -18.2357E+06
            6069     53.8538E+06     7.54678E+06              0.    -18.0364E+06
            6070     55.1870E+06     9.61507E+06              0.    -17.8003E+06
            6071     56.4876E+06     11.9278E+06              0.    -17.5217E+06
            6072     57.7469E+06     14.5047E+06              0.    -17.1939E+06
            6073     58.9563E+06     17.3661E+06              0.    -16.8100E+06
            6074     60.1069E+06     20.5323E+06              0.    -16.3621E+06
            6075     61.1900E+06     24.0239E+06              0.    -15.8424E+06
            6076     62.6956E+06     28.0072E+06              0.    -15.9542E+06
            6077     1.37544E+06     618.928E+03              0.    -462.010E+03
            6078     1.37073E+06     574.709E+03              0.    -461.177E+03
            6079     1.38517E+06     539.832E+03              0.    -456.341E+03
            6080     1.39947E+06     505.604E+03              0.    -451.968E+03
            6081     1.41364E+06     472.011E+03              0.    -448.046E+03
            6082     1.42770E+06     439.035E+03              0.    -444.561E+03
            6083     1.44164E+06     406.659E+03              0.    -441.505E+03
            6084     1.45549E+06     374.868E+03              0.    -438.865E+03
            6085     1.46925E+06     343.646E+03              0.    -436.632E+03
            6086     1.48293E+06     312.979E+03              0.    -434.797E+03
            6087     1.49655E+06     282.851E+03              0.    -433.351E+03
            6088     1.51010E+06     253.249E+03              0.    -432.288E+03
            6089     1.52361E+06     224.159E+03              0.    -431.600E+03
            6090     1.53708E+06     195.567E+03              0.    -431.280E+03
            6091     1.55051E+06     167.460E+03              0.    -431.322E+03
            6092     1.56392E+06     139.825E+03              0.    -431.722E+03
            6093     1.57731E+06     112.649E+03              0.    -432.474E+03
            6094     1.59070E+06     85.9207E+03              0.    -433.574E+03
            6095     1.60410E+06     59.6272E+03              0.    -435.019E+03
            6096     1.61750E+06     33.7572E+03              0.    -436.805E+03
            6097     1.63092E+06     8.29950E+03              0.    -438.929E+03
            6098     1.64437E+06    -16.7578E+03              0.    -441.389E+03
            6099     1.65785E+06    -41.4250E+03              0.    -444.184E+03
            6100     1.67138E+06    -65.7136E+03              0.    -447.312E+03
            6101     1.68496E+06    -89.6337E+03              0.    -450.772E+03
            6102     1.69859E+06    -113.195E+03              0.    -454.565E+03
            6103     1.71229E+06    -136.409E+03              0.    -458.689E+03
            6104     1.72607E+06    -159.285E+03              0.    -463.145E+03
            6105     1.73993E+06    -181.833E+03              0.    -467.935E+03
            6106     1.75388E+06    -204.062E+03              0.    -473.060E+03
            6107     1.76792E+06    -225.982E+03              0.    -478.522E+03
            6108     1.78207E+06    -247.602E+03              0.    -484.322E+03
            6109     1.79634E+06    -268.931E+03              0.    -490.464E+03
            6110     1.81072E+06    -289.979E+03              0.    -496.950E+03
            6111     1.82523E+06    -310.753E+03              0.    -503.784E+03
            6112     1.83988E+06    -331.264E+03              0.    -510.970E+03
            6113     1.85468E+06    -351.519E+03              0.    -518.512E+03
            6114     1.86962E+06    -371.526E+03              0.    -526.415E+03
            6115     1.88473E+06    -391.296E+03              0.    -534.684E+03
            6116     1.90000E+06    -410.835E+03              0.    -543.325E+03
            6117     1.91545E+06    -430.152E+03              0.    -552.343E+03
            6118     1.93109E+06    -449.255E+03              0.    -561.746E+03
            6119     1.94691E+06    -468.152E+03              0.    -571.540E+03
            6120     1.96294E+06    -486.852E+03              0.    -581.733E+03
            6121     1.97918E+06    -505.361E+03              0.    -592.332E+03
            6122     1.99563E+06    -523.689E+03              0.    -603.345E+03
            6123     2.01231E+06    -541.842E+03              0.    -614.782E+03
            6124     2.02923E+06    -559.829E+03              0.    -626.652E+03
            6125     2.04639E+06    -577.658E+03              0.    -638.963E+03
            6126     2.06381E+06    -595.335E+03              0.    -651.728E+03
            6127     2.08149E+06    -612.869E+03              0.    -664.955E+03
            6128     2.09944E+06    -630.268E+03              0.    -678.657E+03
            6129     2.11767E+06    -647.539E+03              0.    -692.845E+03
            6130     2.13619E+06    -664.689E+03              0.    -707.531E+03
            6131     2.15502E+06    -681.728E+03              0.    -722.728E+03
            6132     2.17415E+06    -698.661E+03              0.    -738.449E+03
            6133     2.19361E+06    -715.497E+03              0.    -754.709E+03
            6134     2.21341E+06    -732.243E+03              0.    -771.522E+03
            6135     2.23354E+06    -748.908E+03              0.    -788.902E+03
            6136     2.25404E+06    -765.498E+03              0.    -806.866E+03
            6137     2.27489E+06    -782.023E+03              0.    -825.429E+03
            6138     2.29613E+06    -798.488E+03              0.    -844.608E+03
            6139     2.31776E+06    -814.904E+03              0.    -864.422E+03
            6140     2.33979E+06    -831.276E+03              0.    -884.888E+03
            6141     2.36223E+06    -847.614E+03              0.    -906.024E+03
            6142     2.38511E+06    -863.925E+03              0.    -927.852E+03
            6143     2.40842E+06    -880.218E+03              0.    -950.389E+03
            6144     2.43220E+06    -896.501E+03              0.    -973.659E+03
            6145     2.45644E+06    -912.781E+03              0.    -997.681E+03
            6146     2.48116E+06    -929.069E+03              0.    -1.02248E+06
            6147     2.50638E+06    -945.371E+03              0.    -1.04808E+06
            6148     2.53212E+06    -961.696E+03              0.    -1.07450E+06
            6149     2.55839E+06    -978.054E+03              0.    -1.10176E+06
            6150     2.58520E+06    -994.453E+03              0.    -1.12990E+06
            6151     2.61258E+06    -1.01090E+06              0.    -1.15894E+06
            6152     2.64054E+06    -1.02741E+06              0.    -1.18891E+06
            6153     2.66910E+06    -1.04399E+06              0.    -1.21983E+06
            6154     2.69827E+06    -1.06064E+06              0.    -1.25173E+06
            6155     2.72808E+06    -1.07738E+06              0.    -1.28465E+06
            6156     2.75855E+06    -1.09422E+06              0.    -1.31861E+06
            6157     2.78969E+06    -1.11117E+06              0.    -1.35365E+06
            6158     2.82152E+06    -1.12823E+06              0.    -1.38979E+06
            6159     2.85408E+06    -1.14542E+06              0.    -1.42708E+06
            6160     2.88737E+06    -1.16275E+06              0.    -1.46554E+06
            6161     2.92143E+06    -1.18022E+06              0.    -1.50522E+06
            6162     2.95627E+06    -1.19786E+06              0.    -1.54615E+06
            6163     2.99193E+06    -1.21566E+06              0.    -1.58836E+06
            6164     3.02842E+06    -1.23365E+06              0.    -1.63190E+06
            6165     3.06578E+06    -1.25183E+06              0.    -1.67680E+06
            6166     3.10402E+06    -1.27021E+06              0.    -1.72311E+06
            6167     3.14319E+06    -1.28881E+06              0.    -1.77086E+06
            6168     3.18330E+06    -1.30764E+06              0.    -1.82011E+06
            6169     3.22438E+06    -1.32671E+06              0.    -1.87089E+06
            6170     3.26648E+06    -1.34604E+06              0.    -1.92325E+06
            6171     3.30961E+06    -1.36563E+06              0.    -1.97724E+06
            6172     3.35382E+06    -1.38550E+06              0.    -2.03291E+06
            6173     3.39913E+06    -1.40566E+06              0.    -2.09029E+06
            6174     3.44559E+06    -1.42613E+06              0.    -2.14945E+06
            6175     3.49323E+06    -1.44692E+06              0.    -2.21043E+06
            6176     3.54209E+06    -1.46805E+06              0.    -2.27328E+06
            6177     3.59220E+06    -1.48953E+06              0.    -2.33807E+06
            6178     3.64361E+06    -1.51138E+06              0.    -2.40483E+06
            6179     3.69636E+06    -1.53360E+06              0.    -2.47364E+06
            6180     3.75050E+06    -1.55622E+06              0.    -2.54454E+06
            6181     3.80607E+06    -1.57926E+06              0.    -2.61759E+06
            6182     3.86311E+06    -1.60272E+06              0.    -2.69285E+06
            6183     3.92168E+06    -1.62662E+06              0.    -2.77038E+06
            6184     3.98183E+06    -1.65099E+06              0.    -2.85024E+06
            6185     4.04361E+06    -1.67584E+06              0.    -2.93250E+06
            6186     4.10707E+06    -1.70119E+06              0.    -3.01721E+06
            6187     4.17227E+06    -1.72705E+06              0.    -3.10444E+06
            6188     4.23927E+06    -1.75344E+06              0.    -3.19425E+06
            6189     4.30813E+06    -1.78039E+06              0.    -3.28671E+06
            6190     4.37891E+06    -1.80791E+06              0.    -3.38188E+06
            6191     4.45168E+06    -1.83601E+06              0.    -3.47984E+06
            6192     4.52650E+06    -1.86473E+06              0.    -3.58064E+06
            6193     4.60345E+06    -1.89408E+06              0.    -3.68436E+06
            6194      4.6826E+06    -1.92407E+06              0.    -3.79107E+06
            6195     4.76402E+06    -1.95474E+06              0.    -3.90082E+06
            6196     4.84780E+06    -1.98610E+06              0.    -4.01370E+06
            6197     4.93401E+06    -2.01817E+06              0.    -4.12977E+06
            6198     5.02275E+06    -2.05098E+06              0.    -4.24910E+06
            6199     5.11409E+06    -2.08454E+06              0.    -4.37175E+06
            6200     5.20813E+06    -2.11888E+06              0.     -4.4978E+06
            6201     5.30496E+06    -2.15402E+06              0.    -4.62731E+06
            6202     5.40469E+06    -2.18999E+06              0.    -4.76036E+06
            6203     5.50741E+06    -2.22680E+06              0.    -4.89700E+06
            6204     5.61323E+06    -2.26448E+06              0.    -5.03731E+06
            6205     5.72227E+06    -2.30305E+06              0.    -5.18135E+06
            6206     5.83464E+06    -2.34253E+06              0.    -5.32917E+06
            6207     5.95045E+06    -2.38296E+06              0.    -5.48085E+06
            6208     6.06983E+06    -2.42434E+06              0.    -5.63644E+06
            6209     6.19292E+06    -2.46672E+06              0.    -5.79599E+06
            6210     6.31984E+06    -2.51010E+06              0.    -5.95957E+06
            6211     6.45074E+06    -2.55451E+06              0.    -6.12722E+06
            6212     6.58576E+06    -2.59998E+06              0.    -6.29899E+06
            6213     6.72506E+06    -2.64652E+06              0.    -6.47492E+06
            6214     6.86878E+06    -2.69417E+06              0.    -6.65506E+06
            6215     7.01711E+06    -2.74294E+06              0.    -6.83944E+06
            6216     7.17019E+06    -2.79285E+06              0.    -7.02809E+06
            6217     7.32823E+06    -2.84393E+06              0.    -7.22104E+06
            6218     7.49139E+06    -2.89619E+06              0.    -7.41831E+06
            6219     7.65987E+06    -2.94967E+06              0.    -7.61991E+06
            6220     7.83388E+06    -3.00436E+06              0.    -7.82585E+06
            6221     8.01363E+06    -3.06030E+06              0.    -8.03613E+06
            6222     8.19932E+06    -3.11750E+06              0.    -8.25074E+06
            6223     8.39120E+06    -3.17598E+06              0.    -8.46966E+06
            6224     8.58950E+06    -3.23574E+06              0.    -8.69286E+06
            6225     8.79446E+06    -3.29680E+06              0.    -8.92032E+06
            6226     9.00634E+06    -3.35917E+06              0.    -9.15197E+06
            6227     9.22542E+06    -3.42286E+06              0.    -9.38777E+06
            6228     9.45198E+06    -3.48786E+06              0.    -9.62764E+06
            6229     9.68630E+06    -3.55419E+06              0.    -9.87150E+06
            6230     9.92869E+06    -3.62184E+06              0.    -10.1193E+06
            6231     10.1795E+06    -3.69080E+06              0.    -10.3708E+06
            6232     10.4390E+06    -3.76106E+06              0.    -10.6260E+06
            6233     10.7076E+06    -3.83261E+06              0.    -10.8847E+06
            6234     10.9856E+06    -3.90542E+06              0.    -11.1467E+06
            6235     11.2735E+06    -3.97947E+06              0.    -11.4120E+06
            6236     11.5716E+06    -4.05472E+06              0.    -11.6802E+06
            6237     11.8803E+06    -4.13113E+06              0.    -11.9511E+06
            6238     12.2000E+06    -4.20864E+06              0.    -12.2246E+06
            6239     12.5313E+06    -4.28721E+06              0.    -12.5004E+06
            6240     12.8746E+06    -4.36674E+06              0.    -12.7781E+06
            6241     13.2303E+06    -4.44715E+06              0.    -13.0576E+06
            6242     13.5991E+06    -4.52835E+06              0.    -13.3384E+06
            6243     13.9814E+06    -4.61021E+06              0.    -13.6202E+06
            6244     14.3777E+06    -4.69260E+06              0.    -13.9027E+06
            6245     14.7888E+06    -4.77536E+06              0.    -14.1855E+06
            6246     15.2151E+06    -4.85831E+06              0.    -14.4680E+06
            6247     15.6574E+06    -4.94124E+06              0.    -14.7500E+06
            6248     16.1163E+06    -5.02391E+06              0.    -15.0309E+06
            6249     16.5924E+06    -5.10604E+06              0.    -15.3103E+06
            6250     17.0866E+06    -5.18734E+06              0.    -15.5875E+06
            6251     17.5995E+06    -5.26743E+06              0.    -15.8622E+06
            6252     18.1319E+06    -5.34591E+06              0.    -16.1337E+06
            6253     18.6846E+06    -5.42232E+06              0.    -16.4015E+06
            6254     19.2585E+06    -5.49614E+06              0.    -16.6649E+06
            6255     19.8543E+06    -5.56675E+06              0.    -16.9235E+06
            6256     20.4730E+06    -5.63347E+06              0.    -17.1764E+06
            6257     21.1154E+06    -5.69553E+06              0.    -17.4232E+06
            6258     21.7826E+06    -5.75203E+06              0.    -17.6633E+06
            6259     22.4752E+06    -5.80197E+06              0.    -17.8958E+06
            6260     23.1944E+06    -5.84420E+06              0.    -18.1204E+06
            6261     23.9411E+06    -5.87741E+06              0.    -18.3362E+06
            6262     24.7161E+06    -5.90011E+06              0.    -18.5428E+06
            6263     25.5203E+06    -5.91062E+06              0.    -18.7395E+06
            6264     26.3546E+06    -5.90702E+06              0.    -18.9258E+06
            6265     27.2199E+06    -5.88714E+06              0.    -19.1012E+06
            6266     28.1169E+06    -5.84850E+06              0.    -19.2650E+06
            6267     29.0462E+06    -5.78830E+06              0.    -19.4170E+06
            6268     30.0084E+06    -5.70339E+06              0.    -19.5565E+06
            6269     31.0039E+06    -5.59015E+06              0.    -19.6833E+06
            6270     32.0329E+06    -5.44457E+06              0.    -19.7969E+06
            6271     33.0955E+06    -5.26206E+06              0.    -19.8970E+06
            6272     34.1914E+06    -5.03751E+06              0.    -19.9833E+06
            6273     35.3202E+06    -4.76515E+06              0.    -20.0554E+06
            6274     36.4810E+06    -4.43855E+06              0.    -20.1130E+06
            6275     37.6726E+06    -4.05051E+06              0.    -20.1555E+06
            6276     38.8934E+06    -3.59306E+06              0.    -20.1825E+06
            6277     40.1412E+06    -3.05737E+06              0.    -20.1934E+06
            6278     41.4133E+06    -2.43368E+06              0.    -20.1872E+06
            6279     42.7067E+06    -1.71133E+06              0.    -20.1628E+06
            6280     44.0175E+06    -878.659E+03              0.    -20.1188E+06
            6281     45.3414E+06     76.9722E+03              0.    -20.0535E+06
            6282     46.6732E+06     1.16917E+06              0.    -19.9645E+06
            6283     48.0074E+06     2.41255E+06              0.    -19.8490E+06
            6284     49.3378E+06     3.82260E+06              0.    -19.7036E+06
            6285     50.6576E+06     5.41573E+06              0.    -19.5243E+06
            6286     51.9594E+06     7.20913E+06              0.    -19.3063E+06
            6287     53.2356E+06     9.22069E+06              0.    -19.0444E+06
            6288     54.4779E+06     11.4690E+06              0.    -18.7324E+06
            6289     55.6780E+06     13.9730E+06              0.    -18.3637E+06
            6290     56.8273E+06     16.7523E+06              0.    -17.9311E+06
            6291     57.9170E+06     19.8267E+06              0.    -17.4270E+06
            6292     58.9382E+06     23.2163E+06              0.    -16.8436E+06
            6293     60.3915E+06     27.0811E+06              0.    -16.9505E+06
            6294     1.36263E+06     613.188E+03              0.    -476.431E+03
            6295     1.35799E+06     569.579E+03              0.    -475.573E+03
            6296     1.37223E+06     535.176E+03              0.    -470.593E+03
            6297     1.38633E+06     501.410E+03              0.    -466.086E+03
            6298     1.40031E+06     468.266E+03              0.    -462.041E+03
            6299     1.41417E+06     435.727E+03              0.    -458.444E+03
            6300     1.42792E+06     403.777E+03              0.    -455.285E+03
            6301     1.44158E+06     372.402E+03              0.    -452.552E+03
            6302     1.45515E+06     341.587E+03              0.    -450.236E+03
            6303     1.46864E+06     311.318E+03              0.    -448.327E+03
            6304     1.48206E+06     281.581E+03              0.    -446.818E+03
            6305     1.49543E+06     252.361E+03              0.    -445.699E+03
            6306     1.50874E+06     223.646E+03              0.    -444.964E+03
            6307     1.52200E+06     195.423E+03              0.    -444.606E+03
            6308     1.53523E+06     167.679E+03              0.    -444.619E+03
            6309     1.54844E+06     140.403E+03              0.    -444.998E+03
            6310     1.56163E+06     113.581E+03              0.    -445.738E+03
            6311     1.57481E+06     87.2021E+03              0.    -446.833E+03
            6312     1.58799E+06     61.2548E+03              0.    -448.282E+03
            6313     1.60117E+06     35.7280E+03              0.    -450.079E+03
            6314     1.61436E+06     10.6109E+03              0.    -452.223E+03
            6315     1.62758E+06    -14.1078E+03              0.    -454.711E+03
            6316     1.64083E+06    -38.4380E+03              0.    -457.541E+03
            6317     1.65411E+06    -62.3906E+03              0.    -460.712E+03
            6318     1.66744E+06    -85.9754E+03              0.    -464.223E+03
            6319     1.68082E+06    -109.202E+03              0.    -468.074E+03
            6320     1.69426E+06    -132.081E+03              0.    -472.264E+03
            6321     1.70776E+06    -154.620E+03              0.    -476.794E+03
            6322     1.72134E+06    -176.831E+03              0.    -481.665E+03
            6323     1.73500E+06    -198.721E+03              0.    -486.878E+03
            6324     1.74875E+06    -220.301E+03              0.    -492.435E+03
            6325     1.76260E+06    -241.578E+03              0.    -498.339E+03
            6326     1.77654E+06    -262.561E+03              0.    -504.591E+03
            6327     1.79060E+06    -283.259E+03              0.    -511.196E+03
            6328     1.80478E+06    -303.681E+03              0.    -518.156E+03
            6329     1.81908E+06    -323.834E+03              0.    -525.475E+03
            6330     1.83351E+06    -343.728E+03              0.    -533.158E+03
            6331     1.84809E+06    -363.369E+03              0.    -541.210E+03
            6332     1.86281E+06    -382.767E+03              0.    -549.635E+03
            6333     1.87768E+06    -401.928E+03              0.     -558.44E+03
            6334     1.89272E+06    -420.861E+03              0.    -567.630E+03
            6335     1.90793E+06    -439.573E+03              0.    -577.213E+03
            6336     1.92331E+06    -458.073E+03              0.    -587.195E+03
            6337     1.93888E+06    -476.367E+03              0.    -597.583E+03
            6338     1.95465E+06    -494.463E+03              0.    -608.386E+03
            6339     1.97061E+06    -512.368E+03              0.    -619.612E+03
            6340     1.98679E+06    -530.091E+03              0.    -631.269E+03
            6341     2.00318E+06    -547.637E+03              0.    -643.367E+03
            6342     2.01980E+06    -565.015E+03              0.    -655.917E+03
            6343     2.03665E+06    -582.232E+03              0.    -668.928E+03
            6344     2.05375E+06    -599.294E+03              0.    -682.410E+03
            6345     2.07109E+06    -616.209E+03              0.    -696.376E+03
            6346     2.08870E+06    -632.985E+03              0.    -710.838E+03
            6347     2.10658E+06    -649.627E+03              0.    -725.807E+03
            6348     2.12473E+06    -666.144E+03              0.    -741.297E+03
            6349     2.14318E+06    -682.543E+03              0.    -757.320E+03
            6350     2.16192E+06    -698.830E+03              0.    -773.893E+03
            6351     2.18097E+06    -715.013E+03              0.    -791.028E+03
            6352     2.20034E+06    -731.098E+03              0.    -808.741E+03
            6353     2.22003E+06    -747.093E+03              0.    -827.048E+03
            6354     2.24006E+06    -763.006E+03              0.    -845.966E+03
            6355     2.26044E+06    -778.843E+03              0.    -865.512E+03
            6356     2.28119E+06    -794.611E+03              0.    -885.703E+03
            6357     2.30230E+06    -810.318E+03              0.    -906.558E+03
            6358     2.32379E+06    -825.971E+03              0.    -928.096E+03
            6359     2.34568E+06    -841.578E+03              0.    -950.337E+03
            6360     2.36798E+06    -857.146E+03              0.    -973.301E+03
            6361     2.39070E+06    -872.682E+03              0.    -997.010E+03
            6362     2.41384E+06    -888.193E+03              0.    -1.02149E+06
            6363     2.43744E+06    -903.689E+03              0.    -1.04675E+06
            6364     2.46149E+06    -919.176E+03              0.    -1.07283E+06
            6365     2.48602E+06    -934.662E+03              0.    -1.09974E+06
            6366     2.51103E+06    -950.154E+03              0.    -1.12752E+06
            6367     2.53654E+06    -965.662E+03              0.    -1.15619E+06
            6368     2.56257E+06    -981.193E+03              0.    -1.18577E+06
            6369     2.58914E+06    -996.756E+03              0.    -1.21629E+06
            6370     2.61625E+06    -1.01236E+06              0.    -1.24779E+06
            6371     2.64393E+06    -1.02801E+06              0.    -1.28028E+06
            6372     2.67220E+06    -1.04372E+06              0.    -1.31381E+06
            6373     2.70106E+06    -1.05949E+06              0.    -1.34840E+06
            6374     2.73055E+06    -1.07534E+06              0.    -1.38409E+06
            6375     2.76067E+06    -1.09127E+06              0.    -1.42090E+06
            6376     2.79145E+06    -1.10729E+06              0.    -1.45888E+06
            6377     2.82291E+06    -1.12342E+06              0.    -1.49805E+06
            6378     2.85507E+06    -1.13966E+06              0.    -1.53846E+06
            6379     2.88794E+06    -1.15602E+06              0.    -1.58014E+06
            6380     2.92156E+06    -1.17251E+06              0.    -1.62313E+06
            6381     2.95595E+06    -1.18914E+06              0.    -1.66747E+06
            6382     2.99113E+06    -1.20593E+06              0.    -1.71320E+06
            6383     3.02712E+06    -1.22288E+06              0.    -1.76036E+06
            6384     3.06395E+06    -1.24000E+06              0.    -1.80899E+06
            6385     3.10165E+06    -1.25731E+06              0.    -1.85914E+06
            6386     3.14024E+06    -1.27481E+06              0.    -1.91086E+06
            6387     3.17976E+06    -1.29252E+06              0.    -1.96419E+06
            6388     3.22022E+06    -1.31045E+06              0.    -2.01917E+06
            6389     3.26167E+06    -1.32862E+06              0.    -2.07585E+06
            6390     3.30413E+06    -1.34702E+06              0.    -2.13430E+06
            6391     3.34764E+06    -1.36569E+06              0.    -2.19454E+06
            6392     3.39223E+06    -1.38462E+06              0.    -2.25665E+06
            6393     3.43793E+06    -1.40383E+06              0.    -2.32067E+06
            6394     3.48479E+06    -1.42335E+06              0.    -2.38665E+06
            6395     3.53283E+06    -1.44317E+06              0.    -2.45465E+06
            6396      3.5821E+06    -1.46331E+06              0.    -2.52473E+06
            6397     3.63264E+06    -1.48380E+06              0.    -2.59695E+06
            6398     3.68449E+06    -1.50464E+06              0.    -2.67136E+06
            6399     3.73769E+06    -1.52585E+06              0.    -2.74803E+06
            6400     3.79230E+06    -1.54744E+06              0.    -2.82701E+06
            6401     3.84834E+06    -1.56943E+06              0.    -2.90837E+06
            6402     3.90589E+06    -1.59184E+06              0.    -2.99218E+06
            6403     3.96498E+06    -1.61468E+06              0.    -3.07849E+06
            6404     4.02566E+06    -1.63798E+06              0.    -3.16737E+06
            6405     4.08800E+06    -1.66174E+06              0.    -3.25889E+06
            6406     4.15205E+06    -1.68598E+06              0.    -3.35312E+06
            6407     4.21787E+06    -1.71073E+06              0.    -3.45012E+06
            6408     4.28551E+06    -1.73601E+06              0.    -3.54996E+06
            6409     4.35505E+06    -1.76182E+06              0.    -3.65271E+06
            6410     4.42654E+06    -1.78820E+06              0.    -3.75845E+06
            6411     4.50007E+06    -1.81515E+06              0.    -3.86724E+06
            6412     4.57569E+06    -1.84271E+06              0.    -3.97915E+06
            6413     4.65348E+06    -1.87089E+06              0.    -4.09426E+06
            6414     4.73352E+06    -1.89971E+06              0.    -4.21263E+06
            6415     4.81589E+06    -1.92920E+06              0.    -4.33434E+06
            6416     4.90068E+06    -1.95937E+06              0.    -4.45947E+06
            6417     4.98796E+06    -1.99025E+06              0.    -4.58808E+06
            6418     5.07783E+06    -2.02186E+06              0.    -4.72024E+06
            6419     5.17039E+06    -2.05423E+06              0.    -4.85602E+06
            6420     5.26573E+06    -2.08738E+06              0.     -4.9955E+06
            6421     5.36395E+06    -2.12132E+06              0.    -5.13874E+06
            6422     5.46517E+06    -2.15610E+06              0.    -5.28582E+06
            6423     5.56948E+06    -2.19173E+06              0.    -5.43679E+06
            6424     5.67701E+06    -2.22823E+06              0.    -5.59173E+06
            6425     5.78787E+06    -2.26563E+06              0.    -5.75070E+06
            6426     5.90219E+06    -2.30397E+06              0.    -5.91375E+06
            6427     6.02010E+06    -2.34326E+06              0.    -6.08096E+06
            6428     6.14174E+06    -2.38352E+06              0.    -6.25237E+06
            6429     6.26724E+06    -2.42479E+06              0.    -6.42804E+06
            6430     6.39676E+06    -2.46710E+06              0.    -6.60801E+06
            6431     6.53044E+06    -2.51047E+06              0.    -6.79235E+06
            6432     6.66845E+06    -2.55492E+06              0.    -6.98108E+06
            6433     6.81096E+06    -2.60048E+06              0.    -7.17424E+06
            6434     6.95813E+06    -2.64719E+06              0.    -7.37188E+06
            6435     7.11016E+06    -2.69506E+06              0.    -7.57400E+06
            6436     7.26723E+06    -2.74412E+06              0.    -7.78065E+06
            6437     7.42954E+06    -2.79441E+06              0.    -7.99182E+06
            6438     7.59729E+06    -2.84593E+06              0.    -8.20753E+06
            6439     7.77071E+06    -2.89873E+06              0.    -8.42778E+06
            6440     7.95002E+06    -2.95281E+06              0.    -8.65257E+06
            6441     8.13545E+06    -3.00821E+06              0.    -8.88186E+06
            6442     8.32725E+06    -3.06495E+06              0.    -9.11564E+06
            6443     8.52568E+06    -3.12304E+06              0.    -9.35387E+06
            6444     8.73101E+06    -3.18251E+06              0.    -9.59651E+06
            6445     8.94351E+06    -3.24336E+06              0.    -9.84349E+06
            6446     9.16349E+06    -3.30563E+06              0.    -10.0947E+06
            6447     9.39124E+06    -3.36931E+06              0.    -10.3502E+06
            6448     9.62710E+06    -3.43441E+06              0.    -10.6097E+06
            6449     9.87139E+06    -3.50095E+06              0.    -10.8732E+06
            6450     10.1245E+06    -3.56891E+06              0.    -11.1406E+06
            6451     10.3867E+06    -3.63830E+06              0.    -11.4117E+06
            6452     10.6585E+06    -3.70911E+06              0.    -11.6863E+06
            6453     10.9402E+06    -3.78132E+06              0.    -11.9643E+06
            6454     11.2322E+06    -3.85490E+06              0.    -12.2454E+06
            6455     11.5351E+06    -3.92982E+06              0.    -12.5295E+06
            6456     11.8492E+06    -4.00605E+06              0.    -12.8163E+06
            6457     12.1750E+06    -4.08353E+06              0.    -13.1056E+06
            6458     12.5130E+06    -4.16220E+06              0.    -13.3971E+06
            6459     12.8638E+06    -4.24197E+06              0.    -13.6904E+06
            6460     13.2279E+06    -4.32276E+06              0.    -13.9853E+06
            6461     13.6059E+06    -4.40445E+06              0.    -14.2814E+06
            6462     13.9983E+06    -4.48690E+06              0.    -14.5783E+06
            6463     14.4058E+06    -4.56997E+06              0.    -14.8756E+06
            6464     14.8290E+06    -4.65346E+06              0.    -15.1730E+06
            6465     15.2686E+06    -4.73718E+06              0.    -15.4700E+06
            6466     15.7252E+06    -4.82085E+06              0.    -15.7661E+06
            6467     16.1997E+06    -4.90420E+06              0.    -16.0608E+06
            6468     16.6927E+06    -4.98689E+06              0.    -16.3537E+06
            6469     17.2050E+06    -5.06854E+06              0.    -16.6442E+06
            6470     17.7374E+06    -5.14872E+06              0.    -16.9317E+06
            6471     18.2908E+06    -5.22689E+06              0.    -17.2157E+06
            6472     18.8659E+06    -5.30250E+06              0.    -17.4956E+06
            6473     19.4637E+06    -5.37485E+06              0.    -17.7708E+06
            6474     20.0849E+06    -5.44320E+06              0.    -18.0407E+06
            6475     20.7306E+06    -5.50666E+06              0.    -18.3047E+06
            6476     21.4015E+06    -5.56424E+06              0.    -18.5621E+06
            6477     22.0986E+06    -5.61478E+06              0.    -18.8124E+06
            6478     22.8228E+06    -5.65700E+06              0.    -19.0548E+06
            6479     23.5749E+06    -5.68939E+06              0.    -19.2889E+06
            6480     24.3558E+06    -5.71029E+06              0.    -19.5139E+06
            6481     25.1662E+06    -5.71775E+06              0.    -19.7292E+06
            6482     26.0069E+06    -5.70960E+06              0.    -19.9344E+06
            6483     26.8786E+06    -5.68338E+06              0.    -20.1286E+06
            6484     27.7817E+06    -5.63627E+06              0.    -20.3115E+06
            6485     28.7169E+06    -5.56511E+06              0.    -20.4825E+06
            6486     29.6842E+06    -5.46632E+06              0.    -20.6409E+06
            6487     30.6840E+06    -5.33587E+06              0.    -20.7862E+06
            6488     31.7159E+06    -5.16924E+06              0.    -20.9179E+06
            6489     32.7798E+06    -4.96133E+06              0.    -21.0354E+06
            6490     33.8749E+06    -4.70647E+06              0.    -21.1379E+06
            6491     35.0003E+06    -4.39833E+06              0.    -21.2249E+06
            6492     36.1547E+06    -4.02985E+06              0.    -21.2956E+06
            6493     37.3362E+06    -3.59324E+06              0.    -21.3489E+06
            6494     38.5427E+06    -3.07990E+06              0.    -21.3837E+06
            6495     39.7715E+06    -2.48038E+06              0.    -21.3988E+06
            6496     41.0193E+06    -1.78435E+06              0.    -21.3925E+06
            6497     42.2824E+06    -980.602E+03              0.    -21.3629E+06
            6498     43.5564E+06    -56.9790E+03              0.    -21.3075E+06
            6499     44.8363E+06     999.562E+03              0.    -21.2237E+06
            6500     46.1167E+06     2.20299E+06              0.     -21.108E+06
            6501     47.3914E+06     3.56812E+06              0.    -20.9566E+06
            6502     48.6539E+06     5.11062E+06              0.    -20.7651E+06
            6503     49.8970E+06     6.84693E+06              0.    -20.5283E+06
            6504     51.1131E+06     8.79416E+06              0.    -20.2405E+06
            6505     52.2943E+06     10.9701E+06              0.    -19.8956E+06
            6506     53.4324E+06     13.3932E+06              0.    -19.4865E+06
            6507     54.5188E+06     16.0823E+06              0.    -19.0061E+06
            6508     55.5447E+06     19.0567E+06              0.    -18.4466E+06
            6509     56.5015E+06     22.3363E+06              0.    -17.8004E+06
            6510     57.8996E+06     26.0742E+06              0.    -17.9010E+06
            6511     1.34946E+06     607.287E+03              0.    -490.650E+03
            6512     1.34488E+06     564.300E+03              0.    -489.766E+03
            6513     1.35892E+06     530.383E+03              0.    -484.644E+03
            6514     1.37282E+06     497.089E+03              0.    -480.007E+03
            6515     1.38660E+06     464.404E+03              0.    -475.841E+03
            6516     1.40027E+06     432.312E+03              0.    -472.133E+03
            6517     1.41383E+06     400.798E+03              0.    -468.872E+03
            6518     1.42729E+06     369.849E+03              0.    -466.046E+03
            6519     1.44066E+06     339.450E+03              0.    -463.647E+03
            6520     1.45396E+06     309.588E+03              0.    -461.664E+03
            6521     1.46718E+06     280.249E+03              0.    -460.088E+03
            6522     1.48035E+06     251.420E+03              0.    -458.912E+03
            6523     1.49346E+06     223.090E+03              0.    -458.129E+03
            6524     1.50652E+06     195.244E+03              0.    -457.731E+03
            6525     1.51955E+06     167.872E+03              0.    -457.712E+03
            6526     1.53255E+06     140.962E+03              0.    -458.066E+03
            6527     1.54552E+06     114.502E+03              0.    -458.790E+03
            6528     1.55849E+06     88.4812E+03              0.    -459.877E+03
            6529     1.57144E+06      62.888E+03              0.    -461.325E+03
            6530     1.58440E+06     37.7121E+03              0.    -463.129E+03
            6531     1.59737E+06     12.9434E+03              0.    -465.287E+03
            6532     1.61035E+06    -11.4291E+03              0.    -467.797E+03
            6533     1.62336E+06    -35.4147E+03              0.    -470.657E+03
            6534     1.63639E+06    -59.0239E+03              0.    -473.864E+03
            6535     1.64947E+06    -82.2661E+03              0.    -477.419E+03
            6536     1.66259E+06    -105.150E+03              0.    -481.321E+03
            6537     1.67576E+06    -127.686E+03              0.    -485.569E+03
            6538     1.68898E+06    -149.883E+03              0.    -490.164E+03
            6539     1.70228E+06    -171.749E+03              0.    -495.108E+03
            6540     1.71565E+06    -193.293E+03              0.    -500.401E+03
            6541     1.72909E+06    -214.525E+03              0.    -506.044E+03
            6542     1.74262E+06    -235.451E+03              0.    -512.042E+03
            6543     1.75625E+06    -256.081E+03              0.    -518.395E+03
            6544     1.76997E+06    -276.423E+03              0.    -525.107E+03
            6545     1.78381E+06    -296.485E+03              0.    -532.182E+03
            6546     1.79775E+06    -316.274E+03              0.    -539.623E+03
            6547     1.81182E+06    -335.798E+03              0.    -547.435E+03
            6548     1.82601E+06    -355.066E+03              0.    -555.623E+03
            6549     1.84034E+06    -374.084E+03              0.    -564.191E+03
            6550     1.85481E+06    -392.860E+03              0.    -573.147E+03
            6551     1.86943E+06    -411.402E+03              0.    -582.495E+03
            6552     1.88420E+06    -429.716E+03              0.    -592.243E+03
            6553     1.89914E+06    -447.810E+03              0.    -602.397E+03
            6554     1.91424E+06    -465.690E+03              0.    -612.965E+03
            6555     1.92953E+06    -483.365E+03              0.    -623.956E+03
            6556     1.94499E+06    -500.841E+03              0.    -635.376E+03
            6557     1.96065E+06    -518.124E+03              0.    -647.237E+03
            6558     1.97651E+06    -535.222E+03              0.    -659.546E+03
            6559     1.99258E+06    -552.141E+03              0.    -672.314E+03
            6560     2.00886E+06    -568.888E+03              0.    -685.551E+03
            6561     2.02536E+06    -585.469E+03              0.    -699.269E+03
            6562     2.04210E+06    -601.893E+03              0.    -713.478E+03
            6563     2.05907E+06    -618.164E+03              0.    -728.191E+03
            6564     2.07629E+06    -634.289E+03              0.    -743.420E+03
            6565     2.09376E+06    -650.276E+03              0.    -759.179E+03
            6566     2.11150E+06    -666.130E+03              0.    -775.481E+03
            6567     2.12951E+06    -681.859E+03              0.    -792.341E+03
            6568     2.14781E+06    -697.468E+03              0.    -809.772E+03
            6569     2.16639E+06    -712.964E+03              0.    -827.791E+03
            6570     2.18527E+06    -728.354E+03              0.    -846.414E+03
            6571     2.20446E+06    -743.644E+03              0.    -865.658E+03
            6572     2.22398E+06    -758.841E+03              0.    -885.539E+03
            6573     2.24382E+06    -773.952E+03              0.    -906.077E+03
            6574     2.26400E+06    -788.982E+03              0.    -927.289E+03
            6575     2.28452E+06    -803.939E+03              0.    -949.194E+03
            6576     2.30541E+06    -818.829E+03              0.    -971.814E+03
            6577     2.32668E+06    -833.659E+03              0.    -995.169E+03
            6578     2.34832E+06    -848.436E+03              0.    -1.01928E+06
            6579     2.37036E+06    -863.166E+03              0.    -1.04417E+06
            6580     2.39280E+06    -877.856E+03              0.    -1.06986E+06
            6581     2.41566E+06    -892.514E+03              0.    -1.09638E+06
            6582     2.43895E+06    -907.146E+03              0.    -1.12375E+06
            6583     2.46269E+06    -921.760E+03              0.    -1.15199E+06
            6584     2.48688E+06    -936.362E+03              0.    -1.18114E+06
            6585     2.51154E+06    -950.960E+03              0.    -1.21122E+06
            6586     2.53669E+06    -965.561E+03              0.    -1.24225E+06
            6587     2.56234E+06    -980.172E+03              0.    -1.27427E+06
            6588     2.58850E+06    -994.802E+03              0.    -1.30731E+06
            6589     2.61519E+06    -1.00946E+06              0.    -1.34139E+06
            6590     2.64243E+06    -1.02415E+06              0.    -1.37656E+06
            6591     2.67023E+06    -1.03888E+06              0.    -1.41284E+06
            6592     2.69861E+06    -1.05366E+06              0.    -1.45026E+06
            6593     2.72759E+06    -1.06850E+06              0.    -1.48886E+06
            6594     2.75718E+06    -1.08340E+06              0.    -1.52868E+06
            6595     2.78740E+06    -1.09838E+06              0.    -1.56976E+06
            6596     2.81828E+06    -1.11345E+06              0.    -1.61212E+06
            6597     2.84983E+06    -1.12860E+06              0.    -1.65582E+06
            6598     2.88208E+06    -1.14386E+06              0.    -1.70089E+06
            6599     2.91504E+06    -1.15923E+06              0.    -1.74737E+06
            6600     2.94874E+06    -1.17472E+06              0.    -1.79530E+06
            6601     2.98320E+06    -1.19034E+06              0.    -1.84474E+06
            6602     3.01844E+06    -1.20610E+06              0.    -1.89571E+06
            6603     3.05450E+06    -1.22201E+06              0.    -1.94828E+06
            6604     3.09139E+06    -1.23808E+06              0.    -2.00248E+06
            6605     3.12914E+06    -1.25432E+06              0.    -2.05836E+06
            6606     3.16778E+06    -1.27075E+06              0.    -2.11598E+06
            6607     3.20734E+06    -1.28736E+06              0.    -2.17538E+06
            6608     3.24785E+06    -1.30419E+06              0.    -2.23662E+06
            6609     3.28933E+06    -1.32123E+06              0.    -2.29975E+06
            6610     3.33182E+06    -1.33849E+06              0.    -2.36482E+06
            6611     3.37536E+06    -1.35600E+06              0.    -2.43190E+06
            6612     3.41997E+06    -1.37376E+06              0.    -2.50103E+06
            6613     3.46570E+06    -1.39179E+06              0.    -2.57227E+06
            6614     3.51257E+06    -1.41010E+06              0.    -2.64569E+06
            6615     3.56064E+06    -1.42870E+06              0.    -2.72134E+06
            6616     3.60993E+06    -1.44762E+06              0.    -2.79928E+06
            6617     3.66049E+06    -1.46685E+06              0.    -2.87959E+06
            6618     3.71236E+06    -1.48642E+06              0.    -2.96232E+06
            6619     3.76559E+06    -1.50634E+06              0.    -3.04753E+06
            6620     3.82023E+06    -1.52663E+06              0.    -3.13530E+06
            6621     3.87631E+06    -1.54730E+06              0.    -3.22569E+06
            6622     3.93390E+06    -1.56838E+06              0.    -3.31877E+06
            6623     3.99305E+06    -1.58987E+06              0.    -3.41461E+06
            6624     4.05380E+06    -1.61179E+06              0.    -3.51327E+06
            6625     4.11622E+06    -1.63417E+06              0.    -3.61484E+06
            6626     4.18036E+06    -1.65702E+06              0.    -3.71937E+06
            6627     4.24629E+06    -1.68036E+06              0.    -3.82696E+06
            6628     4.31407E+06    -1.70421E+06              0.    -3.93765E+06
            6629     4.38377E+06    -1.72858E+06              0.    -4.05154E+06
            6630     4.45545E+06    -1.75351E+06              0.    -4.16869E+06
            6631     4.52919E+06    -1.77900E+06              0.    -4.28919E+06
            6632     4.60507E+06    -1.80509E+06              0.    -4.41309E+06
            6633     4.68315E+06    -1.83179E+06              0.    -4.54048E+06
            6634     4.76353E+06    -1.85913E+06              0.    -4.67144E+06
            6635     4.84629E+06    -1.88712E+06              0.    -4.80604E+06
            6636     4.93152E+06    -1.91580E+06              0.    -4.94435E+06
            6637     5.01931E+06    -1.94519E+06              0.    -5.08644E+06
            6638     5.10976E+06    -1.97531E+06              0.    -5.23240E+06
            6639     5.20296E+06    -2.00618E+06              0.    -5.38228E+06
            6640     5.29903E+06    -2.03784E+06              0.    -5.53617E+06
            6641     5.39807E+06    -2.07031E+06              0.    -5.69414E+06
            6642     5.50020E+06    -2.10362E+06              0.    -5.85624E+06
            6643     5.60554E+06    -2.13779E+06              0.    -6.02255E+06
            6644     5.71421E+06    -2.17285E+06              0.    -6.19313E+06
            6645     5.82634E+06    -2.20884E+06              0.    -6.36804E+06
            6646     5.94207E+06    -2.24578E+06              0.    -6.54735E+06
            6647     6.06155E+06    -2.28370E+06              0.    -6.73110E+06
            6648     6.18492E+06    -2.32264E+06              0.    -6.91936E+06
            6649     6.31233E+06    -2.36262E+06              0.    -7.11216E+06
            6650     6.44396E+06    -2.40367E+06              0.    -7.30956E+06
            6651     6.57996E+06    -2.44583E+06              0.    -7.51159E+06
            6652     6.72052E+06    -2.48913E+06              0.    -7.71828E+06
            6653     6.86582E+06    -2.53360E+06              0.    -7.92968E+06
            6654     7.01607E+06    -2.57927E+06              0.    -8.14579E+06
            6655     7.17145E+06    -2.62618E+06              0.    -8.36664E+06
            6656     7.33219E+06    -2.67435E+06              0.    -8.59224E+06
            6657     7.49850E+06    -2.72382E+06              0.    -8.82258E+06
            6658     7.67063E+06    -2.77463E+06              0.    -9.05766E+06
            6659     7.84880E+06    -2.82680E+06              0.    -9.29746E+06
            6660     8.03329E+06    -2.88036E+06              0.    -9.54196E+06
            6661     8.22435E+06    -2.93534E+06              0.    -9.79113E+06
            6662     8.42226E+06    -2.99177E+06              0.    -10.0449E+06
            6663     8.62732E+06    -3.04968E+06              0.    -10.3032E+06
            6664     8.83983E+06    -3.10909E+06              0.    -10.5661E+06
            6665     9.06012E+06    -3.17002E+06              0.    -10.8333E+06
            6666     9.28852E+06    -3.23250E+06              0.    -11.1048E+06
            6667     9.52538E+06    -3.29653E+06              0.    -11.3805E+06
            6668     9.77106E+06    -3.36213E+06              0.    -11.6603E+06
            6669     10.0260E+06    -3.42931E+06              0.    -11.9440E+06
            6670     10.2905E+06    -3.49807E+06              0.    -12.2315E+06
            6671     10.5650E+06    -3.56841E+06              0.    -12.5225E+06
            6672     10.8500E+06    -3.64030E+06              0.    -12.8169E+06
            6673     11.1460E+06    -3.71374E+06              0.    -13.1145E+06
            6674     11.4533E+06    -3.78869E+06              0.    -13.4150E+06
            6675     11.7726E+06    -3.86510E+06              0.    -13.7182E+06
            6676     12.1043E+06    -3.94292E+06              0.    -14.0237E+06
            6677     12.4490E+06    -4.02209E+06              0.    -14.3314E+06
            6678     12.8073E+06    -4.10250E+06              0.    -14.6408E+06
            6679     13.1797E+06    -4.18406E+06              0.    -14.9517E+06
            6680     13.5669E+06    -4.26663E+06              0.    -15.2635E+06
            6681     13.9696E+06    -4.35004E+06              0.    -15.5761E+06
            6682     14.3883E+06    -4.43412E+06              0.    -15.8889E+06
            6683     14.8237E+06    -4.51863E+06              0.    -16.2015E+06
            6684     15.2767E+06    -4.60331E+06              0.    -16.5134E+06
            6685     15.7480E+06    -4.68786E+06              0.    -16.8242E+06
            6686     16.2382E+06    -4.77191E+06              0.    -17.1334E+06
            6687     16.7482E+06    -4.85504E+06              0.    -17.4404E+06
            6688     17.2789E+06    -4.93677E+06              0.    -17.7447E+06
            6689     17.8309E+06    -5.01653E+06              0.    -18.0457E+06
            6690     18.4053E+06    -5.09367E+06              0.    -18.3428E+06
            6691     19.0028E+06    -5.16745E+06              0.    -18.6355E+06
            6692     19.6242E+06    -5.23701E+06              0.    -18.9231E+06
            6693     20.2706E+06    -5.30135E+06              0.    -19.2050E+06
            6694     20.9426E+06    -5.35936E+06              0.    -19.4806E+06
            6695     21.6411E+06    -5.40974E+06              0.    -19.7492E+06
            6696     22.3670E+06    -5.45102E+06              0.    -20.0103E+06
            6697     23.1211E+06    -5.48153E+06              0.    -20.2630E+06
            6698     23.9039E+06    -5.49934E+06              0.    -20.5068E+06
            6699     24.7163E+06    -5.50231E+06              0.    -20.7410E+06
            6700     25.5588E+06    -5.48796E+06              0.    -20.9650E+06
            6701     26.4319E+06    -5.45351E+06              0.    -21.1780E+06
            6702     27.3358E+06    -5.39583E+06              0.    -21.3794E+06
            6703     28.2708E+06    -5.31137E+06              0.    -21.5684E+06
            6704     29.2369E+06    -5.19616E+06              0.    -21.7443E+06
            6705     30.2339E+06    -5.04573E+06              0.    -21.9063E+06
            6706     31.2612E+06    -4.85508E+06              0.    -22.0536E+06
            6707     32.3182E+06    -4.61864E+06              0.    -22.1853E+06
            6708     33.4038E+06    -4.33021E+06              0.    -22.3003E+06
            6709     34.5164E+06    -3.98294E+06              0.    -22.3974E+06
            6710     35.6544E+06    -3.56924E+06              0.    -22.4754E+06
            6711     36.8153E+06    -3.08078E+06              0.    -22.5327E+06
            6712     37.9966E+06    -2.50843E+06              0.    -22.5675E+06
            6713     39.1948E+06    -1.84226E+06              0.    -22.5777E+06
            6714     40.4063E+06    -1.07147E+06              0.    -22.5609E+06
            6715     41.6267E+06    -184.426E+03              0.    -22.5143E+06
            6716     42.8512E+06     831.364E+03              0.    -22.4345E+06
            6717     44.0744E+06     1.98925E+06              0.    -22.3177E+06
            6718     45.2903E+06     3.30340E+06              0.    -22.1597E+06
            6719     46.4925E+06     4.78878E+06              0.    -21.9555E+06
            6720     47.6739E+06     6.46111E+06              0.    -21.6997E+06
            6721     48.8273E+06     8.33682E+06              0.    -21.3863E+06
            6722     49.9447E+06     10.4330E+06              0.    -21.0087E+06
            6723     51.0181E+06     12.7675E+06              0.    -20.5598E+06
            6724     52.0388E+06     15.3585E+06              0.    -20.0324E+06
            6725     52.9982E+06     18.2249E+06              0.    -19.4186E+06
            6726     53.8871E+06     21.3862E+06              0.    -18.7105E+06
            6727     55.2260E+06     24.9882E+06              0.    -18.8030E+06
            6728     1.33594E+06     601.228E+03              0.    -504.661E+03
            6729     1.33143E+06     558.877E+03              0.    -503.753E+03
            6730     1.34526E+06     525.455E+03              0.    -498.493E+03
            6731     1.35896E+06     492.643E+03              0.    -493.727E+03
            6732     1.37254E+06     460.426E+03              0.    -489.441E+03
            6733     1.38600E+06     428.791E+03              0.    -485.623E+03
            6734     1.39936E+06     397.723E+03              0.    -482.260E+03
            6735     1.41262E+06     367.209E+03              0.    -479.343E+03
            6736     1.42580E+06     337.234E+03              0.    -476.860E+03
            6737     1.43889E+06     307.787E+03              0.    -474.801E+03
            6738     1.45191E+06     278.856E+03              0.    -473.159E+03
            6739     1.46488E+06     250.427E+03              0.    -471.925E+03
            6740     1.47778E+06     222.488E+03              0.    -471.090E+03
            6741     1.49064E+06     195.028E+03              0.    -470.649E+03
            6742     1.50346E+06     168.036E+03              0.    -470.595E+03
            6743     1.51624E+06     141.500E+03              0.    -470.923E+03
            6744     1.52900E+06     115.409E+03              0.    -471.626E+03
            6745     1.54175E+06     89.7538E+03              0.    -472.701E+03
            6746     1.55448E+06     64.5221E+03              0.    -474.143E+03
            6747     1.56721E+06     39.7045E+03              0.    -475.950E+03
            6748     1.57994E+06     15.2914E+03              0.    -478.117E+03
            6749     1.59269E+06    -8.72770E+03              0.    -480.643E+03
            6750     1.60545E+06    -32.3616E+03              0.    -483.526E+03
            6751     1.61823E+06    -55.6203E+03              0.    -486.764E+03
            6752     1.63105E+06    -78.5127E+03              0.    -490.355E+03
            6753     1.64390E+06    -101.047E+03              0.    -494.301E+03
            6754     1.65680E+06    -123.234E+03              0.    -498.600E+03
            6755     1.66974E+06    -145.080E+03              0.    -503.252E+03
            6756     1.68275E+06    -166.595E+03              0.    -508.260E+03
            6757     1.69582E+06    -187.787E+03              0.    -513.623E+03
            6758     1.70896E+06    -208.663E+03              0.    -519.344E+03
            6759     1.72217E+06    -229.233E+03              0.    -525.425E+03
            6760     1.73547E+06    -249.503E+03              0.    -531.868E+03
            6761     1.74885E+06    -269.481E+03              0.    -538.678E+03
            6762     1.76234E+06    -289.176E+03              0.    -545.856E+03
            6763     1.77592E+06    -308.594E+03              0.    -553.407E+03
            6764     1.78961E+06    -327.743E+03              0.    -561.336E+03
            6765     1.80342E+06    -346.630E+03              0.    -569.647E+03
            6766     1.81735E+06    -365.261E+03              0.    -578.346E+03
            6767     1.83141E+06    -383.645E+03              0.    -587.438E+03
            6768     1.84560E+06    -401.788E+03              0.     -596.93E+03
            6769     1.85993E+06    -419.697E+03              0.    -606.828E+03
            6770     1.87441E+06    -437.378E+03              0.    -617.139E+03
            6771     1.88905E+06    -454.839E+03              0.    -627.871E+03
            6772     1.90384E+06    -472.085E+03              0.    -639.033E+03
            6773     1.91880E+06    -489.123E+03              0.    -650.631E+03
            6774     1.93394E+06    -505.960E+03              0.    -662.677E+03
            6775     1.94925E+06    -522.601E+03              0.    -675.178E+03
            6776     1.96476E+06    -539.054E+03              0.    -688.145E+03
            6777     1.98046E+06    -555.323E+03              0.    -701.589E+03
            6778     1.99636E+06    -571.417E+03              0.    -715.521E+03
            6779     2.01247E+06     -587.34E+03              0.    -729.952E+03
            6780     2.02880E+06    -603.098E+03              0.    -744.895E+03
            6781     2.04535E+06    -618.699E+03              0.    -760.361E+03
            6782     2.06213E+06    -634.147E+03              0.    -776.365E+03
            6783     2.07916E+06    -649.448E+03              0.    -792.920E+03
            6784     2.09643E+06    -664.610E+03              0.    -810.041E+03
            6785     2.11395E+06    -679.636E+03              0.    -827.742E+03
            6786     2.13174E+06    -694.534E+03              0.    -846.040E+03
            6787      2.1498E+06    -709.309E+03              0.    -864.951E+03
            6788     2.16814E+06    -723.968E+03              0.    -884.490E+03
            6789     2.18677E+06    -738.515E+03              0.    -904.677E+03
            6790     2.20570E+06    -752.958E+03              0.    -925.529E+03
            6791     2.22493E+06    -767.301E+03              0.    -947.065E+03
            6792     2.24448E+06    -781.551E+03              0.    -969.305E+03
            6793     2.26435E+06    -795.714E+03              0.    -992.269E+03
            6794     2.28456E+06    -809.795E+03              0.    -1.01598E+06
            6795     2.30511E+06    -823.801E+03              0.    -1.04045E+06
            6796     2.32603E+06    -837.738E+03              0.    -1.06572E+06
            6797     2.34730E+06    -851.612E+03              0.    -1.09180E+06
            6798     2.36895E+06    -865.428E+03              0.    -1.11872E+06
            6799     2.39099E+06    -879.194E+03              0.    -1.14649E+06
            6800     2.41343E+06    -892.915E+03              0.    -1.17516E+06
            6801     2.43629E+06    -906.598E+03              0.    -1.20474E+06
            6802     2.45956E+06    -920.248E+03              0.    -1.23527E+06
            6803     2.48327E+06    -933.874E+03              0.    -1.26676E+06
            6804     2.50743E+06    -947.480E+03              0.    -1.29926E+06
            6805     2.53205E+06    -961.074E+03              0.    -1.33278E+06
            6806     2.55715E+06    -974.662E+03              0.    -1.36737E+06
            6807     2.58273E+06    -988.252E+03              0.    -1.40305E+06
            6808     2.60882E+06    -1.00185E+06              0.    -1.43986E+06
            6809     2.63543E+06    -1.01546E+06              0.    -1.47783E+06
            6810     2.66258E+06    -1.02910E+06              0.    -1.51700E+06
            6811     2.69027E+06    -1.04276E+06              0.    -1.55741E+06
            6812     2.71854E+06    -1.05647E+06              0.    -1.59908E+06
            6813     2.74739E+06    -1.07022E+06              0.    -1.64206E+06
            6814     2.77684E+06    -1.08402E+06              0.    -1.68640E+06
            6815     2.80691E+06    -1.09788E+06              0.    -1.73212E+06
            6816     2.83762E+06    -1.11181E+06              0.    -1.77928E+06
            6817     2.86899E+06    -1.12582E+06              0.    -1.82791E+06
            6818     2.90105E+06    -1.13991E+06              0.    -1.87806E+06
            6819     2.93380E+06    -1.15410E+06              0.    -1.92977E+06
            6820     2.96728E+06    -1.16839E+06              0.    -1.98310E+06
            6821     3.00150E+06    -1.18279E+06              0.    -2.03809E+06
            6822     3.03650E+06    -1.19732E+06              0.    -2.09478E+06
            6823     3.07229E+06    -1.21198E+06              0.    -2.15324E+06
            6824     3.10890E+06    -1.22678E+06              0.    -2.21351E+06
            6825     3.14635E+06    -1.24173E+06              0.    -2.27564E+06
            6826     3.18468E+06    -1.25685E+06              0.    -2.33968E+06
            6827     3.22392E+06    -1.27214E+06              0.    -2.40570E+06
            6828     3.26408E+06    -1.28761E+06              0.    -2.47376E+06
            6829     3.30521E+06    -1.30328E+06              0.    -2.54390E+06
            6830     3.34733E+06    -1.31915E+06              0.    -2.61618E+06
            6831     3.39049E+06    -1.33525E+06              0.    -2.69068E+06
            6832     3.43470E+06    -1.35158E+06              0.    -2.76744E+06
            6833     3.48002E+06    -1.36815E+06              0.    -2.84654E+06
            6834     3.52647E+06    -1.38498E+06              0.    -2.92803E+06
            6835     3.57409E+06    -1.40209E+06              0.    -3.01199E+06
            6836     3.62294E+06    -1.41948E+06              0.    -3.09848E+06
            6837     3.67304E+06    -1.43717E+06              0.    -3.18756E+06
            6838     3.72445E+06    -1.45517E+06              0.    -3.27931E+06
            6839     3.77721E+06    -1.47351E+06              0.    -3.37379E+06
            6840     3.83136E+06    -1.49219E+06              0.    -3.47108E+06
            6841     3.88696E+06    -1.51124E+06              0.    -3.57126E+06
            6842     3.94406E+06    -1.53067E+06              0.    -3.67438E+06
            6843     4.00271E+06    -1.55050E+06              0.    -3.78053E+06
            6844     4.06297E+06    -1.57074E+06              0.    -3.88978E+06
            6845     4.12490E+06    -1.59141E+06              0.    -4.00220E+06
            6846     4.18856E+06    -1.61254E+06              0.    -4.11788E+06
            6847     4.25402E+06    -1.63415E+06              0.    -4.23689E+06
            6848     4.32134E+06    -1.65625E+06              0.    -4.35930E+06
            6849     4.39059E+06    -1.67886E+06              0.    -4.48520E+06
            6850     4.46185E+06    -1.70201E+06              0.    -4.61466E+06
            6851     4.53519E+06    -1.72572E+06              0.    -4.74776E+06
            6852     4.61069E+06    -1.75002E+06              0.    -4.88457E+06
            6853     4.68844E+06    -1.77492E+06              0.    -5.02519E+06
            6854     4.76852E+06    -1.80046E+06              0.    -5.16967E+06
            6855     4.85103E+06    -1.82665E+06              0.    -5.31810E+06
            6856     4.93605E+06    -1.85353E+06              0.    -5.47057E+06
            6857     5.02369E+06    -1.88111E+06              0.    -5.62713E+06
            6858     5.11406E+06    -1.90944E+06              0.    -5.78787E+06
            6859     5.20726E+06    -1.93854E+06              0.    -5.95285E+06
            6860     5.30341E+06    -1.96843E+06              0.    -6.12215E+06
            6861     5.40262E+06    -1.99915E+06              0.    -6.29585E+06
            6862     5.50503E+06    -2.03073E+06              0.    -6.47400E+06
            6863     5.61075E+06    -2.06321E+06              0.    -6.65667E+06
            6864     5.71994E+06    -2.09661E+06              0.    -6.84392E+06
            6865     5.83273E+06    -2.13097E+06              0.    -7.03581E+06
            6866     5.94927E+06    -2.16632E+06              0.    -7.23240E+06
            6867     6.06973E+06    -2.20270E+06              0.    -7.43373E+06
            6868     6.19425E+06    -2.24015E+06              0.    -7.63986E+06
            6869     6.32303E+06    -2.27869E+06              0.    -7.85083E+06
            6870     6.45624E+06    -2.31839E+06              0.    -8.06666E+06
            6871     6.59407E+06    -2.35926E+06              0.    -8.28741E+06
            6872     6.73671E+06    -2.40134E+06              0.    -8.51308E+06
            6873     6.88438E+06    -2.44469E+06              0.    -8.74370E+06
            6874     7.03729E+06    -2.48933E+06              0.    -8.97927E+06
            6875     7.19568E+06    -2.53531E+06              0.    -9.21981E+06
            6876     7.35978E+06    -2.58267E+06              0.    -9.46531E+06
            6877     7.52985E+06    -2.63144E+06              0.    -9.71575E+06
            6878     7.70614E+06    -2.68168E+06              0.    -9.97110E+06
            6879     7.88894E+06    -2.73340E+06              0.    -10.2313E+06
            6880     8.07853E+06    -2.78667E+06              0.    -10.4964E+06
            6881     8.27522E+06    -2.84150E+06              0.    -10.7663E+06
            6882     8.47932E+06    -2.89794E+06              0.    -11.0408E+06
            6883     8.69118E+06    -2.95602E+06              0.    -11.3200E+06
            6884     8.91113E+06    -3.01578E+06              0.    -11.6038E+06
            6885     9.13954E+06    -3.07722E+06              0.    -11.8919E+06
            6886     9.37680E+06    -3.14039E+06              0.    -12.1844E+06
            6887     9.62331E+06    -3.20531E+06              0.    -12.4810E+06
            6888     9.87949E+06    -3.27197E+06              0.    -12.7815E+06
            6889     10.1458E+06    -3.34040E+06              0.    -13.0859E+06
            6890     10.4226E+06    -3.41058E+06              0.    -13.3939E+06
            6891     10.7105E+06    -3.48251E+06              0.    -13.7053E+06
            6892     11.0100E+06    -3.55616E+06              0.    -14.0199E+06
            6893     11.3215E+06    -3.63151E+06              0.    -14.3373E+06
            6894     11.6456E+06    -3.70850E+06              0.    -14.6574E+06
            6895     11.9829E+06    -3.78707E+06              0.    -14.9798E+06
            6896     12.3341E+06    -3.86713E+06              0.    -15.3042E+06
            6897     12.6996E+06    -3.94857E+06              0.    -15.6303E+06
            6898     13.0801E+06    -4.03125E+06              0.    -15.9577E+06
            6899     13.4764E+06    -4.11502E+06              0.    -16.2859E+06
            6900     13.8890E+06    -4.19967E+06              0.    -16.6147E+06
            6901     14.3188E+06    -4.28497E+06              0.    -16.9435E+06
            6902     14.7664E+06    -4.37062E+06              0.    -17.2719E+06
            6903     15.2326E+06    -4.45630E+06              0.    -17.5994E+06
            6904     15.7182E+06    -4.54160E+06              0.    -17.9255E+06
            6905     16.2240E+06    -4.62607E+06              0.    -18.2497E+06
            6906     16.7507E+06    -4.70916E+06              0.    -18.5713E+06
            6907     17.2992E+06    -4.79026E+06              0.    -18.8900E+06
            6908     17.8704E+06    -4.86862E+06              0.    -19.2050E+06
            6909     18.4650E+06    -4.94343E+06              0.    -19.5158E+06
            6910     19.0839E+06    -5.01371E+06              0.    -19.8217E+06
            6911     19.7279E+06    -5.07836E+06              0.    -20.1221E+06
            6912     20.3978E+06    -5.13611E+06              0.    -20.4163E+06
            6913     21.0943E+06    -5.18551E+06              0.    -20.7037E+06
            6914     21.8182E+06    -5.22490E+06              0.    -20.9835E+06
            6915     22.5701E+06    -5.25242E+06              0.     -21.255E+06
            6916     23.3506E+06    -5.26591E+06              0.    -21.5175E+06
            6917     24.1602E+06    -5.26296E+06              0.    -21.7703E+06
            6918     24.9993E+06    -5.24082E+06              0.    -22.0124E+06
            6919     25.8682E+06    -5.19642E+06              0.    -22.2432E+06
            6920     26.7668E+06    -5.12626E+06              0.    -22.4617E+06
            6921     27.6952E+06    -5.02644E+06              0.    -22.6670E+06
            6922     28.6530E+06    -4.89261E+06              0.    -22.8581E+06
            6923     29.6397E+06    -4.71987E+06              0.    -23.0339E+06
            6924     30.6543E+06    -4.50281E+06              0.    -23.1933E+06
            6925     31.6958E+06    -4.23540E+06              0.    -23.3348E+06
            6926     32.7627E+06    -3.91099E+06              0.    -23.4569E+06
            6927     33.8530E+06    -3.52224E+06              0.    -23.5581E+06
            6928     34.9644E+06    -3.06114E+06              0.    -23.6363E+06
            6929     36.0942E+06    -2.51890E+06              0.    -23.6894E+06
            6930     37.2391E+06    -1.88596E+06              0.    -23.7147E+06
            6931     38.3954E+06    -1.15201E+06              0.    -23.7095E+06
            6932     39.5588E+06    -305.889E+03              0.    -23.6704E+06
            6933     40.7246E+06     664.322E+03              0.    -23.5937E+06
            6934     41.8875E+06     1.77138E+06              0.    -23.4751E+06
            6935     43.0416E+06     3.02881E+06              0.    -23.3099E+06
            6936     44.1806E+06     4.45094E+06              0.    -23.0928E+06
            6937     45.2978E+06     6.05279E+06              0.    -22.8180E+06
            6938     46.3858E+06     7.85014E+06              0.    -22.4791E+06
            6939     47.4369E+06     9.85948E+06              0.    -22.0694E+06
            6940     48.4430E+06     12.0979E+06              0.    -21.5815E+06
            6941     49.3957E+06     14.5833E+06              0.    -21.0079E+06
            6942     50.2861E+06     17.3340E+06              0.    -20.3405E+06
            6943      51.105E+06     20.3692E+06              0.    -19.5714E+06
            6944     52.3816E+06     23.8269E+06              0.    -19.6541E+06
            6945     1.32208E+06     595.015E+03              0.    -518.461E+03
            6946     1.31764E+06     553.312E+03              0.    -517.529E+03
            6947     1.33126E+06     520.395E+03              0.    -512.133E+03
            6948     1.34475E+06     488.074E+03              0.    -507.241E+03
            6949     1.35812E+06     456.335E+03              0.    -502.837E+03
            6950     1.37138E+06     425.166E+03              0.    -498.910E+03
            6951     1.38453E+06     394.551E+03              0.    -495.447E+03
            6952     1.39759E+06     364.480E+03              0.    -492.438E+03
            6953     1.41056E+06     334.939E+03              0.    -489.871E+03
            6954     1.42345E+06     305.916E+03              0.    -487.737E+03
            6955     1.43627E+06     277.399E+03              0.    -486.026E+03
            6956     1.44903E+06     249.377E+03              0.    -484.731E+03
            6957     1.46172E+06     221.839E+03              0.    -483.844E+03
            6958     1.47437E+06     194.772E+03              0.    -483.358E+03
            6959     1.48698E+06     168.167E+03              0.    -483.266E+03
            6960     1.49955E+06     142.013E+03              0.    -483.563E+03
            6961     1.51209E+06     116.299E+03              0.    -484.243E+03
            6962     1.52461E+06     91.0156E+03              0.    -485.301E+03
            6963     1.53711E+06     66.1524E+03              0.    -486.734E+03
            6964     1.54961E+06     41.7001E+03              0.    -488.537E+03
            6965     1.56210E+06     17.6495E+03              0.    -490.708E+03
            6966     1.57460E+06    -6.00939E+03              0.    -493.245E+03
            6967     1.58711E+06    -29.2849E+03              0.    -496.144E+03
            6968     1.59964E+06    -52.1864E+03              0.    -499.406E+03
            6969     1.61220E+06    -74.7225E+03              0.    -503.028E+03
            6970     1.62478E+06    -96.9012E+03              0.    -507.009E+03
            6971     1.63740E+06    -118.732E+03              0.    -511.351E+03
            6972     1.65006E+06    -140.221E+03              0.    -516.052E+03
            6973     1.66277E+06    -161.378E+03              0.    -521.115E+03
            6974     1.67553E+06    -182.211E+03              0.    -526.540E+03
            6975     1.68836E+06    -202.726E+03              0.    -532.329E+03
            6976     1.70125E+06    -222.932E+03              0.    -538.484E+03
            6977     1.71422E+06    -242.836E+03              0.    -545.007E+03
            6978     1.72726E+06    -262.445E+03              0.    -551.902E+03
            6979     1.74039E+06    -281.766E+03              0.    -559.173E+03
            6980     1.75361E+06    -300.806E+03              0.    -566.822E+03
            6981     1.76692E+06    -319.573E+03              0.    -574.856E+03
            6982     1.78034E+06    -338.073E+03              0.    -583.277E+03
            6983     1.79386E+06    -356.312E+03              0.    -592.093E+03
            6984     1.80750E+06    -374.298E+03              0.    -601.308E+03
            6985     1.82126E+06    -392.036E+03              0.    -610.929E+03
            6986     1.83515E+06    -409.533E+03              0.    -620.962E+03
            6987     1.84916E+06    -426.795E+03              0.    -631.415E+03
            6988     1.86332E+06    -443.828E+03              0.    -642.294E+03
            6989     1.87762E+06    -460.639E+03              0.    -653.610E+03
            6990     1.89206E+06    -477.233E+03              0.    -665.369E+03
            6991     1.90667E+06    -493.616E+03              0.    -677.581E+03
            6992     1.92144E+06    -509.794E+03              0.    -690.256E+03
            6993     1.93637E+06    -525.774E+03              0.    -703.403E+03
            6994     1.95148E+06    -541.559E+03              0.    -717.033E+03
            6995     1.96678E+06    -557.157E+03              0.    -731.158E+03
            6996     1.98225E+06    -572.573E+03              0.    -745.789E+03
            6997     1.99793E+06    -587.812E+03              0.    -760.939E+03
            6998     2.01380E+06    -602.879E+03              0.    -776.619E+03
            6999     2.02989E+06    -617.781E+03              0.    -792.844E+03
            7000     2.04618E+06    -632.522E+03              0.    -809.627E+03
            7001     2.06270E+06    -647.108E+03              0.    -826.984E+03
            7002     2.07945E+06    -661.544E+03              0.    -844.928E+03
            7003     2.09643E+06    -675.836E+03              0.    -863.476E+03
            7004     2.11366E+06    -689.988E+03              0.    -882.645E+03
            7005     2.13113E+06    -704.006E+03              0.    -902.451E+03
            7006     2.14887E+06    -717.895E+03              0.    -922.912E+03
            7007     2.16687E+06    -731.661E+03              0.    -944.047E+03
            7008     2.18514E+06    -745.308E+03              0.    -965.874E+03
            7009     2.20370E+06    -758.842E+03              0.    -988.414E+03
            7010     2.22254E+06    -772.268E+03              0.    -1.01169E+06
            7011     2.24169E+06    -785.591E+03              0.    -1.03571E+06
            7012     2.26114E+06    -798.817E+03              0.    -1.06052E+06
            7013     2.28091E+06    -811.950E+03              0.    -1.08612E+06
            7014     2.30100E+06    -824.996E+03              0.    -1.11254E+06
            7015     2.32143E+06    -837.961E+03              0.    -1.13982E+06
            7016     2.34220E+06    -850.849E+03              0.    -1.16796E+06
            7017     2.36333E+06    -863.666E+03              0.    -1.19700E+06
            7018     2.38482E+06    -876.417E+03              0.    -1.22697E+06
            7019     2.40669E+06    -889.109E+03              0.    -1.25790E+06
            7020     2.42895E+06    -901.746E+03              0.    -1.28980E+06
            7021     2.45160E+06    -914.334E+03              0.    -1.32272E+06
            7022     2.47466E+06    -926.879E+03              0.    -1.35668E+06
            7023     2.49814E+06    -939.386E+03              0.    -1.39172E+06
            7024     2.52205E+06    -951.862E+03              0.    -1.42786E+06
            7025     2.54641E+06    -964.312E+03              0.    -1.46514E+06
            7026     2.57123E+06    -976.743E+03              0.    -1.50360E+06
            7027     2.59652E+06    -989.160E+03              0.    -1.54327E+06
            7028     2.62229E+06    -1.00157E+06              0.    -1.58419E+06
            7029     2.64857E+06    -1.01398E+06              0.    -1.62640E+06
            7030     2.67536E+06    -1.02639E+06              0.    -1.66993E+06
            7031     2.70268E+06    -1.03882E+06              0.    -1.71483E+06
            7032     2.73055E+06    -1.05127E+06              0.    -1.76113E+06
            7033     2.75899E+06    -1.06374E+06              0.    -1.80889E+06
            7034     2.78800E+06    -1.07625E+06              0.    -1.85813E+06
            7035     2.81762E+06    -1.08880E+06              0.    -1.90892E+06
            7036     2.84785E+06    -1.10139E+06              0.    -1.96129E+06
            7037     2.87871E+06    -1.11404E+06              0.    -2.01529E+06
            7038     2.91023E+06    -1.12676E+06              0.    -2.07098E+06
            7039     2.94244E+06    -1.13955E+06              0.    -2.12839E+06
            7040     2.97533E+06    -1.15242E+06              0.    -2.18759E+06
            7041     3.00895E+06    -1.16537E+06              0.    -2.24862E+06
            7042     3.04332E+06    -1.17843E+06              0.    -2.31153E+06
            7043     3.07845E+06    -1.19159E+06              0.    -2.37640E+06
            7044     3.11438E+06    -1.20487E+06              0.    -2.44326E+06
            7045     3.15113E+06    -1.21828E+06              0.    -2.51217E+06
            7046     3.18872E+06    -1.23183E+06              0.    -2.58321E+06
            7047     3.22719E+06    -1.24552E+06              0.    -2.65642E+06
            7048     3.26656E+06    -1.25937E+06              0.    -2.73187E+06
            7049     3.30688E+06    -1.27339E+06              0.    -2.80962E+06
            7050     3.34816E+06    -1.28759E+06              0.    -2.88974E+06
            7051     3.39044E+06    -1.30198E+06              0.    -2.97229E+06
            7052     3.43376E+06    -1.31658E+06              0.    -3.05733E+06
            7053     3.47815E+06     -1.3314E+06              0.    -3.14495E+06
            7054     3.52365E+06    -1.34645E+06              0.    -3.23520E+06
            7055     3.57031E+06    -1.36174E+06              0.    -3.32815E+06
            7056     3.61816E+06    -1.37730E+06              0.    -3.42388E+06
            7057     3.66724E+06    -1.39313E+06              0.    -3.52247E+06
            7058     3.71761E+06    -1.40925E+06              0.    -3.62398E+06
            7059     3.76930E+06    -1.42568E+06              0.    -3.72849E+06
            7060     3.82237E+06    -1.44242E+06              0.    -3.83607E+06
            7061     3.87688E+06    -1.45951E+06              0.    -3.94681E+06
            7062     3.93286E+06    -1.47696E+06              0.    -4.06078E+06
            7063     3.99039E+06    -1.49478E+06              0.    -4.17806E+06
            7064     4.04951E+06    -1.51300E+06              0.    -4.29873E+06
            7065     4.11030E+06    -1.53164E+06              0.    -4.42286E+06
            7066     4.17281E+06    -1.55071E+06              0.    -4.55054E+06
            7067     4.23712E+06    -1.57024E+06              0.    -4.68186E+06
            7068     4.30330E+06    -1.59026E+06              0.    -4.81688E+06
            7069     4.37141E+06    -1.61077E+06              0.    -4.95570E+06
            7070     4.44154E+06    -1.63182E+06              0.    -5.09838E+06
            7071     4.51376E+06    -1.65341E+06              0.    -5.24503E+06
            7072     4.58817E+06    -1.67559E+06              0.    -5.39570E+06
            7073     4.66486E+06    -1.69838E+06              0.    -5.55049E+06
            7074     4.74391E+06    -1.72180E+06              0.    -5.70948E+06
            7075     4.82543E+06    -1.74588E+06              0.    -5.87273E+06
            7076     4.90951E+06    -1.77066E+06              0.    -6.04034E+06
            7077     4.99628E+06    -1.79616E+06              0.    -6.21237E+06
            7078     5.08583E+06    -1.82242E+06              0.    -6.38890E+06
            7079     5.17829E+06    -1.84947E+06              0.    -6.57001E+06
            7080     5.27379E+06    -1.87735E+06              0.    -6.75576E+06
            7081     5.37245E+06    -1.90609E+06              0.    -6.94622E+06
            7082     5.47442E+06    -1.93573E+06              0.    -7.14145E+06
            7083     5.57983E+06    -1.96631E+06              0.    -7.34152E+06
            7084     5.68884E+06    -1.99786E+06              0.    -7.54648E+06
            7085     5.80161E+06    -2.03044E+06              0.     -7.7564E+06
            7086     5.91830E+06    -2.06407E+06              0.    -7.97131E+06
            7087     6.03910E+06    -2.09880E+06              0.    -8.19127E+06
            7088     6.16417E+06    -2.13468E+06              0.    -8.41631E+06
            7089     6.29372E+06    -2.17176E+06              0.    -8.64647E+06
            7090     6.42796E+06    -2.21007E+06              0.    -8.88177E+06
            7091     6.56708E+06    -2.24966E+06              0.    -9.12224E+06
            7092     6.71132E+06    -2.29059E+06              0.    -9.36789E+06
            7093     6.86092E+06    -2.33290E+06              0.    -9.61873E+06
            7094     7.01610E+06    -2.37664E+06              0.    -9.87474E+06
            7095     7.17715E+06    -2.42186E+06              0.    -10.1359E+06
            7096     7.34432E+06    -2.46861E+06              0.    -10.4023E+06
            7097     7.51791E+06    -2.51694E+06              0.    -10.6737E+06
            7098     7.69821E+06    -2.56690E+06              0.    -10.9502E+06
            7099     7.88553E+06    -2.61853E+06              0.    -11.2318E+06
            7100     8.08021E+06    -2.67189E+06              0.    -11.5183E+06
            7101     8.28259E+06    -2.72701E+06              0.    -11.8096E+06
            7102     8.49303E+06    -2.78394E+06              0.    -12.1058E+06
            7103     8.71191E+06    -2.84271E+06              0.    -12.4065E+06
            7104     8.93964E+06    -2.90337E+06              0.    -12.7119E+06
            7105     9.17662E+06    -2.96595E+06              0.    -13.0216E+06
            7106     9.42329E+06    -3.03046E+06              0.    -13.3356E+06
            7107     9.68011E+06    -3.09693E+06              0.    -13.6536E+06
            7108     9.94756E+06    -3.16536E+06              0.    -13.9755E+06
            7109     10.2261E+06    -3.23575E+06              0.    -14.3010E+06
            7110     10.5163E+06    -3.30809E+06              0.    -14.6300E+06
            7111     10.8187E+06    -3.38236E+06              0.    -14.9621E+06
            7112     11.1339E+06    -3.45850E+06              0.    -15.2971E+06
            7113     11.4624E+06    -3.53646E+06              0.    -15.6346E+06
            7114     11.8048E+06    -3.61615E+06              0.    -15.9745E+06
            7115     12.1619E+06    -3.69746E+06              0.    -16.3162E+06
            7116     12.5342E+06    -3.78025E+06              0.    -16.6596E+06
            7117     12.9224E+06    -3.86434E+06              0.    -17.0040E+06
            7118     13.3272E+06    -3.94953E+06              0.    -17.3493E+06
            7119     13.7494E+06    -4.03554E+06              0.    -17.6948E+06
            7120     14.1897E+06    -4.12209E+06              0.    -18.0402E+06
            7121     14.6488E+06    -4.20878E+06              0.    -18.3849E+06
            7122     15.1276E+06    -4.29520E+06              0.    -18.7285E+06
            7123     15.6268E+06    -4.38082E+06              0.    -19.0703E+06
            7124     16.1472E+06    -4.46504E+06              0.    -19.4100E+06
            7125     16.6896E+06    -4.54718E+06              0.    -19.7468E+06
            7126     17.2548E+06    -4.62642E+06              0.    -20.0801E+06
            7127     17.8436E+06    -4.70182E+06              0.    -20.4094E+06
            7128     18.4567E+06    -4.77232E+06              0.    -20.7339E+06
            7129     19.0950E+06    -4.83667E+06              0.     -21.053E+06
            7130     19.7590E+06    -4.89347E+06              0.    -21.3659E+06
            7131     20.4496E+06    -4.94109E+06              0.    -21.6720E+06
            7132     21.1672E+06    -4.97769E+06              0.    -21.9704E+06
            7133     21.9124E+06    -5.00119E+06              0.    -22.2602E+06
            7134     22.6856E+06    -5.00922E+06              0.    -22.5408E+06
            7135     23.4871E+06    -4.99909E+06              0.    -22.8111E+06
            7136     24.3171E+06    -4.96780E+06              0.    -23.0701E+06
            7137     25.1757E+06    -4.91196E+06              0.    -23.3169E+06
            7138     26.0625E+06    -4.82776E+06              0.    -23.5504E+06
            7139     26.9773E+06    -4.71097E+06              0.    -23.7692E+06
            7140     27.9194E+06    -4.55684E+06              0.    -23.9722E+06
            7141     28.8878E+06    -4.36013E+06              0.    -24.1578E+06
            7142     29.8814E+06    -4.11502E+06              0.    -24.3244E+06
            7143     30.8986E+06    -3.81510E+06              0.    -24.4702E+06
            7144     31.9374E+06    -3.45332E+06              0.    -24.5931E+06
            7145     32.9956E+06    -3.02197E+06              0.    -24.6908E+06
            7146     34.0703E+06    -2.51264E+06              0.    -24.7608E+06
            7147     35.1584E+06    -1.91619E+06              0.    -24.8001E+06
            7148     36.2561E+06    -1.22275E+06              0.    -24.8053E+06
            7149     37.3594E+06    -421.690E+03              0.    -24.7728E+06
            7150     38.4634E+06     498.375E+03              0.    -24.6984E+06
            7151     39.5631E+06     1.54961E+06              0.    -24.5773E+06
            7152     40.6526E+06     2.74492E+06              0.    -24.4046E+06
            7153     41.7259E+06     4.09799E+06              0.    -24.1745E+06
            7154     42.7763E+06     5.62322E+06              0.    -23.8808E+06
            7155     43.7964E+06     7.33574E+06              0.    -23.5168E+06
            7156     44.7789E+06     9.25142E+06              0.    -23.0755E+06
            7157     45.7155E+06     11.3868E+06              0.    -22.5493E+06
            7158     46.5979E+06     13.7593E+06              0.    -21.9303E+06
            7159     47.4172E+06     16.3868E+06              0.    -21.2104E+06
            7160     48.1640E+06     19.2882E+06              0.    -20.3813E+06
            7161     49.3753E+06     22.5931E+06              0.    -20.4526E+06
            7162     1.30788E+06     588.653E+03              0.    -532.047E+03
            7163     1.30351E+06     547.609E+03              0.    -531.090E+03
            7164     1.31692E+06     515.206E+03              0.    -525.562E+03
            7165     1.33020E+06     483.385E+03              0.    -520.545E+03
            7166     1.34336E+06     452.132E+03              0.    -516.026E+03
            7167     1.35641E+06     421.436E+03              0.    -511.991E+03
            7168     1.36935E+06     391.284E+03              0.    -508.429E+03
            7169     1.38220E+06     361.664E+03              0.    -505.327E+03
            7170     1.39497E+06     332.563E+03              0.    -502.676E+03
            7171     1.40765E+06     303.972E+03              0.    -500.466E+03
            7172     1.42026E+06     275.878E+03              0.    -498.686E+03
            7173     1.43281E+06     248.271E+03              0.    -497.329E+03
            7174     1.44530E+06     221.139E+03              0.    -496.387E+03
            7175     1.45773E+06     194.473E+03              0.    -495.854E+03
            7176     1.47012E+06     168.262E+03              0.    -495.721E+03
            7177     1.48247E+06     142.497E+03              0.    -495.983E+03
            7178     1.49479E+06     117.166E+03              0.    -496.635E+03
            7179     1.50708E+06     92.2621E+03              0.    -497.673E+03
            7180     1.51935E+06     67.7742E+03              0.    -499.091E+03
            7181     1.53161E+06     43.6937E+03              0.    -500.887E+03
            7182     1.54386E+06     20.0120E+03              0.    -503.057E+03
            7183     1.55612E+06    -3.28024E+03              0.    -505.598E+03
            7184     1.56837E+06    -26.1909E+03              0.    -508.508E+03
            7185     1.58064E+06    -48.7291E+03              0.    -511.787E+03
            7186     1.59293E+06    -70.9026E+03              0.    -515.431E+03
            7187     1.60524E+06    -92.7192E+03              0.    -519.442E+03
            7188     1.61757E+06    -114.187E+03              0.    -523.818E+03
            7189     1.62995E+06    -135.314E+03              0.    -528.561E+03
            7190     1.64236E+06    -156.108E+03              0.    -533.670E+03
            7191     1.65482E+06    -176.575E+03              0.    -539.147E+03
            7192     1.66732E+06    -196.723E+03              0.    -544.994E+03
            7193     1.67989E+06    -216.560E+03              0.    -551.212E+03
            7194     1.69252E+06    -236.091E+03              0.    -557.805E+03
            7195     1.70521E+06    -255.325E+03              0.    -564.776E+03
            7196     1.71798E+06    -274.267E+03              0.    -572.127E+03
            7197     1.73083E+06    -292.924E+03              0.    -579.863E+03
            7198     1.74376E+06    -311.303E+03              0.    -587.988E+03
            7199     1.75678E+06    -329.409E+03              0.    -596.508E+03
            7200     1.76989E+06    -347.250E+03              0.    -605.426E+03
            7201     1.78311E+06    -364.831E+03              0.    -614.750E+03
            7202     1.79643E+06    -382.158E+03              0.    -624.485E+03
            7203     1.80986E+06    -399.237E+03              0.    -634.639E+03
            7204     1.82341E+06    -416.074E+03              0.    -645.217E+03
            7205     1.83708E+06    -432.675E+03              0.    -656.228E+03
            7206     1.85088E+06    -449.044E+03              0.    -667.680E+03
            7207     1.86481E+06    -465.188E+03              0.    -679.582E+03
            7208     1.87887E+06    -481.112E+03              0.    -691.943E+03
            7209     1.89308E+06    -496.821E+03              0.    -704.772E+03
            7210     1.90744E+06    -512.321E+03              0.    -718.079E+03
            7211     1.92196E+06    -527.616E+03              0.    -731.876E+03
            7212     1.93663E+06    -542.712E+03              0.    -746.173E+03
            7213     1.95148E+06    -557.614E+03              0.    -760.982E+03
            7214     1.96649E+06    -572.326E+03              0.    -776.315E+03
            7215     1.98168E+06    -586.855E+03              0.    -792.186E+03
            7216     1.99705E+06    -601.203E+03              0.    -808.607E+03
            7217     2.01262E+06    -615.377E+03              0.    -825.594E+03
            7218     2.02838E+06    -629.381E+03              0.    -843.159E+03
            7219     2.04434E+06    -643.220E+03              0.    -861.319E+03
            7220     2.06050E+06    -656.897E+03              0.    -880.090E+03
            7221     2.07689E+06    -670.419E+03              0.    -899.488E+03
            7222     2.09349E+06    -683.790E+03              0.    -919.530E+03
            7223     2.11032E+06    -697.013E+03              0.    -940.234E+03
            7224     2.12738E+06    -710.094E+03              0.    -961.619E+03
            7225     2.14469E+06    -723.037E+03              0.    -983.704E+03
            7226     2.16224E+06    -735.847E+03              0.    -1.00651E+06
            7227     2.18004E+06    -748.528E+03              0.    -1.03005E+06
            7228     2.19811E+06    -761.084E+03              0.    -1.05436E+06
            7229     2.21645E+06    -773.520E+03              0.    -1.07945E+06
            7230     2.23506E+06    -785.841E+03              0.    -1.10535E+06
            7231     2.25396E+06    -798.051E+03              0.    -1.13208E+06
            7232     2.27315E+06    -810.154E+03              0.    -1.15967E+06
            7233     2.29264E+06    -822.155E+03              0.    -1.18813E+06
            7234     2.31244E+06    -834.058E+03              0.    -1.21751E+06
            7235     2.33256E+06    -845.868E+03              0.    -1.24782E+06
            7236     2.35301E+06    -857.590E+03              0.    -1.27909E+06
            7237     2.37379E+06    -869.228E+03              0.    -1.31136E+06
            7238     2.39492E+06    -880.787E+03              0.    -1.34464E+06
            7239     2.41640E+06    -892.271E+03              0.    -1.37899E+06
            7240     2.43825E+06    -903.686E+03              0.    -1.41441E+06
            7241     2.46047E+06    -915.036E+03              0.    -1.45096E+06
            7242     2.48308E+06    -926.326E+03              0.    -1.48866E+06
            7243     2.50608E+06    -937.560E+03              0.    -1.52754E+06
            7244     2.52950E+06    -948.746E+03              0.    -1.56765E+06
            7245     2.55333E+06    -959.886E+03              0.    -1.60902E+06
            7246     2.57760E+06    -970.987E+03              0.    -1.65169E+06
            7247     2.60231E+06    -982.054E+03              0.    -1.69570E+06
            7248     2.62748E+06    -993.093E+03              0.    -1.74109E+06
            7249     2.65312E+06    -1.00411E+06              0.    -1.78790E+06
            7250     2.67925E+06    -1.01511E+06              0.    -1.83617E+06
            7251     2.70588E+06    -1.02610E+06              0.    -1.88596E+06
            7252     2.73303E+06    -1.03708E+06              0.    -1.93729E+06
            7253     2.76070E+06    -1.04806E+06              0.    -1.99023E+06
            7254     2.78893E+06    -1.05906E+06              0.    -2.04482E+06
            7255     2.81772E+06    -1.07006E+06              0.    -2.10111E+06
            7256     2.84709E+06    -1.08109E+06              0.    -2.15915E+06
            7257     2.87707E+06    -1.09215E+06              0.    -2.21899E+06
            7258     2.90766E+06    -1.10324E+06              0.    -2.28068E+06
            7259     2.93890E+06    -1.11438E+06              0.    -2.34428E+06
            7260     2.97079E+06    -1.12557E+06              0.    -2.40985E+06
            7261     3.00337E+06    -1.13682E+06              0.    -2.47744E+06
            7262     3.03666E+06    -1.14813E+06              0.    -2.54711E+06
            7263     3.07068E+06    -1.15953E+06              0.    -2.61892E+06
            7264     3.10545E+06    -1.17101E+06              0.    -2.69293E+06
            7265     3.14100E+06    -1.18258E+06              0.    -2.76921E+06
            7266     3.17736E+06    -1.19426E+06              0.    -2.84782E+06
            7267     3.21455E+06    -1.20606E+06              0.    -2.92882E+06
            7268     3.25261E+06    -1.21798E+06              0.    -3.01229E+06
            7269     3.29156E+06    -1.23004E+06              0.    -3.09828E+06
            7270     3.33145E+06    -1.24225E+06              0.    -3.18688E+06
            7271     3.37229E+06    -1.25462E+06              0.    -3.27814E+06
            7272     3.41413E+06    -1.26717E+06              0.    -3.37215E+06
            7273     3.45700E+06    -1.27990E+06              0.    -3.46897E+06
            7274     3.50095E+06    -1.29283E+06              0.    -3.56868E+06
            7275     3.54601E+06    -1.30598E+06              0.    -3.67136E+06
            7276     3.59222E+06    -1.31936E+06              0.    -3.77709E+06
            7277     3.63963E+06    -1.33298E+06              0.    -3.88593E+06
            7278     3.68829E+06    -1.34687E+06              0.    -3.99797E+06
            7279     3.73825E+06    -1.36104E+06              0.    -4.11330E+06
            7280     3.78955E+06    -1.37550E+06              0.    -4.23198E+06
            7281     3.84225E+06    -1.39028E+06              0.    -4.35411E+06
            7282     3.89640E+06    -1.40539E+06              0.    -4.47976E+06
            7283     3.95207E+06    -1.42085E+06              0.    -4.60902E+06
            7284     4.00932E+06    -1.43670E+06              0.    -4.74197E+06
            7285     4.06821E+06    -1.45294E+06              0.    -4.87869E+06
            7286     4.12881E+06    -1.46961E+06              0.    -5.01928E+06
            7287     4.19119E+06    -1.48672E+06              0.    -5.16381E+06
            7288     4.25543E+06    -1.50430E+06              0.    -5.31237E+06
            7289     4.32161E+06    -1.52238E+06              0.    -5.46504E+06
            7290     4.38980E+06    -1.54098E+06              0.    -5.62191E+06
            7291     4.46011E+06    -1.56014E+06              0.    -5.78306E+06
            7292     4.53261E+06    -1.57989E+06              0.    -5.94857E+06
            7293     4.60742E+06    -1.60024E+06              0.    -6.11853E+06
            7294     4.68462E+06    -1.62125E+06              0.    -6.29301E+06
            7295     4.76432E+06    -1.64294E+06              0.    -6.47210E+06
            7296     4.84665E+06    -1.66535E+06              0.    -6.65587E+06
            7297     4.93170E+06    -1.68851E+06              0.     -6.8444E+06
            7298     5.01962E+06    -1.71246E+06              0.    -7.03776E+06
            7299     5.11053E+06    -1.73725E+06              0.    -7.23603E+06
            7300     5.20457E+06    -1.76291E+06              0.    -7.43927E+06
            7301     5.30188E+06    -1.78949E+06              0.    -7.64754E+06
            7302     5.40262E+06    -1.81703E+06              0.    -7.86092E+06
            7303     5.50695E+06    -1.84558E+06              0.    -8.07944E+06
            7304     5.61502E+06    -1.87518E+06              0.    -8.30318E+06
            7305     5.72703E+06    -1.90589E+06              0.    -8.53217E+06
            7306     5.84316E+06    -1.93776E+06              0.    -8.76647E+06
            7307     5.96361E+06    -1.97084E+06              0.    -9.00610E+06
            7308     6.08857E+06    -2.00517E+06              0.    -9.25109E+06
            7309     6.21827E+06    -2.04083E+06              0.    -9.50148E+06
            7310     6.35294E+06    -2.07786E+06              0.    -9.75728E+06
            7311     6.49282E+06    -2.11632E+06              0.    -10.0185E+06
            7312     6.63815E+06    -2.15628E+06              0.    -10.2851E+06
            7313     6.78922E+06    -2.19778E+06              0.    -10.5572E+06
            7314     6.94628E+06    -2.24089E+06              0.    -10.8346E+06
            7315     7.10964E+06    -2.28567E+06              0.    -11.1174E+06
            7316     7.27961E+06    -2.33218E+06              0.    -11.4055E+06
            7317     7.45650E+06    -2.38048E+06              0.    -11.6988E+06
            7318     7.64067E+06    -2.43063E+06              0.    -11.9974E+06
            7319     7.83245E+06    -2.48267E+06              0.    -12.3011E+06
            7320     8.03224E+06    -2.53668E+06              0.    -12.6098E+06
            7321     8.24041E+06    -2.59269E+06              0.    -12.9235E+06
            7322     8.45739E+06    -2.65075E+06              0.    -13.2419E+06
            7323      8.6836E+06    -2.71091E+06              0.    -13.5650E+06
            7324     8.91949E+06    -2.77320E+06              0.    -13.8926E+06
            7325     9.16553E+06    -2.83766E+06              0.    -14.2245E+06
            7326     9.42222E+06    -2.90428E+06              0.    -14.5606E+06
            7327     9.69006E+06    -2.97309E+06              0.    -14.9005E+06
            7328     9.96960E+06    -3.04409E+06              0.    -15.2442E+06
            7329     10.2614E+06    -3.11723E+06              0.    -15.5913E+06
            7330     10.5660E+06    -3.19250E+06              0.    -15.9416E+06
            7331     10.8841E+06    -3.26982E+06              0.    -16.2947E+06
            7332     11.2162E+06    -3.34911E+06              0.    -16.6504E+06
            7333     11.5630E+06    -3.43025E+06              0.    -17.0082E+06
            7334     11.9252E+06    -3.51310E+06              0.    -17.3679E+06
            7335     12.3034E+06    -3.59746E+06              0.    -17.7290E+06
            7336     12.6984E+06    -3.68312E+06              0.    -18.0911E+06
            7337     13.1110E+06    -3.76977E+06              0.    -18.4538E+06
            7338     13.5417E+06    -3.85710E+06              0.    -18.8166E+06
            7339     13.9914E+06    -3.94468E+06              0.    -19.1790E+06
            7340     14.4609E+06    -4.03203E+06              0.    -19.5404E+06
            7341     14.9509E+06    -4.11860E+06              0.    -19.9004E+06
            7342     15.4622E+06    -4.20371E+06              0.    -20.2583E+06
            7343     15.9955E+06    -4.28659E+06              0.    -20.6135E+06
            7344     16.5516E+06    -4.36634E+06              0.    -20.9653E+06
            7345     17.1312E+06    -4.44193E+06              0.    -21.3132E+06
            7346     17.7350E+06    -4.51216E+06              0.    -21.6564E+06
            7347     18.3637E+06    -4.57566E+06              0.    -21.9940E+06
            7348     19.0178E+06    -4.63087E+06              0.    -22.3254E+06
            7349     19.6980E+06    -4.67600E+06              0.    -22.6496E+06
            7350     20.4047E+06    -4.70903E+06              0.    -22.9658E+06
            7351     21.1381E+06    -4.72766E+06              0.    -23.2731E+06
            7352     21.8987E+06    -4.72930E+06              0.    -23.5703E+06
            7353     22.6864E+06    -4.71102E+06              0.    -23.8565E+06
            7354     23.5012E+06    -4.66955E+06              0.    -24.1304E+06
            7355     24.3429E+06    -4.60121E+06              0.    -24.3907E+06
            7356     25.2110E+06    -4.50192E+06              0.    -24.6360E+06
            7357     26.1048E+06    -4.36711E+06              0.    -24.8647E+06
            7358     27.0234E+06    -4.19172E+06              0.    -25.0752E+06
            7359     27.9654E+06    -3.97019E+06              0.    -25.2655E+06
            7360     28.9294E+06    -3.69635E+06              0.    -25.4334E+06
            7361     29.9132E+06    -3.36347E+06              0.    -25.5768E+06
            7362     30.9147E+06    -2.96418E+06              0.    -25.6927E+06
            7363     31.9310E+06    -2.49044E+06              0.    -25.7784E+06
            7364     32.9591E+06    -1.93356E+06              0.    -25.8304E+06
            7365     33.9952E+06    -1.28412E+06              0.    -25.8451E+06
            7366     35.0352E+06    -532.014E+03              0.    -25.8183E+06
            7367     36.0746E+06     333.601E+03              0.    -25.7455E+06
            7368     37.1084E+06     1.32431E+06              0.    -25.6216E+06
            7369     38.1308E+06     2.45241E+06              0.    -25.4411E+06
            7370     39.1359E+06     3.73096E+06              0.    -25.1979E+06
            7371     40.1170E+06     5.17375E+06              0.    -24.8856E+06
            7372     41.0672E+06     6.79528E+06              0.    -24.4970E+06
            7373     41.9788E+06     8.61085E+06              0.    -24.0248E+06
            7374     42.8439E+06     10.6364E+06              0.    -23.4611E+06
            7375     43.6539E+06     12.8889E+06              0.    -22.7976E+06
            7376     44.3998E+06     15.3858E+06              0.    -22.0261E+06
            7377     45.0719E+06     18.1456E+06              0.    -21.1378E+06
            7378     46.2137E+06     21.2885E+06              0.     -21.196E+06
            7379     1.29336E+06     582.145E+03              0.    -545.414E+03
            7380     1.28906E+06     541.771E+03              0.    -544.433E+03
            7381     1.30225E+06     509.890E+03              0.    -538.775E+03
            7382     1.31531E+06     478.576E+03              0.    -533.637E+03
            7383     1.32826E+06     447.818E+03              0.    -529.004E+03
            7384     1.34110E+06     417.604E+03              0.    -524.862E+03
            7385     1.35383E+06     387.921E+03              0.    -521.201E+03
            7386     1.36648E+06     358.760E+03              0.    -518.008E+03
            7387     1.37903E+06     330.108E+03              0.    -515.273E+03
            7388     1.39150E+06     301.955E+03              0.    -512.985E+03
            7389     1.40390E+06     274.291E+03              0.    -511.135E+03
            7390     1.41623E+06     247.105E+03              0.    -509.715E+03
            7391     1.42851E+06     220.388E+03              0.    -508.716E+03
            7392     1.44072E+06     194.129E+03              0.    -508.132E+03
            7393     1.45289E+06     168.319E+03              0.    -507.955E+03
            7394     1.46502E+06     142.948E+03              0.    -508.180E+03
            7395     1.47711E+06     118.008E+03              0.    -508.802E+03
            7396     1.48917E+06      93.489E+03              0.    -509.814E+03
            7397     1.50121E+06     69.3825E+03              0.    -511.214E+03
            7398     1.51323E+06     45.6800E+03              0.    -512.996E+03
            7399     1.52524E+06     22.3734E+03              0.    -515.159E+03
            7400     1.53724E+06        -546.271              0.    -517.699E+03
            7401     1.54924E+06    -23.0863E+03              0.    -520.614E+03
            7402     1.56125E+06    -45.2552E+03              0.    -523.902E+03
            7403     1.57326E+06    -67.0604E+03              0.    -527.563E+03
            7404     1.58529E+06    -88.5091E+03              0.    -531.595E+03
            7405     1.59734E+06    -109.609E+03              0.    -535.998E+03
            7406     1.60942E+06    -130.368E+03              0.    -540.773E+03
            7407     1.62153E+06    -150.792E+03              0.     -545.92E+03
            7408     1.63368E+06    -170.888E+03              0.    -551.440E+03
            7409     1.64586E+06    -190.664E+03              0.    -557.335E+03
            7410     1.65810E+06    -210.126E+03              0.    -563.608E+03
            7411     1.67038E+06    -229.280E+03              0.    -570.259E+03
            7412     1.68273E+06    -248.132E+03              0.    -577.294E+03
            7413     1.69513E+06    -266.690E+03              0.    -584.714E+03
            7414     1.70760E+06    -284.958E+03              0.    -592.525E+03
            7415     1.72015E+06    -302.944E+03              0.    -600.729E+03
            7416     1.73277E+06    -320.652E+03              0.    -609.333E+03
            7417     1.74547E+06    -338.089E+03              0.    -618.341E+03
            7418     1.75825E+06    -355.260E+03              0.    -627.760E+03
            7419     1.77113E+06    -372.171E+03              0.    -637.595E+03
            7420     1.78411E+06    -388.827E+03              0.    -647.852E+03
            7421     1.79718E+06    -405.234E+03              0.    -658.541E+03
            7422     1.81036E+06    -421.396E+03              0.    -669.667E+03
            7423     1.82365E+06    -437.319E+03              0.    -681.239E+03
            7424     1.83705E+06    -453.007E+03              0.    -693.265E+03
            7425     1.85058E+06    -468.466E+03              0.    -705.756E+03
            7426     1.86423E+06    -483.701E+03              0.    -718.720E+03
            7427     1.87801E+06    -498.715E+03              0.    -732.168E+03
            7428     1.89192E+06    -513.514E+03              0.    -746.110E+03
            7429     1.90597E+06    -528.103E+03              0.    -760.557E+03
            7430     1.92017E+06    -542.485E+03              0.    -775.522E+03
            7431     1.93451E+06    -556.666E+03              0.    -791.017E+03
            7432     1.94901E+06    -570.649E+03              0.    -807.054E+03
            7433     1.96367E+06    -584.439E+03              0.    -823.647E+03
            7434     1.97849E+06    -598.039E+03              0.    -840.811E+03
            7435     1.99349E+06    -611.455E+03              0.    -858.559E+03
            7436     2.00865E+06    -624.690E+03              0.    -876.908E+03
            7437     2.02400E+06    -637.748E+03              0.    -895.873E+03
            7438     2.03953E+06    -650.633E+03              0.    -915.470E+03
            7439     2.05525E+06    -663.350E+03              0.    -935.718E+03
            7440     2.07117E+06    -675.901E+03              0.    -956.634E+03
            7441     2.08728E+06    -688.291E+03              0.    -978.236E+03
            7442     2.10361E+06    -700.523E+03              0.    -1.00054E+06
            7443     2.12015E+06    -712.602E+03              0.    -1.02358E+06
            7444     2.13690E+06    -724.530E+03              0.    -1.04736E+06
            7445     2.15388E+06    -736.313E+03              0.    -1.07191E+06
            7446     2.17110E+06    -747.952E+03              0.    -1.09725E+06
            7447     2.18855E+06    -759.453E+03              0.    -1.12341E+06
            7448     2.20624E+06    -770.818E+03              0.    -1.15040E+06
            7449     2.22418E+06    -782.052E+03              0.    -1.17826E+06
            7450     2.24238E+06    -793.157E+03              0.    -1.20700E+06
            7451     2.26084E+06    -804.139E+03              0.    -1.23666E+06
            7452     2.27957E+06    -814.999E+03              0.    -1.26726E+06
            7453     2.29858E+06    -825.742E+03              0.    -1.29884E+06
            7454     2.31788E+06    -836.372E+03              0.    -1.33141E+06
            7455     2.33747E+06    -846.892E+03              0.    -1.36502E+06
            7456     2.35736E+06    -857.306E+03              0.    -1.39968E+06
            7457     2.37755E+06    -867.618E+03              0.    -1.43544E+06
            7458     2.39807E+06    -877.832E+03              0.    -1.47233E+06
            7459     2.41891E+06    -887.951E+03              0.    -1.51038E+06
            7460     2.44009E+06    -897.979E+03              0.    -1.54963E+06
            7461     2.46161E+06    -907.921E+03              0.    -1.59012E+06
            7462     2.48348E+06    -917.780E+03              0.    -1.63187E+06
            7463     2.50572E+06    -927.561E+03              0.    -1.67493E+06
            7464     2.52834E+06    -937.268E+03              0.    -1.71935E+06
            7465     2.55133E+06    -946.905E+03              0.    -1.76515E+06
            7466     2.57473E+06    -956.477E+03              0.    -1.81239E+06
            7467     2.59853E+06    -965.988E+03              0.    -1.86111E+06
            7468     2.62275E+06    -975.444E+03              0.    -1.91135E+06
            7469     2.64740E+06    -984.848E+03              0.    -1.96315E+06
            7470     2.67250E+06    -994.206E+03              0.    -2.01657E+06
            7471     2.69806E+06    -1.00352E+06              0.    -2.07166E+06
            7472     2.72409E+06    -1.01281E+06              0.    -2.12846E+06
            7473     2.75061E+06    -1.02206E+06              0.    -2.18702E+06
            7474     2.77763E+06    -1.03129E+06              0.    -2.24740E+06
            7475     2.80517E+06    -1.04050E+06              0.    -2.30966E+06
            7476     2.83324E+06    -1.04969E+06              0.    -2.37384E+06
            7477     2.86187E+06    -1.05889E+06              0.    -2.44000E+06
            7478     2.89107E+06    -1.06808E+06              0.    -2.50821E+06
            7479     2.92086E+06    -1.07728E+06              0.    -2.57851E+06
            7480     2.95127E+06    -1.08650E+06              0.    -2.65098E+06
            7481     2.98230E+06    -1.09575E+06              0.    -2.72567E+06
            7482     3.01398E+06    -1.10502E+06              0.    -2.80265E+06
            7483     3.04635E+06    -1.11434E+06              0.    -2.88199E+06
            7484     3.07941E+06    -1.12370E+06              0.    -2.96374E+06
            7485     3.11320E+06    -1.13312E+06              0.    -3.04798E+06
            7486     3.14774E+06    -1.14262E+06              0.    -3.13478E+06
            7487     3.18306E+06    -1.15219E+06              0.    -3.22421E+06
            7488     3.21919E+06    -1.16185E+06              0.    -3.31634E+06
            7489     3.25616E+06    -1.17161E+06              0.    -3.41124E+06
            7490     3.29400E+06    -1.18148E+06              0.    -3.50899E+06
            7491     3.33275E+06    -1.19148E+06              0.    -3.60966E+06
            7492     3.37243E+06    -1.20162E+06              0.    -3.71334E+06
            7493     3.41310E+06    -1.21190E+06              0.    -3.82010E+06
            7494     3.45478E+06    -1.22236E+06              0.    -3.93002E+06
            7495     3.49752E+06    -1.23300E+06              0.    -4.04318E+06
            7496     3.54137E+06    -1.24383E+06              0.    -4.15966E+06
            7497     3.58636E+06    -1.25488E+06              0.    -4.27955E+06
            7498     3.63255E+06    -1.26617E+06              0.    -4.40294E+06
            7499     3.67998E+06    -1.27770E+06              0.    -4.52989E+06
            7500     3.72871E+06    -1.28950E+06              0.    -4.66051E+06
            7501     3.77880E+06    -1.30160E+06              0.    -4.79488E+06
            7502     3.83030E+06    -1.31401E+06              0.    -4.93308E+06
            7503     3.88328E+06    -1.32676E+06              0.    -5.07520E+06
            7504     3.93780E+06    -1.33986E+06              0.    -5.22133E+06
            7505     3.99393E+06    -1.35336E+06              0.    -5.37156E+06
            7506     4.05175E+06    -1.36726E+06              0.    -5.52598E+06
            7507     4.11133E+06    -1.38160E+06              0.    -5.68467E+06
            7508     4.17275E+06    -1.39642E+06              0.    -5.84771E+06
            7509     4.23609E+06    -1.41173E+06              0.    -6.01521E+06
            7510     4.30145E+06    -1.42757E+06              0.    -6.18724E+06
            7511     4.36893E+06    -1.44399E+06              0.    -6.36389E+06
            7512     4.43861E+06    -1.46100E+06              0.    -6.54524E+06
            7513     4.51061E+06    -1.47865E+06              0.    -6.73138E+06
            7514     4.58504E+06    -1.49698E+06              0.    -6.92239E+06
            7515     4.66201E+06    -1.51602E+06              0.    -7.11834E+06
            7516     4.74165E+06    -1.53583E+06              0.    -7.31932E+06
            7517     4.82409E+06    -1.55644E+06              0.     -7.5254E+06
            7518     4.90946E+06    -1.57790E+06              0.    -7.73665E+06
            7519     4.99792E+06    -1.60026E+06              0.    -7.95314E+06
            7520     5.08961E+06    -1.62357E+06              0.    -8.17493E+06
            7521     5.18469E+06    -1.64788E+06              0.    -8.40210E+06
            7522     5.28334E+06    -1.67324E+06              0.    -8.63468E+06
            7523     5.38573E+06    -1.69972E+06              0.    -8.87274E+06
            7524     5.49205E+06    -1.72737E+06              0.    -9.11632E+06
            7525     5.60250E+06    -1.75624E+06              0.    -9.36546E+06
            7526     5.71730E+06    -1.78641E+06              0.    -9.62019E+06
            7527     5.83665E+06    -1.81794E+06              0.    -9.88055E+06
            7528     5.96080E+06    -1.85088E+06              0.    -10.1466E+06
            7529     6.08998E+06    -1.88532E+06              0.    -10.4182E+06
            7530     6.22447E+06    -1.92131E+06              0.    -10.6955E+06
            7531     6.36452E+06    -1.95892E+06              0.    -10.9785E+06
            7532     6.51042E+06    -1.99824E+06              0.    -11.2671E+06
            7533     6.66248E+06    -2.03932E+06              0.    -11.5613E+06
            7534     6.82101E+06    -2.08224E+06              0.    -11.8611E+06
            7535     6.98633E+06    -2.12707E+06              0.    -12.1665E+06
            7536     7.15881E+06    -2.17387E+06              0.    -12.4773E+06
            7537     7.33881E+06    -2.22273E+06              0.    -12.7934E+06
            7538     7.52670E+06    -2.27369E+06              0.    -13.1149E+06
            7539     7.72290E+06    -2.32684E+06              0.    -13.4416E+06
            7540     7.92782E+06    -2.38221E+06              0.    -13.7733E+06
            7541     8.14191E+06    -2.43988E+06              0.    -14.1100E+06
            7542     8.36563E+06    -2.49987E+06              0.    -14.4514E+06
            7543     8.59945E+06    -2.56224E+06              0.    -14.7975E+06
            7544     8.84389E+06    -2.62700E+06              0.    -15.1480E+06
            7545     9.09947E+06    -2.69418E+06              0.    -15.5027E+06
            7546     9.36674E+06    -2.76376E+06              0.    -15.8614E+06
            7547     9.64626E+06    -2.83574E+06              0.    -16.2238E+06
            7548     9.93862E+06    -2.91008E+06              0.    -16.5896E+06
            7549     10.2444E+06    -2.98672E+06              0.    -16.9586E+06
            7550     10.5644E+06    -3.06556E+06              0.    -17.3304E+06
            7551      10.899E+06    -3.14649E+06              0.    -17.7047E+06
            7552     11.2491E+06    -3.22934E+06              0.    -18.0810E+06
            7553     11.6152E+06    -3.31391E+06              0.    -18.4591E+06
            7554     11.9982E+06    -3.39995E+06              0.    -18.8384E+06
            7555     12.3987E+06    -3.48715E+06              0.    -19.2186E+06
            7556     12.8174E+06    -3.57514E+06              0.    -19.5991E+06
            7557     13.2551E+06    -3.66346E+06              0.    -19.9794E+06
            7558     13.7125E+06    -3.75159E+06              0.    -20.3589E+06
            7559     14.1904E+06    -3.83891E+06              0.    -20.7371E+06
            7560     14.6894E+06    -3.92467E+06              0.    -21.1134E+06
            7561     15.2103E+06    -4.00802E+06              0.    -21.4870E+06
            7562     15.7538E+06    -4.08797E+06              0.    -21.8573E+06
            7563     16.3205E+06    -4.16339E+06              0.    -22.2236E+06
            7564     16.9110E+06    -4.23295E+06              0.    -22.5849E+06
            7565     17.5259E+06    -4.29516E+06              0.    -22.9406E+06
            7566     18.1657E+06    -4.34830E+06              0.    -23.2897E+06
            7567     18.8307E+06    -4.39042E+06              0.    -23.6311E+06
            7568     19.5213E+06    -4.41932E+06              0.    -23.9639E+06
            7569     20.2376E+06    -4.43249E+06              0.    -24.2869E+06
            7570     20.9798E+06    -4.42715E+06              0.    -24.5989E+06
            7571     21.7476E+06    -4.40013E+06              0.    -24.8986E+06
            7572     22.5407E+06    -4.34793E+06              0.    -25.1844E+06
            7573     23.3588E+06    -4.26660E+06              0.    -25.4547E+06
            7574     24.2009E+06    -4.15181E+06              0.    -25.7079E+06
            7575     25.0662E+06    -3.99871E+06              0.    -25.9418E+06
            7576     25.9533E+06    -3.80198E+06              0.    -26.1544E+06
            7577     26.8607E+06    -3.55575E+06              0.    -26.3433E+06
            7578     27.7863E+06    -3.25362E+06              0.    -26.5057E+06
            7579     28.7278E+06    -2.88857E+06              0.    -26.6386E+06
            7580     29.6827E+06    -2.45297E+06              0.    -26.7388E+06
            7581     30.6477E+06    -1.93856E+06              0.    -26.8026E+06
            7582     31.6192E+06    -1.33640E+06              0.    -26.8259E+06
            7583     32.5933E+06    -636.910E+03              0.    -26.8042E+06
            7584     33.5655E+06     170.213E+03              0.    -26.7324E+06
            7585     34.5307E+06     1.09598E+06              0.    -26.6053E+06
            7586     35.4836E+06     2.15208E+06              0.    -26.4169E+06
            7587     36.4182E+06     3.35097E+06              0.    -26.1608E+06
            7588     37.3281E+06     4.70583E+06              0.    -25.8301E+06
            7589     38.2062E+06     6.23055E+06              0.    -25.4174E+06
            7590     39.0450E+06     7.93984E+06              0.    -24.9150E+06
            7591     39.8367E+06     9.84916E+06              0.    -24.3146E+06
            7592     40.5726E+06     11.9748E+06              0.    -23.6077E+06
            7593     41.2437E+06     14.3340E+06              0.    -22.7856E+06
            7594     41.8402E+06     16.9448E+06              0.    -21.8391E+06
            7595     42.9100E+06     19.9177E+06              0.    -21.8822E+06
            7596     1.27852E+06     575.495E+03              0.    -558.558E+03
            7597     1.27430E+06     535.801E+03              0.    -557.555E+03
            7598     1.28726E+06     504.450E+03              0.    -551.771E+03
            7599     1.30011E+06     473.651E+03              0.    -546.513E+03
            7600     1.31284E+06     443.395E+03              0.    -541.767E+03
            7601     1.32546E+06     413.669E+03              0.    -537.521E+03
            7602     1.33799E+06     384.464E+03              0.    -533.762E+03
            7603     1.35041E+06     355.768E+03              0.    -530.478E+03
            7604     1.36276E+06     327.571E+03              0.    -527.658E+03
            7605     1.37501E+06     299.864E+03              0.    -525.292E+03
            7606     1.38720E+06     272.636E+03              0.    -523.370E+03
            7607     1.39932E+06     245.878E+03              0.    -521.885E+03
            7608     1.41137E+06     219.582E+03              0.    -520.827E+03
            7609     1.42337E+06     193.736E+03              0.    -520.190E+03
            7610     1.43531E+06     168.333E+03              0.    -519.967E+03
            7611     1.44721E+06     143.364E+03              0.    -520.151E+03
            7612     1.45907E+06     118.819E+03              0.    -520.737E+03
            7613     1.47090E+06     94.6919E+03              0.    -521.721E+03
            7614     1.48270E+06     70.9727E+03              0.    -523.097E+03
            7615     1.49448E+06     47.6539E+03              0.    -524.861E+03
            7616     1.50624E+06     24.7279E+03              0.    -527.012E+03
            7617     1.51799E+06     2.18646E+03              0.    -529.545E+03
            7618     1.52973E+06    -19.9774E+03              0.    -532.458E+03
            7619     1.54146E+06    -41.7716E+03              0.    -535.750E+03
            7620     1.55321E+06    -63.2031E+03              0.    -539.419E+03
            7621     1.56496E+06    -84.2787E+03              0.    -543.465E+03
            7622     1.57672E+06    -105.006E+03              0.    -547.887E+03
            7623     1.58850E+06    -125.391E+03              0.    -552.686E+03
            7624     1.60030E+06    -145.440E+03              0.    -557.862E+03
            7625     1.61214E+06    -165.161E+03              0.    -563.416E+03
            7626     1.62400E+06    -184.559E+03              0.    -569.350E+03
            7627     1.63590E+06    -203.641E+03              0.    -575.665E+03
            7628     1.64784E+06    -222.412E+03              0.    -582.365E+03
            7629     1.65983E+06    -240.879E+03              0.    -589.452E+03
            7630     1.67186E+06    -259.047E+03              0.    -596.930E+03
            7631     1.68396E+06    -276.922E+03              0.    -604.803E+03
            7632     1.69611E+06    -294.509E+03              0.    -613.074E+03
            7633     1.70832E+06    -311.815E+03              0.    -621.750E+03
            7634     1.72060E+06    -328.843E+03              0.    -630.834E+03
            7635     1.73296E+06    -345.600E+03              0.    -640.332E+03
            7636     1.74539E+06    -362.090E+03              0.    -650.252E+03
            7637     1.75790E+06    -378.318E+03              0.    -660.599E+03
            7638     1.77050E+06    -394.289E+03              0.    -671.381E+03
            7639     1.78318E+06    -410.008E+03              0.    -682.605E+03
            7640     1.79596E+06    -425.480E+03              0.    -694.280E+03
            7641     1.80884E+06    -440.708E+03              0.    -706.414E+03
            7642     1.82181E+06    -455.697E+03              0.    -719.016E+03
            7643     1.83490E+06    -470.452E+03              0.    -732.096E+03
            7644     1.84809E+06    -484.977E+03              0.    -745.664E+03
            7645     1.86139E+06    -499.275E+03              0.    -759.730E+03
            7646     1.87482E+06    -513.352E+03              0.    -774.307E+03
            7647     1.88836E+06    -527.210E+03              0.    -789.405E+03
            7648     1.90204E+06    -540.853E+03              0.    -805.038E+03
            7649     1.91584E+06    -554.286E+03              0.    -821.218E+03
            7650     1.92978E+06    -567.512E+03              0.    -837.958E+03
            7651     1.94385E+06    -580.535E+03              0.    -855.273E+03
            7652     1.95807E+06    -593.358E+03              0.    -873.178E+03
            7653     1.97244E+06    -605.984E+03              0.    -891.687E+03
            7654     1.98695E+06    -618.417E+03              0.    -910.817E+03
            7655     2.00163E+06    -630.660E+03              0.    -930.585E+03
            7656     2.01646E+06    -642.717E+03              0.    -951.007E+03
            7657     2.03145E+06    -654.591E+03              0.    -972.103E+03
            7658     2.04662E+06    -666.284E+03              0.    -993.890E+03
            7659     2.06196E+06    -677.800E+03              0.    -1.01639E+06
            7660     2.07748E+06    -689.141E+03              0.    -1.03962E+06
            7661     2.09317E+06    -700.312E+03              0.    -1.06360E+06
            7662     2.10906E+06    -711.315E+03              0.    -1.08835E+06
            7663     2.12514E+06    -722.152E+03              0.    -1.11390E+06
            7664     2.14141E+06    -732.826E+03              0.    -1.14027E+06
            7665     2.15789E+06    -743.341E+03              0.    -1.16749E+06
            7666     2.17457E+06    -753.699E+03              0.    -1.19557E+06
            7667     2.19147E+06    -763.902E+03              0.    -1.22455E+06
            7668     2.20858E+06    -773.954E+03              0.    -1.25445E+06
            7669     2.22592E+06    -783.858E+03              0.    -1.28530E+06
            7670     2.24348E+06    -793.615E+03              0.    -1.31712E+06
            7671     2.26128E+06    -803.230E+03              0.    -1.34995E+06
            7672     2.27932E+06    -812.704E+03              0.    -1.38382E+06
            7673     2.29761E+06     -822.04E+03              0.    -1.41876E+06
            7674     2.31614E+06    -831.241E+03              0.    -1.45480E+06
            7675     2.33494E+06    -840.310E+03              0.    -1.49197E+06
            7676     2.35400E+06    -849.250E+03              0.    -1.53031E+06
            7677     2.37333E+06    -858.063E+03              0.    -1.56986E+06
            7678     2.39295E+06    -866.752E+03              0.    -1.61065E+06
            7679     2.41285E+06    -875.321E+03              0.    -1.65272E+06
            7680     2.43304E+06    -883.772E+03              0.    -1.69611E+06
            7681     2.45354E+06    -892.108E+03              0.    -1.74086E+06
            7682     2.47435E+06    -900.333E+03              0.    -1.78701E+06
            7683     2.49548E+06    -908.450E+03              0.    -1.83460E+06
            7684     2.51694E+06    -916.462E+03              0.    -1.88368E+06
            7685     2.53873E+06    -924.373E+03              0.    -1.93429E+06
            7686     2.56087E+06    -932.186E+03              0.    -1.98648E+06
            7687     2.58337E+06    -939.904E+03              0.    -2.04029E+06
            7688     2.60624E+06    -947.533E+03              0.    -2.09578E+06
            7689     2.62949E+06    -955.076E+03              0.    -2.15300E+06
            7690     2.65313E+06    -962.537E+03              0.    -2.21199E+06
            7691     2.67718E+06    -969.921E+03              0.    -2.27282E+06
            7692     2.70163E+06    -977.231E+03              0.    -2.33553E+06
            7693     2.72652E+06    -984.474E+03              0.    -2.40018E+06
            7694     2.75186E+06    -991.654E+03              0.    -2.46683E+06
            7695     2.77765E+06    -998.777E+03              0.    -2.53553E+06
            7696     2.80391E+06    -1.00585E+06              0.    -2.60636E+06
            7697     2.83067E+06    -1.01287E+06              0.    -2.67936E+06
            7698     2.85793E+06    -1.01986E+06              0.    -2.75461E+06
            7699     2.88572E+06    -1.02681E+06              0.    -2.83216E+06
            7700     2.91405E+06    -1.03374E+06              0.    -2.91209E+06
            7701     2.94294E+06    -1.04065E+06              0.    -2.99445E+06
            7702     2.97242E+06    -1.04755E+06              0.    -3.07933E+06
            7703     3.00251E+06    -1.05445E+06              0.    -3.16679E+06
            7704     3.03322E+06    -1.06135E+06              0.    -3.25690E+06
            7705     3.06459E+06    -1.06827E+06              0.    -3.34973E+06
            7706     3.09664E+06    -1.07522E+06              0.    -3.44537E+06
            7707     3.12940E+06    -1.08220E+06              0.    -3.54388E+06
            7708     3.16290E+06    -1.08923E+06              0.    -3.64535E+06
            7709     3.19716E+06    -1.09632E+06              0.    -3.74985E+06
            7710     3.23222E+06    -1.10349E+06              0.    -3.85746E+06
            7711     3.26811E+06    -1.11073E+06              0.    -3.96827E+06
            7712     3.30487E+06    -1.11808E+06              0.    -4.08236E+06
            7713     3.34254E+06    -1.12555E+06              0.    -4.19981E+06
            7714     3.38115E+06    -1.13314E+06              0.    -4.32070E+06
            7715     3.42075E+06    -1.14088E+06              0.    -4.44513E+06
            7716     3.46138E+06    -1.14879E+06              0.    -4.57318E+06
            7717     3.50309E+06    -1.15688E+06              0.    -4.70494E+06
            7718     3.54594E+06    -1.16517E+06              0.    -4.84050E+06
            7719     3.58996E+06    -1.17369E+06              0.    -4.97994E+06
            7720     3.63522E+06    -1.18246E+06              0.    -5.12336E+06
            7721     3.68178E+06    -1.19150E+06              0.    -5.27085E+06
            7722     3.72970E+06    -1.20084E+06              0.     -5.4225E+06
            7723     3.77904E+06    -1.21049E+06              0.    -5.57840E+06
            7724     3.82988E+06    -1.22050E+06              0.    -5.73864E+06
            7725     3.88228E+06    -1.23089E+06              0.    -5.90332E+06
            7726     3.93633E+06    -1.24169E+06              0.    -6.07252E+06
            7727     3.99211E+06    -1.25293E+06              0.    -6.24633E+06
            7728     4.04971E+06    -1.26466E+06              0.    -6.42485E+06
            7729     4.10922E+06    -1.27689E+06              0.    -6.60817E+06
            7730     4.17073E+06    -1.28969E+06              0.    -6.79636E+06
            7731     4.23435E+06    -1.30307E+06              0.    -6.98953E+06
            7732     4.30019E+06    -1.31709E+06              0.    -7.18775E+06
            7733     4.36836E+06    -1.33180E+06              0.    -7.39111E+06
            7734     4.43899E+06    -1.34723E+06              0.    -7.59969E+06
            7735     4.51221E+06    -1.36343E+06              0.    -7.81357E+06
            7736     4.58815E+06    -1.38047E+06              0.    -8.03282E+06
            7737     4.66695E+06    -1.39839E+06              0.    -8.25752E+06
            7738     4.74878E+06    -1.41725E+06              0.    -8.48774E+06
            7739     4.83379E+06    -1.43710E+06              0.    -8.72353E+06
            7740     4.92214E+06    -1.45801E+06              0.    -8.96497E+06
            7741     5.01403E+06    -1.48004E+06              0.     -9.2121E+06
            7742     5.10965E+06    -1.50326E+06              0.    -9.46498E+06
            7743     5.20918E+06    -1.52773E+06              0.    -9.72365E+06
            7744     5.31285E+06    -1.55353E+06              0.    -9.98816E+06
            7745     5.42088E+06    -1.58073E+06              0.    -10.2585E+06
            7746     5.53350E+06    -1.60940E+06              0.    -10.5348E+06
            7747     5.65097E+06    -1.63963E+06              0.    -10.8169E+06
            7748     5.77354E+06    -1.67148E+06              0.    -11.1050E+06
            7749     5.90149E+06    -1.70504E+06              0.    -11.3990E+06
            7750     6.03511E+06    -1.74039E+06              0.    -11.6989E+06
            7751     6.17472E+06    -1.77762E+06              0.    -12.0046E+06
            7752     6.32062E+06    -1.81680E+06              0.    -12.3162E+06
            7753     6.47317E+06    -1.85801E+06              0.    -12.6336E+06
            7754     6.63271E+06    -1.90135E+06              0.    -12.9567E+06
            7755     6.79963E+06    -1.94689E+06              0.    -13.2855E+06
            7756     6.97430E+06    -1.99470E+06              0.    -13.6199E+06
            7757     7.15715E+06    -2.04487E+06              0.    -13.9597E+06
            7758     7.34860E+06    -2.09746E+06              0.    -14.3049E+06
            7759     7.54911E+06    -2.15253E+06              0.    -14.6554E+06
            7760     7.75914E+06    -2.21015E+06              0.    -15.0109E+06
            7761     7.97918E+06    -2.27035E+06              0.    -15.3713E+06
            7762     8.20976E+06    -2.33318E+06              0.    -15.7364E+06
            7763     8.45139E+06    -2.39866E+06              0.    -16.1060E+06
            7764     8.70464E+06    -2.46678E+06              0.    -16.4799E+06
            7765     8.97008E+06    -2.53754E+06              0.    -16.8579E+06
            7766     9.24830E+06    -2.61090E+06              0.    -17.2395E+06
            7767     9.53992E+06    -2.68680E+06              0.    -17.6246E+06
            7768     9.84557E+06    -2.76514E+06              0.    -18.0128E+06
            7769     10.1659E+06    -2.84580E+06              0.    -18.4037E+06
            7770     10.5016E+06    -2.92859E+06              0.    -18.7970E+06
            7771     10.8533E+06    -3.01330E+06              0.    -19.1923E+06
            7772     11.2217E+06    -3.09965E+06              0.    -19.5891E+06
            7773     11.6075E+06    -3.18730E+06              0.    -19.9868E+06
            7774     12.0115E+06    -3.27585E+06              0.    -20.3851E+06
            7775     12.4343E+06    -3.36480E+06              0.    -20.7834E+06
            7776     12.8766E+06    -3.45358E+06              0.    -21.1810E+06
            7777     13.3391E+06    -3.54148E+06              0.    -21.5774E+06
            7778     13.8225E+06    -3.62772E+06              0.    -21.9719E+06
            7779     14.3274E+06    -3.71135E+06              0.    -22.3636E+06
            7780     14.8544E+06    -3.79129E+06              0.    -22.7520E+06
            7781     15.4041E+06    -3.86630E+06              0.    -23.1360E+06
            7782     15.9770E+06    -3.93495E+06              0.    -23.5149E+06
            7783     16.5736E+06    -3.99561E+06              0.    -23.8876E+06
            7784     17.1941E+06    -4.04642E+06              0.    -24.2530E+06
            7785     17.8388E+06    -4.08527E+06              0.    -24.6101E+06
            7786     18.5080E+06    -4.10980E+06              0.    -24.9576E+06
            7787     19.2014E+06    -4.11734E+06              0.    -25.2942E+06
            7788     19.9191E+06    -4.10487E+06              0.    -25.6182E+06
            7789     20.6606E+06    -4.06906E+06              0.    -25.9282E+06
            7790     21.4254E+06    -4.00618E+06              0.    -26.2222E+06
            7791     22.2127E+06    -3.91207E+06              0.    -26.4984E+06
            7792     23.0215E+06    -3.78217E+06              0.    -26.7545E+06
            7793     23.8506E+06    -3.61142E+06              0.    -26.9880E+06
            7794     24.6982E+06    -3.39426E+06              0.    -27.1964E+06
            7795     25.5626E+06    -3.12462E+06              0.    -27.3767E+06
            7796     26.4413E+06    -2.79587E+06              0.    -27.5255E+06
            7797     27.3317E+06    -2.40079E+06              0.    -27.6392E+06
            7798     28.2308E+06    -1.93158E+06              0.    -27.7137E+06
            7799     29.1351E+06    -1.37978E+06              0.    -27.7448E+06
            7800     30.0407E+06    -736.328E+03              0.    -27.7275E+06
            7801     30.9432E+06     8.52554E+03              0.    -27.6565E+06
            7802     31.8377E+06     865.210E+03              0.    -27.5259E+06
            7803     32.7188E+06     1.84483E+06              0.    -27.3296E+06
            7804     33.5809E+06     2.95924E+06              0.    -27.0608E+06
            7805     34.4174E+06     4.22098E+06              0.    -26.7121E+06
            7806     35.2215E+06     5.64338E+06              0.    -26.2760E+06
            7807     35.9859E+06     7.24054E+06              0.    -25.7441E+06
            7808     36.7025E+06     9.02738E+06              0.    -25.1080E+06
            7809     37.3628E+06     11.0197E+06              0.    -24.3588E+06
            7810     37.9579E+06     13.2343E+06              0.    -23.4872E+06
            7811     38.4780E+06     15.6888E+06              0.    -22.4839E+06
            7812     39.4734E+06     18.4839E+06              0.    -22.5107E+06
            7813     1.26338E+06     568.707E+03              0.    -571.478E+03
            7814     1.25923E+06     529.701E+03              0.    -570.453E+03
            7815     1.27197E+06     498.888E+03              0.    -564.544E+03
            7816     1.28459E+06     468.612E+03              0.    -559.169E+03
            7817     1.29710E+06     438.864E+03              0.    -554.314E+03
            7818     1.30951E+06     409.634E+03              0.    -549.964E+03
            7819     1.32182E+06     380.912E+03              0.    -546.107E+03
            7820     1.33403E+06     352.688E+03              0.    -542.732E+03
            7821     1.34615E+06     324.953E+03              0.    -539.827E+03
            7822     1.35820E+06     297.697E+03              0.    -537.383E+03
            7823     1.37016E+06     270.913E+03              0.    -535.389E+03
            7824     1.38206E+06     244.589E+03              0.    -533.837E+03
            7825     1.39389E+06     218.719E+03              0.    -532.718E+03
            7826     1.40567E+06     193.292E+03              0.    -532.026E+03
            7827     1.41739E+06     168.302E+03              0.    -531.753E+03
            7828     1.42906E+06     143.740E+03              0.    -531.893E+03
            7829     1.44069E+06     119.597E+03              0.    -532.440E+03
            7830     1.45228E+06     95.8662E+03              0.    -533.390E+03
            7831     1.46384E+06     72.5397E+03              0.    -534.738E+03
            7832     1.47537E+06     49.6099E+03              0.    -536.480E+03
            7833     1.48688E+06     27.0699E+03              0.    -538.612E+03
            7834     1.49837E+06     4.91180E+03              0.    -541.132E+03
            7835     1.50985E+06    -16.8708E+03              0.    -544.037E+03
            7836     1.52132E+06    -38.2852E+03              0.    -547.326E+03
            7837     1.53278E+06    -59.3381E+03              0.    -550.997E+03
            7838     1.54425E+06    -80.0356E+03              0.    -555.049E+03
            7839     1.55572E+06    -100.385E+03              0.    -559.482E+03
            7840     1.56720E+06    -120.391E+03              0.    -564.296E+03
            7841     1.57869E+06    -140.062E+03              0.    -569.492E+03
            7842     1.59021E+06    -159.402E+03              0.    -575.071E+03
            7843     1.60174E+06    -178.418E+03              0.    -581.033E+03
            7844     1.61331E+06    -197.115E+03              0.    -587.382E+03
            7845     1.62490E+06    -215.500E+03              0.    -594.119E+03
            7846     1.63653E+06    -233.576E+03              0.    -601.248E+03
            7847     1.64819E+06    -251.350E+03              0.    -608.772E+03
            7848     1.65990E+06    -268.827E+03              0.    -616.695E+03
            7849     1.67166E+06    -286.013E+03              0.    -625.020E+03
            7850     1.68347E+06    -302.910E+03              0.    -633.753E+03
            7851     1.69533E+06    -319.526E+03              0.    -642.900E+03
            7852     1.70725E+06    -335.864E+03              0.    -652.464E+03
            7853     1.71923E+06    -351.929E+03              0.    -662.454E+03
            7854     1.73127E+06    -367.725E+03              0.    -672.875E+03
            7855     1.74339E+06    -383.257E+03              0.    -683.734E+03
            7856     1.75557E+06    -398.529E+03              0.    -695.040E+03
            7857     1.76784E+06    -413.545E+03              0.      -706.8E+03
            7858     1.78018E+06    -428.309E+03              0.    -719.023E+03
            7859     1.79261E+06    -442.824E+03              0.    -731.718E+03
            7860     1.80512E+06    -457.096E+03              0.    -744.894E+03
            7861     1.81772E+06    -471.127E+03              0.    -758.562E+03
            7862     1.83041E+06    -484.920E+03              0.    -772.732E+03
            7863     1.84321E+06    -498.480E+03              0.    -787.416E+03
            7864     1.85610E+06     -511.81E+03              0.    -802.626E+03
            7865     1.86909E+06    -524.913E+03              0.    -818.373E+03
            7866     1.88219E+06    -537.792E+03              0.    -834.671E+03
            7867     1.89540E+06    -550.450E+03              0.    -851.534E+03
            7868     1.90873E+06     -562.89E+03              0.    -868.974E+03
            7869     1.92217E+06    -575.115E+03              0.    -887.008E+03
            7870     1.93573E+06    -587.129E+03              0.    -905.651E+03
            7871     1.94941E+06    -598.933E+03              0.    -924.917E+03
            7872     1.96322E+06     -610.53E+03              0.    -944.826E+03
            7873     1.97716E+06    -621.923E+03              0.    -965.392E+03
            7874     1.99123E+06    -633.115E+03              0.    -986.635E+03
            7875     2.00544E+06    -644.107E+03              0.    -1.00857E+06
            7876     2.01979E+06    -654.902E+03              0.    -1.03123E+06
            7877     2.03427E+06    -665.503E+03              0.    -1.05461E+06
            7878     2.04891E+06    -675.911E+03              0.    -1.07876E+06
            7879     2.06370E+06    -686.129E+03              0.    -1.10368E+06
            7880     2.07863E+06    -696.158E+03              0.    -1.12940E+06
            7881     2.09373E+06    -706.002E+03              0.    -1.15595E+06
            7882     2.10898E+06    -715.661E+03              0.    -1.18334E+06
            7883     2.12440E+06    -725.138E+03              0.    -1.21161E+06
            7884     2.13999E+06    -734.435E+03              0.    -1.24077E+06
            7885     2.15574E+06    -743.553E+03              0.    -1.27086E+06
            7886     2.17167E+06    -752.494E+03              0.    -1.30191E+06
            7887     2.18778E+06    -761.261E+03              0.    -1.33393E+06
            7888     2.20408E+06    -769.854E+03              0.    -1.36697E+06
            7889     2.22056E+06    -778.276E+03              0.    -1.40105E+06
            7890     2.23723E+06    -786.528E+03              0.    -1.43620E+06
            7891     2.25409E+06    -794.613E+03              0.    -1.47246E+06
            7892     2.27116E+06    -802.531E+03              0.    -1.50986E+06
            7893     2.28843E+06    -810.284E+03              0.    -1.54843E+06
            7894     2.30591E+06    -817.875E+03              0.    -1.58822E+06
            7895     2.32361E+06    -825.306E+03              0.    -1.62925E+06
            7896     2.34152E+06    -832.577E+03              0.    -1.67157E+06
            7897     2.35966E+06    -839.690E+03              0.    -1.71521E+06
            7898     2.37803E+06    -846.648E+03              0.    -1.76022E+06
            7899     2.39664E+06    -853.453E+03              0.    -1.80663E+06
            7900     2.41549E+06    -860.107E+03              0.    -1.85450E+06
            7901     2.43459E+06    -866.611E+03              0.    -1.90386E+06
            7902     2.45394E+06    -872.968E+03              0.    -1.95476E+06
            7903     2.47356E+06     -879.18E+03              0.    -2.00724E+06
            7904     2.49345E+06    -885.250E+03              0.    -2.06136E+06
            7905     2.51361E+06    -891.180E+03              0.    -2.11717E+06
            7906     2.53406E+06    -896.973E+03              0.    -2.17471E+06
            7907     2.55480E+06    -902.631E+03              0.    -2.23403E+06
            7908     2.57585E+06    -908.159E+03              0.    -2.29520E+06
            7909     2.59721E+06    -913.558E+03              0.    -2.35826E+06
            7910     2.61889E+06    -918.833E+03              0.    -2.42328E+06
            7911     2.64091E+06    -923.987E+03              0.    -2.49030E+06
            7912     2.66327E+06    -929.024E+03              0.    -2.55939E+06
            7913     2.68598E+06    -933.948E+03              0.    -2.63062E+06
            7914     2.70906E+06    -938.764E+03              0.    -2.70403E+06
            7915     2.73253E+06    -943.476E+03              0.    -2.77971E+06
            7916     2.75639E+06    -948.090E+03              0.    -2.85770E+06
            7917     2.78066E+06    -952.612E+03              0.    -2.93809E+06
            7918     2.80536E+06    -957.047E+03              0.    -3.02093E+06
            7919     2.83049E+06    -961.402E+03              0.    -3.10630E+06
            7920     2.85609E+06    -965.683E+03              0.    -3.19426E+06
            7921     2.88217E+06    -969.898E+03              0.    -3.28490E+06
            7922     2.90874E+06    -974.056E+03              0.    -3.37829E+06
            7923     2.93583E+06    -978.163E+03              0.    -3.47449E+06
            7924     2.96347E+06    -982.230E+03              0.    -3.57360E+06
            7925     2.99167E+06    -986.266E+03              0.    -3.67569E+06
            7926     3.02046E+06    -990.282E+03              0.    -3.78083E+06
            7927     3.04986E+06    -994.289E+03              0.    -3.88912E+06
            7928     3.07991E+06    -998.299E+03              0.    -4.00063E+06
            7929     3.11064E+06    -1.00233E+06              0.    -4.11545E+06
            7930     3.14207E+06    -1.00638E+06              0.    -4.23366E+06
            7931     3.17424E+06    -1.01048E+06              0.    -4.35536E+06
            7932     3.20719E+06    -1.01464E+06              0.    -4.48062E+06
            7933     3.24096E+06    -1.01888E+06              0.    -4.60955E+06
            7934     3.27558E+06    -1.02321E+06              0.    -4.74223E+06
            7935     3.31110E+06    -1.02765E+06              0.    -4.87874E+06
            7936     3.34757E+06    -1.03223E+06              0.    -5.01919E+06
            7937     3.38503E+06    -1.03696E+06              0.    -5.16367E+06
            7938     3.42353E+06    -1.04188E+06              0.    -5.31226E+06
            7939     3.46314E+06    -1.04700E+06              0.    -5.46507E+06
            7940     3.50391E+06    -1.05234E+06              0.    -5.62219E+06
            7941     3.54590E+06    -1.05795E+06              0.    -5.78371E+06
            7942     3.58918E+06    -1.06384E+06              0.    -5.94974E+06
            7943     3.63382E+06    -1.07005E+06              0.    -6.12035E+06
            7944     3.67990E+06    -1.07661E+06              0.    -6.29566E+06
            7945     3.72749E+06    -1.08356E+06              0.    -6.47575E+06
            7946     3.77667E+06    -1.09094E+06              0.    -6.66072E+06
            7947     3.82754E+06    -1.09877E+06              0.    -6.85066E+06
            7948     3.88020E+06    -1.10712E+06              0.    -7.04566E+06
            7949     3.93474E+06    -1.11601E+06              0.    -7.24581E+06
            7950     3.99127E+06    -1.12550E+06              0.    -7.45121E+06
            7951     4.04990E+06    -1.13563E+06              0.    -7.66194E+06
            7952     4.11076E+06    -1.14646E+06              0.    -7.87809E+06
            7953     4.17397E+06    -1.15804E+06              0.    -8.09974E+06
            7954     4.23967E+06    -1.17042E+06              0.    -8.32696E+06
            7955     4.30800E+06    -1.18368E+06              0.    -8.55984E+06
            7956     4.37911E+06    -1.19786E+06              0.    -8.79845E+06
            7957     4.45316E+06    -1.21303E+06              0.    -9.04286E+06
            7958     4.53033E+06    -1.22927E+06              0.    -9.29314E+06
            7959      4.6108E+06    -1.24665E+06              0.    -9.54934E+06
            7960     4.69475E+06    -1.26523E+06              0.    -9.81151E+06
            7961     4.78239E+06    -1.28509E+06              0.    -10.0797E+06
            7962     4.87394E+06    -1.30632E+06              0.     -10.354E+06
            7963     4.96960E+06    -1.32900E+06              0.    -10.6344E+06
            7964     5.06964E+06    -1.35320E+06              0.    -10.9209E+06
            7965     5.17429E+06    -1.37903E+06              0.    -11.2136E+06
            7966     5.28383E+06    -1.40656E+06              0.    -11.5124E+06
            7967     5.39853E+06    -1.43589E+06              0.    -11.8175E+06
            7968     5.51869E+06    -1.46711E+06              0.    -12.1286E+06
            7969     5.64461E+06    -1.50032E+06              0.    -12.4460E+06
            7970     5.77664E+06    -1.53561E+06              0.    -12.7694E+06
            7971     5.91510E+06    -1.57308E+06              0.    -13.0990E+06
            7972     6.06037E+06    -1.61281E+06              0.    -13.4345E+06
            7973     6.21282E+06    -1.65491E+06              0.    -13.7760E+06
            7974     6.37284E+06    -1.69945E+06              0.    -14.1234E+06
            7975     6.54087E+06    -1.74653E+06              0.    -14.4765E+06
            7976     6.71732E+06    -1.79623E+06              0.    -14.8353E+06
            7977     6.90266E+06    -1.84862E+06              0.    -15.1997E+06
            7978     7.09737E+06    -1.90377E+06              0.    -15.5694E+06
            7979     7.30194E+06    -1.96173E+06              0.    -15.9443E+06
            7980     7.51689E+06    -2.02255E+06              0.    -16.3242E+06
            7981     7.74275E+06    -2.08625E+06              0.    -16.7090E+06
            7982     7.98008E+06    -2.15285E+06              0.    -17.0983E+06
            7983     8.22946E+06    -2.22234E+06              0.    -17.4919E+06
            7984     8.49147E+06    -2.29467E+06              0.    -17.8895E+06
            7985     8.76673E+06    -2.36978E+06              0.    -18.2908E+06
            7986     9.05587E+06    -2.44757E+06              0.    -18.6956E+06
            7987     9.35953E+06    -2.52791E+06              0.    -19.1033E+06
            7988     9.67835E+06    -2.61059E+06              0.    -19.5136E+06
            7989     10.0130E+06    -2.69539E+06              0.    -19.9262E+06
            7990     10.3642E+06    -2.78200E+06              0.    -20.3404E+06
            7991     10.7325E+06    -2.87005E+06              0.    -20.7558E+06
            7992     11.1187E+06    -2.95911E+06              0.    -21.1718E+06
            7993     11.5234E+06    -3.04863E+06              0.    -21.5879E+06
            7994     11.9472E+06    -3.13798E+06              0.    -22.0034E+06
            7995     12.3908E+06    -3.22641E+06              0.    -22.4176E+06
            7996     12.8548E+06    -3.31306E+06              0.    -22.8297E+06
            7997     13.3398E+06    -3.39690E+06              0.    -23.2390E+06
            7998     13.8462E+06    -3.47678E+06              0.    -23.6445E+06
            7999     14.3746E+06    -3.55134E+06              0.    -24.0454E+06
            8000     14.9253E+06    -3.61906E+06              0.    -24.4405E+06
            8001     15.4986E+06    -3.67817E+06              0.    -24.8287E+06
            8002     16.0947E+06    -3.72671E+06              0.    -25.2088E+06
            8003     16.7138E+06    -3.76241E+06              0.    -25.5795E+06
            8004     17.3557E+06    -3.78278E+06              0.    -25.9392E+06
            8005     18.0203E+06    -3.78496E+06              0.    -26.2862E+06
            8006     18.7072E+06    -3.76582E+06              0.    -26.6189E+06
            8007     19.4158E+06    -3.72182E+06              0.    -26.9353E+06
            8008     20.1454E+06    -3.64905E+06              0.    -27.2331E+06
            8009     20.8949E+06    -3.54322E+06              0.    -27.5099E+06
            8010     21.6629E+06    -3.39955E+06              0.    -27.7631E+06
            8011     22.4480E+06    -3.21281E+06              0.    -27.9898E+06
            8012     23.2483E+06    -2.97730E+06              0.    -28.1867E+06
            8013     24.0614E+06    -2.68677E+06              0.    -28.3502E+06
            8014     24.8848E+06    -2.33444E+06              0.    -28.4764E+06
            8015     25.7155E+06    -1.91296E+06              0.    -28.5610E+06
            8016     26.5501E+06    -1.41438E+06              0.    -28.5992E+06
            8017     27.3847E+06    -830.143E+03              0.    -28.5857E+06
            8018     28.2152E+06    -151.074E+03              0.    -28.5150E+06
            8019     29.0368E+06     632.682E+03              0.    -28.3809E+06
            8020     29.8442E+06     1.53164E+06              0.    -28.1768E+06
            8021     30.6317E+06     2.55703E+06              0.    -27.8955E+06
            8022     31.3932E+06     3.72080E+06              0.    -27.5294E+06
            8023     32.1217E+06     5.03566E+06              0.    -27.0705E+06
            8024     32.8100E+06     6.51514E+06              0.    -26.5101E+06
            8025     33.4502E+06     8.17358E+06              0.    -25.8394E+06
            8026     34.0337E+06     10.0263E+06              0.    -25.0489E+06
            8027     34.5512E+06     12.0894E+06              0.    -24.1292E+06
            8028     34.9926E+06     14.3802E+06              0.    -23.0703E+06
            8029     35.9091E+06     16.9882E+06              0.    -23.0791E+06
            8030     1.24794E+06     561.785E+03              0.    -584.170E+03
            8031     1.24386E+06     523.477E+03              0.    -583.123E+03
            8032     1.25638E+06     493.207E+03              0.    -577.093E+03
            8033     1.26878E+06      463.46E+03              0.    -571.604E+03
            8034     1.28106E+06     434.227E+03              0.    -566.640E+03
            8035     1.29325E+06     405.499E+03              0.    -562.188E+03
            8036     1.30534E+06     377.266E+03              0.    -558.235E+03
            8037     1.31733E+06     349.521E+03              0.    -554.769E+03
            8038     1.32924E+06     322.253E+03              0.    -551.779E+03
            8039     1.34106E+06     295.455E+03              0.    -549.255E+03
            8040     1.35281E+06     269.119E+03              0.    -547.188E+03
            8041     1.36448E+06     243.235E+03              0.    -545.567E+03
            8042     1.37609E+06     217.796E+03              0.    -544.386E+03
            8043     1.38764E+06     192.795E+03              0.    -543.635E+03
            8044     1.39913E+06     168.223E+03              0.    -543.310E+03
            8045     1.41058E+06     144.072E+03              0.    -543.402E+03
            8046     1.42197E+06     120.336E+03              0.    -543.907E+03
            8047     1.43332E+06     97.0077E+03              0.    -544.820E+03
            8048     1.44464E+06     74.0788E+03              0.    -546.135E+03
            8049     1.45592E+06     51.5430E+03              0.    -547.848E+03
            8050     1.46717E+06     29.3937E+03              0.    -549.957E+03
            8051     1.47841E+06     7.62370E+03              0.    -552.458E+03
            8052     1.48962E+06    -13.7729E+03              0.    -555.349E+03
            8053     1.50082E+06    -34.8031E+03              0.    -558.628E+03
            8054     1.51200E+06    -55.4728E+03              0.    -562.293E+03
            8055     1.52318E+06    -75.7878E+03              0.    -566.344E+03
            8056     1.53436E+06    -95.7547E+03              0.    -570.780E+03
            8057     1.54554E+06    -115.379E+03              0.    -575.601E+03
            8058     1.55672E+06    -134.666E+03              0.    -580.808E+03
            8059     1.56791E+06    -153.621E+03              0.    -586.402E+03
            8060     1.57912E+06    -172.251E+03              0.    -592.384E+03
            8061     1.59034E+06    -190.560E+03              0.    -598.755E+03
            8062     1.60158E+06    -208.553E+03              0.    -605.519E+03
            8063     1.61285E+06    -226.235E+03              0.    -612.679E+03
            8064     1.62414E+06    -243.612E+03              0.    -620.236E+03
            8065     1.63547E+06    -260.687E+03              0.    -628.197E+03
            8066     1.64683E+06    -277.466E+03              0.    -636.564E+03
            8067     1.65822E+06    -293.953E+03              0.    -645.342E+03
            8068     1.66966E+06    -310.152E+03              0.    -654.536E+03
            8069     1.68114E+06    -326.067E+03              0.    -664.152E+03
            8070     1.69267E+06    -341.704E+03              0.    -674.197E+03
            8071     1.70424E+06    -357.064E+03              0.    -684.676E+03
            8072     1.71587E+06    -372.153E+03              0.    -695.597E+03
            8073     1.72756E+06    -386.975E+03              0.    -706.968E+03
            8074     1.73931E+06    -401.532E+03              0.    -718.795E+03
            8075     1.75111E+06    -415.828E+03              0.    -731.089E+03
            8076     1.76298E+06    -429.867E+03              0.    -743.858E+03
            8077     1.77492E+06    -443.651E+03              0.    -757.111E+03
            8078     1.78693E+06    -457.185E+03              0.    -770.859E+03
            8079     1.79901E+06    -470.470E+03              0.    -785.112E+03
            8080     1.81117E+06    -483.511E+03              0.    -799.882E+03
            8081     1.82340E+06    -496.309E+03              0.    -815.180E+03
            8082     1.83572E+06    -508.867E+03              0.    -831.019E+03
            8083     1.84811E+06    -521.189E+03              0.    -847.411E+03
            8084     1.86059E+06    -533.276E+03              0.    -864.371E+03
            8085     1.87316E+06    -545.131E+03              0.    -881.911E+03
            8086     1.88582E+06    -556.756E+03              0.    -900.047E+03
            8087     1.89857E+06    -568.153E+03              0.    -918.795E+03
            8088     1.91142E+06    -579.325E+03              0.    -938.169E+03
            8089     1.92436E+06    -590.273E+03              0.    -958.188E+03
            8090     1.93740E+06    -600.999E+03              0.    -978.867E+03
            8091     1.95054E+06    -611.506E+03              0.    -1.00023E+06
            8092     1.96379E+06    -621.794E+03              0.    -1.02228E+06
            8093     1.97714E+06    -631.865E+03              0.    -1.04506E+06
            8094     1.99060E+06    -641.721E+03              0.    -1.06857E+06
            8095     2.00416E+06    -651.364E+03              0.    -1.09284E+06
            8096     2.01784E+06    -660.794E+03              0.    -1.11789E+06
            8097     2.03164E+06    -670.013E+03              0.    -1.14374E+06
            8098     2.04555E+06    -679.022E+03              0.    -1.17042E+06
            8099     2.05957E+06    -687.822E+03              0.    -1.19795E+06
            8100     2.07372E+06    -696.415E+03              0.    -1.22636E+06
            8101     2.08799E+06    -704.801E+03              0.    -1.25566E+06
            8102     2.10239E+06    -712.982E+03              0.    -1.28590E+06
            8103     2.11691E+06    -720.957E+03              0.    -1.31709E+06
            8104     2.13156E+06    -728.729E+03              0.    -1.34927E+06
            8105     2.14634E+06    -736.298E+03              0.    -1.38246E+06
            8106     2.16125E+06    -743.664E+03              0.    -1.41669E+06
            8107     2.17630E+06    -750.828E+03              0.    -1.45200E+06
            8108     2.19149E+06    -757.791E+03              0.    -1.48842E+06
            8109     2.20683E+06    -764.554E+03              0.    -1.52599E+06
            8110     2.22230E+06    -771.118E+03              0.    -1.56473E+06
            8111     2.23792E+06    -777.482E+03              0.    -1.60469E+06
            8112     2.25369E+06    -783.648E+03              0.    -1.64590E+06
            8113     2.26961E+06    -789.616E+03              0.    -1.68839E+06
            8114     2.28569E+06    -795.388E+03              0.    -1.73222E+06
            8115     2.30192E+06    -800.962E+03              0.    -1.77742E+06
            8116     2.31832E+06    -806.341E+03              0.    -1.82402E+06
            8117     2.33488E+06    -811.526E+03              0.    -1.87208E+06
            8118     2.35161E+06    -816.516E+03              0.    -1.92164E+06
            8119     2.36851E+06    -821.313E+03              0.    -1.97275E+06
            8120     2.38559E+06    -825.918E+03              0.    -2.02544E+06
            8121     2.40285E+06    -830.332E+03              0.    -2.07978E+06
            8122     2.42030E+06    -834.556E+03              0.    -2.13581E+06
            8123     2.43794E+06    -838.591E+03              0.    -2.19357E+06
            8124     2.45577E+06    -842.440E+03              0.    -2.25313E+06
            8125     2.47381E+06    -846.102E+03              0.    -2.31454E+06
            8126     2.49205E+06    -849.581E+03              0.    -2.37785E+06
            8127     2.51051E+06    -852.878E+03              0.    -2.44312E+06
            8128     2.52920E+06    -855.996E+03              0.    -2.51040E+06
            8129     2.54811E+06    -858.937E+03              0.    -2.57977E+06
            8130     2.56725E+06    -861.703E+03              0.    -2.65127E+06
            8131     2.58665E+06    -864.298E+03              0.    -2.72498E+06
            8132     2.60630E+06    -866.724E+03              0.    -2.80095E+06
            8133     2.62621E+06    -868.987E+03              0.    -2.87925E+06
            8134     2.64640E+06    -871.088E+03              0.    -2.95996E+06
            8135     2.66687E+06    -873.034E+03              0.    -3.04313E+06
            8136     2.68764E+06    -874.829E+03              0.    -3.12885E+06
            8137     2.70873E+06    -876.478E+03              0.    -3.21718E+06
            8138     2.73013E+06    -877.987E+03              0.    -3.30819E+06
            8139     2.75188E+06    -879.362E+03              0.    -3.40197E+06
            8140     2.77399E+06    -880.611E+03              0.    -3.49858E+06
            8141     2.79647E+06    -881.740E+03              0.    -3.59811E+06
            8142     2.81933E+06    -882.759E+03              0.    -3.70065E+06
            8143     2.84261E+06    -883.676E+03              0.    -3.80626E+06
            8144     2.86633E+06    -884.502E+03              0.    -3.91503E+06
            8145     2.89050E+06    -885.245E+03              0.    -4.02705E+06
            8146     2.91514E+06    -885.919E+03              0.    -4.14241E+06
            8147     2.94029E+06    -886.536E+03              0.    -4.26118E+06
            8148     2.96598E+06    -887.108E+03              0.    -4.38347E+06
            8149     2.99223E+06    -887.651E+03              0.    -4.50936E+06
            8150     3.01907E+06    -888.180E+03              0.    -4.63894E+06
            8151     3.04654E+06    -888.712E+03              0.    -4.77230E+06
            8152     3.07468E+06    -889.265E+03              0.    -4.90954E+06
            8153     3.10352E+06    -889.859E+03              0.    -5.05075E+06
            8154     3.13311E+06    -890.514E+03              0.    -5.19603E+06
            8155     3.16349E+06    -891.253E+03              0.    -5.34548E+06
            8156     3.19471E+06    -892.100E+03              0.    -5.49919E+06
            8157     3.22682E+06    -893.080E+03              0.    -5.65726E+06
            8158     3.25988E+06    -894.222E+03              0.    -5.81978E+06
            8159     3.29393E+06    -895.554E+03              0.    -5.98687E+06
            8160     3.32906E+06    -897.107E+03              0.    -6.15861E+06
            8161     3.36532E+06    -898.916E+03              0.    -6.33511E+06
            8162     3.40278E+06    -901.015E+03              0.    -6.51646E+06
            8163     3.44152E+06    -903.443E+03              0.    -6.70276E+06
            8164     3.48163E+06    -906.239E+03              0.    -6.89411E+06
            8165     3.52318E+06    -909.446E+03              0.    -7.09062E+06
            8166     3.56627E+06    -913.110E+03              0.    -7.29236E+06
            8167     3.61099E+06    -917.278E+03              0.    -7.49945E+06
            8168     3.65746E+06    -922.001E+03              0.    -7.71197E+06
            8169     3.70578E+06    -927.333E+03              0.    -7.93001E+06
            8170     3.75607E+06    -933.330E+03              0.    -8.15367E+06
            8171     3.80846E+06    -940.051E+03              0.    -8.38303E+06
            8172     3.86307E+06    -947.559E+03              0.    -8.61818E+06
            8173     3.92006E+06    -955.920E+03              0.    -8.85920E+06
            8174     3.97956E+06    -965.204E+03              0.    -9.10616E+06
            8175     4.04175E+06    -975.482E+03              0.    -9.35915E+06
            8176     4.10679E+06    -986.831E+03              0.    -9.61822E+06
            8177     4.17487E+06    -999.329E+03              0.    -9.88346E+06
            8178     4.24616E+06    -1.01306E+06              0.    -10.1549E+06
            8179     4.32088E+06    -1.02811E+06              0.    -10.4326E+06
            8180     4.39924E+06    -1.04456E+06              0.    -10.7167E+06
            8181     4.48147E+06    -1.06252E+06              0.    -11.0071E+06
            8182     4.56780E+06    -1.08206E+06              0.    -11.3038E+06
            8183     4.65848E+06    -1.10330E+06              0.    -11.6070E+06
            8184     4.75380E+06    -1.12634E+06              0.    -11.9167E+06
            8185     4.85402E+06    -1.15126E+06              0.    -12.2328E+06
            8186     4.95945E+06    -1.17819E+06              0.    -12.5553E+06
            8187     5.07040E+06    -1.20722E+06              0.    -12.8842E+06
            8188     5.18720E+06    -1.23847E+06              0.    -13.2196E+06
            8189     5.31019E+06    -1.27204E+06              0.    -13.5613E+06
            8190     5.43975E+06    -1.30803E+06              0.    -13.9093E+06
            8191     5.57625E+06    -1.34655E+06              0.    -14.2636E+06
            8192     5.72009E+06    -1.38770E+06              0.    -14.6240E+06
            8193     5.87171E+06    -1.43158E+06              0.    -14.9906E+06
            8194     6.03152E+06    -1.47828E+06              0.    -15.3630E+06
            8195     6.20001E+06    -1.52789E+06              0.    -15.7414E+06
            8196     6.37763E+06    -1.58049E+06              0.    -16.1253E+06
            8197     6.56489E+06    -1.63613E+06              0.    -16.5148E+06
            8198     6.76231E+06    -1.69487E+06              0.    -16.9097E+06
            8199     6.97041E+06    -1.75674E+06              0.    -17.3096E+06
            8200     7.18976E+06    -1.82176E+06              0.    -17.7144E+06
            8201     7.42092E+06    -1.88992E+06              0.    -18.1237E+06
            8202     7.66448E+06    -1.96118E+06              0.    -18.5374E+06
            8203     7.92104E+06    -2.03548E+06              0.    -18.9551E+06
            8204     8.19122E+06    -2.11269E+06              0.    -19.3763E+06
            8205     8.47564E+06    -2.19268E+06              0.    -19.8008E+06
            8206     8.77492E+06    -2.27525E+06              0.    -20.2282E+06
            8207     9.08972E+06    -2.36013E+06              0.    -20.6578E+06
            8208     9.42067E+06    -2.44700E+06              0.    -21.0893E+06
            8209     9.76840E+06    -2.53547E+06              0.    -21.5221E+06
            8210     10.1335E+06    -2.62505E+06              0.    -21.9556E+06
            8211     10.5167E+06    -2.71517E+06              0.    -22.3891E+06
            8212     10.9185E+06    -2.80514E+06              0.    -22.8219E+06
            8213     11.3394E+06    -2.89417E+06              0.    -23.2532E+06
            8214     11.7801E+06    -2.98133E+06              0.    -23.6823E+06
            8215     12.2409E+06    -3.06551E+06              0.    -24.1081E+06
            8216     12.7223E+06    -3.14549E+06              0.    -24.5296E+06
            8217     13.2247E+06    -3.21983E+06              0.    -24.9458E+06
            8218     13.7483E+06    -3.28689E+06              0.    -25.3555E+06
            8219     14.2932E+06    -3.34484E+06              0.    -25.7572E+06
            8220     14.8596E+06    -3.39156E+06              0.    -26.1496E+06
            8221     15.4473E+06    -3.42472E+06              0.    -26.5310E+06
            8222     16.0562E+06    -3.44165E+06              0.    -26.8997E+06
            8223     16.6858E+06    -3.43941E+06              0.    -27.2538E+06
            8224     17.3355E+06    -3.41471E+06              0.    -27.5910E+06
            8225     18.0045E+06    -3.36389E+06              0.    -27.9091E+06
            8226     18.6919E+06    -3.28292E+06              0.    -28.2053E+06
            8227     19.3964E+06    -3.16736E+06              0.    -28.4769E+06
            8228     20.1163E+06    -3.01231E+06              0.    -28.7206E+06
            8229     20.8498E+06    -2.81244E+06              0.    -28.9330E+06
            8230     21.5948E+06    -2.56190E+06              0.    -29.1102E+06
            8231     22.3487E+06    -2.25437E+06              0.    -29.2480E+06
            8232     23.1086E+06    -1.88295E+06              0.    -29.3417E+06
            8233     23.8712E+06    -1.44022E+06              0.    -29.3863E+06
            8234     24.6328E+06    -918.151E+03              0.    -29.3763E+06
            8235     25.3892E+06    -308.118E+03              0.    -29.3057E+06
            8236     26.1359E+06     399.141E+03              0.    -29.1680E+06
            8237     26.8677E+06     1.21354E+06              0.    -28.9562E+06
            8238     27.5791E+06     2.14570E+06              0.    -28.6629E+06
            8239     28.2638E+06     3.20694E+06              0.    -28.2800E+06
            8240     28.9153E+06     4.40937E+06              0.    -27.7990E+06
            8241     29.5263E+06     5.76590E+06              0.    -27.2111E+06
            8242     30.0889E+06     7.29031E+06              0.    -26.5069E+06
            8243     30.5945E+06     8.99733E+06              0.    -25.6765E+06
            8244     31.0339E+06     10.9027E+06              0.    -24.7099E+06
            8245     31.3974E+06     13.0234E+06              0.    -23.5967E+06
            8246     32.2334E+06     15.4366E+06              0.    -23.5858E+06
            8247     1.23221E+06     554.734E+03              0.    -596.632E+03
            8248     1.22821E+06     517.130E+03              0.    -595.563E+03
            8249     1.24049E+06     487.410E+03              0.    -589.416E+03
            8250     1.25266E+06     458.198E+03              0.    -583.814E+03
            8251     1.26473E+06     429.486E+03              0.    -578.744E+03
            8252     1.27669E+06     401.265E+03              0.    -574.191E+03
            8253     1.28856E+06     373.528E+03              0.    -570.142E+03
            8254     1.30033E+06     346.266E+03              0.    -566.586E+03
            8255     1.31202E+06     319.471E+03              0.    -563.511E+03
            8256     1.32362E+06     293.136E+03              0.    -560.907E+03
            8257     1.33514E+06     267.253E+03              0.    -558.764E+03
            8258     1.34660E+06     241.814E+03              0.    -557.074E+03
            8259     1.35798E+06     216.813E+03              0.    -555.827E+03
            8260     1.36930E+06     192.241E+03              0.    -555.017E+03
            8261     1.38056E+06     168.092E+03              0.    -554.636E+03
            8262     1.39177E+06     144.358E+03              0.    -554.678E+03
            8263     1.40293E+06     121.034E+03              0.    -555.136E+03
            8264     1.41404E+06     98.1118E+03              0.    -556.007E+03
            8265     1.42511E+06     75.5851E+03              0.    -557.284E+03
            8266     1.43614E+06     53.4477E+03              0.    -558.965E+03
            8267     1.44714E+06     31.6936E+03              0.    -561.045E+03
            8268     1.45811E+06     10.3160E+03              0.    -563.521E+03
            8269     1.46905E+06    -10.6904E+03              0.    -566.391E+03
            8270     1.47998E+06    -31.3321E+03              0.    -569.653E+03
            8271     1.49088E+06    -51.6145E+03              0.    -573.306E+03
            8272     1.50177E+06    -71.5430E+03              0.    -577.348E+03
            8273     1.51265E+06    -91.1236E+03              0.    -581.779E+03
            8274     1.52353E+06    -110.361E+03              0.    -586.599E+03
            8275     1.53440E+06    -129.261E+03              0.    -591.808E+03
            8276     1.54527E+06    -147.828E+03              0.    -597.407E+03
            8277     1.55614E+06    -166.068E+03              0.    -603.398E+03
            8278     1.56702E+06    -183.985E+03              0.    -609.782E+03
            8279     1.57791E+06    -201.583E+03              0.    -616.562E+03
            8280     1.58881E+06    -218.868E+03              0.    -623.741E+03
            8281     1.59973E+06    -235.843E+03              0.    -631.321E+03
            8282     1.61067E+06    -252.514E+03              0.    -639.307E+03
            8283     1.62163E+06    -268.883E+03              0.    -647.702E+03
            8284     1.63261E+06    -284.955E+03              0.    -656.512E+03
            8285     1.64362E+06    -300.735E+03              0.    -665.741E+03
            8286     1.65466E+06    -316.225E+03              0.    -675.394E+03
            8287     1.66573E+06    -331.429E+03              0.    -685.479E+03
            8288     1.67684E+06    -346.352E+03              0.    -696.001E+03
            8289     1.68798E+06    -360.995E+03              0.    -706.967E+03
            8290     1.69917E+06    -375.363E+03              0.    -718.385E+03
            8291     1.71039E+06    -389.458E+03              0.    -730.264E+03
            8292     1.72166E+06    -403.284E+03              0.    -742.610E+03
            8293     1.73297E+06    -416.843E+03              0.    -755.434E+03
            8294     1.74434E+06    -430.138E+03              0.    -768.745E+03
            8295     1.75575E+06    -443.172E+03              0.    -782.553E+03
            8296     1.76722E+06    -455.947E+03              0.    -796.868E+03
            8297     1.77873E+06    -468.465E+03              0.    -811.702E+03
            8298     1.79031E+06    -480.729E+03              0.    -827.066E+03
            8299     1.80194E+06    -492.741E+03              0.    -842.973E+03
            8300     1.81363E+06    -504.503E+03              0.    -859.435E+03
            8301     1.82538E+06    -516.017E+03              0.    -876.466E+03
            8302     1.83719E+06    -527.284E+03              0.    -894.080E+03
            8303     1.84907E+06    -538.307E+03              0.    -912.292E+03
            8304     1.86101E+06    -549.086E+03              0.    -931.116E+03
            8305     1.87301E+06    -559.623E+03              0.    -950.569E+03
            8306     1.88508E+06    -569.920E+03              0.    -970.668E+03
            8307     1.89722E+06    -579.977E+03              0.    -991.430E+03
            8308     1.90943E+06    -589.796E+03              0.    -1.01287E+06
            8309     1.92171E+06    -599.378E+03              0.    -1.03501E+06
            8310     1.93407E+06    -608.724E+03              0.    -1.05787E+06
            8311     1.94649E+06    -617.833E+03              0.    -1.08147E+06
            8312     1.95899E+06    -626.708E+03              0.    -1.10583E+06
            8313     1.97156E+06    -635.348E+03              0.    -1.13097E+06
            8314     1.98421E+06    -643.755E+03              0.    -1.15692E+06
            8315     1.99693E+06    -651.928E+03              0.    -1.18369E+06
            8316     2.00972E+06    -659.868E+03              0.    -1.21131E+06
            8317     2.02260E+06    -667.574E+03              0.    -1.23981E+06
            8318     2.03555E+06    -675.048E+03              0.    -1.26922E+06
            8319     2.04858E+06    -682.289E+03              0.    -1.29955E+06
            8320     2.06169E+06    -689.297E+03              0.    -1.33084E+06
            8321     2.07488E+06    -696.072E+03              0.    -1.36312E+06
            8322     2.08814E+06    -702.613E+03              0.    -1.39641E+06
            8323     2.10149E+06    -708.921E+03              0.    -1.43074E+06
            8324     2.11492E+06    -714.996E+03              0.    -1.46616E+06
            8325     2.12843E+06    -720.836E+03              0.    -1.50268E+06
            8326     2.14202E+06    -726.442E+03              0.    -1.54035E+06
            8327     2.15569E+06    -731.813E+03              0.    -1.57920E+06
            8328     2.16945E+06    -736.948E+03              0.    -1.61927E+06
            8329     2.18328E+06    -741.847E+03              0.    -1.66059E+06
            8330     2.19721E+06    -746.510E+03              0.    -1.70320E+06
            8331     2.21122E+06    -750.936E+03              0.    -1.74713E+06
            8332     2.22531E+06    -755.125E+03              0.    -1.79244E+06
            8333     2.23949E+06    -759.075E+03              0.    -1.83917E+06
            8334     2.25376E+06    -762.788E+03              0.    -1.88734E+06
            8335     2.26811E+06    -766.260E+03              0.    -1.93702E+06
            8336     2.28256E+06    -769.494E+03              0.    -1.98825E+06
            8337     2.29709E+06    -772.488E+03              0.    -2.04107E+06
            8338     2.31172E+06    -775.242E+03              0.    -2.09553E+06
            8339     2.32645E+06    -777.756E+03              0.    -2.15168E+06
            8340     2.34126E+06    -780.029E+03              0.    -2.20958E+06
            8341     2.35618E+06    -782.062E+03              0.    -2.26928E+06
            8342     2.37120E+06    -783.855E+03              0.    -2.33082E+06
            8343     2.38632E+06    -785.408E+03              0.    -2.39427E+06
            8344     2.40155E+06    -786.722E+03              0.    -2.45968E+06
            8345     2.41689E+06    -787.798E+03              0.    -2.52712E+06
            8346     2.43234E+06    -788.635E+03              0.    -2.59664E+06
            8347     2.44791E+06    -789.236E+03              0.     -2.6683E+06
            8348     2.46360E+06    -789.602E+03              0.    -2.74217E+06
            8349     2.47942E+06    -789.735E+03              0.    -2.81831E+06
            8350     2.49537E+06    -789.636E+03              0.    -2.89680E+06
            8351     2.51146E+06    -789.308E+03              0.    -2.97768E+06
            8352     2.52770E+06    -788.755E+03              0.    -3.06105E+06
            8353     2.54409E+06    -787.978E+03              0.    -3.14697E+06
            8354     2.56064E+06    -786.983E+03              0.    -3.23550E+06
            8355     2.57736E+06    -785.772E+03              0.    -3.32674E+06
            8356     2.59426E+06    -784.352E+03              0.    -3.42074E+06
            8357     2.61136E+06    -782.727E+03              0.    -3.51760E+06
            8358     2.62866E+06    -780.903E+03              0.    -3.61739E+06
            8359     2.64617E+06    -778.888E+03              0.    -3.72019E+06
            8360     2.66392E+06    -776.688E+03              0.    -3.82608E+06
            8361     2.68191E+06    -774.311E+03              0.    -3.93516E+06
            8362     2.70016E+06    -771.768E+03              0.    -4.04750E+06
            8363     2.71870E+06    -769.067E+03              0.    -4.16319E+06
            8364     2.73753E+06    -766.221E+03              0.    -4.28232E+06
            8365     2.75669E+06    -763.240E+03              0.    -4.40499E+06
            8366     2.77620E+06    -760.138E+03              0.    -4.53128E+06
            8367     2.79607E+06    -756.930E+03              0.    -4.66128E+06
            8368     2.81635E+06    -753.631E+03              0.    -4.79510E+06
            8369     2.83705E+06    -750.258E+03              0.    -4.93283E+06
            8370     2.85822E+06    -746.829E+03              0.    -5.07456E+06
            8371     2.87988E+06    -743.364E+03              0.    -5.22040E+06
            8372     2.90207E+06    -739.886E+03              0.    -5.37044E+06
            8373     2.92484E+06    -736.416E+03              0.    -5.52478E+06
            8374     2.94822E+06    -732.981E+03              0.    -5.68352E+06
            8375     2.97226E+06    -729.606E+03              0.    -5.84677E+06
            8376     2.99702E+06    -726.322E+03              0.    -6.01463E+06
            8377     3.02255E+06    -723.158E+03              0.    -6.18719E+06
            8378     3.04890E+06    -720.149E+03              0.    -6.36457E+06
            8379     3.07614E+06    -717.329E+03              0.    -6.54686E+06
            8380     3.10433E+06    -714.737E+03              0.    -6.73418E+06
            8381     3.13356E+06    -712.414E+03              0.    -6.92661E+06
            8382     3.16388E+06    -710.403E+03              0.    -7.12427E+06
            8383     3.19539E+06    -708.749E+03              0.    -7.32725E+06
            8384     3.22818E+06    -707.503E+03              0.    -7.53566E+06
            8385     3.26233E+06    -706.715E+03              0.     -7.7496E+06
            8386     3.29795E+06    -706.442E+03              0.    -7.96916E+06
            8387     3.33515E+06    -706.741E+03              0.    -8.19444E+06
            8388     3.37405E+06    -707.674E+03              0.    -8.42554E+06
            8389     3.41475E+06    -709.307E+03              0.    -8.66254E+06
            8390     3.45741E+06    -711.709E+03              0.    -8.90554E+06
            8391     3.50214E+06    -714.952E+03              0.    -9.15462E+06
            8392     3.54912E+06    -719.112E+03              0.    -9.40987E+06
            8393     3.59848E+06    -724.269E+03              0.    -9.67137E+06
            8394     3.65040E+06    -730.507E+03              0.    -9.93918E+06
            8395     3.70507E+06    -737.914E+03              0.    -10.2134E+06
            8396     3.76266E+06    -746.581E+03              0.    -10.4941E+06
            8397     3.82338E+06    -756.603E+03              0.    -10.7812E+06
            8398     3.88744E+06    -768.079E+03              0.    -11.0750E+06
            8399     3.95507E+06    -781.112E+03              0.    -11.3753E+06
            8400     4.02652E+06    -795.807E+03              0.    -11.6824E+06
            8401     4.10202E+06    -812.274E+03              0.    -11.9961E+06
            8402     4.18186E+06    -830.624E+03              0.    -12.3165E+06
            8403     4.26631E+06    -850.973E+03              0.    -12.6436E+06
            8404     4.35567E+06    -873.436E+03              0.    -12.9774E+06
            8405     4.45025E+06    -898.132E+03              0.    -13.3180E+06
            8406     4.55040E+06    -925.181E+03              0.    -13.6652E+06
            8407     4.65644E+06    -954.702E+03              0.    -14.0191E+06
            8408     4.76876E+06    -986.813E+03              0.    -14.3796E+06
            8409     4.88774E+06    -1.02163E+06              0.    -14.7467E+06
            8410     5.01377E+06    -1.05927E+06              0.    -15.1202E+06
            8411     5.14727E+06    -1.09985E+06              0.    -15.5001E+06
            8412     5.28869E+06    -1.14345E+06              0.    -15.8863E+06
            8413     5.43849E+06    -1.19020E+06              0.    -16.2786E+06
            8414     5.59713E+06    -1.24015E+06              0.    -16.6769E+06
            8415     5.76510E+06    -1.29341E+06              0.    -17.0810E+06
            8416     5.94294E+06    -1.35001E+06              0.    -17.4907E+06
            8417     6.13115E+06    -1.41000E+06              0.    -17.9058E+06
            8418     6.33030E+06    -1.47341E+06              0.    -18.3261E+06
            8419     6.54092E+06    -1.54022E+06              0.    -18.7512E+06
            8420     6.76361E+06    -1.61039E+06              0.    -19.1808E+06
            8421     6.99894E+06    -1.68387E+06              0.    -19.6147E+06
            8422     7.24751E+06    -1.76052E+06              0.    -20.0524E+06
            8423     7.50993E+06    -1.84020E+06              0.    -20.4935E+06
            8424     7.78679E+06    -1.92269E+06              0.    -20.9376E+06
            8425     8.07869E+06    -2.00772E+06              0.    -21.3841E+06
            8426     8.38625E+06    -2.09494E+06              0.    -21.8325E+06
            8427     8.71005E+06    -2.18392E+06              0.    -22.2822E+06
            8428     9.05067E+06    -2.27417E+06              0.    -22.7325E+06
            8429     9.40865E+06    -2.36506E+06              0.    -23.1828E+06
            8430     9.78452E+06    -2.45588E+06              0.    -23.6321E+06
            8431     10.1788E+06    -2.54577E+06              0.    -24.0796E+06
            8432     10.5918E+06    -2.63374E+06              0.    -24.5243E+06
            8433     11.0241E+06    -2.71866E+06              0.    -24.9652E+06
            8434     11.4759E+06    -2.79920E+06              0.    -25.4012E+06
            8435     11.9474E+06    -2.87388E+06              0.    -25.8308E+06
            8436     12.4387E+06    -2.94098E+06              0.    -26.2528E+06
            8437     12.9500E+06    -2.99856E+06              0.    -26.6655E+06
            8438     13.4811E+06    -3.04446E+06              0.    -27.0672E+06
            8439     14.0317E+06    -3.07622E+06              0.    -27.4561E+06
            8440     14.6015E+06    -3.09110E+06              0.    -27.8300E+06
            8441     15.1898E+06    -3.08608E+06              0.    -28.1867E+06
            8442     15.7959E+06    -3.05775E+06              0.    -28.5236E+06
            8443     16.4187E+06    -3.00238E+06              0.    -28.8379E+06
            8444     17.0570E+06    -2.91586E+06              0.    -29.1265E+06
            8445     17.7093E+06    -2.79365E+06              0.    -29.3861E+06
            8446     18.3738E+06    -2.63079E+06              0.    -29.6129E+06
            8447     19.0484E+06    -2.42187E+06              0.    -29.8027E+06
            8448     19.7305E+06    -2.16101E+06              0.    -29.9512E+06
            8449     20.4174E+06    -1.84181E+06              0.    -30.0534E+06
            8450     21.1060E+06    -1.45734E+06              0.    -30.1039E+06
            8451     21.7925E+06    -1.00012E+06              0.    -30.0970E+06
            8452     22.4730E+06    -462.114E+03              0.    -30.0262E+06
            8453     23.1430E+06     165.361E+03              0.    -29.8850E+06
            8454     23.7976E+06     891.605E+03              0.    -29.6657E+06
            8455     24.4312E+06     1.72661E+06              0.    -29.3608E+06
            8456     25.0379E+06     2.68109E+06              0.    -28.9617E+06
            8457     25.6111E+06     3.76649E+06              0.    -28.4597E+06
            8458     26.1437E+06     4.99512E+06              0.    -27.8453E+06
            8459     26.6277E+06     6.38015E+06              0.    -27.1088E+06
            8460     27.0548E+06     7.93573E+06              0.    -26.2399E+06
            8461     27.4157E+06     9.67702E+06              0.    -25.2280E+06
            8462     27.6999E+06     11.6202E+06              0.    -24.0621E+06
            8463     28.4520E+06     13.8309E+06              0.    -24.0303E+06
            8464     1.21620E+06     547.557E+03              0.    -608.861E+03
            8465     1.21227E+06     510.665E+03              0.     -607.77E+03
            8466     1.22433E+06     481.500E+03              0.    -601.509E+03
            8467     1.23627E+06     452.828E+03              0.    -595.798E+03
            8468     1.24811E+06     424.641E+03              0.    -590.623E+03
            8469     1.25985E+06     396.934E+03              0.    -585.970E+03
            8470     1.27149E+06     369.697E+03              0.    -581.827E+03
            8471     1.28304E+06     342.923E+03              0.    -578.180E+03
            8472     1.29450E+06     316.607E+03              0.    -575.020E+03
            8473     1.30588E+06     290.739E+03              0.    -572.336E+03
            8474     1.31718E+06     265.315E+03              0.    -570.117E+03
            8475     1.32841E+06     240.325E+03              0.    -568.356E+03
            8476     1.33956E+06     215.766E+03              0.    -567.042E+03
            8477     1.35066E+06     191.628E+03              0.    -566.169E+03
            8478     1.36168E+06     167.906E+03              0.    -565.729E+03
            8479     1.37266E+06     144.594E+03              0.    -565.717E+03
            8480     1.38357E+06     121.685E+03              0.    -566.125E+03
            8481     1.39444E+06     99.1740E+03              0.    -566.949E+03
            8482     1.40526E+06     77.0537E+03              0.    -568.185E+03
            8483     1.41604E+06     55.3188E+03              0.    -569.827E+03
            8484     1.42679E+06     33.9639E+03              0.    -571.873E+03
            8485     1.43749E+06     12.9826E+03              0.    -574.318E+03
            8486     1.44817E+06    -7.62976E+03              0.    -577.162E+03
            8487     1.45881E+06    -27.8792E+03              0.    -580.400E+03
            8488     1.46944E+06    -47.7707E+03              0.    -584.033E+03
            8489     1.48004E+06    -67.3091E+03              0.    -588.059E+03
            8490     1.49062E+06    -86.4999E+03              0.    -592.477E+03
            8491     1.50119E+06    -105.347E+03              0.    -597.286E+03
            8492     1.51174E+06    -123.857E+03              0.    -602.489E+03
            8493     1.52229E+06    -142.033E+03              0.    -608.085E+03
            8494     1.53283E+06    -159.879E+03              0.    -614.075E+03
            8495     1.54337E+06    -177.400E+03              0.    -620.462E+03
            8496     1.55390E+06    -194.601E+03              0.    -627.247E+03
            8497     1.56444E+06    -211.485E+03              0.    -634.433E+03
            8498     1.57498E+06    -228.057E+03              0.    -642.024E+03
            8499     1.58553E+06    -244.319E+03              0.    -650.023E+03
            8500     1.59609E+06    -260.276E+03              0.    -658.435E+03
            8501     1.60665E+06    -275.932E+03              0.    -667.262E+03
            8502     1.61724E+06    -291.289E+03              0.    -676.512E+03
            8503     1.62783E+06    -306.351E+03              0.    -686.188E+03
            8504     1.63845E+06    -321.121E+03              0.    -696.298E+03
            8505     1.64908E+06    -335.603E+03              0.    -706.847E+03
            8506     1.65974E+06    -349.798E+03              0.    -717.843E+03
            8507     1.67042E+06    -363.710E+03              0.    -729.292E+03
            8508     1.68112E+06    -377.342E+03              0.    -741.203E+03
            8509     1.69185E+06    -390.695E+03              0.    -753.584E+03
            8510     1.70261E+06    -403.772E+03              0.    -766.445E+03
            8511     1.71340E+06    -416.576E+03              0.    -779.793E+03
            8512     1.72421E+06    -429.108E+03              0.    -793.641E+03
            8513     1.73506E+06    -441.371E+03              0.    -807.997E+03
            8514     1.74594E+06    -453.365E+03              0.    -822.873E+03
            8515     1.75685E+06    -465.094E+03              0.    -838.281E+03
            8516     1.76780E+06    -476.558E+03              0.    -854.232E+03
            8517     1.77878E+06    -487.759E+03              0.    -870.740E+03
            8518     1.78980E+06    -498.698E+03              0.    -887.818E+03
            8519     1.80085E+06    -509.376E+03              0.    -905.480E+03
            8520     1.81194E+06    -519.795E+03              0.    -923.740E+03
            8521     1.82307E+06    -529.955E+03              0.    -942.614E+03
            8522     1.83423E+06    -539.856E+03              0.    -962.117E+03
            8523     1.84544E+06    -549.501E+03              0.    -982.266E+03
            8524     1.85668E+06    -558.888E+03              0.    -1.00308E+06
            8525     1.86795E+06    -568.019E+03              0.    -1.02457E+06
            8526     1.87927E+06    -576.894E+03              0.    -1.04676E+06
            8527     1.89062E+06    -585.513E+03              0.    -1.06968E+06
            8528     1.90201E+06    -593.875E+03              0.    -1.09333E+06
            8529     1.91344E+06    -601.982E+03              0.    -1.11774E+06
            8530     1.92490E+06    -609.832E+03              0.    -1.14293E+06
            8531     1.93640E+06    -617.425E+03              0.    -1.16893E+06
            8532     1.94793E+06    -624.762E+03              0.    -1.19575E+06
            8533     1.95950E+06     -631.84E+03              0.    -1.22343E+06
            8534     1.97110E+06    -638.660E+03              0.    -1.25198E+06
            8535     1.98273E+06    -645.221E+03              0.    -1.28143E+06
            8536     1.99439E+06    -651.522E+03              0.    -1.31182E+06
            8537     2.00609E+06    -657.562E+03              0.    -1.34316E+06
            8538     2.01781E+06    -663.340E+03              0.    -1.37548E+06
            8539     2.02956E+06    -668.854E+03              0.    -1.40882E+06
            8540     2.04134E+06    -674.104E+03              0.    -1.44320E+06
            8541     2.05314E+06    -679.088E+03              0.    -1.47867E+06
            8542     2.06497E+06    -683.806E+03              0.    -1.51524E+06
            8543     2.07682E+06    -688.254E+03              0.    -1.55296E+06
            8544     2.08869E+06    -692.432E+03              0.    -1.59185E+06
            8545     2.10058E+06    -696.338E+03              0.    -1.63196E+06
            8546     2.11249E+06    -699.971E+03              0.    -1.67332E+06
            8547     2.12441E+06    -703.328E+03              0.    -1.71597E+06
            8548     2.13635E+06    -706.409E+03              0.    -1.75995E+06
            8549     2.14830E+06    -709.211E+03              0.    -1.80530E+06
            8550     2.16027E+06    -711.732E+03              0.    -1.85206E+06
            8551     2.17224E+06    -713.971E+03              0.    -1.90028E+06
            8552     2.18422E+06    -715.927E+03              0.    -1.94999E+06
            8553     2.19621E+06    -717.596E+03              0.    -2.00126E+06
            8554     2.20820E+06    -718.978E+03              0.    -2.05411E+06
            8555     2.22019E+06    -720.071E+03              0.    -2.10861E+06
            8556     2.23219E+06    -720.874E+03              0.    -2.16480E+06
            8557     2.24419E+06    -721.384E+03              0.    -2.22273E+06
            8558     2.25618E+06    -721.600E+03              0.    -2.28246E+06
            8559     2.26818E+06    -721.522E+03              0.    -2.34404E+06
            8560     2.28018E+06    -721.147E+03              0.    -2.40752E+06
            8561     2.29217E+06    -720.475E+03              0.    -2.47297E+06
            8562     2.30416E+06    -719.506E+03              0.    -2.54044E+06
            8563     2.31615E+06    -718.237E+03              0.    -2.61000E+06
            8564     2.32813E+06    -716.670E+03              0.    -2.68170E+06
            8565     2.34012E+06    -714.803E+03              0.    -2.75561E+06
            8566     2.35210E+06    -712.637E+03              0.    -2.83179E+06
            8567     2.36408E+06    -710.173E+03              0.    -2.91032E+06
            8568     2.37607E+06    -707.410E+03              0.    -2.99125E+06
            8569     2.38806E+06    -704.351E+03              0.    -3.07467E+06
            8570     2.40006E+06    -700.998E+03              0.    -3.16064E+06
            8571     2.41207E+06    -697.351E+03              0.    -3.24923E+06
            8572     2.42409E+06    -693.413E+03              0.    -3.34053E+06
            8573     2.43614E+06    -689.188E+03              0.    -3.43461E+06
            8574     2.44821E+06     -684.68E+03              0.    -3.53154E+06
            8575     2.46031E+06    -679.893E+03              0.    -3.63141E+06
            8576     2.47246E+06    -674.831E+03              0.     -3.7343E+06
            8577     2.48465E+06    -669.501E+03              0.    -3.84030E+06
            8578     2.49690E+06    -663.909E+03              0.    -3.94948E+06
            8579     2.50922E+06    -658.063E+03              0.    -4.06194E+06
            8580     2.52162E+06    -651.971E+03              0.    -4.17777E+06
            8581     2.53412E+06    -645.643E+03              0.    -4.29705E+06
            8582     2.54672E+06    -639.089E+03              0.    -4.41988E+06
            8583     2.55946E+06    -632.321E+03              0.    -4.54635E+06
            8584     2.57234E+06    -625.352E+03              0.    -4.67656E+06
            8585     2.58538E+06    -618.196E+03              0.    -4.81060E+06
            8586     2.59862E+06    -610.869E+03              0.    -4.94858E+06
            8587     2.61207E+06    -603.388E+03              0.    -5.09058E+06
            8588     2.62575E+06    -595.772E+03              0.    -5.23671E+06
            8589     2.63971E+06    -588.040E+03              0.    -5.38708E+06
            8590     2.65397E+06    -580.216E+03              0.    -5.54178E+06
            8591     2.66857E+06    -572.324E+03              0.    -5.70092E+06
            8592     2.68355E+06    -564.389E+03              0.    -5.86460E+06
            8593     2.69894E+06    -556.441E+03              0.    -6.03293E+06
            8594     2.71480E+06    -548.508E+03              0.    -6.20601E+06
            8595     2.73117E+06    -540.626E+03              0.    -6.38396E+06
            8596     2.74811E+06    -532.828E+03              0.    -6.56688E+06
            8597     2.76567E+06    -525.153E+03              0.    -6.75487E+06
            8598     2.78391E+06    -517.641E+03              0.    -6.94804E+06
            8599     2.80291E+06    -510.337E+03              0.    -7.14650E+06
            8600     2.82273E+06    -503.287E+03              0.    -7.35037E+06
            8601     2.84346E+06    -496.540E+03              0.    -7.55973E+06
            8602     2.86517E+06    -490.151E+03              0.    -7.77470E+06
            8603     2.88797E+06    -484.174E+03              0.    -7.99538E+06
            8604     2.91193E+06    -478.671E+03              0.    -8.22188E+06
            8605     2.93717E+06    -473.705E+03              0.    -8.45430E+06
            8606     2.96381E+06    -469.343E+03              0.    -8.69273E+06
            8607     2.99195E+06    -465.657E+03              0.    -8.93727E+06
            8608     3.02172E+06    -462.723E+03              0.    -9.18803E+06
            8609     3.05327E+06    -460.619E+03              0.    -9.44508E+06
            8610     3.08673E+06    -459.430E+03              0.    -9.70852E+06
            8611     3.12227E+06    -459.243E+03              0.    -9.97844E+06
            8612     3.16004E+06    -460.150E+03              0.    -10.2549E+06
            8613     3.20023E+06    -462.249E+03              0.    -10.5380E+06
            8614     3.24302E+06    -465.640E+03              0.    -10.8278E+06
            8615     3.28860E+06    -470.427E+03              0.    -11.1244E+06
            8616     3.33720E+06    -476.720E+03              0.    -11.4277E+06
            8617     3.38904E+06    -484.633E+03              0.    -11.7380E+06
            8618     3.44435E+06    -494.282E+03              0.    -12.0552E+06
            8619     3.50339E+06    -505.788E+03              0.    -12.3793E+06
            8620     3.56642E+06    -519.275E+03              0.    -12.7104E+06
            8621     3.63372E+06    -534.870E+03              0.    -13.0485E+06
            8622     3.70559E+06    -552.702E+03              0.    -13.3936E+06
            8623     3.78235E+06    -572.902E+03              0.    -13.7457E+06
            8624     3.86433E+06    -595.604E+03              0.    -14.1048E+06
            8625     3.95186E+06    -620.938E+03              0.    -14.4708E+06
            8626     4.04532E+06    -649.038E+03              0.    -14.8438E+06
            8627     4.14508E+06    -680.034E+03              0.    -15.2236E+06
            8628     4.25155E+06    -714.052E+03              0.    -15.6102E+06
            8629     4.36514E+06    -751.215E+03              0.    -16.0034E+06
            8630     4.48628E+06     -791.64E+03              0.    -16.4032E+06
            8631     4.61543E+06    -835.434E+03              0.    -16.8095E+06
            8632     4.75306E+06    -882.694E+03              0.    -17.2220E+06
            8633     4.89965E+06    -933.504E+03              0.    -17.6406E+06
            8634     5.05570E+06    -987.932E+03              0.    -18.0651E+06
            8635     5.22174E+06    -1.04603E+06              0.    -18.4953E+06
            8636     5.39829E+06    -1.10781E+06              0.    -18.9309E+06
            8637     5.58590E+06    -1.17328E+06              0.    -19.3715E+06
            8638     5.78512E+06    -1.24241E+06              0.    -19.8170E+06
            8639     5.99651E+06    -1.31511E+06              0.    -20.2668E+06
            8640     6.22065E+06    -1.39128E+06              0.    -20.7206E+06
            8641     6.45811E+06    -1.47076E+06              0.    -21.1780E+06
            8642     6.70944E+06    -1.55330E+06              0.    -21.6384E+06
            8643     6.97523E+06    -1.63864E+06              0.    -22.1013E+06
            8644     7.25602E+06    -1.72642E+06              0.    -22.5660E+06
            8645     7.55234E+06    -1.81618E+06              0.    -23.0319E+06
            8646     7.86473E+06    -1.90739E+06              0.    -23.4982E+06
            8647     8.19365E+06    -1.99942E+06              0.    -23.9642E+06
            8648     8.53957E+06    -2.09150E+06              0.    -24.4288E+06
            8649     8.90288E+06    -2.18276E+06              0.    -24.8911E+06
            8650     9.28393E+06    -2.27216E+06              0.    -25.3500E+06
            8651     9.68301E+06    -2.35852E+06              0.    -25.8042E+06
            8652     10.1003E+06    -2.44047E+06              0.    -26.2524E+06
            8653     10.5359E+06    -2.51647E+06              0.    -26.6931E+06
            8654     10.9899E+06    -2.58476E+06              0.    -27.1246E+06
            8655     11.4620E+06    -2.64334E+06              0.    -27.5452E+06
            8656     11.9521E+06    -2.68998E+06              0.    -27.9527E+06
            8657     12.4598E+06    -2.72218E+06              0.    -28.3451E+06
            8658     12.9844E+06    -2.73716E+06              0.    -28.7198E+06
            8659     13.5252E+06    -2.73180E+06              0.    -29.0741E+06
            8660     14.0812E+06    -2.70270E+06              0.    -29.4051E+06
            8661     14.6512E+06    -2.64605E+06              0.    -29.7095E+06
            8662     15.2337E+06    -2.55771E+06              0.    -29.9837E+06
            8663     15.8270E+06    -2.43311E+06              0.    -30.2238E+06
            8664     16.4290E+06    -2.26727E+06              0.    -30.4254E+06
            8665     17.0373E+06    -2.05478E+06              0.    -30.5837E+06
            8666     17.6493E+06    -1.78972E+06              0.    -30.6937E+06
            8667     18.2619E+06    -1.46569E+06              0.    -30.7496E+06
            8668     18.8716E+06    -1.07579E+06              0.    -30.7454E+06
            8669     19.4745E+06    -612.530E+03              0.    -30.6744E+06
            8670     20.0662E+06    -67.8463E+03              0.    -30.5296E+06
            8671     20.6421E+06     566.942E+03              0.    -30.3033E+06
            8672     21.1966E+06     1.30119E+06              0.    -29.9873E+06
            8673     21.7241E+06     2.14496E+06              0.    -29.5728E+06
            8674     22.2180E+06     3.10905E+06              0.    -29.0507E+06
            8675     22.6713E+06     4.20514E+06              0.    -28.4111E+06
            8676     23.0762E+06     5.44574E+06              0.    -27.6437E+06
            8677     23.4243E+06     6.84440E+06              0.    -26.7378E+06
            8678     23.7066E+06     8.41573E+06              0.    -25.6823E+06
            8679     23.9131E+06     10.1756E+06              0.    -24.4657E+06
            8680     24.5800E+06     12.1765E+06              0.    -24.4119E+06
            8681     1.19992E+06     540.259E+03              0.    -620.854E+03
            8682     1.19607E+06     504.084E+03              0.    -619.743E+03
            8683     1.20789E+06     475.479E+03              0.    -613.370E+03
            8684     1.21961E+06     447.352E+03              0.    -607.552E+03
            8685     1.23122E+06     419.696E+03              0.    -602.275E+03
            8686     1.24273E+06     392.506E+03              0.    -597.524E+03
            8687     1.25414E+06     365.773E+03              0.    -593.287E+03
            8688     1.26547E+06     339.494E+03              0.    -589.551E+03
            8689     1.27670E+06     313.659E+03              0.    -586.306E+03
            8690     1.28786E+06     288.264E+03              0.    -583.540E+03
            8691     1.29893E+06     263.302E+03              0.    -581.244E+03
            8692     1.30993E+06     238.766E+03              0.    -579.409E+03
            8693     1.32086E+06     214.652E+03              0.    -578.027E+03
            8694     1.33172E+06     190.953E+03              0.    -577.088E+03
            8695     1.34251E+06     167.663E+03              0.    -576.587E+03
            8696     1.35325E+06     144.776E+03              0.    -576.517E+03
            8697     1.36392E+06     122.287E+03              0.    -576.872E+03
            8698     1.37455E+06     100.190E+03              0.    -577.646E+03
            8699     1.38512E+06     78.4799E+03              0.    -578.835E+03
            8700     1.39565E+06     57.1511E+03              0.    -580.434E+03
            8701     1.40613E+06     36.1989E+03              0.    -582.440E+03
            8702     1.41657E+06     15.6175E+03              0.    -584.849E+03
            8703     1.42698E+06    -4.59747E+03              0.    -587.659E+03
            8704     1.43735E+06    -24.4514E+03              0.    -590.868E+03
            8705     1.44768E+06    -43.9487E+03              0.    -594.473E+03
            8706     1.45799E+06    -63.0938E+03              0.    -598.475E+03
            8707     1.46828E+06    -81.8917E+03              0.    -602.872E+03
            8708     1.47854E+06    -100.346E+03              0.    -607.663E+03
            8709     1.48877E+06    -118.462E+03              0.    -612.850E+03
            8710     1.49900E+06    -136.243E+03              0.    -618.433E+03
            8711     1.50920E+06    -153.694E+03              0.    -624.413E+03
            8712     1.51939E+06    -170.818E+03              0.    -630.792E+03
            8713     1.52957E+06    -187.618E+03              0.    -637.572E+03
            8714     1.53974E+06    -204.099E+03              0.    -644.755E+03
            8715     1.54991E+06    -220.264E+03              0.    -652.345E+03
            8716     1.56007E+06    -236.116E+03              0.    -660.345E+03
            8717     1.57022E+06    -251.659E+03              0.    -668.759E+03
            8718     1.58037E+06    -266.896E+03              0.    -677.592E+03
            8719     1.59053E+06    -281.828E+03              0.    -686.848E+03
            8720     1.60068E+06    -296.461E+03              0.    -696.533E+03
            8721     1.61084E+06    -310.795E+03              0.    -706.653E+03
            8722     1.62100E+06    -324.834E+03              0.    -717.214E+03
            8723     1.63117E+06    -338.579E+03              0.    -728.222E+03
            8724     1.64134E+06    -352.034E+03              0.    -739.686E+03
            8725     1.65153E+06    -365.200E+03              0.    -751.613E+03
            8726     1.66172E+06    -378.080E+03              0.    -764.011E+03
            8727     1.67191E+06    -390.674E+03              0.    -776.889E+03
            8728     1.68212E+06    -402.985E+03              0.    -790.256E+03
            8729     1.69234E+06    -415.015E+03              0.    -804.123E+03
            8730     1.70257E+06    -426.764E+03              0.    -818.499E+03
            8731     1.71281E+06    -438.234E+03              0.    -833.396E+03
            8732     1.72306E+06    -449.426E+03              0.    -848.824E+03
            8733     1.73333E+06    -460.342E+03              0.    -864.797E+03
            8734     1.74360E+06    -470.981E+03              0.    -881.327E+03
            8735     1.75389E+06    -481.345E+03              0.    -898.426E+03
            8736     1.76418E+06    -491.433E+03              0.    -916.110E+03
            8737     1.77449E+06    -501.248E+03              0.    -934.391E+03
            8738     1.78480E+06    -510.788E+03              0.    -953.287E+03
            8739     1.79513E+06    -520.054E+03              0.    -972.811E+03
            8740     1.80546E+06    -529.046E+03              0.    -992.980E+03
            8741     1.81580E+06    -537.764E+03              0.    -1.01381E+06
            8742     1.82615E+06    -546.207E+03              0.    -1.03532E+06
            8743     1.83650E+06    -554.375E+03              0.    -1.05754E+06
            8744     1.84685E+06    -562.268E+03              0.    -1.08047E+06
            8745     1.85721E+06    -569.884E+03              0.    -1.10413E+06
            8746     1.86756E+06    -577.222E+03              0.    -1.12856E+06
            8747     1.87792E+06    -584.283E+03              0.    -1.15377E+06
            8748     1.88827E+06    -591.064E+03              0.    -1.17977E+06
            8749     1.89861E+06    -597.565E+03              0.    -1.20661E+06
            8750     1.90895E+06    -603.783E+03              0.    -1.23429E+06
            8751     1.91928E+06    -609.718E+03              0.    -1.26285E+06
            8752     1.92959E+06    -615.367E+03              0.    -1.29231E+06
            8753     1.93989E+06    -620.729E+03              0.    -1.32270E+06
            8754     1.95018E+06    -625.802E+03              0.    -1.35404E+06
            8755     1.96044E+06    -630.585E+03              0.    -1.38636E+06
            8756     1.97068E+06    -635.074E+03              0.    -1.41970E+06
            8757     1.98089E+06    -639.267E+03              0.    -1.45408E+06
            8758     1.99107E+06    -643.163E+03              0.    -1.48953E+06
            8759     2.00122E+06    -646.759E+03              0.    -1.52609E+06
            8760     2.01133E+06    -650.051E+03              0.    -1.56379E+06
            8761     2.02140E+06    -653.038E+03              0.    -1.60267E+06
            8762     2.03143E+06    -655.717E+03              0.    -1.64276E+06
            8763     2.04141E+06    -658.085E+03              0.    -1.68409E+06
            8764     2.05133E+06    -660.139E+03              0.    -1.72672E+06
            8765     2.06120E+06    -661.877E+03              0.    -1.77066E+06
            8766     2.07102E+06    -663.294E+03              0.    -1.81598E+06
            8767     2.08076E+06    -664.389E+03              0.    -1.86271E+06
            8768     2.09044E+06    -665.157E+03              0.    -1.91088E+06
            8769     2.10005E+06    -665.597E+03              0.    -1.96056E+06
            8770     2.10958E+06    -665.705E+03              0.    -2.01177E+06
            8771     2.11903E+06    -665.477E+03              0.    -2.06458E+06
            8772     2.12839E+06    -664.911E+03              0.    -2.11902E+06
            8773     2.13767E+06    -664.004E+03              0.    -2.17515E+06
            8774     2.14684E+06    -662.753E+03              0.    -2.23302E+06
            8775     2.15593E+06    -661.154E+03              0.    -2.29268E+06
            8776     2.16490E+06    -659.206E+03              0.    -2.35419E+06
            8777     2.17377E+06    -656.905E+03              0.    -2.41761E+06
            8778     2.18253E+06    -654.249E+03              0.    -2.48298E+06
            8779     2.19118E+06    -651.235E+03              0.    -2.55037E+06
            8780     2.19970E+06    -647.862E+03              0.    -2.61985E+06
            8781     2.20810E+06    -644.127E+03              0.    -2.69146E+06
            8782     2.21638E+06    -640.028E+03              0.    -2.76529E+06
            8783     2.22453E+06    -635.563E+03              0.    -2.84138E+06
            8784     2.23254E+06    -630.733E+03              0.    -2.91982E+06
            8785     2.24043E+06    -625.535E+03              0.    -3.00066E+06
            8786     2.24817E+06    -619.970E+03              0.    -3.08398E+06
            8787     2.25577E+06    -614.037E+03              0.    -3.16986E+06
            8788     2.26324E+06    -607.736E+03              0.    -3.25836E+06
            8789     2.27056E+06    -601.068E+03              0.    -3.34956E+06
            8790     2.27775E+06    -594.036E+03              0.    -3.44354E+06
            8791     2.28479E+06    -586.640E+03              0.    -3.54038E+06
            8792     2.29170E+06    -578.883E+03              0.    -3.64016E+06
            8793     2.29846E+06    -570.769E+03              0.    -3.74296E+06
            8794     2.30510E+06    -562.302E+03              0.    -3.84887E+06
            8795     2.31160E+06    -553.487E+03              0.    -3.95798E+06
            8796     2.31798E+06    -544.329E+03              0.    -4.07037E+06
            8797     2.32423E+06    -534.835E+03              0.    -4.18612E+06
            8798     2.33038E+06    -525.014E+03              0.    -4.30535E+06
            8799     2.33642E+06    -514.874E+03              0.    -4.42813E+06
            8800     2.34236E+06    -504.425E+03              0.    -4.55456E+06
            8801     2.34823E+06    -493.679E+03              0.    -4.68474E+06
            8802     2.35402E+06    -482.647E+03              0.    -4.81877E+06
            8803     2.35977E+06    -471.346E+03              0.    -4.95674E+06
            8804     2.36547E+06    -459.790E+03              0.    -5.09876E+06
            8805     2.37116E+06    -447.997E+03              0.    -5.24493E+06
            8806     2.37685E+06    -435.985E+03              0.    -5.39536E+06
            8807     2.38257E+06    -423.777E+03              0.    -5.55014E+06
            8808     2.38835E+06    -411.395E+03              0.    -5.70939E+06
            8809     2.39421E+06    -398.864E+03              0.    -5.87322E+06
            8810     2.40020E+06    -386.212E+03              0.    -6.04172E+06
            8811     2.40633E+06    -373.469E+03              0.    -6.21502E+06
            8812     2.41267E+06    -360.667E+03              0.    -6.39321E+06
            8813     2.41924E+06    -347.840E+03              0.    -6.57642E+06
            8814     2.42609E+06    -335.027E+03              0.    -6.76475E+06
            8815     2.43329E+06    -322.269E+03              0.    -6.95832E+06
            8816     2.44088E+06    -309.608E+03              0.    -7.15723E+06
            8817     2.44893E+06    -297.091E+03              0.    -7.36159E+06
            8818     2.45751E+06    -284.770E+03              0.    -7.57153E+06
            8819     2.46668E+06    -272.698E+03              0.    -7.78714E+06
            8820     2.47653E+06    -260.932E+03              0.    -8.00855E+06
            8821     2.48714E+06    -249.533E+03              0.    -8.23585E+06
            8822      2.4986E+06    -238.567E+03              0.    -8.46916E+06
            8823     2.51101E+06    -228.102E+03              0.    -8.70859E+06
            8824     2.52449E+06    -218.213E+03              0.    -8.95423E+06
            8825     2.53913E+06    -208.977E+03              0.    -9.20619E+06
            8826     2.55508E+06    -200.477E+03              0.    -9.46457E+06
            8827     2.57245E+06    -192.799E+03              0.    -9.72947E+06
            8828     2.59139E+06    -186.035E+03              0.    -10.0010E+06
            8829     2.61205E+06    -180.281E+03              0.    -10.2792E+06
            8830     2.63459E+06    -175.638E+03              0.    -10.5642E+06
            8831     2.65919E+06    -172.213E+03              0.    -10.8560E+06
            8832     2.68602E+06    -170.114E+03              0.    -11.1549E+06
            8833     2.71529E+06    -169.459E+03              0.    -11.4607E+06
            8834     2.74720E+06    -170.367E+03              0.    -11.7736E+06
            8835     2.78197E+06    -172.962E+03              0.    -12.0936E+06
            8836     2.81984E+06    -177.373E+03              0.    -12.4208E+06
            8837     2.86106E+06    -183.733E+03              0.    -12.7553E+06
            8838     2.90588E+06    -192.179E+03              0.    -13.0970E+06
            8839     2.95459E+06    -202.850E+03              0.    -13.4460E+06
            8840     3.00749E+06    -215.889E+03              0.    -13.8022E+06
            8841     3.06487E+06    -231.440E+03              0.    -14.1658E+06
            8842     3.12707E+06    -249.650E+03              0.    -14.5366E+06
            8843     3.19442E+06    -270.665E+03              0.    -14.9147E+06
            8844     3.26730E+06    -294.631E+03              0.    -15.3000E+06
            8845     3.34606E+06    -321.692E+03              0.    -15.6924E+06
            8846     3.43111E+06    -351.988E+03              0.    -16.0919E+06
            8847     3.52286E+06    -385.657E+03              0.    -16.4984E+06
            8848     3.62173E+06    -422.827E+03              0.    -16.9117E+06
            8849     3.72816E+06    -463.618E+03              0.    -17.3317E+06
            8850     3.84261E+06    -508.140E+03              0.    -17.7583E+06
            8851     3.96557E+06    -556.489E+03              0.    -18.1913E+06
            8852     4.09750E+06    -608.741E+03              0.    -18.6304E+06
            8853     4.23893E+06    -664.955E+03              0.    -19.0754E+06
            8854     4.39035E+06    -725.162E+03              0.    -19.5260E+06
            8855     4.55229E+06    -789.367E+03              0.    -19.9819E+06
            8856     4.72529E+06    -857.540E+03              0.    -20.4428E+06
            8857     4.90987E+06    -929.612E+03              0.    -20.9082E+06
            8858     5.10657E+06    -1.00547E+06              0.    -21.3776E+06
            8859     5.31593E+06    -1.08494E+06              0.    -21.8507E+06
            8860     5.53847E+06    -1.16780E+06              0.    -22.3268E+06
            8861     5.77471E+06    -1.25376E+06              0.    -22.8052E+06
            8862     6.02517E+06    -1.34245E+06              0.    -23.2854E+06
            8863     6.29030E+06    -1.43342E+06              0.    -23.7665E+06
            8864     6.57057E+06    -1.52611E+06              0.    -24.2477E+06
            8865     6.86639E+06    -1.61988E+06              0.    -24.7280E+06
            8866     7.17813E+06    -1.71394E+06              0.    -25.2064E+06
            8867     7.50610E+06    -1.80739E+06              0.    -25.6818E+06
            8868     7.85056E+06    -1.89917E+06              0.    -26.1528E+06
            8869     8.21168E+06    -1.98808E+06              0.    -26.6180E+06
            8870     8.58954E+06    -2.07274E+06              0.    -27.0759E+06
            8871     8.98414E+06    -2.15155E+06              0.    -27.5248E+06
            8872     9.39534E+06    -2.22274E+06              0.    -27.9626E+06
            8873     9.82288E+06    -2.28430E+06              0.    -28.3874E+06
            8874     10.2664E+06    -2.33396E+06              0.    -28.7967E+06
            8875     10.7252E+06    -2.36922E+06              0.    -29.1879E+06
            8876     11.1987E+06    -2.38726E+06              0.    -29.5583E+06
            8877     11.6858E+06    -2.38498E+06              0.    -29.9047E+06
            8878     12.1854E+06    -2.35894E+06              0.    -30.2236E+06
            8879     12.6961E+06    -2.30538E+06              0.    -30.5113E+06
            8880     13.2162E+06    -2.22014E+06              0.    -30.7636E+06
            8881     13.7437E+06    -2.09868E+06              0.    -30.9759E+06
            8882     14.2765E+06    -1.93606E+06              0.    -31.1433E+06
            8883     14.8118E+06    -1.72688E+06              0.    -31.2603E+06
            8884     15.3467E+06    -1.46527E+06              0.    -31.3212E+06
            8885     15.8779E+06    -1.14488E+06              0.    -31.3194E+06
            8886     16.4017E+06    -758.823E+03              0.    -31.2482E+06
            8887     16.9139E+06    -299.655E+03              0.    -31.1001E+06
            8888     17.4097E+06     240.672E+03              0.    -30.8670E+06
            8889     17.8841E+06     870.861E+03              0.    -30.5405E+06
            8890     18.3313E+06     1.60030E+06              0.    -30.1115E+06
            8891     18.7451E+06     2.43913E+06              0.    -29.5703E+06
            8892     19.1184E+06     3.39833E+06              0.    -28.9067E+06
            8893     19.4437E+06     4.48977E+06              0.    -28.1100E+06
            8894     19.7127E+06     5.72631E+06              0.    -27.1689E+06
            8895     19.9160E+06     7.12189E+06              0.    -26.0716E+06
            8896     20.0433E+06     8.69161E+06              0.    -24.8062E+06
            8897     20.6209E+06     10.4742E+06              0.    -24.7293E+06
            8898     1.18338E+06     532.843E+03              0.    -632.611E+03
            8899     1.17961E+06     497.391E+03              0.    -631.480E+03
            8900     1.19119E+06     469.350E+03              0.    -624.998E+03
            8901     1.20268E+06     441.772E+03              0.    -619.076E+03
            8902     1.21406E+06     414.651E+03              0.    -613.698E+03
            8903     1.22534E+06     387.982E+03              0.    -608.850E+03
            8904     1.23653E+06     361.759E+03              0.    -604.520E+03
            8905     1.24762E+06     335.976E+03              0.    -600.695E+03
            8906     1.25863E+06     310.628E+03              0.    -597.365E+03
            8907     1.26956E+06     285.709E+03              0.    -594.517E+03
            8908     1.28041E+06     261.213E+03              0.    -592.144E+03
            8909     1.29118E+06     237.135E+03              0.    -590.234E+03
            8910     1.30187E+06     213.471E+03              0.    -588.780E+03
            8911     1.31250E+06     190.213E+03              0.    -587.774E+03
            8912     1.32306E+06     167.358E+03              0.    -587.209E+03
            8913     1.33356E+06     144.900E+03              0.    -587.078E+03
            8914     1.34399E+06     122.834E+03              0.    -587.376E+03
            8915     1.35437E+06     101.156E+03              0.    -588.095E+03
            8916     1.36469E+06     79.8588E+03              0.    -589.233E+03
            8917     1.37496E+06     58.9394E+03              0.    -590.784E+03
            8918     1.38518E+06     38.3930E+03              0.    -592.744E+03
            8919     1.39536E+06     18.2145E+03              0.    -595.111E+03
            8920     1.40549E+06    -1.60006E+03              0.    -597.882E+03
            8921     1.41558E+06    -21.0555E+03              0.    -601.054E+03
            8922     1.42564E+06    -40.1558E+03              0.    -604.625E+03
            8923     1.43565E+06    -58.9049E+03              0.    -608.595E+03
            8924     1.44564E+06    -77.3073E+03              0.    -612.963E+03
            8925     1.45559E+06    -95.3664E+03              0.    -617.728E+03
            8926     1.46551E+06    -113.086E+03              0.    -622.890E+03
            8927     1.47540E+06    -130.471E+03              0.    -628.451E+03
            8928     1.48527E+06    -147.523E+03              0.    -634.411E+03
            8929     1.49512E+06    -164.247E+03              0.    -640.772E+03
            8930     1.50494E+06    -180.645E+03              0.    -647.535E+03
            8931     1.51475E+06    -196.721E+03              0.    -654.705E+03
            8932     1.52453E+06    -212.477E+03              0.    -662.282E+03
            8933     1.53430E+06    -227.918E+03              0.    -670.271E+03
            8934     1.54406E+06    -243.044E+03              0.    -678.676E+03
            8935     1.55379E+06    -257.860E+03              0.    -687.500E+03
            8936     1.56352E+06    -272.367E+03              0.    -696.750E+03
            8937     1.57323E+06    -286.568E+03              0.    -706.429E+03
            8938     1.58293E+06    -300.465E+03              0.    -716.544E+03
            8939     1.59262E+06    -314.060E+03              0.    -727.101E+03
            8940     1.60230E+06    -327.355E+03              0.    -738.107E+03
            8941     1.61197E+06    -340.352E+03              0.    -749.568E+03
            8942     1.62163E+06    -353.052E+03              0.    -761.493E+03
            8943     1.63128E+06    -365.456E+03              0.    -773.890E+03
            8944     1.64092E+06    -377.567E+03              0.    -786.767E+03
            8945     1.65055E+06    -389.385E+03              0.    -800.133E+03
            8946     1.66017E+06    -400.912E+03              0.    -813.999E+03
            8947     1.66979E+06    -412.147E+03              0.    -828.375E+03
            8948     1.67939E+06    -423.093E+03              0.    -843.270E+03
            8949     1.68898E+06    -433.749E+03              0.    -858.698E+03
            8950     1.69856E+06    -444.115E+03              0.    -874.669E+03
            8951     1.70813E+06    -454.193E+03              0.    -891.196E+03
            8952     1.71768E+06    -463.982E+03              0.    -908.292E+03
            8953     1.72722E+06    -473.482E+03              0.    -925.971E+03
            8954     1.73675E+06    -482.693E+03              0.    -944.248E+03
            8955     1.74625E+06    -491.615E+03              0.    -963.136E+03
            8956     1.75574E+06    -500.246E+03              0.    -982.653E+03
            8957     1.76520E+06    -508.587E+03              0.    -1.00281E+06
            8958     1.77464E+06    -516.636E+03              0.    -1.02363E+06
            8959     1.78406E+06    -524.393E+03              0.    -1.04513E+06
            8960     1.79345E+06    -531.856E+03              0.    -1.06733E+06
            8961     1.80281E+06    -539.023E+03              0.    -1.09024E+06
            8962     1.81213E+06    -545.895E+03              0.    -1.11389E+06
            8963     1.82142E+06    -552.468E+03              0.    -1.13829E+06
            8964     1.83067E+06    -558.741E+03              0.    -1.16348E+06
            8965     1.83988E+06    -564.712E+03              0.    -1.18946E+06
            8966     1.84904E+06    -570.379E+03              0.    -1.21626E+06
            8967     1.85815E+06    -575.739E+03              0.    -1.24391E+06
            8968     1.86721E+06    -580.791E+03              0.    -1.27244E+06
            8969     1.87621E+06    -585.532E+03              0.    -1.30185E+06
            8970     1.88515E+06    -589.958E+03              0.    -1.33220E+06
            8971     1.89402E+06    -594.068E+03              0.    -1.36349E+06
            8972     1.90283E+06    -597.858E+03              0.    -1.39576E+06
            8973     1.91156E+06    -601.325E+03              0.    -1.42904E+06
            8974     1.92021E+06    -604.466E+03              0.    -1.46336E+06
            8975     1.92877E+06    -607.277E+03              0.    -1.49875E+06
            8976     1.93725E+06    -609.754E+03              0.    -1.53524E+06
            8977     1.94562E+06    -611.895E+03              0.    -1.57287E+06
            8978     1.95390E+06    -613.696E+03              0.    -1.61166E+06
            8979     1.96207E+06    -615.152E+03              0.    -1.65167E+06
            8980     1.97013E+06    -616.259E+03              0.    -1.69291E+06
            8981     1.97806E+06    -617.014E+03              0.    -1.73544E+06
            8982     1.98587E+06    -617.413E+03              0.    -1.77929E+06
            8983     1.99355E+06    -617.450E+03              0.    -1.82450E+06
            8984     2.00109E+06    -617.123E+03              0.    -1.87111E+06
            8985     2.00848E+06    -616.426E+03              0.    -1.91917E+06
            8986     2.01572E+06    -615.355E+03              0.    -1.96871E+06
            8987     2.02280E+06    -613.905E+03              0.    -2.01980E+06
            8988     2.02972E+06    -612.073E+03              0.    -2.07246E+06
            8989     2.03646E+06    -609.853E+03              0.    -2.12676E+06
            8990     2.04301E+06    -607.242E+03              0.    -2.18274E+06
            8991     2.04938E+06    -604.234E+03              0.    -2.24045E+06
            8992     2.05555E+06    -600.826E+03              0.    -2.29995E+06
            8993     2.06152E+06    -597.013E+03              0.    -2.36129E+06
            8994     2.06727E+06    -592.791E+03              0.    -2.42453E+06
            8995     2.07280E+06    -588.156E+03              0.    -2.48971E+06
            8996     2.07811E+06    -583.103E+03              0.    -2.55692E+06
            8997     2.08318E+06    -577.629E+03              0.    -2.62619E+06
            8998     2.08801E+06    -571.731E+03              0.    -2.69760E+06
            8999     2.09259E+06    -565.404E+03              0.    -2.77121E+06
            9000     2.09691E+06    -558.646E+03              0.    -2.84709E+06
            9001     2.10096E+06    -551.453E+03              0.    -2.92530E+06
            9002     2.10474E+06    -543.824E+03              0.    -3.00591E+06
            9003     2.10825E+06    -535.755E+03              0.    -3.08900E+06
            9004     2.11147E+06    -527.246E+03              0.    -3.17463E+06
            9005     2.11439E+06    -518.294E+03              0.    -3.26288E+06
            9006     2.11702E+06    -508.899E+03              0.    -3.35383E+06
            9007     2.11935E+06    -499.059E+03              0.    -3.44755E+06
            9008     2.12137E+06    -488.777E+03              0.    -3.54413E+06
            9009     2.12308E+06    -478.051E+03              0.    -3.64364E+06
            9010     2.12448E+06    -466.885E+03              0.    -3.74618E+06
            9011     2.12555E+06    -455.280E+03              0.    -3.85182E+06
            9012     2.12631E+06    -443.239E+03              0.    -3.96065E+06
            9013     2.12674E+06    -430.766E+03              0.    -4.07277E+06
            9014     2.12686E+06    -417.867E+03              0.    -4.18825E+06
            9015     2.12665E+06    -404.547E+03              0.    -4.30721E+06
            9016     2.12612E+06    -390.814E+03              0.    -4.42972E+06
            9017     2.12527E+06    -376.676E+03              0.    -4.55589E+06
            9018     2.12412E+06    -362.143E+03              0.    -4.68581E+06
            9019     2.12265E+06    -347.226E+03              0.    -4.81958E+06
            9020     2.12089E+06    -331.937E+03              0.    -4.95731E+06
            9021     2.11884E+06    -316.291E+03              0.    -5.09910E+06
            9022     2.11652E+06    -300.304E+03              0.    -5.24504E+06
            9023     2.11393E+06    -283.994E+03              0.    -5.39526E+06
            9024     2.11109E+06    -267.380E+03              0.    -5.54985E+06
            9025     2.10803E+06    -250.484E+03              0.    -5.70892E+06
            9026     2.10475E+06    -233.330E+03              0.    -5.87259E+06
            9027     2.10129E+06    -215.945E+03              0.    -6.04096E+06
            9028     2.09768E+06    -198.357E+03              0.    -6.21415E+06
            9029     2.09393E+06    -180.599E+03              0.    -6.39228E+06
            9030     2.09010E+06    -162.703E+03              0.    -6.57544E+06
            9031     2.08620E+06    -144.707E+03              0.    -6.76377E+06
            9032     2.08230E+06    -126.652E+03              0.    -6.95737E+06
            9033     2.07843E+06    -108.581E+03              0.    -7.15636E+06
            9034     2.07464E+06    -90.5406E+03              0.    -7.36086E+06
            9035     2.07099E+06    -72.5812E+03              0.    -7.57098E+06
            9036     2.06754E+06    -54.7570E+03              0.    -7.78684E+06
            9037     2.06436E+06    -37.1261E+03              0.    -8.00856E+06
            9038     2.06151E+06    -19.7503E+03              0.    -8.23624E+06
            9039     2.05909E+06    -2.69603E+03              0.    -8.47001E+06
            9040     2.05717E+06     13.9662E+03              0.    -8.70998E+06
            9041     2.05586E+06     30.1611E+03              0.    -8.95625E+06
            9042     2.05524E+06     45.8089E+03              0.    -9.20895E+06
            9043     2.05543E+06      60.825E+03              0.    -9.46817E+06
            9044     2.05655E+06     75.1198E+03              0.    -9.73402E+06
            9045     2.05872E+06     88.5986E+03              0.    -10.0066E+06
            9046     2.06207E+06     101.162E+03              0.    -10.2860E+06
            9047     2.06677E+06     112.704E+03              0.    -10.5724E+06
            9048     2.07295E+06     123.115E+03              0.    -10.8657E+06
            9049     2.08079E+06     132.279E+03              0.    -11.1662E+06
            9050     2.09047E+06     140.076E+03              0.    -11.4739E+06
            9051     2.10217E+06     146.378E+03              0.    -11.7888E+06
            9052     2.11610E+06     151.055E+03              0.    -12.1111E+06
            9053     2.13248E+06     153.971E+03              0.    -12.4408E+06
            9054     2.15154E+06     154.985E+03              0.    -12.7779E+06
            9055     2.17351E+06     153.950E+03              0.    -13.1225E+06
            9056     2.19866E+06     150.717E+03              0.    -13.4746E+06
            9057     2.22726E+06     145.132E+03              0.    -13.8343E+06
            9058     2.25959E+06     137.040E+03              0.    -14.2016E+06
            9059     2.29596E+06     126.281E+03              0.    -14.5764E+06
            9060     2.33669E+06     112.695E+03              0.    -14.9588E+06
            9061     2.38212E+06     96.1198E+03              0.    -15.3488E+06
            9062     2.43258E+06     76.3953E+03              0.    -15.7462E+06
            9063     2.48846E+06     53.3623E+03              0.    -16.1510E+06
            9064     2.55014E+06     26.8645E+03              0.    -16.5633E+06
            9065     2.61800E+06    -3.24853E+03              0.    -16.9827E+06
            9066     2.69248E+06    -37.1211E+03              0.    -17.4093E+06
            9067     2.77399E+06    -74.8879E+03              0.    -17.8429E+06
            9068     2.86299E+06    -116.672E+03              0.    -18.2833E+06
            9069     2.95992E+06    -162.583E+03              0.    -18.7303E+06
            9070     3.06526E+06    -212.710E+03              0.    -19.1837E+06
            9071     3.17949E+06    -267.124E+03              0.    -19.6431E+06
            9072     3.30310E+06    -325.867E+03              0.    -20.1084E+06
            9073     3.43658E+06    -388.955E+03              0.    -20.5791E+06
            9074     3.58044E+06    -456.366E+03              0.    -21.0548E+06
            9075     3.73517E+06    -528.038E+03              0.    -21.5352E+06
            9076     3.90127E+06    -603.864E+03              0.    -22.0196E+06
            9077     4.07924E+06    -683.682E+03              0.    -22.5075E+06
            9078     4.26956E+06    -767.271E+03              0.    -22.9984E+06
            9079     4.47269E+06    -854.341E+03              0.    -23.4914E+06
            9080     4.68908E+06    -944.523E+03              0.    -23.9859E+06
            9081     4.91915E+06    -1.03736E+06              0.    -24.4809E+06
            9082     5.16327E+06    -1.13231E+06              0.    -24.9754E+06
            9083     5.42179E+06    -1.22871E+06              0.    -25.4685E+06
            9084     5.69500E+06    -1.32579E+06              0.    -25.9588E+06
            9085     5.98311E+06    -1.42263E+06              0.    -26.4450E+06
            9086     6.28629E+06    -1.51818E+06              0.    -26.9258E+06
            9087     6.60460E+06    -1.61123E+06              0.    -27.3993E+06
            9088     6.93802E+06    -1.70040E+06              0.    -27.8639E+06
            9089     7.28642E+06    -1.78411E+06              0.    -28.3175E+06
            9090     7.64953E+06    -1.86058E+06              0.    -28.7579E+06
            9091     8.02697E+06    -1.92781E+06              0.    -29.1826E+06
            9092     8.41817E+06    -1.98356E+06              0.    -29.5890E+06
            9093     8.82243E+06    -2.02534E+06              0.    -29.9740E+06
            9094     9.23883E+06    -2.05037E+06              0.    -30.3344E+06
            9095     9.66626E+06    -2.05557E+06              0.    -30.6666E+06
            9096     10.1034E+06    -2.03758E+06              0.    -30.9666E+06
            9097     10.5485E+06    -1.99265E+06              0.    -31.2300E+06
            9098     10.9999E+06    -1.91670E+06              0.    -31.4521E+06
            9099     11.4554E+06    -1.80528E+06              0.    -31.6278E+06
            9100     11.9125E+06    -1.65349E+06              0.    -31.7514E+06
            9101     12.3683E+06    -1.45603E+06              0.    -31.8167E+06
            9102     12.8196E+06    -1.20711E+06              0.    -31.8172E+06
            9103     13.2630E+06    -900.455E+03              0.    -31.7457E+06
            9104     13.6943E+06    -529.246E+03              0.    -31.5944E+06
            9105     14.1091E+06    -86.0888E+03              0.    -31.3550E+06
            9106     14.5024E+06     437.044E+03              0.    -31.0188E+06
            9107     14.8685E+06     1.04885E+06              0.    -30.5761E+06
            9108     15.2015E+06     1.75878E+06              0.    -30.0170E+06
            9109     15.4946E+06     2.57710E+06              0.    -29.3309E+06
            9110     15.7401E+06     3.51497E+06              0.    -28.5064E+06
            9111       15.93E+06     4.58456E+06              0.    -27.5319E+06
            9112     16.0550E+06     5.79914E+06              0.    -26.3949E+06
            9113     16.1053E+06     7.17325E+06              0.    -25.0827E+06
            9114     16.5927E+06     8.73102E+06              0.    -24.9814E+06
            9115     1.16659E+06     525.314E+03              0.    -644.130E+03
            9116     1.16290E+06     490.590E+03              0.    -642.979E+03
            9117     1.17425E+06     463.116E+03              0.    -636.392E+03
            9118     1.18549E+06     436.091E+03              0.    -630.368E+03
            9119     1.19664E+06     409.508E+03              0.    -624.891E+03
            9120     1.20769E+06     383.364E+03              0.    -619.948E+03
            9121     1.21865E+06     357.654E+03              0.    -615.526E+03
            9122     1.22952E+06     332.372E+03              0.    -611.612E+03
            9123     1.24030E+06     307.513E+03              0.    -608.196E+03
            9124     1.25100E+06     283.073E+03              0.    -605.266E+03
            9125     1.26162E+06     259.048E+03              0.    -602.813E+03
            9126     1.27216E+06     235.431E+03              0.    -600.828E+03
            9127     1.28263E+06     212.219E+03              0.    -599.301E+03
            9128     1.29302E+06     189.407E+03              0.    -598.226E+03
            9129     1.30334E+06      166.99E+03              0.    -597.594E+03
            9130     1.31360E+06     144.964E+03              0.    -597.398E+03
            9131     1.32379E+06     123.324E+03              0.    -597.634E+03
            9132     1.33392E+06     102.066E+03              0.    -598.296E+03
            9133     1.34399E+06     81.1856E+03              0.    -599.377E+03
            9134     1.35400E+06     60.6784E+03              0.    -600.875E+03
            9135     1.36396E+06     40.5406E+03              0.    -602.785E+03
            9136     1.37387E+06     20.7676E+03              0.    -605.104E+03
            9137     1.38373E+06     1.35613E+03              0.    -607.829E+03
            9138     1.39354E+06    -17.6983E+03              0.    -610.958E+03
            9139     1.40331E+06    -36.3993E+03              0.    -614.488E+03
            9140     1.41303E+06    -54.7500E+03              0.    -618.419E+03
            9141     1.42272E+06    -72.7547E+03              0.    -622.750E+03
            9142     1.43236E+06    -90.4162E+03              0.    -627.480E+03
            9143     1.44196E+06    -107.738E+03              0.    -632.609E+03
            9144     1.45153E+06    -124.724E+03              0.    -638.139E+03
            9145     1.46107E+06    -141.376E+03              0.    -644.069E+03
            9146     1.47057E+06    -157.698E+03              0.    -650.401E+03
            9147     1.48003E+06    -173.692E+03              0.    -657.138E+03
            9148     1.48947E+06    -189.361E+03              0.    -664.282E+03
            9149     1.49888E+06    -204.708E+03              0.    -671.835E+03
            9150     1.50826E+06    -219.735E+03              0.    -679.801E+03
            9151     1.51761E+06    -234.445E+03              0.    -688.184E+03
            9152     1.52693E+06    -248.839E+03              0.    -696.987E+03
            9153     1.53623E+06    -262.919E+03              0.    -706.216E+03
            9154     1.54550E+06    -276.688E+03              0.    -715.875E+03
            9155     1.55474E+06    -290.147E+03              0.    -725.971E+03
            9156     1.56396E+06    -303.298E+03              0.    -736.509E+03
            9157     1.57315E+06    -316.141E+03              0.    -747.496E+03
            9158     1.58232E+06    -328.679E+03              0.    -758.938E+03
            9159     1.59146E+06    -340.913E+03              0.    -770.844E+03
            9160     1.60057E+06    -352.843E+03              0.    -783.222E+03
            9161     1.60965E+06    -364.471E+03              0.    -796.080E+03
            9162     1.61871E+06    -375.796E+03              0.    -809.426E+03
            9163     1.62774E+06    -386.820E+03              0.    -823.271E+03
            9164     1.63674E+06    -397.542E+03              0.    -837.625E+03
            9165     1.64570E+06    -407.964E+03              0.    -852.498E+03
            9166     1.65464E+06    -418.084E+03              0.    -867.902E+03
            9167     1.66354E+06    -427.903E+03              0.    -883.848E+03
            9168     1.67240E+06    -437.421E+03              0.    -900.349E+03
            9169     1.68122E+06    -446.636E+03              0.    -917.417E+03
            9170     1.69001E+06    -455.549E+03              0.    -935.066E+03
            9171     1.69875E+06    -464.158E+03              0.    -953.311E+03
            9172     1.70745E+06    -472.462E+03              0.    -972.165E+03
            9173     1.71610E+06    -480.461E+03              0.    -991.645E+03
            9174     1.72470E+06    -488.153E+03              0.    -1.01177E+06
            9175     1.73325E+06    -495.536E+03              0.    -1.03255E+06
            9176     1.74174E+06    -502.608E+03              0.    -1.05400E+06
            9177     1.75017E+06    -509.368E+03              0.    -1.07615E+06
            9178     1.75854E+06    -515.814E+03              0.    -1.09901E+06
            9179     1.76683E+06    -521.944E+03              0.    -1.12260E+06
            9180     1.77506E+06    -527.754E+03              0.    -1.14695E+06
            9181     1.78321E+06    -533.243E+03              0.    -1.17207E+06
            9182     1.79128E+06    -538.408E+03              0.    -1.19798E+06
            9183     1.79926E+06    -543.245E+03              0.    -1.22472E+06
            9184     1.80715E+06    -547.752E+03              0.    -1.25229E+06
            9185     1.81495E+06    -551.925E+03              0.    -1.28073E+06
            9186     1.82264E+06    -555.762E+03              0.    -1.31007E+06
            9187     1.83023E+06    -559.257E+03              0.    -1.34032E+06
            9188     1.83770E+06    -562.408E+03              0.    -1.37152E+06
            9189     1.84506E+06    -565.211E+03              0.    -1.40368E+06
            9190     1.85228E+06    -567.660E+03              0.    -1.43686E+06
            9191     1.85938E+06    -569.754E+03              0.    -1.47106E+06
            9192     1.86633E+06    -571.485E+03              0.    -1.50633E+06
            9193     1.87314E+06    -572.851E+03              0.    -1.54269E+06
            9194     1.87979E+06    -573.847E+03              0.    -1.58018E+06
            9195     1.88628E+06    -574.467E+03              0.    -1.61884E+06
            9196     1.89261E+06    -574.706E+03              0.    -1.65870E+06
            9197     1.89875E+06    -574.559E+03              0.    -1.69979E+06
            9198     1.90470E+06    -574.022E+03              0.    -1.74215E+06
            9199     1.91046E+06    -573.089E+03              0.    -1.78583E+06
            9200     1.91602E+06    -571.754E+03              0.    -1.83085E+06
            9201     1.92136E+06    -570.011E+03              0.    -1.87728E+06
            9202     1.92648E+06    -567.856E+03              0.    -1.92514E+06
            9203     1.93136E+06    -565.282E+03              0.    -1.97448E+06
            9204     1.93600E+06    -562.283E+03              0.    -2.02534E+06
            9205     1.94039E+06    -558.854E+03              0.    -2.07779E+06
            9206     1.94452E+06    -554.989E+03              0.    -2.13185E+06
            9207     1.94837E+06    -550.681E+03              0.    -2.18758E+06
            9208     1.95194E+06    -545.926E+03              0.    -2.24504E+06
            9209     1.95521E+06    -540.717E+03              0.    -2.30428E+06
            9210     1.95818E+06    -535.047E+03              0.    -2.36534E+06
            9211     1.96083E+06    -528.913E+03              0.    -2.42829E+06
            9212     1.96315E+06    -522.307E+03              0.    -2.49318E+06
            9213     1.96513E+06    -515.224E+03              0.    -2.56008E+06
            9214     1.96676E+06    -507.658E+03              0.    -2.62904E+06
            9215     1.96803E+06    -499.605E+03              0.    -2.70012E+06
            9216     1.96892E+06    -491.059E+03              0.    -2.77339E+06
            9217     1.96943E+06    -482.016E+03              0.    -2.84892E+06
            9218     1.96954E+06    -472.470E+03              0.    -2.92677E+06
            9219     1.96924E+06    -462.417E+03              0.    -3.00701E+06
            9220     1.96851E+06    -451.853E+03              0.    -3.08972E+06
            9221     1.96736E+06    -440.775E+03              0.    -3.17496E+06
            9222     1.96577E+06    -429.180E+03              0.    -3.26281E+06
            9223     1.96372E+06    -417.064E+03              0.    -3.35334E+06
            9224     1.96120E+06    -404.425E+03              0.    -3.44665E+06
            9225     1.95822E+06    -391.262E+03              0.    -3.54279E+06
            9226     1.95475E+06    -377.574E+03              0.    -3.64187E+06
            9227     1.95078E+06    -363.361E+03              0.    -3.74396E+06
            9228     1.94631E+06    -348.622E+03              0.    -3.84914E+06
            9229     1.94133E+06    -333.360E+03              0.    -3.95751E+06
            9230     1.93584E+06    -317.576E+03              0.    -4.06915E+06
            9231     1.92982E+06    -301.273E+03              0.    -4.18416E+06
            9232     1.92326E+06    -284.456E+03              0.    -4.30263E+06
            9233     1.91618E+06    -267.131E+03              0.    -4.42465E+06
            9234     1.90855E+06    -249.303E+03              0.    -4.55033E+06
            9235     1.90038E+06    -230.980E+03              0.    -4.67976E+06
            9236     1.89166E+06    -212.173E+03              0.    -4.81304E+06
            9237     1.88240E+06    -192.892E+03              0.    -4.95027E+06
            9238     1.87260E+06    -173.150E+03              0.    -5.09157E+06
            9239     1.86226E+06    -152.960E+03              0.    -5.23703E+06
            9240     1.85139E+06    -132.340E+03              0.    -5.38676E+06
            9241     1.83999E+06    -111.307E+03              0.    -5.54088E+06
            9242     1.82808E+06    -89.8820E+03              0.    -5.69949E+06
            9243     1.81565E+06    -68.0873E+03              0.    -5.86270E+06
            9244     1.80274E+06    -45.9483E+03              0.    -6.03063E+06
            9245     1.78936E+06    -23.4923E+03              0.    -6.20340E+06
            9246     1.77552E+06        -750.086              0.    -6.38112E+06
            9247     1.76126E+06     22.2454E+03              0.    -6.56391E+06
            9248     1.74659E+06     45.4575E+03              0.    -6.75188E+06
            9249     1.73155E+06     68.8470E+03              0.    -6.94515E+06
            9250     1.71618E+06     92.3710E+03              0.    -7.14386E+06
            9251     1.70051E+06     115.983E+03              0.    -7.34810E+06
            9252     1.68458E+06     139.632E+03              0.    -7.55802E+06
            9253     1.66846E+06     163.266E+03              0.    -7.77372E+06
            9254     1.65218E+06     186.824E+03              0.    -7.99533E+06
            9255     1.63582E+06     210.246E+03              0.    -8.22296E+06
            9256     1.61944E+06     233.463E+03              0.    -8.45675E+06
            9257     1.60310E+06     256.405E+03              0.     -8.6968E+06
            9258     1.58690E+06     278.995E+03              0.    -8.94324E+06
            9259     1.57091E+06     301.152E+03              0.    -9.19618E+06
            9260     1.55523E+06     322.788E+03              0.    -9.45574E+06
            9261     1.53997E+06     343.813E+03              0.    -9.72203E+06
            9262     1.52523E+06     364.129E+03              0.    -9.99516E+06
            9263     1.51113E+06     383.633E+03              0.    -10.2752E+06
            9264     1.49780E+06     402.216E+03              0.    -10.5624E+06
            9265     1.48539E+06     419.765E+03              0.    -10.8567E+06
            9266     1.47404E+06     436.159E+03              0.    -11.1582E+06
            9267     1.46391E+06     451.271E+03              0.    -11.4671E+06
            9268     1.45517E+06     464.971E+03              0.    -11.7834E+06
            9269     1.44801E+06     477.121E+03              0.    -12.1073E+06
            9270     1.44262E+06     487.577E+03              0.    -12.4387E+06
            9271     1.43922E+06     496.190E+03              0.    -12.7778E+06
            9272     1.43802E+06     502.807E+03              0.    -13.1246E+06
            9273     1.43926E+06     507.268E+03              0.    -13.4792E+06
            9274     1.44319E+06     509.409E+03              0.    -13.8415E+06
            9275     1.45007E+06     509.063E+03              0.    -14.2117E+06
            9276     1.46019E+06     506.058E+03              0.    -14.5898E+06
            9277     1.47383E+06     500.219E+03              0.    -14.9756E+06
            9278     1.49132E+06     491.371E+03              0.    -15.3694E+06
            9279     1.51296E+06     479.336E+03              0.    -15.7709E+06
            9280     1.53911E+06     463.937E+03              0.    -16.1803E+06
            9281     1.57011E+06     444.998E+03              0.    -16.5973E+06
            9282     1.60634E+06     422.346E+03              0.    -17.0219E+06
            9283     1.64818E+06     395.814E+03              0.    -17.4541E+06
            9284     1.69604E+06     365.241E+03              0.    -17.8936E+06
            9285     1.75031E+06     330.475E+03              0.    -18.3404E+06
            9286     1.81144E+06     291.375E+03              0.    -18.7942E+06
            9287     1.87985E+06     247.818E+03              0.    -19.2548E+06
            9288     1.95599E+06     199.696E+03              0.    -19.7219E+06
            9289     2.04032E+06     146.923E+03              0.    -20.1953E+06
            9290     2.13330E+06     89.4396E+03              0.    -20.6747E+06
            9291     2.23539E+06     27.2158E+03              0.    -21.1595E+06
            9292     2.34706E+06    -39.7415E+03              0.    -21.6494E+06
            9293     2.46876E+06    -111.386E+03              0.    -22.1438E+06
            9294     2.60097E+06    -187.624E+03              0.    -22.6423E+06
            9295     2.74411E+06    -268.308E+03              0.    -23.1441E+06
            9296     2.89863E+06    -353.232E+03              0.    -23.6486E+06
            9297     3.06494E+06    -442.117E+03              0.    -24.1550E+06
            9298     3.24342E+06    -534.612E+03              0.    -24.6622E+06
            9299     3.43442E+06    -630.277E+03              0.    -25.1695E+06
            9300     3.63826E+06    -728.576E+03              0.    -25.6756E+06
            9301     3.85519E+06    -828.871E+03              0.    -26.1793E+06
            9302     4.08542E+06    -930.399E+03              0.    -26.6792E+06
            9303     4.32909E+06    -1.03227E+06              0.    -27.1739E+06
            9304     4.58625E+06    -1.13347E+06              0.    -27.6615E+06
            9305     4.85687E+06    -1.23279E+06              0.    -28.1402E+06
            9306     5.14082E+06    -1.32890E+06              0.    -28.6080E+06
            9307     5.43785E+06    -1.42025E+06              0.    -29.0625E+06
            9308     5.74759E+06    -1.50510E+06              0.    -29.5011E+06
            9309     6.06951E+06    -1.58151E+06              0.    -29.9211E+06
            9310     6.40292E+06    -1.64729E+06              0.    -30.3193E+06
            9311     6.74697E+06    -1.70002E+06              0.    -30.6924E+06
            9312     7.10060E+06    -1.73698E+06              0.    -31.0365E+06
            9313     7.46253E+06    -1.75521E+06              0.    -31.3476E+06
            9314     7.83127E+06    -1.75140E+06              0.    -31.6211E+06
            9315     8.20505E+06    -1.72193E+06              0.    -31.8522E+06
            9316     8.58181E+06    -1.66284E+06              0.    -32.0354E+06
            9317     8.95923E+06    -1.56976E+06              0.    -32.1649E+06
            9318     9.33461E+06    -1.43795E+06              0.    -32.2343E+06
            9319     9.70493E+06    -1.26221E+06              0.    -32.2369E+06
            9320     10.0668E+06    -1.03688E+06              0.    -32.1650E+06
            9321     10.4162E+06    -755.788E+03              0.    -32.0108E+06
            9322     10.7491E+06    -412.209E+03              0.    -31.7657E+06
            9323     11.0605E+06     1.18788E+03              0.    -31.4204E+06
            9324     11.3451E+06     492.392E+03              0.    -30.9651E+06
            9325     11.5969E+06     1.07012E+06              0.    -30.3894E+06
            9326     11.8094E+06     1.74389E+06              0.    -29.6822E+06
            9327     11.9753E+06     2.52413E+06              0.    -28.8318E+06
            9328     12.0864E+06     3.42225E+06              0.    -27.8259E+06
            9329     12.1339E+06     4.45080E+06              0.    -26.6515E+06
            9330     12.1079E+06     5.62352E+06              0.    -25.2952E+06
            9331     12.5032E+06     6.94977E+06              0.    -25.1693E+06
            9332     1.14955E+06     517.677E+03              0.    -655.409E+03
            9333     1.14594E+06     483.683E+03              0.    -654.238E+03
            9334     1.15705E+06     456.780E+03              0.    -647.549E+03
            9335     1.16806E+06     430.311E+03              0.    -641.426E+03
            9336     1.17898E+06     404.270E+03              0.    -635.852E+03
            9337     1.18980E+06     378.654E+03              0.    -630.816E+03
            9338     1.20053E+06     353.458E+03              0.    -626.303E+03
            9339     1.21117E+06     328.680E+03              0.    -622.301E+03
            9340     1.22172E+06     304.314E+03              0.    -618.799E+03
            9341     1.23219E+06     280.357E+03              0.    -615.786E+03
            9342     1.24258E+06     256.804E+03              0.    -613.253E+03
            9343     1.25289E+06     233.651E+03              0.    -611.190E+03
            9344     1.26312E+06     210.895E+03              0.    -609.589E+03
            9345     1.27328E+06     188.531E+03              0.    -608.441E+03
            9346     1.28336E+06     166.555E+03              0.    -607.739E+03
            9347     1.29338E+06     144.963E+03              0.    -607.477E+03
            9348     1.30333E+06     123.752E+03              0.    -607.648E+03
            9349     1.31321E+06     102.918E+03              0.    -608.246E+03
            9350     1.32303E+06     82.4558E+03              0.    -609.268E+03
            9351     1.33279E+06     62.3631E+03              0.    -610.708E+03
            9352     1.34248E+06     42.6362E+03              0.    -612.562E+03
            9353     1.35213E+06     23.2710E+03              0.    -614.827E+03
            9354     1.36171E+06     4.26469E+03              0.    -617.500E+03
            9355     1.37124E+06    -14.3868E+03              0.    -620.579E+03
            9356     1.38072E+06    -32.6863E+03              0.    -624.061E+03
            9357     1.39015E+06    -50.6368E+03              0.    -627.946E+03
            9358     1.39954E+06    -68.2420E+03              0.    -632.232E+03
            9359     1.40887E+06    -85.5041E+03              0.    -636.919E+03
            9360     1.41816E+06    -102.427E+03              0.    -642.006E+03
            9361     1.42740E+06    -119.012E+03              0.    -647.495E+03
            9362     1.43660E+06    -135.263E+03              0.    -653.386E+03
            9363     1.44575E+06    -151.182E+03              0.    -659.681E+03
            9364     1.45486E+06    -166.771E+03              0.    -666.380E+03
            9365     1.46393E+06    -182.032E+03              0.    -673.488E+03
            9366     1.47296E+06    -196.969E+03              0.    -681.005E+03
            9367     1.48195E+06    -211.582E+03              0.    -688.936E+03
            9368     1.49090E+06    -225.873E+03              0.    -697.284E+03
            9369     1.49981E+06    -239.845E+03              0.    -706.053E+03
            9370     1.50868E+06    -253.498E+03              0.    -715.248E+03
            9371     1.51751E+06    -266.834E+03              0.    -724.874E+03
            9372     1.52630E+06    -279.855E+03              0.    -734.935E+03
            9373     1.53504E+06    -292.562E+03              0.    -745.439E+03
            9374     1.54375E+06    -304.954E+03              0.    -756.391E+03
            9375     1.55241E+06    -317.034E+03              0.    -767.798E+03
            9376     1.56103E+06    -328.802E+03              0.    -779.668E+03
            9377     1.56961E+06    -340.258E+03              0.    -792.009E+03
            9378     1.57814E+06    -351.403E+03              0.    -804.829E+03
            9379     1.58663E+06    -362.236E+03              0.    -818.136E+03
            9380     1.59506E+06    -372.759E+03              0.    -831.941E+03
            9381     1.60345E+06    -382.969E+03              0.    -846.253E+03
            9382     1.61178E+06    -392.868E+03              0.    -861.082E+03
            9383     1.62006E+06    -402.455E+03              0.    -876.440E+03
            9384     1.62828E+06    -411.728E+03              0.    -892.338E+03
            9385     1.63644E+06    -420.687E+03              0.    -908.789E+03
            9386     1.64455E+06    -429.331E+03              0.    -925.804E+03
            9387     1.65258E+06    -437.659E+03              0.    -943.398E+03
            9388     1.66055E+06    -445.669E+03              0.    -961.584E+03
            9389     1.66844E+06    -453.359E+03              0.    -980.377E+03
            9390     1.67626E+06    -460.728E+03              0.    -999.792E+03
            9391     1.68401E+06    -467.774E+03              0.    -1.01984E+06
            9392     1.69166E+06    -474.494E+03              0.    -1.04055E+06
            9393     1.69923E+06    -480.886E+03              0.    -1.06193E+06
            9394     1.70671E+06    -486.947E+03              0.    -1.08400E+06
            9395     1.71409E+06    -492.676E+03              0.    -1.10677E+06
            9396     1.72137E+06    -498.067E+03              0.    -1.13028E+06
            9397     1.72854E+06    -503.120E+03              0.    -1.15453E+06
            9398     1.73559E+06    -507.829E+03              0.    -1.17955E+06
            9399     1.74253E+06    -512.192E+03              0.    -1.20536E+06
            9400     1.74934E+06    -516.205E+03              0.    -1.23198E+06
            9401     1.75602E+06    -519.864E+03              0.    -1.25944E+06
            9402     1.76256E+06    -523.164E+03              0.    -1.28776E+06
            9403     1.76896E+06    -526.102E+03              0.    -1.31696E+06
            9404     1.77520E+06    -528.673E+03              0.    -1.34707E+06
            9405     1.78128E+06    -530.871E+03              0.    -1.37812E+06
            9406     1.78719E+06    -532.693E+03              0.    -1.41014E+06
            9407     1.79293E+06    -534.133E+03              0.    -1.44315E+06
            9408     1.79848E+06    -535.186E+03              0.    -1.47719E+06
            9409     1.80383E+06    -535.846E+03              0.    -1.51228E+06
            9410     1.80899E+06    -536.108E+03              0.    -1.54846E+06
            9411     1.81393E+06    -535.966E+03              0.    -1.58576E+06
            9412     1.81864E+06    -535.413E+03              0.    -1.62421E+06
            9413     1.82313E+06    -534.444E+03              0.    -1.66386E+06
            9414     1.82737E+06    -533.053E+03              0.    -1.70472E+06
            9415     1.83135E+06    -531.233E+03              0.    -1.74685E+06
            9416     1.83508E+06    -528.977E+03              0.    -1.79029E+06
            9417     1.83852E+06    -526.279E+03              0.    -1.83506E+06
            9418     1.84168E+06    -523.131E+03              0.    -1.88122E+06
            9419     1.84454E+06    -519.528E+03              0.    -1.92881E+06
            9420     1.84708E+06    -515.461E+03              0.    -1.97786E+06
            9421     1.84930E+06    -510.924E+03              0.    -2.02843E+06
            9422     1.85118E+06    -505.909E+03              0.    -2.08056E+06
            9423     1.85271E+06    -500.409E+03              0.    -2.13430E+06
            9424     1.85388E+06    -494.417E+03              0.    -2.18969E+06
            9425     1.85466E+06    -487.925E+03              0.    -2.24680E+06
            9426     1.85506E+06    -480.927E+03              0.    -2.30567E+06
            9427     1.85504E+06    -473.413E+03              0.    -2.36636E+06
            9428     1.85461E+06    -465.378E+03              0.    -2.42892E+06
            9429     1.85374E+06    -456.814E+03              0.    -2.49340E+06
            9430     1.85241E+06    -447.713E+03              0.    -2.55988E+06
            9431     1.85062E+06    -438.069E+03              0.    -2.62840E+06
            9432     1.84835E+06    -427.874E+03              0.    -2.69904E+06
            9433     1.84558E+06    -417.122E+03              0.    -2.77185E+06
            9434     1.84229E+06    -405.805E+03              0.    -2.84690E+06
            9435     1.83847E+06    -393.918E+03              0.    -2.92425E+06
            9436     1.83411E+06    -381.455E+03              0.    -3.00398E+06
            9437     1.82919E+06    -368.409E+03              0.    -3.08616E+06
            9438     1.82369E+06    -354.776E+03              0.    -3.17087E+06
            9439     1.81759E+06    -340.549E+03              0.    -3.25816E+06
            9440     1.81088E+06    -325.725E+03              0.    -3.34813E+06
            9441     1.80355E+06    -310.300E+03              0.    -3.44084E+06
            9442     1.79558E+06    -294.269E+03              0.    -3.53639E+06
            9443     1.78695E+06    -277.630E+03              0.    -3.63485E+06
            9444     1.77765E+06    -260.380E+03              0.    -3.73631E+06
            9445     1.76766E+06    -242.519E+03              0.    -3.84085E+06
            9446     1.75697E+06    -224.045E+03              0.    -3.94856E+06
            9447     1.74557E+06    -204.959E+03              0.    -4.05953E+06
            9448     1.73344E+06    -185.262E+03              0.    -4.17386E+06
            9449     1.72056E+06    -164.957E+03              0.    -4.29164E+06
            9450     1.70694E+06    -144.046E+03              0.    -4.41295E+06
            9451     1.69255E+06    -122.534E+03              0.    -4.53791E+06
            9452     1.67738E+06    -100.428E+03              0.    -4.66661E+06
            9453     1.66144E+06    -77.7354E+03              0.    -4.79916E+06
            9454     1.64470E+06    -54.4646E+03              0.    -4.93565E+06
            9455     1.62716E+06    -30.6267E+03              0.    -5.07620E+06
            9456     1.60883E+06    -6.23428E+03              0.    -5.22090E+06
            9457     1.58969E+06     18.6982E+03              0.    -5.36988E+06
            9458     1.56974E+06     44.1541E+03              0.    -5.52323E+06
            9459     1.54898E+06     70.1147E+03              0.    -5.68108E+06
            9460     1.52742E+06     96.5589E+03              0.    -5.84354E+06
            9461     1.50507E+06     123.463E+03              0.    -6.01072E+06
            9462     1.48192E+06     150.801E+03              0.    -6.18275E+06
            9463     1.45799E+06     178.543E+03              0.    -6.35973E+06
            9464     1.43329E+06     206.658E+03              0.    -6.54180E+06
            9465     1.40784E+06     235.111E+03              0.    -6.72906E+06
            9466     1.38166E+06     263.862E+03              0.    -6.92165E+06
            9467     1.35477E+06     292.869E+03              0.    -7.11969E+06
            9468     1.32720E+06     322.088E+03              0.    -7.32330E+06
            9469     1.29898E+06     351.467E+03              0.    -7.53260E+06
            9470     1.27015E+06     380.954E+03              0.    -7.74773E+06
            9471     1.24075E+06     410.491E+03              0.    -7.96881E+06
            9472     1.21083E+06     440.014E+03              0.    -8.19596E+06
            9473     1.18043E+06     469.456E+03              0.    -8.42930E+06
            9474     1.14962E+06     498.745E+03              0.    -8.66897E+06
            9475     1.11847E+06     527.805E+03              0.    -8.91509E+06
            9476     1.08704E+06     556.552E+03              0.    -9.16779E+06
            9477     1.05541E+06     584.899E+03              0.    -9.42717E+06
            9478     1.02367E+06     612.751E+03              0.    -9.69337E+06
            9479     991.909E+03     640.010E+03              0.    -9.96651E+06
            9480     960.238E+03     666.570E+03              0.    -10.2467E+06
            9481     928.765E+03     692.319E+03              0.    -10.5340E+06
            9482     897.612E+03     717.139E+03              0.    -10.8287E+06
            9483     866.908E+03     740.908E+03              0.    -11.1307E+06
            9484     836.796E+03     763.492E+03              0.    -11.4402E+06
            9485     807.428E+03     784.757E+03              0.    -11.7572E+06
            9486     778.966E+03     804.559E+03              0.    -12.0820E+06
            9487     751.587E+03     822.747E+03              0.    -12.4145E+06
            9488     725.477E+03     839.166E+03              0.    -12.7548E+06
            9489     700.837E+03     853.653E+03              0.    -13.1030E+06
            9490     677.878E+03     866.041E+03              0.    -13.4593E+06
            9491     656.827E+03     876.155E+03              0.    -13.8235E+06
            9492     637.923E+03     883.818E+03              0.    -14.1958E+06
            9493     621.422E+03     888.844E+03              0.    -14.5762E+06
            9494     607.590E+03     891.047E+03              0.    -14.9647E+06
            9495     596.709E+03     890.235E+03              0.    -15.3614E+06
            9496     589.078E+03     886.214E+03              0.    -15.7661E+06
            9497     585.007E+03     878.791E+03              0.    -16.1790E+06
            9498     584.823E+03     867.768E+03              0.    -16.5998E+06
            9499     588.864E+03     852.953E+03              0.    -17.0286E+06
            9500     597.486E+03     834.152E+03              0.    -17.4653E+06
            9501     611.055E+03     811.179E+03              0.    -17.9097E+06
            9502     629.951E+03     783.853E+03              0.    -18.3618E+06
            9503     654.567E+03     752.002E+03              0.    -18.8212E+06
            9504     685.304E+03     715.466E+03              0.    -19.2879E+06
            9505     722.574E+03     674.098E+03              0.    -19.7615E+06
            9506     766.796E+03     627.771E+03              0.    -20.2418E+06
            9507     818.396E+03     576.376E+03              0.    -20.7285E+06
            9508     877.803E+03     519.832E+03              0.    -21.2211E+06
            9509     945.445E+03     458.089E+03              0.    -21.7192E+06
            9510     1.02175E+06     391.128E+03              0.    -22.2223E+06
            9511     1.10714E+06     318.973E+03              0.    -22.7298E+06
            9512     1.20202E+06     241.693E+03              0.    -23.2412E+06
            9513     1.30680E+06     159.409E+03              0.    -23.7556E+06
            9514     1.42185E+06     72.3036E+03              0.    -24.2723E+06
            9515     1.54753E+06    -19.3756E+03              0.    -24.7904E+06
            9516     1.68416E+06    -115.306E+03              0.    -25.3088E+06
            9517     1.83202E+06    -215.079E+03              0.    -25.8263E+06
            9518     1.99135E+06    -318.198E+03              0.    -26.3418E+06
            9519     2.16234E+06    -424.057E+03              0.    -26.8538E+06
            9520     2.34511E+06    -531.941E+03              0.    -27.3607E+06
            9521     2.53972E+06    -641.010E+03              0.    -27.8607E+06
            9522     2.74612E+06    -750.285E+03              0.    -28.3520E+06
            9523     2.96420E+06    -858.643E+03              0.    -28.8323E+06
            9524     3.19371E+06    -964.792E+03              0.    -29.2993E+06
            9525     3.43430E+06    -1.06727E+06              0.    -29.7503E+06
            9526     3.68549E+06    -1.16443E+06              0.    -30.1824E+06
            9527     3.94662E+06    -1.25441E+06              0.    -30.5924E+06
            9528     4.21690E+06    -1.33512E+06              0.    -30.9768E+06
            9529     4.49534E+06    -1.40425E+06              0.    -31.3316E+06
            9530     4.78075E+06    -1.45923E+06              0.    -31.6526E+06
            9531     5.07171E+06    -1.49719E+06              0.    -31.9353E+06
            9532     5.36658E+06    -1.51500E+06              0.    -32.1743E+06
            9533     5.66342E+06    -1.50918E+06              0.    -32.3643E+06
            9534     5.96004E+06    -1.47593E+06              0.    -32.4992E+06
            9535     6.25391E+06    -1.41104E+06              0.    -32.5723E+06
            9536     6.54216E+06    -1.30994E+06              0.    -32.5767E+06
            9537     6.82154E+06    -1.16760E+06              0.    -32.5046E+06
            9538     7.08840E+06    -978.491E+03              0.    -32.3479E+06
            9539     7.33862E+06    -736.596E+03              0.    -32.0974E+06
            9540     7.56762E+06    -435.296E+03              0.    -31.7439E+06
            9541     7.77025E+06    -67.3421E+03              0.    -31.2771E+06
            9542     7.94077E+06     375.219E+03              0.    -30.6861E+06
            9543     8.07280E+06     901.139E+03              0.    -29.9596E+06
            9544     8.15922E+06     1.52003E+06              0.    -29.0851E+06
            9545     8.19213E+06     2.24252E+06              0.    -28.0500E+06
            9546     8.16269E+06     3.08028E+06              0.    -26.8406E+06
            9547     8.06096E+06     4.04623E+06              0.    -25.4429E+06
            9548     8.36151E+06     5.13374E+06              0.    -25.2915E+06
            9549     1.13229E+06     509.934E+03              0.    -666.447E+03
            9550     1.12875E+06     476.675E+03              0.    -665.257E+03
            9551     1.13963E+06     450.345E+03              0.    -658.470E+03
            9552     1.15040E+06     424.433E+03              0.    -652.249E+03
            9553     1.16108E+06     398.936E+03              0.    -646.581E+03
            9554     1.17167E+06     373.851E+03              0.    -641.452E+03
            9555     1.18217E+06     349.174E+03              0.    -636.849E+03
            9556     1.19258E+06     324.902E+03              0.    -632.759E+03
            9557     1.20290E+06     301.031E+03              0.    -629.172E+03
            9558     1.21314E+06     277.558E+03              0.    -626.076E+03
            9559     1.22330E+06     254.481E+03              0.    -623.462E+03
            9560     1.23338E+06     231.794E+03              0.    -621.320E+03
            9561     1.24337E+06     209.496E+03              0.    -619.642E+03
            9562     1.25330E+06     187.582E+03              0.    -618.419E+03
            9563     1.26314E+06     166.049E+03              0.    -617.645E+03
            9564     1.27292E+06     144.895E+03              0.    -617.312E+03
            9565     1.28262E+06     124.114E+03              0.    -617.415E+03
            9566     1.29225E+06     103.706E+03              0.    -617.947E+03
            9567     1.30182E+06     83.6645E+03              0.    -618.904E+03
            9568     1.31132E+06     63.9884E+03              0.    -620.281E+03
            9569     1.32076E+06     44.6744E+03              0.    -622.074E+03
            9570     1.33013E+06     25.7188E+03              0.    -624.280E+03
            9571     1.33944E+06     7.11932E+03              0.    -626.895E+03
            9572     1.34870E+06    -11.1274E+03              0.    -629.917E+03
            9573     1.35789E+06    -29.0240E+03              0.    -633.345E+03
            9574     1.36703E+06    -46.5729E+03              0.    -637.176E+03
            9575     1.37611E+06    -63.7772E+03              0.    -641.410E+03
            9576     1.38513E+06    -80.6388E+03              0.    -646.045E+03
            9577     1.39410E+06    -97.1606E+03              0.    -651.082E+03
            9578     1.40302E+06    -113.345E+03              0.    -656.522E+03
            9579     1.41188E+06    -129.193E+03              0.    -662.364E+03
            9580     1.42069E+06    -144.708E+03              0.    -668.610E+03
            9581     1.42945E+06    -159.891E+03              0.    -675.262E+03
            9582     1.43815E+06    -174.745E+03              0.    -682.322E+03
            9583     1.44681E+06    -189.270E+03              0.    -689.793E+03
            9584     1.45541E+06    -203.469E+03              0.    -697.677E+03
            9585     1.46396E+06    -217.342E+03              0.    -705.978E+03
            9586     1.47245E+06    -230.891E+03              0.    -714.700E+03
            9587     1.48090E+06    -244.118E+03              0.    -723.848E+03
            9588     1.48929E+06    -257.022E+03              0.    -733.425E+03
            9589     1.49762E+06    -269.605E+03              0.    -743.438E+03
            9590     1.50590E+06    -281.868E+03              0.    -753.893E+03
            9591     1.51412E+06    -293.810E+03              0.    -764.794E+03
            9592     1.52229E+06    -305.433E+03              0.    -776.150E+03
            9593     1.53039E+06    -316.736E+03              0.    -787.967E+03
            9594     1.53844E+06    -327.720E+03              0.    -800.254E+03
            9595     1.54642E+06    -338.383E+03              0.    -813.017E+03
            9596     1.55433E+06    -348.726E+03              0.    -826.267E+03
            9597     1.56218E+06    -358.749E+03              0.    -840.011E+03
            9598     1.56995E+06    -368.450E+03              0.    -854.261E+03
            9599     1.57766E+06    -377.828E+03              0.    -869.025E+03
            9600     1.58529E+06    -386.883E+03              0.    -884.316E+03
            9601     1.59284E+06    -395.613E+03              0.    -900.143E+03
            9602     1.60030E+06    -404.017E+03              0.    -916.520E+03
            9603     1.60768E+06    -412.093E+03              0.    -933.458E+03
            9604     1.61497E+06    -419.839E+03              0.    -950.971E+03
            9605     1.62217E+06    -427.253E+03              0.    -969.073E+03
            9606     1.62927E+06    -434.333E+03              0.    -987.777E+03
            9607     1.63627E+06    -441.076E+03              0.    -1.00710E+06
            9608     1.64315E+06    -447.480E+03              0.    -1.02705E+06
            9609     1.64993E+06    -453.541E+03              0.    -1.04766E+06
            9610     1.65658E+06    -459.258E+03              0.    -1.06893E+06
            9611     1.66312E+06    -464.626E+03              0.    -1.09088E+06
            9612     1.66952E+06    -469.641E+03              0.    -1.11354E+06
            9613     1.67578E+06    -474.301E+03              0.    -1.13692E+06
            9614     1.68190E+06    -478.601E+03              0.    -1.16104E+06
            9615     1.68788E+06    -482.537E+03              0.    -1.18592E+06
            9616     1.69369E+06    -486.105E+03              0.    -1.21159E+06
            9617     1.69934E+06    -489.300E+03              0.    -1.23806E+06
            9618     1.70482E+06    -492.118E+03              0.    -1.26536E+06
            9619     1.71011E+06    -494.552E+03              0.    -1.29351E+06
            9620     1.71522E+06    -496.599E+03              0.    -1.32254E+06
            9621     1.72013E+06    -498.253E+03              0.    -1.35247E+06
            9622     1.72483E+06    -499.507E+03              0.    -1.38333E+06
            9623     1.72931E+06    -500.357E+03              0.    -1.41514E+06
            9624     1.73356E+06    -500.796E+03              0.    -1.44794E+06
            9625     1.73758E+06    -500.817E+03              0.    -1.48176E+06
            9626     1.74135E+06    -500.415E+03              0.    -1.51662E+06
            9627     1.74486E+06    -499.582E+03              0.    -1.55256E+06
            9628     1.74810E+06    -498.312E+03              0.    -1.58960E+06
            9629     1.75106E+06    -496.598E+03              0.    -1.62779E+06
            9630     1.75372E+06    -494.432E+03              0.    -1.66716E+06
            9631     1.75608E+06    -491.807E+03              0.    -1.70774E+06
            9632     1.75811E+06    -488.715E+03              0.    -1.74957E+06
            9633     1.75981E+06    -485.148E+03              0.    -1.79269E+06
            9634     1.76117E+06    -481.099E+03              0.    -1.83714E+06
            9635     1.76216E+06    -476.559E+03              0.    -1.88296E+06
            9636     1.76277E+06    -471.521E+03              0.    -1.93019E+06
            9637     1.76300E+06    -465.974E+03              0.    -1.97888E+06
            9638     1.76282E+06    -459.912E+03              0.    -2.02906E+06
            9639     1.76221E+06    -453.325E+03              0.    -2.08079E+06
            9640     1.76116E+06    -446.205E+03              0.    -2.13412E+06
            9641     1.75966E+06    -438.543E+03              0.    -2.18909E+06
            9642     1.75769E+06    -430.330E+03              0.    -2.24575E+06
            9643     1.75523E+06    -421.557E+03              0.    -2.30416E+06
            9644     1.75226E+06    -412.215E+03              0.    -2.36436E+06
            9645     1.74876E+06    -402.295E+03              0.    -2.42643E+06
            9646     1.74472E+06    -391.788E+03              0.    -2.49040E+06
            9647     1.74012E+06    -380.686E+03              0.    -2.55634E+06
            9648     1.73493E+06    -368.979E+03              0.    -2.62431E+06
            9649     1.72915E+06    -356.659E+03              0.    -2.69438E+06
            9650     1.72274E+06    -343.718E+03              0.    -2.76660E+06
            9651     1.71569E+06    -330.146E+03              0.    -2.84104E+06
            9652     1.70798E+06    -315.936E+03              0.    -2.91777E+06
            9653     1.69958E+06    -301.079E+03              0.    -2.99685E+06
            9654     1.69049E+06    -285.569E+03              0.    -3.07837E+06
            9655     1.68067E+06    -269.398E+03              0.    -3.16238E+06
            9656     1.67010E+06    -252.558E+03              0.    -3.24897E+06
            9657     1.65877E+06    -235.043E+03              0.    -3.33821E+06
            9658     1.64665E+06    -216.848E+03              0.    -3.43017E+06
            9659     1.63373E+06    -197.967E+03              0.    -3.52495E+06
            9660     1.61997E+06    -178.394E+03              0.    -3.62262E+06
            9661     1.60537E+06    -158.126E+03              0.    -3.72327E+06
            9662     1.58989E+06    -137.159E+03              0.    -3.82698E+06
            9663     1.57353E+06    -115.490E+03              0.    -3.93384E+06
            9664     1.55625E+06    -93.1188E+03              0.    -4.04395E+06
            9665     1.53804E+06    -70.0431E+03              0.    -4.15738E+06
            9666     1.51888E+06    -46.2636E+03              0.    -4.27425E+06
            9667     1.49875E+06    -21.7819E+03              0.    -4.39464E+06
            9668     1.47763E+06     3.39944E+03              0.    -4.51866E+06
            9669     1.45551E+06     29.2763E+03              0.    -4.64640E+06
            9670     1.43236E+06     55.8432E+03              0.    -4.77796E+06
            9671     1.40818E+06     83.0930E+03              0.    -4.91346E+06
            9672     1.38294E+06     111.017E+03              0.    -5.05300E+06
            9673     1.35664E+06     139.604E+03              0.    -5.19669E+06
            9674     1.32926E+06     168.842E+03              0.    -5.34463E+06
            9675     1.30079E+06     198.716E+03              0.    -5.49694E+06
            9676     1.27123E+06     229.209E+03              0.    -5.65374E+06
            9677     1.24056E+06     260.302E+03              0.    -5.81514E+06
            9678     1.20878E+06     291.972E+03              0.    -5.98125E+06
            9679     1.17589E+06     324.196E+03              0.    -6.15221E+06
            9680     1.14189E+06     356.945E+03              0.    -6.32812E+06
            9681     1.10677E+06     390.188E+03              0.    -6.50912E+06
            9682     1.07056E+06     423.893E+03              0.    -6.69532E+06
            9683     1.03325E+06     458.021E+03              0.    -6.88686E+06
            9684     994.851E+03     492.532E+03              0.    -7.08385E+06
            9685     955.388E+03     527.380E+03              0.    -7.28643E+06
            9686     914.875E+03     562.517E+03              0.    -7.49472E+06
            9687     873.336E+03     597.889E+03              0.    -7.70886E+06
            9688     830.801E+03     633.440E+03              0.    -7.92897E+06
            9689     787.301E+03     669.106E+03              0.    -8.15519E+06
            9690     742.875E+03     704.820E+03              0.    -8.38764E+06
            9691     697.568E+03     740.511E+03              0.    -8.62646E+06
            9692     651.428E+03     776.100E+03              0.    -8.87177E+06
            9693     604.511E+03     811.504E+03              0.    -9.12370E+06
            9694     556.881E+03     846.634E+03              0.    -9.38240E+06
            9695     508.607E+03     881.394E+03              0.    -9.64797E+06
            9696     459.767E+03     915.685E+03              0.    -9.92055E+06
            9697     410.445E+03     949.398E+03              0.    -10.2003E+06
            9698     360.735E+03     982.419E+03              0.    -10.4872E+06
            9699     310.741E+03     1.01463E+06              0.    -10.7816E+06
            9700     260.572E+03     1.04590E+06              0.    -11.0834E+06
            9701     210.351E+03     1.07609E+06              0.    -11.3928E+06
            9702     160.209E+03     1.10507E+06              0.    -11.7100E+06
            9703     110.289E+03     1.13268E+06              0.    -12.0349E+06
            9704     60.7424E+03     1.15877E+06              0.    -12.3678E+06
            9705     11.7348E+03     1.18317E+06              0.    -12.7086E+06
            9706    -36.5579E+03     1.20573E+06              0.    -13.0576E+06
            9707    -83.9468E+03     1.22625E+06              0.    -13.4147E+06
            9708    -130.231E+03     1.24456E+06              0.    -13.7800E+06
            9709    -175.196E+03     1.26047E+06              0.    -14.1536E+06
            9710    -218.615E+03     1.27378E+06              0.    -14.5355E+06
            9711    -260.248E+03     1.28429E+06              0.    -14.9257E+06
            9712    -299.839E+03     1.29179E+06              0.    -15.3244E+06
            9713    -337.121E+03     1.29608E+06              0.    -15.7314E+06
            9714    -371.813E+03     1.29695E+06              0.    -16.1467E+06
            9715    -403.618E+03     1.29417E+06              0.    -16.5704E+06
            9716    -432.230E+03     1.28753E+06              0.    -17.0023E+06
            9717    -457.325E+03     1.27682E+06              0.    -17.4425E+06
            9718    -478.569E+03     1.26182E+06              0.    -17.8907E+06
            9719    -495.617E+03     1.24233E+06              0.    -18.3468E+06
            9720    -508.111E+03     1.21813E+06              0.    -18.8107E+06
            9721    -515.684E+03     1.18903E+06              0.    -19.2823E+06
            9722    -517.959E+03     1.15484E+06              0.    -19.7611E+06
            9723    -514.553E+03     1.11540E+06              0.    -20.2470E+06
            9724    -505.077E+03     1.07054E+06              0.    -20.7397E+06
            9725    -489.139E+03     1.02014E+06              0.    -21.2387E+06
            9726    -466.345E+03     964.072E+03              0.    -21.7436E+06
            9727    -436.304E+03     902.262E+03              0.    -22.2539E+06
            9728    -398.630E+03     834.659E+03              0.    -22.7691E+06
            9729    -352.945E+03     761.252E+03              0.    -23.2885E+06
            9730    -298.886E+03     682.072E+03              0.    -23.8114E+06
            9731    -236.104E+03     597.203E+03              0.    -24.3369E+06
            9732    -164.275E+03     506.784E+03              0.    -24.8641E+06
            9733    -83.1042E+03     411.018E+03              0.    -25.3920E+06
            9734     7.67026E+03     310.179E+03              0.    -25.9194E+06
            9735     108.268E+03     204.619E+03              0.    -26.4450E+06
            9736     218.858E+03     94.7832E+03              0.    -26.9673E+06
            9737     339.554E+03    -18.7918E+03              0.    -27.4848E+06
            9738     470.401E+03    -135.461E+03              0.    -27.9956E+06
            9739     611.369E+03    -254.457E+03              0.    -28.4978E+06
            9740     762.340E+03    -374.892E+03              0.    -28.9890E+06
            9741     923.096E+03    -495.731E+03              0.    -29.4669E+06
            9742     1.09331E+06    -615.793E+03              0.    -29.9287E+06
            9743     1.27253E+06    -733.728E+03              0.    -30.3714E+06
            9744     1.46017E+06    -848.004E+03              0.    -30.7917E+06
            9745     1.65548E+06    -956.904E+03              0.    -31.1860E+06
            9746     1.85755E+06    -1.05849E+06              0.    -31.5503E+06
            9747     2.06528E+06    -1.15061E+06              0.    -31.8801E+06
            9748     2.27735E+06    -1.23086E+06              0.    -32.1708E+06
            9749     2.49223E+06    -1.29657E+06              0.    -32.4170E+06
            9750     2.70813E+06    -1.34479E+06              0.    -32.6130E+06
            9751     2.92300E+06    -1.37225E+06              0.    -32.7527E+06
            9752     3.13446E+06    -1.37534E+06              0.    -32.8292E+06
            9753     3.33983E+06    -1.35009E+06              0.    -32.8353E+06
            9754     3.53605E+06    -1.29212E+06              0.    -32.7631E+06
            9755     3.71967E+06    -1.19658E+06              0.    -32.6040E+06
            9756      3.8868E+06    -1.05817E+06              0.    -32.3490E+06
            9757     4.03306E+06    -871.008E+03              0.    -31.9881E+06
            9758     4.15355E+06    -628.610E+03              0.    -31.5109E+06
            9759     4.24276E+06    -323.820E+03              0.    -30.9061E+06
            9760     4.29457E+06     51.2937E+03              0.    -30.1619E+06
            9761     4.30209E+06     505.510E+03              0.    -29.2655E+06
            9762     4.25765E+06     1.04859E+06              0.    -28.2035E+06
            9763     4.15269E+06     1.69137E+06              0.    -26.9618E+06
            9764     3.97776E+06     2.44598E+06              0.    -25.5255E+06
            9765     4.18282E+06     3.28916E+06              0.    -25.3483E+06
            9766     1.11480E+06     502.091E+03              0.    -677.243E+03
            9767     1.11135E+06     469.568E+03              0.    -676.035E+03
            9768     1.12198E+06     443.813E+03              0.    -669.152E+03
            9769     1.13252E+06     418.462E+03              0.    -662.837E+03
            9770     1.14296E+06     393.511E+03              0.    -657.076E+03
            9771     1.15332E+06     368.958E+03              0.    -651.856E+03
            9772     1.16359E+06     344.801E+03              0.    -647.164E+03
            9773     1.17376E+06     321.037E+03              0.    -642.987E+03
            9774     1.18386E+06     297.663E+03              0.    -639.314E+03
            9775     1.19387E+06     274.677E+03              0.    -636.135E+03
            9776     1.20379E+06     252.077E+03              0.    -633.438E+03
            9777     1.21363E+06     229.859E+03              0.    -631.216E+03
            9778     1.22340E+06     208.021E+03              0.    -629.459E+03
            9779     1.23308E+06     186.559E+03              0.    -628.160E+03
            9780     1.24269E+06     165.471E+03              0.    -627.311E+03
            9781     1.25222E+06     144.755E+03              0.    -626.904E+03
            9782     1.26168E+06     124.407E+03              0.    -626.935E+03
            9783     1.27107E+06     104.426E+03              0.    -627.397E+03
            9784     1.28038E+06     84.8074E+03              0.    -628.285E+03
            9785     1.28962E+06     65.5494E+03              0.    -629.594E+03
            9786     1.29880E+06     46.6496E+03              0.    -631.321E+03
            9787     1.30790E+06     28.1051E+03              0.    -633.462E+03
            9788     1.31694E+06     9.91386E+03              0.    -636.014E+03
            9789     1.32592E+06    -7.92698E+03              0.    -638.973E+03
            9790     1.33482E+06    -25.4195E+03              0.    -642.339E+03
            9791     1.34367E+06    -42.5656E+03              0.    -646.109E+03
            9792     1.35245E+06    -59.3680E+03              0.    -650.283E+03
            9793     1.36116E+06    -75.8282E+03              0.    -654.859E+03
            9794     1.36982E+06    -91.9487E+03              0.    -659.837E+03
            9795     1.37841E+06    -107.731E+03              0.    -665.218E+03
            9796     1.38694E+06    -123.176E+03              0.    -671.003E+03
            9797     1.39541E+06    -138.287E+03              0.    -677.191E+03
            9798     1.40381E+06    -153.064E+03              0.    -683.785E+03
            9799     1.41215E+06    -167.510E+03              0.    -690.788E+03
            9800     1.42043E+06    -181.624E+03              0.    -698.200E+03
            9801     1.42865E+06    -195.408E+03              0.    -706.026E+03
            9802     1.43680E+06    -208.864E+03              0.    -714.268E+03
            9803     1.44488E+06    -221.992E+03              0.     -722.93E+03
            9804     1.45290E+06    -234.792E+03              0.    -732.017E+03
            9805     1.46086E+06    -247.265E+03              0.    -741.533E+03
            9806     1.46874E+06    -259.411E+03              0.    -751.483E+03
            9807     1.47655E+06    -271.232E+03              0.    -761.873E+03
            9808     1.48430E+06    -282.725E+03              0.    -772.709E+03
            9809     1.49196E+06    -293.892E+03              0.    -783.997E+03
            9810     1.49956E+06    -304.732E+03              0.    -795.745E+03
            9811     1.50707E+06    -315.245E+03              0.    -807.959E+03
            9812     1.51450E+06    -325.429E+03              0.    -820.649E+03
            9813     1.52185E+06    -335.285E+03              0.    -833.821E+03
            9814     1.52911E+06    -344.810E+03              0.    -847.486E+03
            9815     1.53629E+06    -354.004E+03              0.    -861.653E+03
            9816     1.54337E+06    -362.865E+03              0.    -876.332E+03
            9817     1.55035E+06    -371.392E+03              0.    -891.533E+03
            9818     1.55723E+06    -379.582E+03              0.    -907.268E+03
            9819     1.56401E+06    -387.434E+03              0.    -923.548E+03
            9820     1.57067E+06    -394.945E+03              0.    -940.385E+03
            9821     1.57723E+06    -402.114E+03              0.    -957.792E+03
            9822     1.58366E+06    -408.937E+03              0.    -975.783E+03
            9823     1.58997E+06    -415.411E+03              0.    -994.372E+03
            9824     1.59615E+06    -421.533E+03              0.    -1.01357E+06
            9825     1.60219E+06    -427.300E+03              0.    -1.03340E+06
            9826     1.60809E+06    -432.709E+03              0.    -1.05387E+06
            9827     1.61384E+06    -437.756E+03              0.    -1.07501E+06
            9828     1.61943E+06    -442.436E+03              0.    -1.09682E+06
            9829     1.62487E+06    -446.745E+03              0.    -1.11932E+06
            9830     1.63013E+06    -450.680E+03              0.    -1.14254E+06
            9831     1.63521E+06    -454.234E+03              0.    -1.16649E+06
            9832     1.64011E+06    -457.405E+03              0.    -1.19120E+06
            9833     1.64481E+06    -460.185E+03              0.    -1.21668E+06
            9834     1.64931E+06    -462.570E+03              0.    -1.24296E+06
            9835     1.65360E+06    -464.555E+03              0.    -1.27006E+06
            9836     1.65766E+06    -466.132E+03              0.    -1.29800E+06
            9837     1.66149E+06    -467.297E+03              0.    -1.32681E+06
            9838     1.66508E+06    -468.043E+03              0.    -1.35651E+06
            9839     1.66841E+06    -468.363E+03              0.    -1.38713E+06
            9840     1.67148E+06    -468.251E+03              0.    -1.41870E+06
            9841     1.67427E+06    -467.699E+03              0.    -1.45124E+06
            9842     1.67677E+06    -466.700E+03              0.    -1.48478E+06
            9843     1.67897E+06    -465.247E+03              0.    -1.51936E+06
            9844     1.68086E+06    -463.331E+03              0.    -1.55500E+06
            9845     1.68241E+06    -460.946E+03              0.    -1.59173E+06
            9846     1.68363E+06    -458.082E+03              0.    -1.62960E+06
            9847     1.68449E+06    -454.732E+03              0.    -1.66863E+06
            9848     1.68498E+06    -450.886E+03              0.    -1.70885E+06
            9849     1.68508E+06    -446.536E+03              0.    -1.75032E+06
            9850     1.68478E+06    -441.674E+03              0.    -1.79306E+06
            9851     1.68406E+06    -436.288E+03              0.    -1.83711E+06
            9852     1.68291E+06    -430.371E+03              0.    -1.88251E+06
            9853     1.68131E+06    -423.912E+03              0.    -1.92931E+06
            9854     1.67923E+06    -416.902E+03              0.    -1.97755E+06
            9855     1.67667E+06    -409.332E+03              0.    -2.02727E+06
            9856     1.67360E+06    -401.190E+03              0.    -2.07852E+06
            9857     1.67001E+06    -392.467E+03              0.    -2.13134E+06
            9858     1.66587E+06    -383.152E+03              0.    -2.18579E+06
            9859     1.66117E+06    -373.235E+03              0.    -2.24191E+06
            9860     1.65588E+06    -362.706E+03              0.    -2.29976E+06
            9861     1.64998E+06    -351.554E+03              0.    -2.35939E+06
            9862     1.64345E+06    -339.769E+03              0.    -2.42085E+06
            9863     1.63627E+06    -327.340E+03              0.    -2.48420E+06
            9864     1.62842E+06    -314.256E+03              0.    -2.54949E+06
            9865     1.61987E+06    -300.508E+03              0.     -2.6168E+06
            9866     1.61061E+06    -286.084E+03              0.    -2.68617E+06
            9867     1.60060E+06    -270.974E+03              0.    -2.75768E+06
            9868     1.58982E+06    -255.168E+03              0.    -2.83139E+06
            9869     1.57825E+06    -238.657E+03              0.    -2.90735E+06
            9870     1.56586E+06    -221.429E+03              0.    -2.98565E+06
            9871     1.55263E+06    -203.477E+03              0.    -3.06636E+06
            9872     1.53853E+06    -184.790E+03              0.    -3.14953E+06
            9873     1.52353E+06    -165.360E+03              0.    -3.23526E+06
            9874     1.50762E+06    -145.178E+03              0.    -3.32362E+06
            9875     1.49075E+06    -124.236E+03              0.    -3.41467E+06
            9876     1.47292E+06    -102.527E+03              0.    -3.50851E+06
            9877     1.45408E+06    -80.0439E+03              0.    -3.60522E+06
            9878     1.43422E+06    -56.7803E+03              0.    -3.70488E+06
            9879     1.41330E+06    -32.7308E+03              0.    -3.80757E+06
            9880     1.39130E+06    -7.89066E+03              0.    -3.91339E+06
            9881     1.36819E+06     17.7439E+03              0.    -4.02243E+06
            9882     1.34395E+06     44.1759E+03              0.    -4.13477E+06
            9883     1.31855E+06     71.4071E+03              0.    -4.25052E+06
            9884     1.29196E+06      99.438E+03              0.    -4.36976E+06
            9885     1.26416E+06     128.268E+03              0.    -4.49260E+06
            9886     1.23513E+06     157.896E+03              0.    -4.61915E+06
            9887     1.20483E+06     188.317E+03              0.    -4.74949E+06
            9888     1.17325E+06     219.527E+03              0.    -4.88375E+06
            9889     1.14036E+06     251.519E+03              0.    -5.02202E+06
            9890     1.10614E+06     284.284E+03              0.    -5.16442E+06
            9891     1.07057E+06     317.812E+03              0.    -5.31105E+06
            9892     1.03362E+06     352.090E+03              0.    -5.46203E+06
            9893     995.293E+03     387.103E+03              0.    -5.61748E+06
            9894     955.557E+03     422.833E+03              0.    -5.77752E+06
            9895     914.401E+03     459.261E+03              0.    -5.94225E+06
            9896     871.812E+03     496.363E+03              0.    -6.11181E+06
            9897     827.779E+03     534.114E+03              0.    -6.28632E+06
            9898     782.293E+03     572.485E+03              0.    -6.46590E+06
            9899     735.348E+03     611.442E+03              0.    -6.65069E+06
            9900     686.942E+03     650.951E+03              0.    -6.84079E+06
            9901     637.073E+03     690.972E+03              0.    -7.03636E+06
            9902     585.745E+03     731.460E+03              0.    -7.23751E+06
            9903     532.964E+03     772.369E+03              0.    -7.44439E+06
            9904     478.740E+03     813.645E+03              0.    -7.65711E+06
            9905     423.089E+03     855.233E+03              0.    -7.87582E+06
            9906     366.028E+03     897.070E+03              0.    -8.10066E+06
            9907     307.582E+03     939.089E+03              0.    -8.33175E+06
            9908     247.779E+03     981.218E+03              0.    -8.56923E+06
            9909     186.654E+03     1.02338E+06              0.    -8.81324E+06
            9910     124.245E+03     1.06549E+06              0.    -9.06391E+06
            9911     60.5999E+03     1.10746E+06              0.    -9.32138E+06
            9912    -4.22941E+03     1.14919E+06              0.    -9.58578E+06
            9913    -70.1831E+03     1.19059E+06              0.    -9.85725E+06
            9914    -137.195E+03     1.23153E+06              0.    -10.1359E+06
            9915    -205.189E+03     1.27191E+06              0.    -10.4219E+06
            9916    -274.083E+03     1.31161E+06              0.    -10.7153E+06
            9917    -343.786E+03     1.35048E+06              0.    -11.0163E+06
            9918    -414.197E+03     1.38840E+06              0.    -11.3250E+06
            9919    -485.206E+03     1.42521E+06              0.    -11.6416E+06
            9920    -556.693E+03     1.46077E+06              0.    -11.9660E+06
            9921    -628.528E+03     1.49491E+06              0.    -12.2985E+06
            9922    -700.570E+03     1.52746E+06              0.    -12.6391E+06
            9923    -772.668E+03     1.55825E+06              0.    -12.9880E+06
            9924    -844.658E+03     1.58709E+06              0.    -13.3451E+06
            9925    -916.364E+03     1.61379E+06              0.    -13.7107E+06
            9926    -987.600E+03     1.63816E+06              0.    -14.0847E+06
            9927    -1.05816E+06     1.65997E+06              0.    -14.4672E+06
            9928    -1.12785E+06     1.67903E+06              0.    -14.8583E+06
            9929    -1.19642E+06     1.69510E+06              0.    -15.2580E+06
            9930    -1.26365E+06     1.70797E+06              0.    -15.6662E+06
            9931    -1.32929E+06     1.71740E+06              0.    -16.0831E+06
            9932    -1.39306E+06     1.72316E+06              0.    -16.5086E+06
            9933    -1.45470E+06     1.72502E+06              0.    -16.9426E+06
            9934    -1.51391E+06     1.72272E+06              0.    -17.3850E+06
            9935    -1.57040E+06     1.71604E+06              0.    -17.8359E+06
            9936    -1.62385E+06     1.70472E+06              0.    -18.2949E+06
            9937    -1.67395E+06     1.68854E+06              0.    -18.7621E+06
            9938    -1.72035E+06     1.66726E+06              0.    -19.2373E+06
            9939    -1.76272E+06     1.64064E+06              0.    -19.7200E+06
            9940    -1.80072E+06     1.60849E+06              0.    -20.2103E+06
            9941    -1.83399E+06     1.57059E+06              0.    -20.7075E+06
            9942    -1.86217E+06     1.52674E+06              0.    -21.2116E+06
            9943    -1.88491E+06     1.47678E+06              0.    -21.7219E+06
            9944    -1.90185E+06     1.42055E+06              0.    -22.2380E+06
            9945    -1.91264E+06     1.35794E+06              0.    -22.7593E+06
            9946    -1.91694E+06     1.28884E+06              0.    -23.2851E+06
            9947    -1.91442E+06     1.21320E+06              0.    -23.8148E+06
            9948    -1.90475E+06     1.13100E+06              0.    -24.3475E+06
            9949    -1.88764E+06     1.04226E+06              0.    -24.8823E+06
            9950    -1.86283E+06     947.065E+03              0.    -25.4181E+06
            9951    -1.83007E+06     845.553E+03              0.    -25.9536E+06
            9952    -1.78915E+06     737.926E+03              0.    -26.4877E+06
            9953    -1.73993E+06     624.461E+03              0.    -27.0187E+06
            9954    -1.68230E+06     505.515E+03              0.    -27.5451E+06
            9955    -1.61622E+06     381.533E+03              0.    -28.0650E+06
            9956    -1.54170E+06     253.063E+03              0.    -28.5763E+06
            9957    -1.45885E+06     120.754E+03              0.    -29.0768E+06
            9958    -1.36788E+06    -14.6198E+03              0.    -29.5639E+06
            9959    -1.26906E+06    -152.163E+03              0.    -30.0350E+06
            9960    -1.16282E+06    -290.835E+03              0.    -30.4867E+06
            9961    -1.04968E+06    -429.441E+03              0.    -30.9159E+06
            9962    -930.333E+03    -566.627E+03              0.    -31.3188E+06
            9963    -805.603E+03    -700.852E+03              0.    -31.6912E+06
            9964    -676.499E+03    -830.386E+03              0.    -32.0287E+06
            9965    -544.223E+03    -953.280E+03              0.    -32.3263E+06
            9966    -410.188E+03    -1.06735E+06              0.    -32.5787E+06
            9967    -276.040E+03    -1.17018E+06              0.    -32.7801E+06
            9968    -143.685E+03    -1.25904E+06              0.    -32.9240E+06
            9969    -15.3118E+03    -1.33092E+06              0.    -33.0036E+06
            9970     106.574E+03    -1.38249E+06              0.    -33.0113E+06
            9971     219.122E+03    -1.41000E+06              0.    -32.9390E+06
            9972     319.099E+03    -1.40933E+06              0.    -32.7781E+06
            9973     402.845E+03    -1.37589E+06              0.    -32.5190E+06
            9974     466.236E+03    -1.30458E+06              0.    -32.1517E+06
            9975     504.622E+03    -1.18970E+06              0.    -31.6653E+06
            9976     512.776E+03    -1.02492E+06              0.    -31.0483E+06
            9977     484.833E+03    -803.183E+03              0.    -30.2883E+06
            9978     414.201E+03    -516.588E+03              0.    -29.3721E+06
            9979     293.497E+03    -156.293E+03              0.    -28.2859E+06
            9980     114.463E+03     287.616E+03              0.    -27.0147E+06
            9981    -132.203E+03     826.214E+03              0.    -25.5432E+06
            9982    -24.1833E+03     1.41939E+06              0.    -25.3403E+06
            9983     1.09709E+06     494.151E+03              0.    -687.797E+03
            9984     1.09372E+06     462.366E+03              0.    -686.571E+03
            9985     1.10411E+06     437.188E+03              0.    -679.595E+03
            9986     1.11441E+06     412.398E+03              0.    -673.188E+03
            9987     1.12463E+06     387.994E+03              0.    -667.338E+03
            9988     1.13475E+06     363.975E+03              0.    -662.028E+03
            9989     1.14478E+06     340.339E+03              0.    -657.248E+03
            9990     1.15473E+06     317.085E+03              0.    -652.984E+03
            9991     1.16459E+06     294.210E+03              0.    -649.226E+03
            9992     1.17437E+06     271.713E+03              0.    -645.962E+03
            9993     1.18406E+06     249.592E+03              0.    -643.183E+03
            9994     1.19367E+06     227.843E+03              0.    -640.879E+03
            9995     1.20320E+06     206.466E+03              0.    -639.042E+03
            9996     1.21265E+06     185.458E+03              0.    -637.663E+03
            9997     1.22202E+06     164.817E+03              0.    -636.736E+03
            9998     1.23131E+06     144.541E+03              0.    -636.253E+03
            9999     1.24052E+06     124.628E+03              0.    -636.209E+03
           10000     1.24966E+06     105.075E+03              0.    -636.596E+03
           10001     1.25872E+06     85.8797E+03              0.    -637.411E+03
           10002     1.26771E+06     67.0410E+03              0.    -638.648E+03
           10003     1.27662E+06     48.5567E+03              0.    -640.304E+03
           10004     1.28546E+06     30.4242E+03              0.    -642.374E+03
           10005     1.29422E+06     12.6421E+03              0.    -644.856E+03
           10006     1.30292E+06    -4.79197E+03              0.    -647.747E+03
           10007     1.31154E+06    -21.8796E+03              0.    -651.044E+03
           10008     1.32009E+06    -38.6224E+03              0.    -654.747E+03
           10009     1.32857E+06    -55.0225E+03              0.    -658.853E+03
           10010     1.33698E+06    -71.0809E+03              0.    -663.362E+03
           10011     1.34532E+06    -86.7996E+03              0.    -668.273E+03
           10012     1.35359E+06    -102.180E+03              0.    -673.587E+03
           10013     1.36179E+06    -117.222E+03              0.    -679.304E+03
           10014     1.36991E+06    -131.929E+03              0.    -685.425E+03
           10015     1.37797E+06    -146.301E+03              0.    -691.951E+03
           10016     1.38595E+06    -160.338E+03              0.    -698.885E+03
           10017     1.39385E+06    -174.042E+03              0.    -706.228E+03
           10018     1.40168E+06    -187.413E+03              0.    -713.984E+03
           10019     1.40944E+06    -200.452E+03              0.    -722.155E+03
           10020     1.41712E+06    -213.158E+03              0.    -730.745E+03
           10021     1.42472E+06    -225.533E+03              0.    -739.758E+03
           10022     1.43224E+06    -237.577E+03              0.    -749.199E+03
           10023     1.43967E+06    -249.288E+03              0.    -759.072E+03
           10024     1.44702E+06    -260.668E+03              0.    -769.383E+03
           10025     1.45429E+06    -271.714E+03              0.    -780.138E+03
           10026     1.46147E+06    -282.428E+03              0.    -791.342E+03
           10027     1.46855E+06    -292.807E+03              0.    -803.004E+03
           10028     1.47554E+06    -302.851E+03              0.    -815.130E+03
           10029     1.48243E+06    -312.560E+03              0.    -827.727E+03
           10030     1.48922E+06    -321.930E+03              0.    -840.805E+03
           10031     1.49590E+06    -330.962E+03              0.    -854.371E+03
           10032     1.50248E+06    -339.652E+03              0.    -868.436E+03
           10033     1.50894E+06    -348.000E+03              0.    -883.008E+03
           10034     1.51528E+06    -356.002E+03              0.    -898.099E+03
           10035     1.52150E+06    -363.657E+03              0.    -913.718E+03
           10036     1.52759E+06    -370.962E+03              0.    -929.878E+03
           10037     1.53355E+06    -377.913E+03              0.    -946.591E+03
           10038     1.53938E+06    -384.509E+03              0.    -963.867E+03
           10039     1.54505E+06    -390.746E+03              0.    -981.722E+03
           10040     1.55058E+06    -396.620E+03              0.    -1.00017E+06
           10041     1.55595E+06    -402.128E+03              0.    -1.01922E+06
           10042     1.56115E+06    -407.265E+03              0.    -1.03890E+06
           10043     1.56619E+06    -412.027E+03              0.    -1.05921E+06
           10044     1.57104E+06    -416.411E+03              0.    -1.08017E+06
           10045     1.57571E+06    -420.410E+03              0.    -1.10180E+06
           10046     1.58019E+06    -424.021E+03              0.    -1.12412E+06
           10047     1.58446E+06    -427.238E+03              0.    -1.14715E+06
           10048     1.58851E+06    -430.056E+03              0.     -1.1709E+06
           10049     1.59235E+06    -432.469E+03              0.    -1.19540E+06
           10050     1.59595E+06    -434.471E+03              0.    -1.22066E+06
           10051     1.59931E+06    -436.055E+03              0.    -1.24671E+06
           10052     1.60242E+06    -437.217E+03              0.    -1.27356E+06
           10053     1.60527E+06    -437.948E+03              0.    -1.30125E+06
           10054     1.60783E+06    -438.241E+03              0.    -1.32980E+06
           10055     1.61012E+06    -438.090E+03              0.    -1.35923E+06
           10056     1.61210E+06    -437.487E+03              0.    -1.38956E+06
           10057     1.61377E+06    -436.425E+03              0.    -1.42083E+06
           10058     1.61511E+06    -434.894E+03              0.    -1.45306E+06
           10059     1.61611E+06    -432.888E+03              0.    -1.48627E+06
           10060     1.61676E+06    -430.397E+03              0.    -1.52051E+06
           10061     1.61704E+06    -427.413E+03              0.    -1.55580E+06
           10062     1.61694E+06    -423.926E+03              0.    -1.59216E+06
           10063     1.61643E+06    -419.928E+03              0.    -1.62965E+06
           10064     1.61551E+06    -415.408E+03              0.    -1.66827E+06
           10065     1.61416E+06    -410.357E+03              0.    -1.70809E+06
           10066     1.61235E+06    -404.766E+03              0.    -1.74912E+06
           10067     1.61008E+06    -398.623E+03              0.    -1.79141E+06
           10068     1.60731E+06    -391.918E+03              0.    -1.83499E+06
           10069     1.60404E+06    -384.641E+03              0.    -1.87991E+06
           10070     1.60025E+06    -376.781E+03              0.    -1.92620E+06
           10071     1.59590E+06    -368.326E+03              0.    -1.97391E+06
           10072     1.59099E+06    -359.266E+03              0.    -2.02308E+06
           10073     1.58549E+06    -349.589E+03              0.    -2.07376E+06
           10074     1.57938E+06    -339.283E+03              0.    -2.12600E+06
           10075     1.57263E+06    -328.336E+03              0.    -2.17983E+06
           10076     1.56523E+06    -316.738E+03              0.    -2.23532E+06
           10077     1.55714E+06    -304.475E+03              0.    -2.29251E+06
           10078     1.54835E+06    -291.536E+03              0.    -2.35146E+06
           10079     1.53883E+06    -277.908E+03              0.    -2.41221E+06
           10080     1.52855E+06    -263.580E+03              0.    -2.47483E+06
           10081     1.51749E+06    -248.539E+03              0.    -2.53937E+06
           10082     1.50562E+06    -232.772E+03              0.    -2.60590E+06
           10083     1.49291E+06    -216.269E+03              0.    -2.67446E+06
           10084     1.47934E+06    -199.017E+03              0.    -2.74513E+06
           10085     1.46487E+06    -181.003E+03              0.    -2.81797E+06
           10086     1.44948E+06    -162.216E+03              0.    -2.89305E+06
           10087     1.43314E+06    -142.645E+03              0.    -2.97042E+06
           10088     1.41582E+06    -122.277E+03              0.    -3.05018E+06
           10089     1.39749E+06    -101.103E+03              0.    -3.13237E+06
           10090     1.37811E+06    -79.1099E+03              0.    -3.21709E+06
           10091     1.35766E+06    -56.2887E+03              0.    -3.30440E+06
           10092     1.33610E+06    -32.6290E+03              0.    -3.39438E+06
           10093     1.31341E+06    -8.12133E+03              0.    -3.48712E+06
           10094     1.28954E+06     17.2433E+03              0.    -3.58269E+06
           10095     1.26447E+06     43.4732E+03              0.    -3.68118E+06
           10096     1.23816E+06     70.5761E+03              0.    -3.78267E+06
           10097     1.21059E+06     98.5586E+03              0.    -3.88726E+06
           10098     1.18171E+06     127.427E+03              0.    -3.99503E+06
           10099     1.15149E+06     157.186E+03              0.    -4.10607E+06
           10100     1.11991E+06     187.840E+03              0.    -4.22048E+06
           10101     1.08692E+06     219.391E+03              0.    -4.33836E+06
           10102     1.05250E+06     251.841E+03              0.    -4.45981E+06
           10103     1.01662E+06     285.191E+03              0.    -4.58492E+06
           10104     979.228E+03     319.438E+03              0.    -4.71380E+06
           10105     940.308E+03     354.581E+03              0.    -4.84657E+06
           10106     899.824E+03     390.615E+03              0.    -4.98331E+06
           10107     857.748E+03     427.533E+03              0.    -5.12415E+06
           10108     814.048E+03     465.326E+03              0.    -5.26920E+06
           10109     768.695E+03     503.985E+03              0.    -5.41856E+06
           10110     721.663E+03     543.495E+03              0.    -5.57237E+06
           10111     672.924E+03     583.842E+03              0.    -5.73073E+06
           10112     622.453E+03     625.008E+03              0.    -5.89377E+06
           10113     570.227E+03     666.972E+03              0.    -6.06161E+06
           10114     516.224E+03     709.709E+03              0.    -6.23438E+06
           10115     460.425E+03     753.193E+03              0.    -6.41220E+06
           10116     402.811E+03     797.392E+03              0.    -6.59520E+06
           10117     343.367E+03     842.273E+03              0.    -6.78351E+06
           10118     282.082E+03     887.798E+03              0.    -6.97726E+06
           10119     218.944E+03     933.925E+03              0.    -7.17659E+06
           10120     153.947E+03     980.606E+03              0.    -7.38163E+06
           10121     87.0887E+03     1.02779E+06              0.    -7.59252E+06
           10122     18.3684E+03     1.07542E+06              0.    -7.80939E+06
           10123    -52.2091E+03     1.12344E+06              0.    -8.03239E+06
           10124    -124.636E+03     1.17179E+06              0.    -8.26165E+06
           10125    -198.898E+03     1.22038E+06              0.    -8.49731E+06
           10126    -274.977E+03     1.26914E+06              0.    -8.73951E+06
           10127    -352.851E+03     1.31799E+06              0.    -8.98840E+06
           10128    -432.490E+03     1.36684E+06              0.    -9.24411E+06
           10129    -513.859E+03     1.41559E+06              0.    -9.50679E+06
           10130    -596.917E+03     1.46414E+06              0.    -9.77656E+06
           10131    -681.616E+03     1.51238E+06              0.    -10.0536E+06
           10132    -767.901E+03     1.56018E+06              0.    -10.3380E+06
           10133    -855.710E+03     1.60743E+06              0.    -10.6299E+06
           10134    -944.970E+03     1.65400E+06              0.    -10.9294E+06
           10135    -1.03560E+06     1.69973E+06              0.    -11.2367E+06
           10136    -1.12752E+06     1.74448E+06              0.    -11.5519E+06
           10137    -1.22063E+06     1.78810E+06              0.    -11.8752E+06
           10138    -1.31482E+06     1.83041E+06              0.    -12.2065E+06
           10139    -1.40998E+06     1.87125E+06              0.    -12.5461E+06
           10140    -1.50598E+06     1.91042E+06              0.    -12.8941E+06
           10141    -1.60268E+06     1.94774E+06              0.    -13.2505E+06
           10142    -1.69993E+06     1.98300E+06              0.    -13.6154E+06
           10143    -1.79758E+06     2.01599E+06              0.    -13.9890E+06
           10144    -1.89545E+06     2.04651E+06              0.    -14.3712E+06
           10145    -1.99335E+06     2.07432E+06              0.    -14.7622E+06
           10146    -2.09111E+06     2.09918E+06              0.    -15.1619E+06
           10147    -2.18850E+06     2.12086E+06              0.    -15.5705E+06
           10148    -2.28531E+06     2.13911E+06              0.    -15.9878E+06
           10149    -2.38131E+06     2.15368E+06              0.    -16.4140E+06
           10150    -2.47626E+06     2.16429E+06              0.    -16.8490E+06
           10151    -2.56990E+06     2.17070E+06              0.    -17.2926E+06
           10152    -2.66196E+06     2.17263E+06              0.    -17.7449E+06
           10153    -2.75217E+06     2.16982E+06              0.    -18.2057E+06
           10154    -2.84025E+06     2.16198E+06              0.    -18.6750E+06
           10155    -2.92589E+06     2.14886E+06              0.    -19.1524E+06
           10156    -3.00880E+06     2.13018E+06              0.    -19.6378E+06
           10157    -3.08866E+06     2.10568E+06              0.    -20.1309E+06
           10158    -3.16516E+06     2.07510E+06              0.    -20.6315E+06
           10159    -3.23798E+06     2.03820E+06              0.    -21.1391E+06
           10160    -3.30680E+06     1.99474E+06              0.    -21.6533E+06
           10161    -3.37129E+06     1.94449E+06              0.    -22.1736E+06
           10162    -3.43115E+06     1.88727E+06              0.    -22.6995E+06
           10163    -3.48606E+06     1.82289E+06              0.    -23.2303E+06
           10164    -3.53572E+06     1.75119E+06              0.    -23.7653E+06
           10165    -3.57984E+06     1.67205E+06              0.    -24.3035E+06
           10166    -3.61816E+06     1.58539E+06              0.    -24.8442E+06
           10167    -3.65042E+06     1.49116E+06              0.    -25.3861E+06
           10168    -3.67641E+06     1.38935E+06              0.    -25.9281E+06
           10169    -3.69594E+06     1.28002E+06              0.    -26.4689E+06
           10170    -3.70887E+06     1.16327E+06              0.    -27.0069E+06
           10171    -3.71510E+06     1.03927E+06              0.    -27.5405E+06
           10172    -3.71457E+06     908.275E+03              0.    -28.0677E+06
           10173    -3.70731E+06     770.599E+03              0.    -28.5865E+06
           10174    -3.69341E+06     626.650E+03              0.    -29.0946E+06
           10175    -3.67302E+06     476.936E+03              0.    -29.5894E+06
           10176    -3.64642E+06     322.064E+03              0.    -30.0680E+06
           10177    -3.61396E+06     162.760E+03              0.    -30.5273E+06
           10178    -3.57612E+06        -122.828              0.    -30.9639E+06
           10179    -3.53350E+06    -165.601E+03              0.    -31.3739E+06
           10180    -3.48686E+06    -332.530E+03              0.    -31.7532E+06
           10181    -3.43711E+06    -499.612E+03              0.    -32.0971E+06
           10182    -3.38532E+06    -665.360E+03              0.    -32.4007E+06
           10183    -3.33278E+06    -828.088E+03              0.    -32.6584E+06
           10184    -3.28099E+06    -985.900E+03              0.    -32.8644E+06
           10185    -3.23169E+06    -1.13665E+06              0.    -33.0120E+06
           10186    -3.18689E+06    -1.27792E+06              0.    -33.0943E+06
           10187    -3.14889E+06    -1.40700E+06              0.    -33.1035E+06
           10188    -3.12033E+06    -1.52086E+06              0.    -33.0313E+06
           10189    -3.10420E+06    -1.61606E+06              0.    -32.8689E+06
           10190    -3.10391E+06    -1.68877E+06              0.    -32.6065E+06
           10191    -3.12332E+06    -1.73468E+06              0.    -32.2338E+06
           10192    -3.16680E+06    -1.74892E+06              0.    -31.7395E+06
           10193    -3.23926E+06    -1.72603E+06              0.    -31.1119E+06
           10194    -3.34627E+06    -1.65985E+06              0.    -30.3381E+06
           10195    -3.49409E+06    -1.54341E+06              0.    -29.4046E+06
           10196    -3.68977E+06    -1.36884E+06              0.    -28.2967E+06
           10197    -3.94126E+06    -1.12727E+06              0.    -26.9993E+06
           10198    -4.25750E+06    -808.557E+03              0.    -25.4960E+06
           10199    -4.24759E+06    -470.612E+03              0.    -25.2675E+06
           10200     1.07919E+06     486.119E+03              0.    -698.108E+03
           10201     1.07589E+06     455.072E+03              0.    -696.865E+03
           10202     1.08604E+06     430.471E+03              0.    -689.799E+03
           10203     1.09611E+06     406.243E+03              0.    -683.304E+03
           10204     1.10608E+06     382.388E+03              0.    -677.364E+03
           10205     1.11597E+06     358.904E+03              0.    -671.967E+03
           10206     1.12577E+06     335.791E+03              0.    -667.099E+03
           10207     1.13549E+06     313.048E+03              0.    -662.749E+03
           10208     1.14512E+06     290.673E+03              0.    -658.905E+03
           10209     1.15467E+06     268.665E+03              0.    -655.557E+03
           10210     1.16413E+06     247.023E+03              0.    -652.694E+03
           10211     1.17350E+06     225.746E+03              0.    -650.307E+03
           10212     1.18280E+06     204.831E+03              0.    -648.388E+03
           10213     1.19201E+06     184.278E+03              0.    -646.929E+03
           10214     1.20114E+06     164.085E+03              0.    -645.921E+03
           10215     1.21019E+06     144.250E+03              0.    -645.359E+03
           10216     1.21916E+06     124.771E+03              0.    -645.236E+03
           10217     1.22805E+06     105.648E+03              0.    -645.545E+03
           10218     1.23685E+06     86.8772E+03              0.    -646.283E+03
           10219     1.24558E+06     68.4586E+03              0.    -647.443E+03
           10220     1.25424E+06     50.3904E+03              0.    -649.023E+03
           10221     1.26281E+06     32.6706E+03              0.    -651.017E+03
           10222     1.27130E+06     15.2982E+03              0.    -653.424E+03
           10223     1.27972E+06    -1.72872E+03              0.    -656.240E+03
           10224     1.28806E+06    -18.4112E+03              0.    -659.462E+03
           10225     1.29632E+06    -34.7504E+03              0.    -663.090E+03
           10226     1.30450E+06     -50.748E+03              0.    -667.121E+03
           10227     1.31261E+06    -66.4046E+03              0.    -671.555E+03
           10228     1.32063E+06    -81.7217E+03              0.    -676.391E+03
           10229     1.32858E+06    -96.6999E+03              0.    -681.629E+03
           10230     1.33645E+06    -111.340E+03              0.    -687.269E+03
           10231     1.34423E+06    -125.643E+03              0.    -693.313E+03
           10232     1.35193E+06    -139.610E+03              0.    -699.762E+03
           10233     1.35955E+06    -153.240E+03              0.    -706.617E+03
           10234     1.36709E+06    -166.535E+03              0.    -713.880E+03
           10235     1.37454E+06    -179.493E+03              0.    -721.554E+03
           10236     1.38190E+06    -192.117E+03              0.    -729.642E+03
           10237     1.38918E+06    -204.404E+03              0.    -738.148E+03
           10238     1.39636E+06    -216.356E+03              0.    -747.074E+03
           10239     1.40345E+06    -227.971E+03              0.    -756.426E+03
           10240     1.41044E+06    -239.250E+03              0.    -766.209E+03
           10241     1.41734E+06    -250.191E+03              0.    -776.426E+03
           10242     1.42413E+06    -260.793E+03              0.    -787.085E+03
           10243     1.43082E+06    -271.056E+03              0.    -798.191E+03
           10244     1.43740E+06    -280.978E+03              0.    -809.750E+03
           10245     1.44387E+06    -290.557E+03              0.    -821.770E+03
           10246     1.45022E+06    -299.792E+03              0.    -834.259E+03
           10247     1.45646E+06    -308.682E+03              0.    -847.223E+03
           10248     1.46257E+06    -317.223E+03              0.    -860.672E+03
           10249     1.46855E+06    -325.414E+03              0.    -874.615E+03
           10250     1.47440E+06    -333.253E+03              0.    -889.061E+03
           10251     1.48011E+06    -340.735E+03              0.    -904.020E+03
           10252     1.48568E+06    -347.860E+03              0.    -919.502E+03
           10253     1.49110E+06    -354.623E+03              0.    -935.519E+03
           10254     1.49636E+06    -361.021E+03              0.    -952.083E+03
           10255     1.50146E+06    -367.050E+03              0.    -969.205E+03
           10256     1.50639E+06    -372.707E+03              0.    -986.899E+03
           10257     1.51114E+06    -377.988E+03              0.    -1.00518E+06
           10258     1.51571E+06    -382.887E+03              0.    -1.02406E+06
           10259     1.52009E+06    -387.401E+03              0.    -1.04355E+06
           10260     1.52427E+06    -391.525E+03              0.    -1.06366E+06
           10261     1.52824E+06    -395.253E+03              0.    -1.08443E+06
           10262     1.53200E+06    -398.581E+03              0.    -1.10585E+06
           10263     1.53552E+06    -401.502E+03              0.    -1.12796E+06
           10264     1.53881E+06    -404.011E+03              0.    -1.15076E+06
           10265     1.54186E+06    -406.101E+03              0.    -1.17427E+06
           10266     1.54464E+06    -407.767E+03              0.    -1.19852E+06
           10267     1.54716E+06    -409.000E+03              0.    -1.22352E+06
           10268     1.54940E+06    -409.795E+03              0.    -1.24930E+06
           10269     1.55135E+06    -410.144E+03              0.    -1.27588E+06
           10270     1.55299E+06    -410.040E+03              0.    -1.30328E+06
           10271     1.55432E+06    -409.475E+03              0.    -1.33152E+06
           10272     1.55531E+06    -408.440E+03              0.    -1.36063E+06
           10273     1.55596E+06    -406.927E+03              0.    -1.39063E+06
           10274     1.55625E+06    -404.928E+03              0.    -1.42155E+06
           10275     1.55617E+06    -402.433E+03              0.    -1.45342E+06
           10276     1.55569E+06    -399.434E+03              0.    -1.48626E+06
           10277     1.55481E+06    -395.920E+03              0.    -1.52010E+06
           10278     1.55351E+06    -391.882E+03              0.    -1.55498E+06
           10279     1.55177E+06    -387.310E+03              0.    -1.59092E+06
           10280     1.54956E+06    -382.194E+03              0.    -1.62796E+06
           10281     1.54689E+06    -376.522E+03              0.    -1.66613E+06
           10282     1.54371E+06    -370.284E+03              0.    -1.70546E+06
           10283     1.54003E+06    -363.469E+03              0.    -1.74599E+06
           10284     1.53580E+06    -356.066E+03              0.    -1.78776E+06
           10285     1.53102E+06    -348.061E+03              0.    -1.83081E+06
           10286     1.52566E+06    -339.445E+03              0.    -1.87516E+06
           10287     1.51970E+06    -330.204E+03              0.    -1.92087E+06
           10288     1.51312E+06    -320.325E+03              0.    -1.96798E+06
           10289     1.50589E+06    -309.798E+03              0.    -2.01653E+06
           10290     1.49799E+06    -298.608E+03              0.    -2.06656E+06
           10291     1.48940E+06    -286.742E+03              0.    -2.11812E+06
           10292     1.48008E+06    -274.188E+03              0.    -2.17125E+06
           10293     1.47001E+06    -260.932E+03              0.    -2.22601E+06
           10294     1.45917E+06    -246.960E+03              0.    -2.28245E+06
           10295     1.44752E+06    -232.259E+03              0.    -2.34061E+06
           10296     1.43505E+06    -216.815E+03              0.    -2.40056E+06
           10297     1.42171E+06    -200.615E+03              0.    -2.46234E+06
           10298     1.40748E+06    -183.644E+03              0.    -2.52602E+06
           10299     1.39233E+06    -165.889E+03              0.    -2.59164E+06
           10300     1.37623E+06    -147.335E+03              0.    -2.65928E+06
           10301     1.35915E+06    -127.970E+03              0.    -2.72899E+06
           10302     1.34104E+06    -107.778E+03              0.    -2.80084E+06
           10303     1.32189E+06    -86.7473E+03              0.    -2.87489E+06
           10304     1.30165E+06    -64.8632E+03              0.    -2.95121E+06
           10305     1.28029E+06    -42.1127E+03              0.    -3.02988E+06
           10306     1.25778E+06    -18.4827E+03              0.    -3.11095E+06
           10307     1.23408E+06     6.03955E+03              0.    -3.19450E+06
           10308     1.20915E+06     31.4665E+03              0.    -3.28061E+06
           10309     1.18295E+06     57.8101E+03              0.    -3.36936E+06
           10310     1.15546E+06     85.0821E+03              0.    -3.46083E+06
           10311     1.12662E+06     113.293E+03              0.    -3.55509E+06
           10312     1.09641E+06     142.454E+03              0.    -3.65223E+06
           10313     1.06478E+06     172.575E+03              0.    -3.75234E+06
           10314     1.03169E+06     203.664E+03              0.    -3.85550E+06
           10315     997.106E+03     235.730E+03              0.    -3.96181E+06
           10316     960.987E+03     268.780E+03              0.    -4.07135E+06
           10317     923.291E+03     302.820E+03              0.    -4.18421E+06
           10318     883.979E+03     337.855E+03              0.    -4.30051E+06
           10319     843.010E+03     373.890E+03              0.    -4.42033E+06
           10320     800.344E+03     410.925E+03              0.    -4.54378E+06
           10321     755.941E+03     448.964E+03              0.    -4.67096E+06
           10322     709.760E+03     488.004E+03              0.    -4.80198E+06
           10323     661.763E+03     528.044E+03              0.    -4.93694E+06
           10324     611.908E+03     569.080E+03              0.    -5.07596E+06
           10325     560.159E+03     611.105E+03              0.    -5.21914E+06
           10326     506.476E+03     654.111E+03              0.    -5.36661E+06
           10327     450.822E+03     698.087E+03              0.    -5.51847E+06
           10328     393.161E+03     743.020E+03              0.    -5.67486E+06
           10329     333.458E+03     788.894E+03              0.    -5.83589E+06
           10330     271.678E+03     835.691E+03              0.    -6.00168E+06
           10331     207.787E+03     883.387E+03              0.    -6.17237E+06
           10332     141.757E+03     931.960E+03              0.    -6.34807E+06
           10333     73.5553E+03     981.378E+03              0.    -6.52893E+06
           10334     3.15649E+03     1.03161E+06              0.    -6.71507E+06
           10335    -69.4652E+03     1.08262E+06              0.    -6.90662E+06
           10336    -144.333E+03     1.13437E+06              0.    -7.10373E+06
           10337    -221.466E+03     1.18681E+06              0.    -7.30652E+06
           10338    -300.882E+03     1.23989E+06              0.    -7.51515E+06
           10339    -382.596E+03     1.29357E+06              0.    -7.72974E+06
           10340    -466.617E+03     1.34777E+06              0.    -7.95044E+06
           10341    -552.952E+03     1.40243E+06              0.    -8.17740E+06
           10342    -641.604E+03     1.45749E+06              0.    -8.41075E+06
           10343    -732.572E+03     1.51287E+06              0.    -8.65065E+06
           10344    -825.849E+03     1.56847E+06              0.    -8.89723E+06
           10345    -921.424E+03     1.62422E+06              0.    -9.15064E+06
           10346    -1.01928E+06     1.68002E+06              0.    -9.41103E+06
           10347    -1.11939E+06     1.73576E+06              0.    -9.67854E+06
           10348    -1.22174E+06     1.79133E+06              0.    -9.95331E+06
           10349    -1.32628E+06     1.84661E+06              0.    -10.2355E+06
           10350    -1.43297E+06     1.90147E+06              0.    -10.5252E+06
           10351    -1.54176E+06     1.95579E+06              0.    -10.8226E+06
           10352    -1.65260E+06     2.00941E+06              0.    -11.1279E+06
           10353    -1.76543E+06     2.06218E+06              0.    -11.4411E+06
           10354    -1.88016E+06     2.11394E+06              0.    -11.7623E+06
           10355    -1.99672E+06     2.16452E+06              0.    -12.0918E+06
           10356    -2.11501E+06     2.21375E+06              0.    -12.4296E+06
           10357    -2.23494E+06     2.26142E+06              0.    -12.7759E+06
           10358    -2.35639E+06     2.30734E+06              0.    -13.1307E+06
           10359    -2.47925E+06     2.35130E+06              0.    -13.4942E+06
           10360    -2.60337E+06     2.39309E+06              0.    -13.8664E+06
           10361    -2.72863E+06     2.43247E+06              0.    -14.2474E+06
           10362    -2.85487E+06     2.46920E+06              0.    -14.6373E+06
           10363    -2.98192E+06     2.50304E+06              0.    -15.0361E+06
           10364    -3.10961E+06     2.53374E+06              0.    -15.4439E+06
           10365    -3.23775E+06     2.56102E+06              0.    -15.8607E+06
           10366    -3.36614E+06     2.58461E+06              0.    -16.2865E+06
           10367    -3.49458E+06     2.60424E+06              0.    -16.7213E+06
           10368    -3.62285E+06     2.61961E+06              0.    -17.1650E+06
           10369    -3.75071E+06     2.63042E+06              0.    -17.6176E+06
           10370    -3.87793E+06     2.63638E+06              0.    -18.0789E+06
           10371    -4.00425E+06     2.63719E+06              0.    -18.5489E+06
           10372    -4.12942E+06     2.63253E+06              0.    -19.0273E+06
           10373    -4.25317E+06     2.62210E+06              0.    -19.5140E+06
           10374    -4.37523E+06     2.60558E+06              0.    -20.0087E+06
           10375    -4.49532E+06     2.58266E+06              0.    -20.5111E+06
           10376    -4.61316E+06     2.55305E+06              0.    -21.0208E+06
           10377    -4.72846E+06     2.51644E+06              0.    -21.5374E+06
           10378    -4.84093E+06     2.47254E+06              0.    -22.0604E+06
           10379    -4.95030E+06     2.42108E+06              0.    -22.5893E+06
           10380    -5.05628E+06     2.36178E+06              0.    -23.1234E+06
           10381    -5.15861E+06     2.29440E+06              0.    -23.6620E+06
           10382    -5.25703E+06     2.21870E+06              0.    -24.2042E+06
           10383    -5.35129E+06     2.13449E+06              0.    -24.7490E+06
           10384    -5.44118E+06     2.04159E+06              0.    -25.2954E+06
           10385    -5.52648E+06     1.93984E+06              0.    -25.8422E+06
           10386    -5.60703E+06     1.82916E+06              0.    -26.3879E+06
           10387    -5.68269E+06     1.70947E+06              0.    -26.9312E+06
           10388    -5.75336E+06     1.58075E+06              0.    -27.4702E+06
           10389    -5.81899E+06     1.44305E+06              0.    -28.0030E+06
           10390    -5.87959E+06     1.29645E+06              0.    -28.5276E+06
           10391    -5.93523E+06     1.14113E+06              0.    -29.0415E+06
           10392    -5.98604E+06     977.308E+03              0.    -29.5423E+06
           10393    -6.03224E+06     805.313E+03              0.    -30.0269E+06
           10394    -6.07415E+06     625.548E+03              0.    -30.4922E+06
           10395    -6.11218E+06     438.521E+03              0.    -30.9346E+06
           10396    -6.14686E+06     244.842E+03              0.    -31.3504E+06
           10397    -6.17885E+06     45.2515E+03              0.    -31.7352E+06
           10398    -6.20894E+06    -159.386E+03              0.    -32.0844E+06
           10399    -6.23812E+06    -368.053E+03              0.    -32.3929E+06
           10400    -6.26752E+06    -579.564E+03              0.    -32.6551E+06
           10401    -6.29848E+06     -792.56E+03              0.    -32.8650E+06
           10402    -6.33257E+06    -1.00547E+06              0.    -33.0158E+06
           10403    -6.37161E+06    -1.21649E+06              0.    -33.1004E+06
           10404    -6.41769E+06    -1.42356E+06              0.    -33.1110E+06
           10405    -6.47322E+06    -1.62433E+06              0.    -33.0391E+06
           10406    -6.54093E+06    -1.81611E+06              0.    -32.8756E+06
           10407    -6.62398E+06    -1.99584E+06              0.    -32.6106E+06
           10408    -6.72592E+06    -2.16001E+06              0.    -32.2335E+06
           10409    -6.85081E+06    -2.30462E+06              0.    -31.7328E+06
           10410    -7.00325E+06    -2.42511E+06              0.    -31.0963E+06
           10411    -7.18844E+06    -2.51625E+06              0.    -30.3108E+06
           10412    -7.41229E+06    -2.57206E+06              0.    -29.3623E+06
           10413    -7.68144E+06    -2.58572E+06              0.    -28.2359E+06
           10414    -8.00343E+06    -2.54937E+06              0.    -26.9156E+06
           10415    -8.38683E+06    -2.45410E+06              0.    -25.3843E+06
           10416    -8.47573E+06    -2.37589E+06              0.    -25.1305E+06
           10417     1.06108E+06     477.998E+03              0.    -708.176E+03
           10418     1.05787E+06     447.690E+03              0.    -706.916E+03
           10419     1.06778E+06     423.667E+03              0.    -699.764E+03
           10420     1.07760E+06     400.002E+03              0.    -693.182E+03
           10421     1.08734E+06     376.695E+03              0.    -687.156E+03
           10422     1.09700E+06     353.747E+03              0.    -681.672E+03
           10423     1.10657E+06     331.156E+03              0.    -676.719E+03
           10424     1.11605E+06     308.925E+03              0.    -672.283E+03
           10425     1.12545E+06     287.050E+03              0.    -668.354E+03
           10426     1.13477E+06     265.532E+03              0.    -664.920E+03
           10427     1.14399E+06     244.371E+03              0.    -661.973E+03
           10428     1.15314E+06     223.565E+03              0.    -659.502E+03
           10429     1.16220E+06     203.114E+03              0.    -657.499E+03
           10430     1.17117E+06     183.016E+03              0.    -655.957E+03
           10431     1.18007E+06     163.271E+03              0.    -654.866E+03
           10432     1.18887E+06     143.878E+03              0.    -654.222E+03
           10433     1.19760E+06     124.834E+03              0.    -654.016E+03
           10434     1.20624E+06     106.141E+03              0.    -654.244E+03
           10435     1.21480E+06     87.7955E+03              0.    -654.900E+03
           10436     1.22327E+06     69.7974E+03              0.    -655.980E+03
           10437     1.23166E+06     52.1456E+03              0.    -657.478E+03
           10438     1.23997E+06     34.8387E+03              0.    -659.392E+03
           10439     1.24819E+06     17.8761E+03              0.    -661.717E+03
           10440     1.25633E+06     1.25642E+03              0.    -664.452E+03
           10441     1.26439E+06    -15.0210E+03              0.    -667.593E+03
           10442     1.27236E+06    -30.9568E+03              0.    -671.139E+03
           10443     1.28025E+06    -46.5522E+03              0.    -675.088E+03
           10444     1.28805E+06    -61.8074E+03              0.    -679.439E+03
           10445     1.29576E+06    -76.7235E+03              0.    -684.192E+03
           10446     1.30339E+06    -91.3006E+03              0.    -689.346E+03
           10447     1.31093E+06    -105.539E+03              0.    -694.901E+03
           10448     1.31838E+06    -119.440E+03              0.    -700.859E+03
           10449     1.32573E+06    -133.002E+03              0.    -707.220E+03
           10450     1.33300E+06    -146.227E+03              0.    -713.986E+03
           10451     1.34017E+06    -159.113E+03              0.    -721.159E+03
           10452     1.34724E+06    -171.662E+03              0.    -728.740E+03
           10453     1.35421E+06    -183.871E+03              0.    -736.734E+03
           10454     1.36109E+06    -195.742E+03              0.    -745.143E+03
           10455     1.36786E+06    -207.272E+03              0.    -753.970E+03
           10456     1.37452E+06    -218.462E+03              0.    -763.221E+03
           10457     1.38107E+06    -229.310E+03              0.    -772.898E+03
           10458     1.38752E+06    -239.816E+03              0.    -783.009E+03
           10459     1.39384E+06    -249.977E+03              0.    -793.556E+03
           10460     1.40005E+06    -259.792E+03              0.    -804.548E+03
           10461     1.40613E+06    -269.260E+03              0.    -815.989E+03
           10462     1.41209E+06    -278.378E+03              0.    -827.887E+03
           10463     1.41791E+06    -287.145E+03              0.    -840.249E+03
           10464     1.42360E+06    -295.557E+03              0.    -853.082E+03
           10465     1.42914E+06    -303.613E+03              0.    -866.395E+03
           10466     1.43454E+06    -311.310E+03              0.    -880.197E+03
           10467     1.43979E+06    -318.645E+03              0.    -894.496E+03
           10468     1.44487E+06    -325.614E+03              0.    -909.303E+03
           10469     1.44980E+06    -332.213E+03              0.    -924.627E+03
           10470     1.45455E+06    -338.441E+03              0.    -940.480E+03
           10471     1.45912E+06    -344.291E+03              0.    -956.872E+03
           10472     1.46351E+06    -349.761E+03              0.    -973.816E+03
           10473     1.46770E+06    -354.845E+03              0.    -991.323E+03
           10474     1.47169E+06    -359.540E+03              0.    -1.00941E+06
           10475     1.47547E+06    -363.839E+03              0.    -1.02808E+06
           10476     1.47904E+06    -367.738E+03              0.    -1.04736E+06
           10477     1.48238E+06    -371.232E+03              0.    -1.06726E+06
           10478     1.48548E+06    -374.315E+03              0.    -1.08780E+06
           10479     1.48833E+06    -376.980E+03              0.    -1.10898E+06
           10480     1.49092E+06    -379.221E+03              0.    -1.13084E+06
           10481     1.49325E+06    -381.031E+03              0.    -1.15338E+06
           10482     1.49530E+06    -382.405E+03              0.    -1.17662E+06
           10483     1.49705E+06    -383.334E+03              0.    -1.20059E+06
           10484     1.49850E+06    -383.811E+03              0.    -1.22530E+06
           10485     1.49964E+06    -383.829E+03              0.    -1.25077E+06
           10486     1.50044E+06    -383.379E+03              0.    -1.27703E+06
           10487     1.50090E+06    -382.452E+03              0.    -1.30409E+06
           10488     1.50100E+06    -381.041E+03              0.    -1.33198E+06
           10489     1.50072E+06    -379.136E+03              0.    -1.36073E+06
           10490     1.50006E+06    -376.728E+03              0.    -1.39035E+06
           10491     1.49899E+06    -373.808E+03              0.    -1.42088E+06
           10492     1.49751E+06    -370.364E+03              0.    -1.45234E+06
           10493     1.49558E+06    -366.388E+03              0.    -1.48475E+06
           10494     1.49319E+06    -361.869E+03              0.    -1.51815E+06
           10495     1.49033E+06    -356.795E+03              0.    -1.55257E+06
           10496     1.48697E+06    -351.156E+03              0.    -1.58803E+06
           10497     1.48310E+06    -344.940E+03              0.    -1.62457E+06
           10498     1.47870E+06    -338.136E+03              0.    -1.66222E+06
           10499     1.47373E+06    -330.731E+03              0.    -1.70101E+06
           10500     1.46819E+06    -322.713E+03              0.    -1.74098E+06
           10501     1.46205E+06    -314.070E+03              0.    -1.78216E+06
           10502     1.45529E+06    -304.788E+03              0.    -1.82460E+06
           10503     1.44787E+06    -294.854E+03              0.    -1.86832E+06
           10504     1.43979E+06    -284.256E+03              0.    -1.91338E+06
           10505     1.43100E+06    -272.978E+03              0.    -1.95980E+06
           10506     1.42149E+06    -261.008E+03              0.    -2.00764E+06
           10507     1.41123E+06    -248.330E+03              0.    -2.05694E+06
           10508     1.40019E+06    -234.931E+03              0.    -2.10773E+06
           10509     1.38834E+06    -220.796E+03              0.    -2.16008E+06
           10510     1.37566E+06    -205.910E+03              0.    -2.21402E+06
           10511     1.36210E+06    -190.258E+03              0.    -2.26961E+06
           10512     1.34765E+06    -173.825E+03              0.    -2.32690E+06
           10513     1.33226E+06    -156.596E+03              0.    -2.38593E+06
           10514     1.31591E+06    -138.554E+03              0.    -2.44677E+06
           10515     1.29857E+06    -119.685E+03              0.    -2.50947E+06
           10516     1.28019E+06    -99.9728E+03              0.    -2.57409E+06
           10517     1.26075E+06    -79.4022E+03              0.    -2.64069E+06
           10518     1.24020E+06    -57.9572E+03              0.    -2.70932E+06
           10519     1.21852E+06    -35.6225E+03              0.    -2.78005E+06
           10520     1.19566E+06    -12.3823E+03              0.    -2.85295E+06
           10521     1.17158E+06     11.7785E+03              0.    -2.92808E+06
           10522     1.14624E+06     36.8753E+03              0.    -3.00551E+06
           10523     1.11961E+06     62.9231E+03              0.    -3.08531E+06
           10524     1.09165E+06     89.9366E+03              0.    -3.16756E+06
           10525     1.06231E+06     117.930E+03              0.    -3.25232E+06
           10526     1.03154E+06     146.919E+03              0.    -3.33968E+06
           10527     999.319E+03     176.915E+03              0.    -3.42971E+06
           10528     965.587E+03     207.932E+03              0.    -3.52249E+06
           10529     930.303E+03     239.983E+03              0.    -3.61811E+06
           10530     893.424E+03     273.079E+03              0.    -3.71665E+06
           10531     854.902E+03     307.233E+03              0.    -3.81820E+06
           10532     814.693E+03     342.454E+03              0.    -3.92284E+06
           10533     772.749E+03     378.752E+03              0.    -4.03067E+06
           10534     729.024E+03     416.134E+03              0.    -4.14179E+06
           10535     683.469E+03     454.610E+03              0.    -4.25629E+06
           10536     636.038E+03     494.185E+03              0.    -4.37426E+06
           10537     586.682E+03     534.863E+03              0.    -4.49582E+06
           10538     535.352E+03     576.648E+03              0.    -4.62105E+06
           10539     482.002E+03     619.542E+03              0.    -4.75008E+06
           10540     426.582E+03     663.545E+03              0.    -4.88300E+06
           10541     369.045E+03     708.655E+03              0.    -5.01992E+06
           10542     309.342E+03     754.868E+03              0.    -5.16097E+06
           10543     247.426E+03     802.179E+03              0.    -5.30625E+06
           10544      183.25E+03     850.578E+03              0.    -5.45588E+06
           10545     116.767E+03     900.056E+03              0.    -5.60999E+06
           10546     47.9317E+03     950.597E+03              0.    -5.76869E+06
           10547    -23.3012E+03     1.00219E+06              0.    -5.93211E+06
           10548    -96.9756E+03     1.05481E+06              0.    -6.10038E+06
           10549    -173.134E+03     1.10843E+06              0.    -6.27362E+06
           10550    -251.818E+03     1.16303E+06              0.    -6.45197E+06
           10551    -333.067E+03     1.21858E+06              0.    -6.63556E+06
           10552    -416.920E+03     1.27505E+06              0.    -6.82453E+06
           10553    -503.411E+03     1.33239E+06              0.    -7.01901E+06
           10554    -592.576E+03     1.39056E+06              0.    -7.21915E+06
           10555    -684.445E+03     1.44952E+06              0.    -7.42508E+06
           10556    -779.047E+03     1.50921E+06              0.    -7.63695E+06
           10557    -876.407E+03     1.56958E+06              0.    -7.85490E+06
           10558    -976.549E+03     1.63055E+06              0.    -8.07908E+06
           10559    -1.07949E+06     1.69207E+06              0.    -8.30963E+06
           10560    -1.18525E+06     1.75405E+06              0.    -8.54671E+06
           10561    -1.29383E+06     1.81641E+06              0.    -8.79046E+06
           10562    -1.40525E+06     1.87906E+06              0.    -9.04103E+06
           10563    -1.51950E+06     1.94191E+06              0.    -9.29857E+06
           10564    -1.63658E+06     2.00485E+06              0.    -9.56323E+06
           10565    -1.75648E+06     2.06777E+06              0.    -9.83515E+06
           10566    -1.87919E+06     2.13055E+06              0.    -10.1145E+06
           10567    -2.00469E+06     2.19306E+06              0.    -10.4014E+06
           10568    -2.13295E+06     2.25517E+06              0.    -10.6960E+06
           10569    -2.26393E+06     2.31672E+06              0.    -10.9985E+06
           10570    -2.39760E+06     2.37757E+06              0.    -11.3089E+06
           10571    -2.53390E+06     2.43754E+06              0.    -11.6275E+06
           10572    -2.67278E+06     2.49646E+06              0.    -11.9544E+06
           10573    -2.81417E+06     2.55416E+06              0.    -12.2896E+06
           10574    -2.95800E+06     2.61042E+06              0.    -12.6334E+06
           10575    -3.10419E+06     2.66504E+06              0.    -12.9857E+06
           10576    -3.25264E+06     2.71782E+06              0.    -13.3469E+06
           10577    -3.40324E+06     2.76851E+06              0.    -13.7168E+06
           10578    -3.55590E+06     2.81689E+06              0.    -14.0956E+06
           10579    -3.71049E+06     2.86270E+06              0.    -14.4835E+06
           10580    -3.86687E+06     2.90567E+06              0.    -14.8804E+06
           10581    -4.02490E+06     2.94555E+06              0.    -15.2864E+06
           10582    -4.18442E+06     2.98204E+06              0.    -15.7016E+06
           10583    -4.34529E+06     3.01486E+06              0.    -16.1259E+06
           10584    -4.50731E+06     3.04369E+06              0.    -16.5594E+06
           10585    -4.67031E+06     3.06824E+06              0.    -17.0019E+06
           10586    -4.83410E+06     3.08816E+06              0.    -17.4536E+06
           10587    -4.99846E+06     3.10315E+06              0.    -17.9142E+06
           10588    -5.16318E+06     3.11285E+06              0.    -18.3836E+06
           10589    -5.32805E+06     3.11692E+06              0.    -18.8617E+06
           10590    -5.49284E+06     3.11501E+06              0.    -19.3483E+06
           10591    -5.65730E+06     3.10676E+06              0.    -19.8431E+06
           10592    -5.82120E+06     3.09181E+06              0.    -20.3459E+06
           10593    -5.98429E+06     3.06979E+06              0.    -20.8562E+06
           10594    -6.14633E+06     3.04036E+06              0.    -21.3738E+06
           10595    -6.30705E+06     3.00313E+06              0.    -21.8979E+06
           10596    -6.46622E+06     2.95775E+06              0.    -22.4283E+06
           10597    -6.62359E+06     2.90388E+06              0.    -22.9640E+06
           10598    -6.77891E+06     2.84116E+06              0.    -23.5046E+06
           10599    -6.93196E+06     2.76925E+06              0.    -24.0489E+06
           10600    -7.08252E+06     2.68783E+06              0.    -24.5963E+06
           10601    -7.23038E+06     2.59661E+06              0.    -25.1454E+06
           10602    -7.37536E+06     2.49528E+06              0.    -25.6952E+06
           10603    -7.51731E+06     2.38358E+06              0.    -26.2442E+06
           10604    -7.65608E+06     2.26128E+06              0.    -26.7908E+06
           10605    -7.79159E+06     2.12817E+06              0.    -27.3335E+06
           10606    -7.92378E+06     1.98408E+06              0.    -27.8702E+06
           10607    -8.05263E+06     1.82887E+06              0.    -28.3988E+06
           10608    -8.17820E+06     1.66246E+06              0.    -28.9169E+06
           10609    -8.30060E+06     1.48482E+06              0.    -29.4219E+06
           10610    -8.41999E+06     1.29595E+06              0.    -29.9109E+06
           10611    -8.53664E+06     1.09596E+06              0.    -30.3806E+06
           10612    -8.65089E+06     885.002E+03              0.    -30.8274E+06
           10613    -8.76320E+06     663.306E+03              0.    -31.2476E+06
           10614    -8.87414E+06     431.207E+03              0.    -31.6366E+06
           10615    -8.98438E+06     189.131E+03              0.    -31.9899E+06
           10616    -9.09478E+06    -62.3746E+03              0.    -32.3023E+06
           10617    -9.20633E+06    -322.633E+03              0.     -32.568E+06
           10618    -9.32021E+06    -590.829E+03              0.    -32.7810E+06
           10619    -9.43782E+06    -865.969E+03              0.    -32.9344E+06
           10620    -9.56076E+06    -1.14688E+06              0.    -33.0211E+06
           10621    -9.69091E+06    -1.43216E+06              0.    -33.0330E+06
           10622    -9.83042E+06    -1.72015E+06              0.    -32.9616E+06
           10623    -9.98178E+06    -2.00893E+06              0.    -32.7975E+06
           10624    -10.1478E+06    -2.29621E+06              0.    -32.5306E+06
           10625    -10.3318E+06    -2.57933E+06              0.    -32.1502E+06
           10626    -10.5375E+06    -2.85519E+06              0.    -31.6445E+06
           10627    -10.7691E+06    -3.12014E+06              0.    -31.0009E+06
           10628    -11.0314E+06    -3.36996E+06              0.    -30.2060E+06
           10629    -11.3299E+06    -3.59968E+06              0.    -29.2453E+06
           10630    -11.6708E+06    -3.80358E+06              0.    -28.1033E+06
           10631    -12.0613E+06    -3.97492E+06              0.    -26.7637E+06
           10632    -12.5091E+06    -4.10589E+06              0.    -25.2086E+06
           10633    -12.6972E+06    -4.29148E+06              0.    -24.9304E+06
           10634     1.04279E+06     469.793E+03              0.    -718.002E+03
           10635     1.03965E+06     440.223E+03              0.    -716.725E+03
           10636     1.04932E+06     416.777E+03              0.    -709.489E+03
           10637     1.05891E+06     393.674E+03              0.    -702.823E+03
           10638     1.06842E+06     370.916E+03              0.    -696.713E+03
           10639     1.07784E+06     348.503E+03              0.    -691.145E+03
           10640     1.08718E+06     326.436E+03              0.    -686.106E+03
           10641     1.09643E+06     304.716E+03              0.    -681.585E+03
           10642     1.10560E+06     283.342E+03              0.    -677.571E+03
           10643     1.11468E+06     262.314E+03              0.    -674.052E+03
           10644     1.12368E+06     241.634E+03              0.    -671.019E+03
           10645     1.13259E+06     221.300E+03              0.    -668.463E+03
           10646     1.14142E+06     201.312E+03              0.    -666.375E+03
           10647     1.15016E+06     181.670E+03              0.    -664.747E+03
           10648     1.15881E+06     162.373E+03              0.    -663.572E+03
           10649     1.16738E+06     143.422E+03              0.    -662.842E+03
           10650     1.17586E+06     124.814E+03              0.    -662.552E+03
           10651     1.18425E+06     106.551E+03              0.    -662.694E+03
           10652     1.19256E+06     88.6305E+03              0.    -663.265E+03
           10653     1.20078E+06     71.0528E+03              0.    -664.259E+03
           10654     1.20891E+06     53.8173E+03              0.    -665.672E+03
           10655     1.21695E+06     36.9231E+03              0.    -667.499E+03
           10656     1.22491E+06     20.3701E+03              0.    -669.738E+03
           10657     1.23277E+06     4.15733E+03              0.    -672.386E+03
           10658     1.24055E+06    -11.7154E+03              0.    -675.439E+03
           10659     1.24823E+06    -27.2484E+03              0.    -678.897E+03
           10660     1.25583E+06    -42.4423E+03              0.    -682.757E+03
           10661     1.26333E+06    -57.2969E+03              0.    -687.018E+03
           10662     1.27073E+06    -71.8129E+03              0.    -691.679E+03
           10663     1.27804E+06    -85.9901E+03              0.    -696.741E+03
           10664     1.28525E+06    -99.8284E+03              0.    -702.203E+03
           10665     1.29237E+06    -113.328E+03              0.    -708.065E+03
           10666     1.29938E+06    -126.488E+03              0.    -714.329E+03
           10667     1.30629E+06    -139.309E+03              0.    -720.996E+03
           10668     1.31310E+06    -151.789E+03              0.    -728.067E+03
           10669     1.31980E+06    -163.929E+03              0.    -735.546E+03
           10670     1.32639E+06    -175.727E+03              0.    -743.433E+03
           10671     1.33286E+06    -187.183E+03              0.    -751.734E+03
           10672     1.33923E+06    -198.295E+03              0.    -760.450E+03
           10673     1.34547E+06    -209.063E+03              0.    -769.586E+03
           10674     1.35159E+06    -219.484E+03              0.    -779.146E+03
           10675     1.35758E+06    -229.557E+03              0.    -789.134E+03
           10676     1.36345E+06    -239.280E+03              0.    -799.557E+03
           10677     1.36918E+06    -248.652E+03              0.    -810.419E+03
           10678     1.37477E+06    -257.670E+03              0.    -821.726E+03
           10679     1.38022E+06    -266.332E+03              0.    -833.486E+03
           10680     1.38552E+06    -274.634E+03              0.    -845.705E+03
           10681     1.39067E+06    -282.575E+03              0.    -858.389E+03
           10682     1.39565E+06    -290.151E+03              0.    -871.549E+03
           10683     1.40048E+06    -297.359E+03              0.    -885.190E+03
           10684     1.40513E+06    -304.196E+03              0.    -899.324E+03
           10685     1.40960E+06    -310.657E+03              0.    -913.958E+03
           10686     1.41389E+06    -316.739E+03              0.    -929.103E+03
           10687     1.41798E+06    -322.437E+03              0.    -944.769E+03
           10688     1.42187E+06    -327.748E+03              0.    -960.967E+03
           10689     1.42556E+06    -332.665E+03              0.    -977.709E+03
           10690     1.42903E+06    -337.185E+03              0.    -995.006E+03
           10691     1.43227E+06    -341.302E+03              0.    -1.01287E+06
           10692     1.43528E+06    -345.010E+03              0.    -1.03132E+06
           10693     1.43804E+06    -348.304E+03              0.    -1.05036E+06
           10694     1.44055E+06    -351.178E+03              0.    -1.07001E+06
           10695     1.44279E+06    -353.624E+03              0.    -1.09029E+06
           10696     1.44476E+06    -355.637E+03              0.    -1.11121E+06
           10697     1.44644E+06    -357.209E+03              0.    -1.13278E+06
           10698     1.44781E+06    -358.333E+03              0.    -1.15503E+06
           10699     1.44888E+06    -359.002E+03              0.    -1.17797E+06
           10700     1.44962E+06    -359.207E+03              0.    -1.20162E+06
           10701     1.45002E+06    -358.941E+03              0.    -1.22600E+06
           10702     1.45007E+06    -358.194E+03              0.    -1.25113E+06
           10703     1.44975E+06    -356.959E+03              0.    -1.27703E+06
           10704     1.44904E+06    -355.225E+03              0.    -1.30372E+06
           10705     1.44794E+06    -352.983E+03              0.    -1.33122E+06
           10706     1.44642E+06    -350.224E+03              0.    -1.35956E+06
           10707     1.44447E+06    -346.937E+03              0.    -1.38876E+06
           10708     1.44207E+06    -343.112E+03              0.    -1.41885E+06
           10709     1.43920E+06    -338.737E+03              0.    -1.44985E+06
           10710     1.43584E+06    -333.803E+03              0.    -1.48179E+06
           10711     1.43197E+06    -328.296E+03              0.    -1.51469E+06
           10712     1.42758E+06    -322.206E+03              0.    -1.54859E+06
           10713     1.42264E+06    -315.520E+03              0.    -1.58352E+06
           10714     1.41713E+06    -308.225E+03              0.    -1.61950E+06
           10715     1.41103E+06    -300.310E+03              0.    -1.65656E+06
           10716     1.40431E+06     -291.76E+03              0.    -1.69475E+06
           10717     1.39695E+06    -282.562E+03              0.    -1.73410E+06
           10718     1.38893E+06    -272.703E+03              0.    -1.77463E+06
           10719     1.38021E+06    -262.168E+03              0.    -1.81639E+06
           10720     1.37078E+06    -250.942E+03              0.    -1.85941E+06
           10721     1.36060E+06    -239.012E+03              0.    -1.90374E+06
           10722     1.34966E+06    -226.362E+03              0.    -1.94941E+06
           10723     1.33791E+06    -212.976E+03              0.    -1.99646E+06
           10724     1.32533E+06    -198.840E+03              0.    -2.04494E+06
           10725     1.31189E+06    -183.937E+03              0.    -2.09490E+06
           10726     1.29755E+06    -168.251E+03              0.    -2.14637E+06
           10727     1.28229E+06    -151.766E+03              0.    -2.19940E+06
           10728     1.26607E+06    -134.466E+03              0.    -2.25405E+06
           10729     1.24886E+06    -116.333E+03              0.    -2.31036E+06
           10730     1.23062E+06    -97.3505E+03              0.    -2.36839E+06
           10731     1.21132E+06    -77.5020E+03              0.    -2.42818E+06
           10732     1.19091E+06    -56.7700E+03              0.    -2.48980E+06
           10733     1.16936E+06    -35.1373E+03              0.    -2.55330E+06
           10734     1.14664E+06    -12.5865E+03              0.    -2.61873E+06
           10735     1.12269E+06     10.8999E+03              0.    -2.68617E+06
           10736     1.09749E+06     35.3390E+03              0.    -2.75566E+06
           10737     1.07098E+06     60.7485E+03              0.    -2.82728E+06
           10738     1.04313E+06     87.1454E+03              0.    -2.90109E+06
           10739     1.01389E+06     114.547E+03              0.    -2.97715E+06
           10740     983.210E+03     142.970E+03              0.    -3.05554E+06
           10741     951.056E+03     172.432E+03              0.    -3.13633E+06
           10742     917.376E+03     202.948E+03              0.    -3.21959E+06
           10743     882.122E+03     234.536E+03              0.    -3.30540E+06
           10744     845.245E+03     267.211E+03              0.    -3.39383E+06
           10745     806.697E+03     300.987E+03              0.    -3.48496E+06
           10746     766.427E+03     335.881E+03              0.    -3.57888E+06
           10747     724.384E+03     371.905E+03              0.    -3.67568E+06
           10748     680.516E+03     409.075E+03              0.    -3.77542E+06
           10749     634.771E+03     447.401E+03              0.    -3.87822E+06
           10750     587.095E+03     486.897E+03              0.    -3.98414E+06
           10751     537.434E+03     527.572E+03              0.    -4.09330E+06
           10752     485.734E+03     569.437E+03              0.    -4.20578E+06
           10753     431.939E+03     612.500E+03              0.    -4.32169E+06
           10754     375.994E+03     656.768E+03              0.    -4.44112E+06
           10755     317.842E+03     702.248E+03              0.    -4.56417E+06
           10756     257.428E+03     748.943E+03              0.    -4.69096E+06
           10757     194.694E+03     796.856E+03              0.    -4.82158E+06
           10758     129.584E+03     845.988E+03              0.    -4.95615E+06
           10759     62.0395E+03     896.337E+03              0.    -5.09479E+06
           10760    -7.99518E+03       947.9E+03              0.    -5.23760E+06
           10761    -80.5774E+03     1.00067E+06              0.    -5.38471E+06
           10762    -155.764E+03     1.05464E+06              0.    -5.53623E+06
           10763    -233.611E+03     1.10980E+06              0.    -5.69229E+06
           10764    -314.174E+03     1.16613E+06              0.    -5.85301E+06
           10765    -397.508E+03     1.22362E+06              0.    -6.01852E+06
           10766    -483.669E+03     1.28225E+06              0.    -6.18896E+06
           10767    -572.708E+03     1.34199E+06              0.    -6.36444E+06
           10768    -664.679E+03     1.40281E+06              0.    -6.54512E+06
           10769    -759.632E+03     1.46468E+06              0.    -6.73111E+06
           10770    -857.617E+03     1.52757E+06              0.    -6.92257E+06
           10771    -958.681E+03     1.59144E+06              0.    -7.11963E+06
           10772    -1.06287E+06     1.65624E+06              0.    -7.32244E+06
           10773    -1.17023E+06     1.72191E+06              0.    -7.53114E+06
           10774    -1.28079E+06     1.78840E+06              0.    -7.74588E+06
           10775    -1.39461E+06     1.85566E+06              0.    -7.96681E+06
           10776    -1.51170E+06     1.92360E+06              0.    -8.19407E+06
           10777    -1.63212E+06     1.99216E+06              0.    -8.42782E+06
           10778    -1.75587E+06     2.06125E+06              0.    -8.66821E+06
           10779    -1.88300E+06     2.13080E+06              0.    -8.91539E+06
           10780    -2.01351E+06     2.20069E+06              0.    -9.16951E+06
           10781    -2.14743E+06     2.27082E+06              0.    -9.43074E+06
           10782    -2.28476E+06     2.34109E+06              0.    -9.69921E+06
           10783    -2.42552E+06     2.41138E+06              0.    -9.97509E+06
           10784    -2.56970E+06     2.48154E+06              0.    -10.2585E+06
           10785    -2.71730E+06     2.55146E+06              0.    -10.5497E+06
           10786    -2.86831E+06     2.62097E+06              0.    -10.8487E+06
           10787    -3.02271E+06     2.68992E+06              0.    -11.1557E+06
           10788    -3.18047E+06     2.75814E+06              0.    -11.4708E+06
           10789    -3.34157E+06     2.82545E+06              0.    -11.7943E+06
           10790    -3.50596E+06     2.89167E+06              0.    -12.1261E+06
           10791    -3.67360E+06     2.95658E+06              0.    -12.4665E+06
           10792    -3.84443E+06     3.01998E+06              0.    -12.8156E+06
           10793    -4.01840E+06     3.08165E+06              0.    -13.1735E+06
           10794    -4.19541E+06     3.14135E+06              0.    -13.5402E+06
           10795    -4.37541E+06     3.19882E+06              0.    -13.9160E+06
           10796    -4.55828E+06     3.25381E+06              0.    -14.3008E+06
           10797    -4.74395E+06     3.30604E+06              0.    -14.6948E+06
           10798    -4.93228E+06     3.35523E+06              0.    -15.0980E+06
           10799    -5.12317E+06     3.40108E+06              0.    -15.5105E+06
           10800    -5.31649E+06     3.44327E+06              0.    -15.9322E+06
           10801    -5.51209E+06     3.48148E+06              0.    -16.3632E+06
           10802    -5.70982E+06     3.51538E+06              0.    -16.8034E+06
           10803    -5.90954E+06     3.54462E+06              0.    -17.2529E+06
           10804    -6.11107E+06     3.56882E+06              0.    -17.7114E+06
           10805    -6.31424E+06     3.58763E+06              0.    -18.1790E+06
           10806    -6.51886E+06     3.60066E+06              0.    -18.6555E+06
           10807    -6.72474E+06     3.60751E+06              0.    -19.1406E+06
           10808    -6.93168E+06     3.60778E+06              0.    -19.6341E+06
           10809    -7.13948E+06     3.60105E+06              0.    -20.1358E+06
           10810    -7.34793E+06     3.58691E+06              0.    -20.6453E+06
           10811    -7.55681E+06     3.56492E+06              0.    -21.1622E+06
           10812    -7.76591E+06     3.53465E+06              0.    -21.6859E+06
           10813    -7.97501E+06     3.49566E+06              0.    -22.2161E+06
           10814    -8.18390E+06     3.44752E+06              0.    -22.7519E+06
           10815    -8.39237E+06     3.38976E+06              0.    -23.2927E+06
           10816    -8.60021E+06     3.32196E+06              0.    -23.8376E+06
           10817    -8.80724E+06     3.24367E+06              0.    -24.3857E+06
           10818    -9.01325E+06     3.15444E+06              0.    -24.9358E+06
           10819     -9.2181E+06     3.05385E+06              0.    -25.4868E+06
           10820    -9.42163E+06     2.94148E+06              0.    -26.0372E+06
           10821    -9.62370E+06     2.81690E+06              0.    -26.5856E+06
           10822    -9.82424E+06     2.67973E+06              0.    -27.1301E+06
           10823    -10.0232E+06     2.52958E+06              0.    -27.6689E+06
           10824    -10.2205E+06     2.36608E+06              0.    -28.1998E+06
           10825    -10.4162E+06     2.18891E+06              0.    -28.7203E+06
           10826    -10.6103E+06     1.99775E+06              0.    -29.2279E+06
           10827    -10.8031E+06     1.79233E+06              0.    -29.7196E+06
           10828    -10.9946E+06     1.57241E+06              0.    -30.1921E+06
           10829    -11.1852E+06     1.33780E+06              0.    -30.6418E+06
           10830    -11.3753E+06     1.08836E+06              0.    -31.0649E+06
           10831    -11.5652E+06     824.014E+03              0.    -31.4569E+06
           10832    -11.7557E+06     544.741E+03              0.    -31.8130E+06
           10833    -11.9474E+06     250.617E+03              0.    -32.1282E+06
           10834    -12.1411E+06    -58.1946E+03              0.    -32.3965E+06
           10835    -12.3378E+06    -381.425E+03              0.    -32.6119E+06
           10836    -12.5389E+06    -718.669E+03              0.    -32.7675E+06
           10837    -12.7456E+06    -1.06938E+06              0.    -32.8559E+06
           10838    -12.9595E+06    -1.43284E+06              0.    -32.8690E+06
           10839    -13.1827E+06    -1.80809E+06              0.    -32.7982E+06
           10840    -13.4173E+06    -2.19399E+06              0.    -32.6340E+06
           10841    -13.6659E+06    -2.58904E+06              0.    -32.3661E+06
           10842    -13.9313E+06    -2.99147E+06              0.    -31.9835E+06
           10843    -14.2169E+06    -3.39907E+06              0.    -31.4742E+06
           10844    -14.5265E+06    -3.80917E+06              0.    -30.8255E+06
           10845    -14.8647E+06    -4.21857E+06              0.    -30.0235E+06
           10846    -15.2363E+06    -4.62340E+06              0.    -29.0533E+06
           10847    -15.6471E+06    -5.01907E+06              0.    -27.8992E+06
           10848    -16.1039E+06    -5.40009E+06              0.    -26.5439E+06
           10849    -16.6143E+06    -5.76000E+06              0.    -24.9693E+06
           10850    -16.9026E+06    -6.21315E+06              0.    -24.6672E+06
           10851     1.02432E+06     461.508E+03              0.    -727.585E+03
           10852     1.02126E+06     432.674E+03              0.    -726.292E+03
           10853     1.03069E+06     409.805E+03              0.    -718.976E+03
           10854     1.04005E+06     387.263E+03              0.    -712.229E+03
           10855     1.04932E+06     365.053E+03              0.    -706.036E+03
           10856     1.05850E+06     343.175E+03              0.    -700.385E+03
           10857     1.06761E+06     321.631E+03              0.    -695.262E+03
           10858     1.07663E+06     300.422E+03              0.    -690.656E+03
           10859     1.08557E+06     279.548E+03              0.    -686.557E+03
           10860     1.09442E+06     259.011E+03              0.    -682.953E+03
           10861     1.10319E+06     238.811E+03              0.    -679.834E+03
           10862     1.11187E+06     218.949E+03              0.    -677.192E+03
           10863     1.12046E+06     199.424E+03              0.    -675.017E+03
           10864     1.12896E+06     180.238E+03              0.    -673.302E+03
           10865     1.13738E+06     161.389E+03              0.    -672.039E+03
           10866     1.14571E+06     142.879E+03              0.    -671.221E+03
           10867     1.15395E+06     124.707E+03              0.    -670.842E+03
           10868     1.16209E+06     106.874E+03              0.    -670.896E+03
           10869     1.17015E+06     89.3780E+03              0.    -671.378E+03
           10870     1.17812E+06     72.2203E+03              0.    -672.282E+03
           10871     1.18599E+06     55.4007E+03              0.    -673.604E+03
           10872     1.19377E+06     38.9187E+03              0.    -675.341E+03
           10873     1.20146E+06     22.7746E+03              0.    -677.488E+03
           10874     1.20905E+06     6.96803E+03              0.    -680.043E+03
           10875     1.21655E+06    -8.50093E+03              0.    -683.003E+03
           10876     1.22395E+06    -23.6320E+03              0.    -686.366E+03
           10877     1.23125E+06    -38.4255E+03              0.    -690.130E+03
           10878     1.23845E+06    -52.8808E+03              0.    -694.293E+03
           10879     1.24555E+06    -66.9981E+03              0.    -698.856E+03
           10880     1.25255E+06    -80.7767E+03              0.    -703.817E+03
           10881     1.25944E+06    -94.2163E+03              0.    -709.176E+03
           10882     1.26622E+06    -107.316E+03              0.    -714.934E+03
           10883     1.27290E+06    -120.076E+03              0.    -721.092E+03
           10884     1.27946E+06    -132.495E+03              0.     -727.65E+03
           10885     1.28591E+06    -144.572E+03              0.    -734.610E+03
           10886     1.29223E+06    -156.306E+03              0.    -741.975E+03
           10887     1.29844E+06    -167.696E+03              0.    -749.746E+03
           10888     1.30453E+06    -178.740E+03              0.    -757.926E+03
           10889     1.31049E+06    -189.437E+03              0.    -766.519E+03
           10890     1.31632E+06    -199.785E+03              0.    -775.527E+03
           10891     1.32201E+06    -209.783E+03              0.    -784.956E+03
           10892     1.32756E+06    -219.428E+03              0.    -794.810E+03
           10893     1.33297E+06    -228.718E+03              0.    -805.093E+03
           10894     1.33823E+06    -237.651E+03              0.    -815.811E+03
           10895     1.34334E+06    -246.224E+03              0.    -826.970E+03
           10896     1.34829E+06    -254.434E+03              0.    -838.575E+03
           10897     1.35308E+06    -262.278E+03              0.    -850.634E+03
           10898     1.35769E+06    -269.753E+03              0.    -863.153E+03
           10899     1.36213E+06    -276.855E+03              0.    -876.140E+03
           10900     1.36638E+06    -283.580E+03              0.    -889.604E+03
           10901     1.37045E+06    -289.926E+03              0.    -903.552E+03
           10902     1.37432E+06    -295.886E+03              0.    -917.994E+03
           10903     1.37798E+06    -301.457E+03              0.    -932.939E+03
           10904     1.38143E+06    -306.635E+03              0.    -948.397E+03
           10905     1.38465E+06    -311.413E+03              0.    -964.379E+03
           10906     1.38765E+06    -315.787E+03              0.    -980.896E+03
           10907     1.39041E+06    -319.751E+03              0.    -997.960E+03
           10908     1.39291E+06      -323.3E+03              0.    -1.01558E+06
           10909     1.39516E+06    -326.427E+03              0.    -1.03378E+06
           10910     1.39713E+06    -329.125E+03              0.    -1.05255E+06
           10911     1.39883E+06    -331.389E+03              0.    -1.07193E+06
           10912     1.40023E+06    -333.211E+03              0.    -1.09192E+06
           10913     1.40133E+06    -334.583E+03              0.    -1.11254E+06
           10914     1.40210E+06    -335.498E+03              0.    -1.13380E+06
           10915     1.40255E+06    -335.949E+03              0.    -1.15573E+06
           10916     1.40265E+06    -335.926E+03              0.    -1.17833E+06
           10917     1.40240E+06    -335.421E+03              0.    -1.20163E+06
           10918     1.40177E+06    -334.425E+03              0.    -1.22564E+06
           10919     1.40075E+06    -332.929E+03              0.    -1.25039E+06
           10920     1.39933E+06    -330.923E+03              0.    -1.27589E+06
           10921     1.39748E+06    -328.398E+03              0.    -1.30217E+06
           10922     1.39520E+06    -325.342E+03              0.    -1.32924E+06
           10923     1.39246E+06    -321.746E+03              0.    -1.35714E+06
           10924     1.38924E+06    -317.598E+03              0.    -1.38587E+06
           10925     1.38553E+06    -312.886E+03              0.    -1.41548E+06
           10926     1.38131E+06    -307.600E+03              0.    -1.44597E+06
           10927     1.37655E+06    -301.726E+03              0.    -1.47739E+06
           10928     1.37124E+06    -295.253E+03              0.    -1.50974E+06
           10929     1.36535E+06    -288.168E+03              0.    -1.54308E+06
           10930     1.35885E+06    -280.457E+03              0.    -1.57741E+06
           10931     1.35174E+06    -272.106E+03              0.    -1.61278E+06
           10932     1.34397E+06    -263.103E+03              0.    -1.64921E+06
           10933     1.33553E+06    -253.433E+03              0.    -1.68673E+06
           10934     1.32639E+06     -243.08E+03              0.    -1.72539E+06
           10935     1.31652E+06    -232.031E+03              0.    -1.76521E+06
           10936     1.30589E+06    -220.269E+03              0.    -1.80622E+06
           10937     1.29448E+06    -207.779E+03              0.    -1.84848E+06
           10938     1.28226E+06    -194.546E+03              0.    -1.89200E+06
           10939     1.26919E+06    -180.552E+03              0.    -1.93684E+06
           10940     1.25525E+06    -165.782E+03              0.    -1.98303E+06
           10941     1.24040E+06    -150.218E+03              0.    -2.03062E+06
           10942     1.22461E+06    -133.843E+03              0.    -2.07965E+06
           10943     1.20784E+06    -116.639E+03              0.    -2.13016E+06
           10944     1.19006E+06    -98.5892E+03              0.    -2.18220E+06
           10945     1.17123E+06    -79.6750E+03              0.    -2.23581E+06
           10946     1.15131E+06    -59.8783E+03              0.    -2.29105E+06
           10947     1.13027E+06    -39.1806E+03              0.    -2.34797E+06
           10948     1.10807E+06    -17.5631E+03              0.    -2.40662E+06
           10949     1.08466E+06     4.99282E+03              0.    -2.46705E+06
           10950     1.06001E+06     28.5062E+03              0.    -2.52932E+06
           10951     1.03406E+06     52.9962E+03              0.    -2.59348E+06
           10952     1.00679E+06     78.4818E+03              0.    -2.65960E+06
           10953     978.130E+03     104.982E+03              0.    -2.72774E+06
           10954     948.049E+03     132.517E+03              0.    -2.79795E+06
           10955     916.497E+03     161.105E+03              0.    -2.87030E+06
           10956     883.425E+03     190.765E+03              0.    -2.94487E+06
           10957     848.782E+03     221.516E+03              0.    -3.02171E+06
           10958     812.519E+03     253.378E+03              0.    -3.10090E+06
           10959     774.584E+03     286.368E+03              0.    -3.18250E+06
           10960     734.923E+03     320.505E+03              0.    -3.26661E+06
           10961     693.484E+03     355.806E+03              0.    -3.35328E+06
           10962     650.210E+03     392.290E+03              0.    -3.44260E+06
           10963     605.047E+03     429.973E+03              0.    -3.53465E+06
           10964     557.936E+03     468.871E+03              0.    -3.62952E+06
           10965     508.820E+03     509.001E+03              0.    -3.72728E+06
           10966     457.639E+03     550.377E+03              0.    -3.82803E+06
           10967     404.335E+03     593.013E+03              0.    -3.93185E+06
           10968     348.845E+03     636.923E+03              0.    -4.03885E+06
           10969     291.108E+03     682.119E+03              0.    -4.14910E+06
           10970     231.062E+03     728.612E+03              0.    -4.26272E+06
           10971     168.642E+03     776.411E+03              0.    -4.37979E+06
           10972     103.786E+03     825.524E+03              0.    -4.50043E+06
           10973     36.4281E+03     875.960E+03              0.    -4.62473E+06
           10974    -33.4969E+03     927.722E+03              0.    -4.75281E+06
           10975    -106.055E+03     980.813E+03              0.    -4.88476E+06
           10976    -181.311E+03     1.03524E+06              0.    -5.02072E+06
           10977    -259.333E+03     1.09099E+06              0.    -5.16078E+06
           10978    -340.187E+03     1.14807E+06              0.    -5.30507E+06
           10979    -423.940E+03     1.20647E+06              0.    -5.45371E+06
           10980    -510.658E+03     1.26618E+06              0.    -5.60682E+06
           10981    -600.409E+03     1.32720E+06              0.    -5.76452E+06
           10982    -693.259E+03     1.38949E+06              0.    -5.92694E+06
           10983    -789.274E+03     1.45306E+06              0.    -6.09422E+06
           10984    -888.519E+03     1.51788E+06              0.    -6.26648E+06
           10985    -991.059E+03     1.58391E+06              0.    -6.44386E+06
           10986    -1.09696E+06     1.65114E+06              0.    -6.62650E+06
           10987    -1.20628E+06     1.71952E+06              0.    -6.81454E+06
           10988    -1.31908E+06     1.78903E+06              0.    -7.00812E+06
           10989    -1.43543E+06     1.85960E+06              0.    -7.20738E+06
           10990    -1.55538E+06     1.93120E+06              0.    -7.41247E+06
           10991    -1.67899E+06     2.00378E+06              0.    -7.62354E+06
           10992    -1.80631E+06     2.07726E+06              0.    -7.84073E+06
           10993    -1.93739E+06     2.15159E+06              0.    -8.06421E+06
           10994    -2.07229E+06     2.22669E+06              0.    -8.29412E+06
           10995    -2.21105E+06     2.30248E+06              0.    -8.53063E+06
           10996    -2.35371E+06     2.37888E+06              0.    -8.77387E+06
           10997    -2.50032E+06     2.45578E+06              0.    -9.02402E+06
           10998    -2.65090E+06     2.53308E+06              0.    -9.28122E+06
           10999    -2.80550E+06     2.61068E+06              0.    -9.54564E+06
           11000    -2.96413E+06     2.68845E+06              0.    -9.81743E+06
           11001    -3.12683E+06     2.76626E+06              0.    -10.0967E+06
           11002    -3.29360E+06     2.84397E+06              0.    -10.3837E+06
           11003    -3.46447E+06     2.92144E+06              0.    -10.6786E+06
           11004    -3.63943E+06     2.99850E+06              0.    -10.9814E+06
           11005    -3.81849E+06     3.07498E+06              0.    -11.2924E+06
           11006    -4.00165E+06     3.15070E+06              0.    -11.6116E+06
           11007    -4.18888E+06     3.22546E+06              0.    -11.9393E+06
           11008    -4.38017E+06     3.29906E+06              0.    -12.2755E+06
           11009    -4.57550E+06     3.37128E+06              0.    -12.6205E+06
           11010    -4.77483E+06     3.44189E+06              0.    -12.9742E+06
           11011    -4.97811E+06     3.51065E+06              0.    -13.3369E+06
           11012    -5.18530E+06     3.57728E+06              0.    -13.7086E+06
           11013    -5.39633E+06     3.64153E+06              0.    -14.0894E+06
           11014    -5.61114E+06     3.70311E+06              0.    -14.4794E+06
           11015    -5.82966E+06     3.76171E+06              0.    -14.8787E+06
           11016    -6.05179E+06     3.81702E+06              0.    -15.2874E+06
           11017    -6.27744E+06     3.86871E+06              0.    -15.7054E+06
           11018    -6.50652E+06     3.91643E+06              0.    -16.1327E+06
           11019    -6.73889E+06     3.95983E+06              0.    -16.5694E+06
           11020    -6.97445E+06     3.99852E+06              0.    -17.0155E+06
           11021    -7.21307E+06     4.03211E+06              0.    -17.4707E+06
           11022    -7.45460E+06     4.06020E+06              0.    -17.9351E+06
           11023    -7.69890E+06     4.08237E+06              0.    -18.4086E+06
           11024    -7.94581E+06     4.09818E+06              0.    -18.8908E+06
           11025    -8.19517E+06     4.10717E+06              0.    -19.3816E+06
           11026    -8.44682E+06     4.10889E+06              0.    -19.8808E+06
           11027    -8.70058E+06     4.10284E+06              0.    -20.3879E+06
           11028    -8.95627E+06     4.08855E+06              0.    -20.9025E+06
           11029    -9.21371E+06     4.06549E+06              0.    -21.4243E+06
           11030    -9.47272E+06     4.03315E+06              0.    -21.9526E+06
           11031    -9.73312E+06     3.99101E+06              0.    -22.4868E+06
           11032    -9.99472E+06     3.93851E+06              0.    -23.0262E+06
           11033    -10.2574E+06     3.87510E+06              0.    -23.5699E+06
           11034    -10.5208E+06     3.80022E+06              0.    -24.1170E+06
           11035    -10.7850E+06     3.71330E+06              0.    -24.6664E+06
           11036    -11.0497E+06     3.61377E+06              0.    -25.2168E+06
           11037    -11.3148E+06     3.50103E+06              0.    -25.7669E+06
           11038    -11.5802E+06     3.37451E+06              0.    -26.3152E+06
           11039    -11.8457E+06     3.23360E+06              0.    -26.8598E+06
           11040    -12.1114E+06     3.07773E+06              0.    -27.3989E+06
           11041    -12.3771E+06     2.90629E+06              0.    -27.9303E+06
           11042    -12.6429E+06     2.71870E+06              0.    -28.4515E+06
           11043    -12.9088E+06     2.51438E+06              0.    -28.9600E+06
           11044    -13.1748E+06     2.29275E+06              0.    -29.4527E+06
           11045    -13.4412E+06     2.05326E+06              0.    -29.9264E+06
           11046    -13.7081E+06     1.79536E+06              0.    -30.3775E+06
           11047    -13.9758E+06     1.51854E+06              0.    -30.8021E+06
           11048    -14.2447E+06     1.22231E+06              0.    -31.1957E+06
           11049    -14.5152E+06     906.198E+03              0.    -31.5535E+06
           11050    -14.7879E+06     569.812E+03              0.    -31.8703E+06
           11051    -15.0636E+06     212.799E+03              0.    -32.1404E+06
           11052    -15.3430E+06    -165.124E+03              0.    -32.3574E+06
           11053    -15.6271E+06    -564.146E+03              0.    -32.5146E+06
           11054    -15.9172E+06    -984.359E+03              0.    -32.6044E+06
           11055    -16.2146E+06    -1.42571E+06              0.    -32.6187E+06
           11056    -16.5209E+06    -1.88800E+06              0.    -32.5487E+06
           11057    -16.8381E+06    -2.37084E+06              0.    -32.3848E+06
           11058    -17.1684E+06    -2.87357E+06              0.    -32.1167E+06
           11059    -17.5143E+06    -3.39529E+06              0.    -31.7331E+06
           11060    -17.8789E+06    -3.93475E+06              0.    -31.2219E+06
           11061    -18.2654E+06    -4.49028E+06              0.    -30.5700E+06
           11062    -18.6779E+06    -5.05973E+06              0.    -29.7633E+06
           11063    -19.1209E+06    -5.64036E+06              0.    -28.7866E+06
           11064    -19.5996E+06    -6.22878E+06              0.    -27.6237E+06
           11065    -20.1199E+06    -6.82073E+06              0.    -26.2569E+06
           11066    -20.6884E+06    -7.41093E+06              0.    -24.6674E+06
           11067    -21.0756E+06    -8.13339E+06              0.    -24.3428E+06
           11068     1.00568E+06     453.146E+03              0.    -736.926E+03
           11069     1.00270E+06     425.047E+03              0.    -735.618E+03
           11070     1.01190E+06     402.752E+03              0.    -728.224E+03
           11071     1.02101E+06     380.771E+03              0.    -721.398E+03
           11072     1.03005E+06     359.108E+03              0.    -715.125E+03
           11073     1.03900E+06     337.764E+03              0.    -709.392E+03
           11074     1.04788E+06     316.742E+03              0.    -704.186E+03
           11075     1.05667E+06     296.043E+03              0.    -699.497E+03
           11076     1.06537E+06     275.669E+03              0.    -695.313E+03
           11077     1.07400E+06     255.621E+03              0.    -691.623E+03
           11078     1.08253E+06     235.901E+03              0.    -688.417E+03
           11079     1.09098E+06      216.51E+03              0.    -685.688E+03
           11080     1.09934E+06     197.448E+03              0.    -683.425E+03
           11081     1.10761E+06     178.717E+03              0.    -681.621E+03
           11082     1.11579E+06     160.316E+03              0.    -680.268E+03
           11083     1.12388E+06     142.247E+03              0.     -679.36E+03
           11084     1.13188E+06     124.510E+03              0.    -678.890E+03
           11085     1.13978E+06     107.106E+03              0.    -678.852E+03
           11086     1.14759E+06     90.0339E+03              0.    -679.241E+03
           11087     1.15531E+06     73.2956E+03              0.    -680.051E+03
           11088     1.16293E+06     56.8910E+03              0.    -681.278E+03
           11089     1.17045E+06     40.8203E+03              0.    -682.919E+03
           11090     1.17787E+06     25.0842E+03              0.    -684.969E+03
           11091     1.18519E+06     9.68261E+03              0.    -687.426E+03
           11092     1.19241E+06    -5.38377E+03              0.    -690.286E+03
           11093     1.19953E+06    -20.1143E+03              0.    -693.548E+03
           11094     1.20654E+06    -34.5088E+03              0.    -697.209E+03
           11095     1.21344E+06    -48.5664E+03              0.    -701.268E+03
           11096     1.22024E+06    -62.2867E+03              0.    -705.725E+03
           11097     1.22693E+06    -75.6688E+03              0.    -710.577E+03
           11098     1.23350E+06    -88.7118E+03              0.    -715.826E+03
           11099     1.23996E+06    -101.415E+03              0.    -721.471E+03
           11100     1.24629E+06    -113.777E+03              0.    -727.513E+03
           11101     1.25251E+06    -125.796E+03              0.    -733.953E+03
           11102     1.25860E+06    -137.473E+03              0.    -740.792E+03
           11103     1.26457E+06    -148.804E+03              0.    -748.032E+03
           11104     1.27040E+06    -159.788E+03              0.    -755.675E+03
           11105     1.27610E+06    -170.424E+03              0.    -763.724E+03
           11106     1.28167E+06    -180.710E+03              0.    -772.182E+03
           11107     1.28708E+06    -190.643E+03              0.    -781.051E+03
           11108     1.29235E+06    -200.222E+03              0.    -790.337E+03
           11109     1.29747E+06    -209.443E+03              0.    -800.042E+03
           11110     1.30244E+06    -218.305E+03              0.    -810.172E+03
           11111     1.30724E+06    -226.804E+03              0.    -820.732E+03
           11112     1.31187E+06    -234.937E+03              0.    -831.726E+03
           11113     1.31633E+06    -242.701E+03              0.    -843.162E+03
           11114     1.32061E+06    -250.092E+03              0.    -855.045E+03
           11115     1.32470E+06    -257.107E+03              0.    -867.382E+03
           11116     1.32860E+06    -263.742E+03              0.    -880.180E+03
           11117     1.33229E+06    -269.992E+03              0.    -893.448E+03
           11118     1.33578E+06    -275.853E+03              0.    -907.192E+03
           11119     1.33906E+06    -281.321E+03              0.    -921.422E+03
           11120     1.34211E+06    -286.389E+03              0.    -936.147E+03
           11121     1.34492E+06    -291.054E+03              0.    -951.377E+03
           11122     1.34749E+06    -295.309E+03              0.    -967.121E+03
           11123     1.34981E+06    -299.149E+03              0.    -983.391E+03
           11124     1.35187E+06    -302.568E+03              0.    -1.00020E+06
           11125     1.35365E+06    -305.558E+03              0.    -1.01755E+06
           11126     1.35515E+06    -308.114E+03              0.    -1.03547E+06
           11127     1.35636E+06    -310.229E+03              0.    -1.05396E+06
           11128     1.35726E+06    -311.894E+03              0.    -1.07303E+06
           11129     1.35783E+06    -313.103E+03              0.    -1.09271E+06
           11130     1.35808E+06    -313.848E+03              0.    -1.11300E+06
           11131     1.35797E+06    -314.119E+03              0.    -1.13392E+06
           11132     1.35751E+06    -313.909E+03              0.    -1.15549E+06
           11133     1.35667E+06    -313.209E+03              0.    -1.17773E+06
           11134     1.35544E+06    -312.009E+03              0.    -1.20064E+06
           11135     1.35380E+06    -310.299E+03              0.    -1.22425E+06
           11136     1.35174E+06    -308.070E+03              0.    -1.24859E+06
           11137     1.34923E+06    -305.311E+03              0.    -1.27365E+06
           11138     1.34627E+06    -302.011E+03              0.    -1.29948E+06
           11139     1.34283E+06    -298.159E+03              0.    -1.32608E+06
           11140     1.33890E+06    -293.744E+03              0.    -1.35349E+06
           11141     1.33445E+06    -288.754E+03              0.    -1.38172E+06
           11142     1.32946E+06    -283.177E+03              0.    -1.41079E+06
           11143     1.32391E+06    -276.999E+03              0.    -1.44074E+06
           11144     1.31779E+06    -270.208E+03              0.    -1.47158E+06
           11145     1.31105E+06    -262.791E+03              0.    -1.50334E+06
           11146     1.30369E+06    -254.733E+03              0.    -1.53606E+06
           11147     1.29568E+06    -246.021E+03              0.    -1.56975E+06
           11148     1.28699E+06    -236.639E+03              0.    -1.60445E+06
           11149     1.27760E+06    -226.574E+03              0.    -1.64019E+06
           11150     1.26748E+06    -215.809E+03              0.    -1.67699E+06
           11151     1.25659E+06    -204.329E+03              0.    -1.71490E+06
           11152     1.24492E+06    -192.118E+03              0.    -1.75394E+06
           11153     1.23243E+06    -179.158E+03              0.    -1.79415E+06
           11154     1.21908E+06    -165.435E+03              0.    -1.83556E+06
           11155     1.20486E+06    -150.929E+03              0.    -1.87821E+06
           11156     1.18972E+06    -135.624E+03              0.    -1.92215E+06
           11157     1.17363E+06    -119.502E+03              0.    -1.96741E+06
           11158     1.15656E+06    -102.544E+03              0.    -2.01402E+06
           11159     1.13847E+06    -84.7316E+03              0.    -2.06204E+06
           11160     1.11932E+06    -66.0463E+03              0.    -2.11150E+06
           11161     1.09907E+06    -46.4685E+03              0.    -2.16246E+06
           11162     1.07769E+06    -25.9789E+03              0.    -2.21495E+06
           11163     1.05513E+06    -4.55765E+03              0.    -2.26903E+06
           11164     1.03136E+06     17.8153E+03              0.    -2.32475E+06
           11165     1.00632E+06     41.1602E+03              0.    -2.38215E+06
           11166     979.979E+03     65.4974E+03              0.    -2.44129E+06
           11167     952.286E+03     90.8477E+03              0.    -2.50222E+06
           11168     923.195E+03     117.232E+03              0.    -2.56500E+06
           11169     892.659E+03     144.671E+03              0.    -2.62969E+06
           11170     860.629E+03     173.185E+03              0.    -2.69635E+06
           11171     827.054E+03     202.796E+03              0.    -2.76503E+06
           11172     791.883E+03     233.525E+03              0.    -2.83581E+06
           11173     755.062E+03     265.393E+03              0.    -2.90874E+06
           11174     716.538E+03     298.421E+03              0.    -2.98389E+06
           11175     676.255E+03     332.628E+03              0.    -3.06134E+06
           11176     634.156E+03     368.037E+03              0.    -3.14115E+06
           11177     590.183E+03     404.668E+03              0.    -3.22339E+06
           11178     544.277E+03     442.539E+03              0.    -3.30815E+06
           11179     496.378E+03     481.672E+03              0.    -3.39549E+06
           11180     446.424E+03     522.085E+03              0.    -3.48551E+06
           11181     394.351E+03     563.797E+03              0.    -3.57827E+06
           11182     340.095E+03     606.825E+03              0.    -3.67387E+06
           11183     283.592E+03     651.188E+03              0.    -3.77238E+06
           11184     224.774E+03     696.902E+03              0.    -3.87391E+06
           11185     163.573E+03     743.981E+03              0.    -3.97854E+06
           11186     99.9210E+03     792.442E+03              0.    -4.08636E+06
           11187     33.7477E+03     842.297E+03              0.    -4.19747E+06
           11188    -35.0178E+03     893.559E+03              0.    -4.31196E+06
           11189    -106.447E+03     946.238E+03              0.    -4.42995E+06
           11190    -180.614E+03     1.00034E+06              0.    -4.55153E+06
           11191    -257.592E+03     1.05589E+06              0.    -4.67681E+06
           11192    -337.455E+03     1.11287E+06              0.    -4.80589E+06
           11193    -420.279E+03     1.17129E+06              0.    -4.93890E+06
           11194    -506.139E+03     1.23116E+06              0.    -5.07593E+06
           11195    -595.113E+03     1.29248E+06              0.    -5.21712E+06
           11196    -687.277E+03     1.35524E+06              0.    -5.36258E+06
           11197    -782.708E+03     1.41943E+06              0.    -5.51242E+06
           11198    -881.484E+03     1.48505E+06              0.    -5.66678E+06
           11199    -983.684E+03     1.55209E+06              0.    -5.82579E+06
           11200    -1.08938E+06     1.62052E+06              0.    -5.98956E+06
           11201    -1.19866E+06     1.69034E+06              0.    -6.15825E+06
           11202    -1.31159E+06     1.76152E+06              0.    -6.33197E+06
           11203    -1.42826E+06     1.83402E+06              0.    -6.51087E+06
           11204    -1.54873E+06     1.90783E+06              0.    -6.69509E+06
           11205    -1.67309E+06     1.98290E+06              0.    -6.88477E+06
           11206    -1.80141E+06     2.05919E+06              0.    -7.08006E+06
           11207    -1.93376E+06     2.13665E+06              0.     -7.2811E+06
           11208    -2.07021E+06     2.21524E+06              0.    -7.48804E+06
           11209    -2.21084E+06     2.29489E+06              0.    -7.70104E+06
           11210    -2.35571E+06     2.37554E+06              0.    -7.92025E+06
           11211    -2.50490E+06     2.45712E+06              0.    -8.14582E+06
           11212    -2.65845E+06     2.53955E+06              0.    -8.37790E+06
           11213    -2.81645E+06     2.62274E+06              0.    -8.61667E+06
           11214    -2.97893E+06     2.70660E+06              0.    -8.86227E+06
           11215    -3.14597E+06     2.79103E+06              0.    -9.11487E+06
           11216    -3.31762E+06     2.87591E+06              0.    -9.37462E+06
           11217    -3.49391E+06     2.96112E+06              0.    -9.64169E+06
           11218    -3.67490E+06     3.04654E+06              0.    -9.91623E+06
           11219    -3.86063E+06     3.13203E+06              0.    -10.1984E+06
           11220    -4.05114E+06     3.21742E+06              0.    -10.4884E+06
           11221    -4.24645E+06     3.30257E+06              0.    -10.7863E+06
           11222    -4.44658E+06     3.38729E+06              0.    -11.0923E+06
           11223    -4.65157E+06     3.47141E+06              0.    -11.4066E+06
           11224    -4.86143E+06     3.55472E+06              0.    -11.7293E+06
           11225    -5.07616E+06     3.63701E+06              0.    -12.0605E+06
           11226    -5.29576E+06     3.71806E+06              0.    -12.4004E+06
           11227    -5.52023E+06     3.79763E+06              0.    -12.7491E+06
           11228    -5.74956E+06     3.87547E+06              0.    -13.1068E+06
           11229    -5.98372E+06     3.95131E+06              0.    -13.4735E+06
           11230    -6.22270E+06     4.02486E+06              0.    -13.8493E+06
           11231    -6.46645E+06     4.09583E+06              0.    -14.2344E+06
           11232    -6.71493E+06     4.16391E+06              0.    -14.6287E+06
           11233    -6.96809E+06     4.22875E+06              0.    -15.0325E+06
           11234    -7.22588E+06     4.29002E+06              0.    -15.4456E+06
           11235    -7.48822E+06     4.34734E+06              0.    -15.8681E+06
           11236    -7.75503E+06     4.40033E+06              0.    -16.3001E+06
           11237    -8.02623E+06     4.44859E+06              0.    -16.7415E+06
           11238    -8.30174E+06     4.49169E+06              0.    -17.1922E+06
           11239    -8.58143E+06     4.52920E+06              0.    -17.6521E+06
           11240    -8.86522E+06     4.56066E+06              0.    -18.1211E+06
           11241    -9.15297E+06     4.58558E+06              0.    -18.5991E+06
           11242    -9.44457E+06     4.60347E+06              0.    -19.0857E+06
           11243    -9.73988E+06     4.61380E+06              0.    -19.5808E+06
           11244    -10.0388E+06     4.61605E+06              0.    -20.0840E+06
           11245    -10.3411E+06     4.60965E+06              0.    -20.5950E+06
           11246    -10.6467E+06     4.59401E+06              0.    -21.1131E+06
           11247    -10.9554E+06     4.56855E+06              0.    -21.6380E+06
           11248    -11.2672E+06     4.53264E+06              0.    -22.1689E+06
           11249    -11.5817E+06     4.48564E+06              0.    -22.7052E+06
           11250    -11.8989E+06     4.42689E+06              0.    -23.2460E+06
           11251    -12.2187E+06     4.35570E+06              0.    -23.7904E+06
           11252    -12.5408E+06     4.27137E+06              0.    -24.3372E+06
           11253    -12.8652E+06     4.17318E+06              0.    -24.8853E+06
           11254    -13.1917E+06     4.06039E+06              0.    -25.4333E+06
           11255    -13.5201E+06     3.93224E+06              0.    -25.9796E+06
           11256    -13.8505E+06     3.78793E+06              0.    -26.5225E+06
           11257    -14.1827E+06     3.62668E+06              0.    -27.0601E+06
           11258    -14.5166E+06     3.44765E+06              0.    -27.5902E+06
           11259    -14.8522E+06     3.25001E+06              0.    -28.1104E+06
           11260    -15.1895E+06     3.03291E+06              0.    -28.6181E+06
           11261    -15.5286E+06     2.79548E+06              0.    -29.1102E+06
           11262    -15.8695E+06     2.53683E+06              0.    -29.5836E+06
           11263    -16.2124E+06     2.25608E+06              0.    -30.0345E+06
           11264    -16.5574E+06     1.95232E+06              0.    -30.4591E+06
           11265    -16.9049E+06     1.62466E+06              0.    -30.8529E+06
           11266    -17.2551E+06     1.27219E+06              0.    -31.2112E+06
           11267    -17.6085E+06     894.039E+03              0.    -31.5286E+06
           11268    -17.9656E+06     489.330E+03              0.    -31.7995E+06
           11269    -18.3271E+06     57.2277E+03              0.    -32.0175E+06
           11270    -18.6939E+06    -403.052E+03              0.    -32.1756E+06
           11271    -19.0667E+06    -892.243E+03              0.    -32.2665E+06
           11272    -19.4469E+06    -1.41098E+06              0.    -32.2819E+06
           11273    -19.8357E+06    -1.95981E+06              0.    -32.2129E+06
           11274    -20.2347E+06    -2.53911E+06              0.    -32.0499E+06
           11275    -20.6458E+06    -3.14909E+06              0.    -31.7824E+06
           11276    -21.0712E+06    -3.78975E+06              0.    -31.3990E+06
           11277    -21.5134E+06    -4.46079E+06              0.    -30.8874E+06
           11278    -21.9754E+06    -5.16158E+06              0.    -30.2344E+06
           11279    -22.4607E+06    -5.89109E+06              0.    -29.4256E+06
           11280    -22.9731E+06    -6.64773E+06              0.    -28.4455E+06
           11281    -23.5174E+06    -7.42936E+06              0.    -27.2775E+06
           11282    -24.0989E+06    -8.23311E+06              0.    -25.9034E+06
           11283    -24.7239E+06    -9.05526E+06              0.    -24.3040E+06
           11284    -25.2106E+06    -10.0495E+06              0.    -23.9585E+06
           11285     986.882E+03     444.711E+03              0.    -746.026E+03
           11286     983.984E+03     417.345E+03              0.    -744.703E+03
           11287     992.936E+03     395.623E+03              0.    -737.235E+03
           11288     1.00182E+06     374.201E+03              0.    -730.332E+03
           11289     1.01062E+06     353.083E+03              0.    -723.981E+03
           11290     1.01934E+06     332.272E+03              0.    -718.167E+03
           11291     1.02799E+06     311.770E+03              0.    -712.880E+03
           11292     1.03655E+06      291.58E+03              0.    -708.108E+03
           11293     1.04503E+06     271.704E+03              0.    -703.839E+03
           11294     1.05342E+06     252.145E+03              0.    -700.063E+03
           11295     1.06172E+06     232.904E+03              0.    -696.770E+03
           11296     1.06994E+06     213.983E+03              0.    -693.952E+03
           11297     1.07807E+06     195.383E+03              0.    -691.600E+03
           11298     1.08611E+06     177.105E+03              0.    -689.705E+03
           11299     1.09406E+06     159.152E+03              0.    -688.261E+03
           11300     1.10191E+06     141.523E+03              0.    -687.260E+03
           11301     1.10966E+06     124.220E+03              0.    -686.695E+03
           11302     1.11733E+06     107.243E+03              0.    -686.562E+03
           11303     1.12489E+06     90.5947E+03              0.    -686.854E+03
           11304     1.13235E+06     74.2745E+03              0.    -687.567E+03
           11305     1.13972E+06     58.2838E+03              0.    -688.695E+03
           11306     1.14698E+06     42.6231E+03              0.    -690.235E+03
           11307     1.15414E+06     27.2935E+03              0.    -692.183E+03
           11308     1.16119E+06     12.2955E+03              0.    -694.536E+03
           11309     1.16814E+06    -2.36986E+03              0.    -697.291E+03
           11310     1.17498E+06    -16.7015E+03              0.    -700.446E+03
           11311     1.18170E+06    -30.6990E+03              0.    -703.998E+03
           11312     1.18832E+06    -44.3608E+03              0.    -707.946E+03
           11313     1.19481E+06    -57.6863E+03              0.    -712.288E+03
           11314     1.20119E+06    -70.6741E+03              0.    -717.025E+03
           11315     1.20745E+06    -83.3229E+03              0.    -722.155E+03
           11316     1.21359E+06    -95.6316E+03              0.    -727.679E+03
           11317     1.21959E+06    -107.598E+03              0.    -733.597E+03
           11318     1.22547E+06    -119.222E+03              0.    -739.909E+03
           11319     1.23121E+06    -130.501E+03              0.    -746.617E+03
           11320     1.23682E+06    -141.432E+03              0.    -753.723E+03
           11321     1.24229E+06    -152.015E+03              0.    -761.228E+03
           11322     1.24761E+06    -162.247E+03              0.    -769.135E+03
           11323     1.25278E+06    -172.126E+03              0.    -777.446E+03
           11324     1.25779E+06    -181.648E+03              0.    -786.164E+03
           11325     1.26265E+06    -190.813E+03              0.    -795.293E+03
           11326     1.26734E+06    -199.615E+03              0.    -804.838E+03
           11327     1.27186E+06    -208.054E+03              0.    -814.801E+03
           11328     1.27621E+06    -216.124E+03              0.    -825.188E+03
           11329     1.28038E+06    -223.823E+03              0.    -836.005E+03
           11330     1.28435E+06    -231.147E+03              0.    -847.256E+03
           11331     1.28813E+06    -238.093E+03              0.    -858.947E+03
           11332     1.29171E+06    -244.655E+03              0.    -871.086E+03
           11333     1.29508E+06    -250.830E+03              0.    -883.678E+03
           11334     1.29823E+06    -256.612E+03              0.    -896.732E+03
           11335     1.30116E+06    -261.997E+03              0.    -910.255E+03
           11336     1.30385E+06    -266.980E+03              0.    -924.254E+03
           11337     1.30630E+06    -271.555E+03              0.     -938.74E+03
           11338     1.30849E+06    -275.717E+03              0.    -953.721E+03
           11339     1.31042E+06    -279.459E+03              0.    -969.207E+03
           11340     1.31208E+06    -282.774E+03              0.    -985.207E+03
           11341     1.31345E+06    -285.658E+03              0.    -1.00173E+06
           11342     1.31453E+06    -288.101E+03              0.    -1.01880E+06
           11343     1.31530E+06    -290.098E+03              0.    -1.03641E+06
           11344     1.31575E+06    -291.640E+03              0.    -1.05458E+06
           11345     1.31587E+06    -292.720E+03              0.    -1.07333E+06
           11346     1.31564E+06    -293.329E+03              0.    -1.09267E+06
           11347     1.31505E+06    -293.460E+03              0.    -1.11260E+06
           11348     1.31408E+06    -293.102E+03              0.    -1.13316E+06
           11349     1.31273E+06    -292.246E+03              0.    -1.15434E+06
           11350     1.31097E+06    -290.884E+03              0.    -1.17618E+06
           11351     1.30878E+06    -289.004E+03              0.    -1.19867E+06
           11352     1.30616E+06    -286.597E+03              0.    -1.22185E+06
           11353     1.30308E+06    -283.652E+03              0.    -1.24573E+06
           11354     1.29952E+06    -280.158E+03              0.    -1.27033E+06
           11355     1.29547E+06    -276.102E+03              0.    -1.29567E+06
           11356     1.29091E+06    -271.474E+03              0.    -1.32177E+06
           11357     1.28581E+06    -266.260E+03              0.    -1.34864E+06
           11358     1.28015E+06    -260.449E+03              0.    -1.37632E+06
           11359     1.27391E+06    -254.027E+03              0.    -1.40483E+06
           11360     1.26707E+06    -246.981E+03              0.    -1.43418E+06
           11361     1.25961E+06    -239.296E+03              0.    -1.46440E+06
           11362     1.25149E+06    -230.958E+03              0.    -1.49552E+06
           11363     1.24270E+06    -221.953E+03              0.    -1.52757E+06
           11364     1.23321E+06    -212.265E+03              0.    -1.56057E+06
           11365     1.22299E+06    -201.879E+03              0.    -1.59454E+06
           11366     1.21201E+06    -190.779E+03              0.    -1.62953E+06
           11367     1.20024E+06    -178.948E+03              0.    -1.66556E+06
           11368     1.18766E+06    -166.370E+03              0.    -1.70266E+06
           11369     1.17422E+06    -153.027E+03              0.    -1.74086E+06
           11370     1.15991E+06    -138.902E+03              0.    -1.78020E+06
           11371     1.14468E+06    -123.976E+03              0.    -1.82070E+06
           11372     1.12851E+06    -108.232E+03              0.    -1.86242E+06
           11373     1.11135E+06    -91.6497E+03              0.    -1.90538E+06
           11374     1.09317E+06    -74.2110E+03              0.    -1.94963E+06
           11375     1.07393E+06    -55.8958E+03              0.    -1.99520E+06
           11376     1.05359E+06    -36.6843E+03              0.    -2.04213E+06
           11377     1.03212E+06    -16.5561E+03              0.    -2.09047E+06
           11378     1.00947E+06     4.50939E+03              0.    -2.14026E+06
           11379     985.602E+03     26.5332E+03              0.    -2.19154E+06
           11380     960.467E+03     49.5365E+03              0.    -2.24437E+06
           11381     934.022E+03     73.5409E+03              0.    -2.29878E+06
           11382     906.221E+03     98.5682E+03              0.    -2.35484E+06
           11383     877.017E+03     124.641E+03              0.    -2.41259E+06
           11384     846.360E+03     151.780E+03              0.    -2.47208E+06
           11385     814.200E+03     180.010E+03              0.    -2.53337E+06
           11386     780.485E+03     209.352E+03              0.    -2.59652E+06
           11387     745.163E+03     239.829E+03              0.    -2.66158E+06
           11388     708.178E+03     271.464E+03              0.    -2.72862E+06
           11389     669.475E+03     304.280E+03              0.    -2.79769E+06
           11390     628.997E+03     338.299E+03              0.    -2.86886E+06
           11391     586.685E+03     373.546E+03              0.    -2.94219E+06
           11392     542.478E+03     410.042E+03              0.    -3.01775E+06
           11393     496.315E+03     447.810E+03              0.    -3.09562E+06
           11394     448.133E+03     486.873E+03              0.    -3.17586E+06
           11395     397.867E+03     527.252E+03              0.    -3.25854E+06
           11396     345.451E+03      568.97E+03              0.    -3.34375E+06
           11397     290.818E+03     612.048E+03              0.    -3.43156E+06
           11398     233.899E+03     656.506E+03              0.    -3.52205E+06
           11399     174.623E+03     702.366E+03              0.    -3.61530E+06
           11400     112.920E+03     749.646E+03              0.    -3.71140E+06
           11401     48.7143E+03     798.366E+03              0.    -3.81044E+06
           11402    -18.0670E+03     848.544E+03              0.    -3.91250E+06
           11403    -87.5002E+03     900.197E+03              0.    -4.01768E+06
           11404    -159.663E+03     953.340E+03              0.    -4.12607E+06
           11405    -234.633E+03     1.00799E+06              0.    -4.23777E+06
           11406    -312.491E+03     1.06416E+06              0.    -4.35288E+06
           11407    -393.317E+03     1.12186E+06              0.    -4.47150E+06
           11408    -477.194E+03     1.18110E+06              0.    -4.59373E+06
           11409    -564.205E+03     1.24189E+06              0.    -4.71969E+06
           11410    -654.435E+03     1.30423E+06              0.    -4.84948E+06
           11411    -747.968E+03     1.36814E+06              0.    -4.98322E+06
           11412    -844.892E+03     1.43361E+06              0.    -5.12102E+06
           11413    -945.293E+03     1.50064E+06              0.    -5.26299E+06
           11414    -1.04926E+06     1.56923E+06              0.    -5.40928E+06
           11415    -1.15688E+06     1.63938E+06              0.    -5.55998E+06
           11416    -1.26824E+06     1.71106E+06              0.    -5.71524E+06
           11417    -1.38343E+06     1.78428E+06              0.    -5.87518E+06
           11418    -1.50255E+06     1.85902E+06              0.    -6.03993E+06
           11419    -1.62567E+06     1.93525E+06              0.    -6.20963E+06
           11420    -1.75290E+06     2.01295E+06              0.    -6.38441E+06
           11421    -1.88432E+06     2.09209E+06              0.    -6.56442E+06
           11422    -2.02002E+06     2.17264E+06              0.    -6.74980E+06
           11423    -2.16009E+06     2.25456E+06              0.    -6.94070E+06
           11424    -2.30462E+06     2.33781E+06              0.    -7.13725E+06
           11425    -2.45369E+06     2.42233E+06              0.    -7.33962E+06
           11426     -2.6074E+06     2.50807E+06              0.    -7.54794E+06
           11427    -2.76583E+06     2.59496E+06              0.    -7.76239E+06
           11428    -2.92905E+06     2.68294E+06              0.    -7.98311E+06
           11429    -3.09717E+06     2.77193E+06              0.    -8.21026E+06
           11430    -3.27024E+06     2.86184E+06              0.    -8.44400E+06
           11431    -3.44836E+06     2.95259E+06              0.    -8.68450E+06
           11432    -3.63160E+06     3.04407E+06              0.    -8.93191E+06
           11433    -3.82004E+06     3.13617E+06              0.    -9.18639E+06
           11434    -4.01373E+06     3.22876E+06              0.    -9.44811E+06
           11435    -4.21276E+06     3.32173E+06              0.    -9.71724E+06
           11436    -4.41717E+06     3.41493E+06              0.    -9.99393E+06
           11437    -4.62704E+06      3.5082E+06              0.    -10.2783E+06
           11438    -4.84242E+06     3.60139E+06              0.    -10.5706E+06
           11439    -5.06336E+06     3.69431E+06              0.    -10.8710E+06
           11440    -5.28991E+06     3.78679E+06              0.    -11.1795E+06
           11441    -5.52210E+06     3.87861E+06              0.    -11.4964E+06
           11442    -5.75998E+06     3.96957E+06              0.    -11.8218E+06
           11443    -6.00356E+06     4.05943E+06              0.    -12.1558E+06
           11444    -6.25289E+06     4.14795E+06              0.    -12.4986E+06
           11445    -6.50797E+06     4.23487E+06              0.    -12.8503E+06
           11446    -6.76882E+06     4.31991E+06              0.    -13.2110E+06
           11447    -7.03544E+06     4.40278E+06              0.    -13.5808E+06
           11448    -7.30783E+06     4.48316E+06              0.    -13.9599E+06
           11449    -7.58599E+06     4.56074E+06              0.    -14.3483E+06
           11450    -7.86988E+06     4.63515E+06              0.    -14.7460E+06
           11451    -8.15949E+06     4.70604E+06              0.    -15.1531E+06
           11452    -8.45479E+06     4.77301E+06              0.    -15.5697E+06
           11453    -8.75573E+06     4.83566E+06              0.    -15.9957E+06
           11454    -9.06227E+06     4.89356E+06              0.    -16.4312E+06
           11455    -9.37435E+06     4.94626E+06              0.    -16.8760E+06
           11456    -9.69191E+06     4.99327E+06              0.    -17.3301E+06
           11457    -10.0149E+06     5.03412E+06              0.    -17.7934E+06
           11458    -10.3431E+06     5.06827E+06              0.    -18.2657E+06
           11459    -10.6767E+06     5.09518E+06              0.    -18.7467E+06
           11460    -11.0153E+06     5.11427E+06              0.    -19.2363E+06
           11461    -11.3590E+06     5.12496E+06              0.    -19.7341E+06
           11462    -11.7076E+06     5.12662E+06              0.    -20.2397E+06
           11463    -12.0611E+06     5.11858E+06              0.    -20.7526E+06
           11464    -12.4192E+06     5.10018E+06              0.    -21.2724E+06
           11465    -12.7819E+06     5.07071E+06              0.    -21.7984E+06
           11466    -13.1490E+06     5.02942E+06              0.    -22.3299E+06
           11467    -13.5205E+06     4.97555E+06              0.    -22.8661E+06
           11468    -13.8962E+06     4.90830E+06              0.    -23.4059E+06
           11469    -14.2759E+06     4.82682E+06              0.    -23.9485E+06
           11470    -14.6595E+06     4.73026E+06              0.    -24.4925E+06
           11471    -15.0470E+06     4.61771E+06              0.    -25.0365E+06
           11472    -15.4382E+06     4.48823E+06              0.    -25.5791E+06
           11473    -15.8329E+06     4.34086E+06              0.    -26.1185E+06
           11474    -16.2312E+06     4.17457E+06              0.    -26.6529E+06
           11475    -16.6328E+06     3.98833E+06              0.    -27.1799E+06
           11476    -17.0379E+06     3.78104E+06              0.    -27.6973E+06
           11477    -17.4462E+06     3.55157E+06              0.    -28.2024E+06
           11478    -17.8578E+06     3.29878E+06              0.    -28.6923E+06
           11479    -18.2727E+06     3.02144E+06              0.    -29.1637E+06
           11480    -18.6911E+06     2.71833E+06              0.    -29.6129E+06
           11481    -19.1129E+06     2.38817E+06              0.    -30.0361E+06
           11482    -19.5383E+06     2.02964E+06              0.    -30.4288E+06
           11483    -19.9676E+06     1.64140E+06              0.    -30.7863E+06
           11484    -20.4010E+06     1.22210E+06              0.    -31.1033E+06
           11485    -20.8390E+06     770.344E+03              0.    -31.3740E+06
           11486    -21.2819E+06     284.747E+03              0.    -31.5921E+06
           11487    -21.7305E+06    -236.079E+03              0.    -31.7507E+06
           11488    -22.1853E+06    -793.512E+03              0.    -31.8424E+06
           11489    -22.6474E+06    -1.38889E+06              0.    -31.8588E+06
           11490    -23.1176E+06    -2.02347E+06              0.    -31.7910E+06
           11491    -23.5974E+06    -2.69847E+06              0.    -31.6294E+06
           11492    -24.0882E+06    -3.41495E+06              0.    -31.3634E+06
           11493    -24.5919E+06    -4.17383E+06              0.    -30.9814E+06
           11494    -25.1104E+06    -4.97579E+06              0.    -30.4712E+06
           11495    -25.6463E+06    -5.82126E+06              0.    -29.8192E+06
           11496    -26.2025E+06    -6.71034E+06              0.    -29.0109E+06
           11497    -26.7825E+06    -7.64267E+06              0.    -28.0305E+06
           11498    -27.3901E+06    -8.61741E+06              0.    -26.8611E+06
           11499    -28.0301E+06    -9.63305E+06              0.    -25.4842E+06
           11500    -28.7077E+06    -10.6873E+06              0.    -23.8801E+06
           11501    -29.2927E+06    -11.9543E+06              0.    -23.5151E+06
           11502     967.931E+03     436.208E+03              0.    -754.886E+03
           11503     965.111E+03     409.571E+03              0.    -753.548E+03
           11504     973.826E+03     388.419E+03              0.    -746.009E+03
           11505     982.470E+03     367.554E+03              0.    -739.032E+03
           11506     991.040E+03     346.979E+03              0.    -732.604E+03
           11507     999.534E+03     326.698E+03              0.    -726.712E+03
           11508     1.00795E+06     306.715E+03              0.    -721.345E+03
           11509     1.01628E+06     287.033E+03              0.    -716.490E+03
           11510     1.02453E+06     267.655E+03              0.    -712.136E+03
           11511     1.03270E+06     248.582E+03              0.    -708.274E+03
           11512     1.04077E+06     229.819E+03              0.    -704.894E+03
           11513     1.04876E+06     211.366E+03              0.    -701.986E+03
           11514     1.05666E+06     193.227E+03              0.    -699.543E+03
           11515     1.06447E+06     175.402E+03              0.    -697.556E+03
           11516     1.07218E+06     157.894E+03              0.    -696.018E+03
           11517     1.07980E+06     140.704E+03              0.    -694.922E+03
           11518     1.08732E+06     123.833E+03              0.    -694.261E+03
           11519     1.09474E+06     107.284E+03              0.    -694.029E+03
           11520     1.10206E+06     91.0563E+03              0.    -694.221E+03
           11521     1.10928E+06     75.1529E+03              0.    -694.832E+03
           11522     1.11639E+06     59.5745E+03              0.    -695.857E+03
           11523     1.12339E+06     44.3221E+03              0.    -697.292E+03
           11524     1.13029E+06     29.3974E+03              0.    -699.133E+03
           11525     1.13708E+06     14.8012E+03              0.    -701.377E+03
           11526     1.14376E+06         534.859              0.    -704.021E+03
           11527     1.15032E+06    -13.4001E+03              0.    -707.063E+03
           11528     1.15676E+06    -27.0026E+03              0.    -710.499E+03
           11529     1.16309E+06    -40.2710E+03              0.    -714.329E+03
           11530     1.16929E+06    -53.2042E+03              0.    -718.552E+03
           11531     1.17536E+06    -65.8004E+03              0.    -723.165E+03
           11532     1.18131E+06    -78.0579E+03              0.    -728.169E+03
           11533     1.18713E+06    -89.9753E+03              0.    -733.563E+03
           11534     1.19281E+06    -101.550E+03              0.    -739.348E+03
           11535     1.19835E+06    -112.781E+03              0.    -745.524E+03
           11536     1.20375E+06    -123.666E+03              0.    -752.092E+03
           11537     1.20901E+06    -134.202E+03              0.    -759.054E+03
           11538     1.21411E+06    -144.388E+03              0.    -766.410E+03
           11539     1.21905E+06    -154.220E+03              0.    -774.164E+03
           11540     1.22384E+06    -163.696E+03              0.    -782.317E+03
           11541     1.22846E+06    -172.813E+03              0.    -790.873E+03
           11542     1.23291E+06    -181.568E+03              0.    -799.834E+03
           11543     1.23719E+06    -189.957E+03              0.    -809.205E+03
           11544     1.24128E+06    -197.978E+03              0.    -818.989E+03
           11545     1.24518E+06    -205.626E+03              0.     -829.19E+03
           11546     1.24889E+06    -212.898E+03              0.    -839.814E+03
           11547     1.25239E+06    -219.790E+03              0.    -850.866E+03
           11548     1.25568E+06    -226.296E+03              0.    -862.351E+03
           11549     1.25876E+06    -232.413E+03              0.    -874.275E+03
           11550     1.26161E+06    -238.135E+03              0.    -886.645E+03
           11551     1.26423E+06    -243.458E+03              0.    -899.468E+03
           11552     1.26660E+06    -248.376E+03              0.    -912.752E+03
           11553     1.26873E+06    -252.884E+03              0.    -926.503E+03
           11554     1.27059E+06    -256.974E+03              0.    -940.730E+03
           11555     1.27217E+06    -260.643E+03              0.    -955.443E+03
           11556     1.27348E+06    -263.881E+03              0.    -970.649E+03
           11557     1.27449E+06    -266.684E+03              0.    -986.360E+03
           11558     1.27519E+06    -269.043E+03              0.    -1.00258E+06
           11559     1.27558E+06    -270.952E+03              0.    -1.01933E+06
           11560     1.27564E+06    -272.402E+03              0.    -1.03662E+06
           11561     1.27535E+06    -273.385E+03              0.    -1.05445E+06
           11562     1.27471E+06    -273.893E+03              0.    -1.07285E+06
           11563     1.27369E+06    -273.916E+03              0.    -1.09182E+06
           11564     1.27229E+06    -273.447E+03              0.    -1.11137E+06
           11565     1.27048E+06    -272.475E+03              0.    -1.13153E+06
           11566     1.26826E+06    -270.990E+03              0.    -1.15230E+06
           11567     1.26560E+06    -268.982E+03              0.    -1.17370E+06
           11568     1.26249E+06    -266.440E+03              0.    -1.19575E+06
           11569     1.25890E+06    -263.353E+03              0.    -1.21847E+06
           11570     1.25483E+06    -259.711E+03              0.    -1.24186E+06
           11571     1.25025E+06    -255.500E+03              0.    -1.26596E+06
           11572     1.24513E+06    -250.709E+03              0.    -1.29077E+06
           11573     1.23947E+06    -245.325E+03              0.    -1.31632E+06
           11574     1.23323E+06    -239.334E+03              0.    -1.34263E+06
           11575     1.22640E+06    -232.724E+03              0.    -1.36972E+06
           11576     1.21895E+06    -225.481E+03              0.    -1.39761E+06
           11577     1.21085E+06    -217.589E+03              0.    -1.42632E+06
           11578     1.20208E+06    -209.035E+03              0.    -1.45588E+06
           11579     1.19262E+06    -199.802E+03              0.    -1.48632E+06
           11580     1.18244E+06    -189.876E+03              0.    -1.51765E+06
           11581     1.17150E+06    -179.241E+03              0.    -1.54990E+06
           11582     1.15979E+06    -167.879E+03              0.    -1.58311E+06
           11583     1.14727E+06    -155.773E+03              0.    -1.61729E+06
           11584     1.13390E+06    -142.907E+03              0.    -1.65248E+06
           11585     1.11966E+06    -129.262E+03              0.    -1.68872E+06
           11586     1.10452E+06    -114.820E+03              0.    -1.72602E+06
           11587     1.08843E+06    -99.5621E+03              0.    -1.76442E+06
           11588     1.07137E+06    -83.4694E+03              0.    -1.80396E+06
           11589     1.05330E+06    -66.5221E+03              0.    -1.84468E+06
           11590     1.03417E+06    -48.7002E+03              0.    -1.88660E+06
           11591     1.01396E+06    -29.9831E+03              0.    -1.92976E+06
           11592     992.612E+03    -10.3501E+03              0.    -1.97421E+06
           11593     970.096E+03     10.2202E+03              0.    -2.01998E+06
           11594     946.366E+03     31.7494E+03              0.    -2.06711E+06
           11595     921.377E+03     54.2596E+03              0.    -2.11565E+06
           11596     895.085E+03     77.7731E+03              0.    -2.16564E+06
           11597     867.442E+03     102.313E+03              0.    -2.21712E+06
           11598     838.401E+03     127.902E+03              0.    -2.27015E+06
           11599     807.911E+03     154.563E+03              0.    -2.32477E+06
           11600     775.922E+03     182.321E+03              0.    -2.38103E+06
           11601     742.382E+03     211.199E+03              0.    -2.43898E+06
           11602     707.235E+03     241.221E+03              0.    -2.49868E+06
           11603     670.428E+03     272.411E+03              0.    -2.56017E+06
           11604     631.902E+03     304.795E+03              0.    -2.62352E+06
           11605     591.599E+03     338.397E+03              0.    -2.68879E+06
           11606     549.460E+03     373.242E+03              0.    -2.75603E+06
           11607     505.422E+03     409.353E+03              0.    -2.82531E+06
           11608     459.422E+03     446.757E+03              0.    -2.89669E+06
           11609     411.396E+03     485.479E+03              0.    -2.97024E+06
           11610     361.277E+03     525.541E+03              0.    -3.04602E+06
           11611     308.996E+03     566.970E+03              0.    -3.12411E+06
           11612     254.485E+03     609.789E+03              0.    -3.20457E+06
           11613     197.671E+03     654.022E+03              0.    -3.28749E+06
           11614     138.482E+03     699.694E+03              0.    -3.37293E+06
           11615     76.8420E+03     746.826E+03              0.    -3.46098E+06
           11616     12.6759E+03     795.443E+03              0.    -3.55171E+06
           11617    -54.0947E+03     845.564E+03              0.    -3.64522E+06
           11618    -123.550E+03     897.214E+03              0.    -3.74158E+06
           11619    -195.770E+03     950.410E+03              0.    -3.84088E+06
           11620    -270.839E+03     1.00517E+06              0.    -3.94321E+06
           11621    -348.840E+03     1.06152E+06              0.    -4.04868E+06
           11622    -429.860E+03     1.11948E+06              0.    -4.15736E+06
           11623    -513.987E+03     1.17905E+06              0.    -4.26937E+06
           11624    -601.310E+03     1.24025E+06              0.    -4.38479E+06
           11625    -691.918E+03     1.30310E+06              0.    -4.50374E+06
           11626    -785.905E+03     1.36761E+06              0.    -4.62632E+06
           11627    -883.363E+03     1.43379E+06              0.    -4.75264E+06
           11628    -984.387E+03     1.50164E+06              0.    -4.88281E+06
           11629    -1.08907E+06     1.57117E+06              0.    -5.01694E+06
           11630    -1.19752E+06     1.64239E+06              0.    -5.15515E+06
           11631    -1.30982E+06     1.71528E+06              0.    -5.29757E+06
           11632    -1.42608E+06     1.78985E+06              0.    -5.44430E+06
           11633    -1.54640E+06     1.86609E+06              0.    -5.59549E+06
           11634    -1.67087E+06     1.94400E+06              0.    -5.75126E+06
           11635    -1.79960E+06     2.02356E+06              0.    -5.91173E+06
           11636    -1.93270E+06     2.10474E+06              0.    -6.07705E+06
           11637    -2.07026E+06     2.18754E+06              0.    -6.24734E+06
           11638    -2.21239E+06     2.27192E+06              0.    -6.42276E+06
           11639    -2.35919E+06     2.35785E+06              0.    -6.60344E+06
           11640    -2.51077E+06     2.44530E+06              0.    -6.78952E+06
           11641    -2.66723E+06     2.53422E+06              0.    -6.98115E+06
           11642    -2.82867E+06     2.62458E+06              0.    -7.17849E+06
           11643    -2.99519E+06     2.71630E+06              0.    -7.38169E+06
           11644    -3.16690E+06     2.80934E+06              0.    -7.59089E+06
           11645    -3.34390E+06     2.90363E+06              0.    -7.80627E+06
           11646    -3.52629E+06     2.99908E+06              0.    -8.02796E+06
           11647    -3.71417E+06     3.09563E+06              0.    -8.25615E+06
           11648    -3.90763E+06     3.19317E+06              0.    -8.49098E+06
           11649    -4.10678E+06     3.29161E+06              0.    -8.73262E+06
           11650    -4.31170E+06     3.39084E+06              0.    -8.98123E+06
           11651    -4.52249E+06     3.49073E+06              0.    -9.23699E+06
           11652    -4.73923E+06     3.59116E+06              0.    -9.50004E+06
           11653    -4.96202E+06     3.69199E+06              0.    -9.77057E+06
           11654    -5.19094E+06     3.79307E+06              0.    -10.0487E+06
           11655    -5.42606E+06     3.89422E+06              0.    -10.3347E+06
           11656    -5.66747E+06     3.99528E+06              0.    -10.6286E+06
           11657    -5.91523E+06     4.09605E+06              0.    -10.9306E+06
           11658    -6.16941E+06     4.19633E+06              0.    -11.2409E+06
           11659    -6.43009E+06     4.29590E+06              0.    -11.5596E+06
           11660    -6.69731E+06     4.39452E+06              0.    -11.8869E+06
           11661    -6.97113E+06     4.49194E+06              0.    -12.2229E+06
           11662    -7.25160E+06     4.58790E+06              0.    -12.5677E+06
           11663    -7.53876E+06     4.68211E+06              0.    -12.9215E+06
           11664    -7.83266E+06     4.77427E+06              0.    -13.2843E+06
           11665    -8.13331E+06     4.86405E+06              0.    -13.6564E+06
           11666    -8.44074E+06     4.95111E+06              0.    -14.0377E+06
           11667    -8.75497E+06     5.03509E+06              0.    -14.4283E+06
           11668    -9.07601E+06     5.11560E+06              0.    -14.8283E+06
           11669    -9.40387E+06     5.19224E+06              0.    -15.2377E+06
           11670    -9.73853E+06     5.26457E+06              0.    -15.6566E+06
           11671    -10.0800E+06     5.33214E+06              0.    -16.0849E+06
           11672    -10.4282E+06     5.39447E+06              0.    -16.5226E+06
           11673    -10.7832E+06     5.45105E+06              0.    -16.9695E+06
           11674    -11.1449E+06     5.50135E+06              0.    -17.4257E+06
           11675    -11.5133E+06     5.54481E+06              0.    -17.8909E+06
           11676    -11.8882E+06     5.58082E+06              0.    -18.3649E+06
           11677    -12.2698E+06     5.60877E+06              0.    -18.8474E+06
           11678    -12.6578E+06     5.62801E+06              0.    -19.3383E+06
           11679    -13.0522E+06     5.63784E+06              0.    -19.8370E+06
           11680    -13.4530E+06     5.63755E+06              0.    -20.3432E+06
           11681    -13.8601E+06     5.62636E+06              0.    -20.8563E+06
           11682    -14.2732E+06     5.60349E+06              0.    -21.3757E+06
           11683    -14.6925E+06     5.56810E+06              0.    -21.9007E+06
           11684    -15.1177E+06     5.51932E+06              0.    -22.4305E+06
           11685    -15.5487E+06     5.45621E+06              0.    -22.9641E+06
           11686    -15.9854E+06     5.37782E+06              0.    -23.5006E+06
           11687    -16.4278E+06     5.28314E+06              0.    -24.0387E+06
           11688    -16.8757E+06     5.17111E+06              0.    -24.5770E+06
           11689    -17.3289E+06     5.04061E+06              0.    -25.1141E+06
           11690    -17.7875E+06     4.89049E+06              0.    -25.6482E+06
           11691    -18.2512E+06     4.71953E+06              0.    -26.1775E+06
           11692    -18.7199E+06     4.52645E+06              0.    -26.6997E+06
           11693    -19.1937E+06     4.30992E+06              0.    -27.2126E+06
           11694    -19.6723E+06     4.06854E+06              0.    -27.7135E+06
           11695    -20.1558E+06     3.80086E+06              0.    -28.1994E+06
           11696    -20.6440E+06     3.50536E+06              0.    -28.6672E+06
           11697    -21.1370E+06     3.18045E+06              0.    -29.1132E+06
           11698    -21.6348E+06     2.82448E+06              0.    -29.5335E+06
           11699    -22.1374E+06     2.43573E+06              0.    -29.9238E+06
           11700    -22.6450E+06     2.01242E+06              0.    -30.2792E+06
           11701    -23.1576E+06     1.55271E+06              0.    -30.5946E+06
           11702    -23.6755E+06     1.05472E+06              0.    -30.8643E+06
           11703    -24.1989E+06     516.471E+03              0.    -31.0818E+06
           11704    -24.7283E+06    -64.0024E+03              0.    -31.2403E+06
           11705    -25.2641E+06    -688.732E+03              0.    -31.3324E+06
           11706    -25.8070E+06    -1.35975E+06              0.    -31.3497E+06
           11707    -26.3576E+06    -2.07907E+06              0.    -31.2834E+06
           11708    -26.9170E+06    -2.84872E+06              0.    -31.1237E+06
           11709    -27.4861E+06    -3.67061E+06              0.    -30.8600E+06
           11710    -28.0665E+06    -4.54661E+06              0.    -30.4808E+06
           11711    -28.6598E+06    -5.47843E+06              0.    -29.9736E+06
           11712    -29.2679E+06    -6.46755E+06              0.    -29.3248E+06
           11713    -29.8932E+06    -7.51525E+06              0.    -28.5197E+06
           11714    -30.5384E+06    -8.62243E+06              0.    -27.5424E+06
           11715    -31.2069E+06    -9.78958E+06              0.    -26.3755E+06
           11716    -31.9027E+06    -11.0166E+06              0.    -25.0004E+06
           11717    -32.6300E+06    -12.3028E+06              0.    -23.3969E+06
           11718    -33.3129E+06    -13.8432E+06              0.    -23.0145E+06
           11719     948.836E+03     427.640E+03              0.    -763.507E+03
           11720     946.095E+03     401.728E+03              0.    -762.155E+03
           11721     954.574E+03     381.144E+03              0.    -754.547E+03
           11722     962.984E+03     360.832E+03              0.    -747.499E+03
           11723     971.323E+03     340.798E+03              0.    -740.996E+03
           11724     979.587E+03     321.046E+03              0.    -735.028E+03
           11725     987.773E+03     301.579E+03              0.    -729.581E+03
           11726     995.879E+03     282.403E+03              0.    -724.644E+03
           11727     1.00390E+06     263.519E+03              0.    -720.206E+03
           11728     1.01184E+06     244.932E+03              0.    -716.258E+03
           11729     1.01969E+06     226.645E+03              0.    -712.790E+03
           11730     1.02745E+06     208.659E+03              0.    -709.792E+03
           11731     1.03512E+06     190.978E+03              0.    -707.257E+03
           11732     1.04270E+06     173.604E+03              0.    -705.176E+03
           11733     1.05018E+06     156.540E+03              0.    -703.542E+03
           11734     1.05756E+06     139.787E+03              0.    -702.348E+03
           11735     1.06485E+06     123.347E+03              0.    -701.588E+03
           11736     1.07203E+06     107.223E+03              0.    -701.255E+03
           11737     1.07911E+06     91.4155E+03              0.    -701.343E+03
           11738     1.08608E+06     75.9269E+03              0.    -701.849E+03
           11739     1.09294E+06     60.7589E+03              0.    -702.767E+03
           11740     1.09970E+06     45.9130E+03              0.    -704.093E+03
           11741     1.10634E+06     31.3910E+03              0.    -705.822E+03
           11742     1.11286E+06     17.1943E+03              0.    -707.952E+03
           11743     1.11927E+06     3.32479E+03              0.     -710.48E+03
           11744     1.12556E+06    -10.2158E+03              0.    -713.402E+03
           11745     1.13173E+06    -23.4260E+03              0.    -716.717E+03
           11746     1.13777E+06    -36.3037E+03              0.    -720.423E+03
           11747     1.14368E+06    -48.8475E+03              0.    -724.518E+03
           11748     1.14945E+06    -61.0551E+03              0.    -729.001E+03
           11749     1.15510E+06    -72.9246E+03              0.    -733.871E+03
           11750      1.1606E+06    -84.4540E+03              0.    -739.128E+03
           11751     1.16596E+06    -95.6409E+03              0.    -744.772E+03
           11752     1.17117E+06    -106.483E+03              0.    -750.803E+03
           11753     1.17624E+06    -116.978E+03              0.    -757.222E+03
           11754     1.18114E+06    -127.123E+03              0.    -764.030E+03
           11755     1.18589E+06    -136.916E+03              0.    -771.228E+03
           11756     1.19047E+06    -146.353E+03              0.    -778.818E+03
           11757     1.19488E+06    -155.432E+03              0.    -786.803E+03
           11758     1.19911E+06    -164.148E+03              0.    -795.185E+03
           11759     1.20316E+06    -172.500E+03              0.    -803.967E+03
           11760     1.20703E+06    -180.482E+03              0.    -813.152E+03
           11761     1.21069E+06    -188.092E+03              0.    -822.744E+03
           11762     1.21416E+06    -195.324E+03              0.    -832.746E+03
           11763     1.21742E+06    -202.176E+03              0.    -843.164E+03
           11764     1.22046E+06    -208.641E+03              0.    -854.002E+03
           11765     1.22328E+06    -214.717E+03              0.    -865.266E+03
           11766     1.22587E+06    -220.396E+03              0.    -876.961E+03
           11767     1.22821E+06    -225.675E+03              0.    -889.093E+03
           11768     1.23031E+06    -230.547E+03              0.    -901.669E+03
           11769     1.23214E+06    -235.007E+03              0.    -914.696E+03
           11770     1.23371E+06    -239.049E+03              0.    -928.181E+03
           11771     1.23500E+06    -242.666E+03              0.    -942.132E+03
           11772     1.23599E+06    -245.851E+03              0.    -956.557E+03
           11773     1.23669E+06    -248.598E+03              0.    -971.465E+03
           11774     1.23707E+06    -250.899E+03              0.    -986.865E+03
           11775     1.23712E+06    -252.747E+03              0.    -1.00277E+06
           11776     1.23683E+06    -254.133E+03              0.    -1.01918E+06
           11777     1.23620E+06    -255.049E+03              0.    -1.03612E+06
           11778     1.23519E+06    -255.487E+03              0.    -1.05359E+06
           11779     1.23381E+06    -255.437E+03              0.    -1.07161E+06
           11780     1.23202E+06    -254.890E+03              0.    -1.09018E+06
           11781     1.22983E+06    -253.837E+03              0.    -1.10933E+06
           11782     1.22721E+06    -252.267E+03              0.    -1.12906E+06
           11783     1.22414E+06    -250.169E+03              0.    -1.14939E+06
           11784     1.22060E+06    -247.533E+03              0.    -1.17033E+06
           11785     1.21659E+06    -244.347E+03              0.    -1.19190E+06
           11786     1.21207E+06    -240.600E+03              0.    -1.21412E+06
           11787     1.20703E+06    -236.280E+03              0.    -1.23700E+06
           11788     1.20145E+06    -231.373E+03              0.    -1.26056E+06
           11789     1.19531E+06    -225.867E+03              0.    -1.28481E+06
           11790     1.18858E+06    -219.749E+03              0.    -1.30978E+06
           11791     1.18123E+06    -213.005E+03              0.    -1.33548E+06
           11792     1.17326E+06    -205.619E+03              0.    -1.36194E+06
           11793     1.16463E+06    -197.579E+03              0.    -1.38918E+06
           11794     1.15531E+06    -188.868E+03              0.    -1.41721E+06
           11795     1.14528E+06    -179.471E+03              0.    -1.44607E+06
           11796     1.13451E+06    -169.371E+03              0.    -1.47577E+06
           11797     1.12297E+06    -158.552E+03              0.    -1.50633E+06
           11798     1.11064E+06    -146.998E+03              0.    -1.53780E+06
           11799     1.09748E+06    -134.690E+03              0.    -1.57018E+06
           11800     1.08345E+06    -121.610E+03              0.    -1.60351E+06
           11801     1.06854E+06    -107.741E+03              0.    -1.63781E+06
           11802     1.05270E+06    -93.0628E+03              0.    -1.67312E+06
           11803     1.03589E+06    -77.5564E+03              0.    -1.70947E+06
           11804     1.01808E+06    -61.2018E+03              0.    -1.74688E+06
           11805     999.243E+03    -43.9789E+03              0.    -1.78539E+06
           11806     979.326E+03    -25.8667E+03              0.    -1.82503E+06
           11807     958.294E+03    -6.84421E+03              0.    -1.86585E+06
           11808     936.105E+03     13.1105E+03              0.    -1.90786E+06
           11809     912.716E+03     34.0195E+03              0.    -1.95111E+06
           11810     888.084E+03     55.9052E+03              0.    -1.99564E+06
           11811     862.163E+03     78.7909E+03              0.    -2.04150E+06
           11812     834.906E+03     102.700E+03              0.    -2.08871E+06
           11813     806.265E+03     127.656E+03              0.    -2.13732E+06
           11814     776.189E+03     153.683E+03              0.    -2.18738E+06
           11815     744.629E+03     180.806E+03              0.    -2.23893E+06
           11816     711.531E+03     209.050E+03              0.    -2.29201E+06
           11817     676.841E+03     238.439E+03              0.    -2.34669E+06
           11818     640.502E+03     269.001E+03              0.    -2.40299E+06
           11819     602.458E+03     300.759E+03              0.    -2.46099E+06
           11820     562.649E+03     333.741E+03              0.    -2.52073E+06
           11821     521.015E+03     367.972E+03              0.    -2.58226E+06
           11822     477.493E+03     403.479E+03              0.    -2.64565E+06
           11823     432.018E+03     440.289E+03              0.    -2.71095E+06
           11824     384.526E+03     478.429E+03              0.    -2.77821E+06
           11825     334.947E+03     517.924E+03              0.    -2.84751E+06
           11826     283.214E+03     558.802E+03              0.    -2.91891E+06
           11827     229.254E+03     601.089E+03              0.    -2.99247E+06
           11828     172.994E+03     644.812E+03              0.    -3.06827E+06
           11829     114.360E+03     689.998E+03              0.    -3.14636E+06
           11830     53.2753E+03     736.672E+03              0.    -3.22683E+06
           11831    -10.3393E+03      784.86E+03              0.    -3.30975E+06
           11832    -76.5639E+03     834.588E+03              0.    -3.39519E+06
           11833    -145.481E+03     885.880E+03              0.    -3.48323E+06
           11834    -217.174E+03     938.762E+03              0.    -3.57396E+06
           11835    -291.730E+03     993.256E+03              0.    -3.66746E+06
           11836    -369.236E+03     1.04939E+06              0.    -3.76382E+06
           11837    -449.782E+03     1.10717E+06              0.    -3.86311E+06
           11838    -533.461E+03     1.16664E+06              0.    -3.96544E+06
           11839    -620.364E+03     1.22780E+06              0.     -4.0709E+06
           11840    -710.587E+03     1.29069E+06              0.    -4.17958E+06
           11841    -804.228E+03     1.35530E+06              0.    -4.29159E+06
           11842    -901.385E+03     1.42167E+06              0.    -4.40701E+06
           11843    -1.00216E+06     1.48980E+06              0.    -4.52597E+06
           11844    -1.10665E+06     1.55971E+06              0.    -4.64856E+06
           11845    -1.21497E+06     1.63140E+06              0.    -4.77490E+06
           11846    -1.32721E+06     1.70489E+06              0.    -4.90509E+06
           11847    -1.44349E+06     1.78018E+06              0.    -5.03925E+06
           11848    -1.56391E+06     1.85727E+06              0.    -5.17751E+06
           11849    -1.68859E+06     1.93616E+06              0.    -5.31997E+06
           11850    -1.81764E+06     2.01685E+06              0.    -5.46677E+06
           11851    -1.95116E+06     2.09934E+06              0.    -5.61804E+06
           11852    -2.08927E+06     2.18360E+06              0.    -5.77389E+06
           11853    -2.23209E+06     2.26963E+06              0.    -5.93447E+06
           11854    -2.37973E+06     2.35741E+06              0.    -6.09991E+06
           11855    -2.53231E+06     2.44691E+06              0.    -6.27035E+06
           11856    -2.68995E+06     2.53811E+06              0.    -6.44593E+06
           11857    -2.85276E+06     2.63098E+06              0.    -6.62679E+06
           11858    -3.02086E+06     2.72547E+06              0.    -6.81308E+06
           11859    -3.19438E+06     2.82154E+06              0.    -7.00495E+06
           11860    -3.37343E+06     2.91914E+06              0.    -7.20256E+06
           11861    -3.55813E+06     3.01821E+06              0.    -7.40604E+06
           11862    -3.74859E+06     3.11868E+06              0.    -7.61557E+06
           11863    -3.94494E+06     3.22049E+06              0.    -7.83131E+06
           11864    -4.14730E+06     3.32355E+06              0.    -8.05340E+06
           11865    -4.35578E+06     3.42778E+06              0.    -8.28201E+06
           11866    -4.57049E+06     3.53307E+06              0.    -8.51731E+06
           11867    -4.79156E+06     3.63931E+06              0.    -8.75947E+06
           11868    -5.01909E+06     3.74639E+06              0.    -9.00864E+06
           11869    -5.25320E+06     3.85418E+06              0.    -9.26499E+06
           11870    -5.49399E+06     3.96254E+06              0.    -9.52869E+06
           11871    -5.74158E+06     4.07132E+06              0.    -9.79991E+06
           11872    -5.99606E+06     4.18034E+06              0.    -10.0788E+06
           11873    -6.25755E+06     4.28943E+06              0.    -10.3655E+06
           11874    -6.52613E+06     4.39841E+06              0.    -10.6603E+06
           11875     -6.8019E+06     4.50705E+06              0.    -10.9632E+06
           11876    -7.08496E+06     4.61514E+06              0.    -11.2744E+06
           11877    -7.37539E+06     4.72244E+06              0.    -11.5941E+06
           11878    -7.67328E+06     4.82869E+06              0.    -11.9224E+06
           11879    -7.97870E+06     4.93362E+06              0.    -12.2594E+06
           11880    -8.29173E+06     5.03694E+06              0.    -12.6053E+06
           11881    -8.61243E+06     5.13832E+06              0.    -12.9602E+06
           11882    -8.94088E+06     5.23744E+06              0.    -13.3242E+06
           11883    -9.27712E+06     5.33394E+06              0.    -13.6974E+06
           11884    -9.62121E+06     5.42745E+06              0.    -14.0798E+06
           11885    -9.97319E+06     5.51755E+06              0.    -14.4716E+06
           11886    -10.3331E+06     5.60383E+06              0.    -14.8727E+06
           11887    -10.7010E+06     5.68583E+06              0.    -15.2832E+06
           11888    -11.0768E+06     5.76306E+06              0.    -15.7031E+06
           11889    -11.4607E+06     5.83503E+06              0.    -16.1324E+06
           11890    -11.8525E+06     5.90118E+06              0.    -16.5709E+06
           11891    -12.2524E+06     5.96096E+06              0.    -17.0185E+06
           11892    -12.6603E+06     6.01375E+06              0.    -17.4752E+06
           11893    -13.0762E+06     6.05891E+06              0.    -17.9408E+06
           11894    -13.5000E+06     6.09578E+06              0.    -18.4149E+06
           11895    -13.9317E+06     6.12363E+06              0.    -18.8972E+06
           11896    -14.3714E+06     6.14173E+06              0.    -19.3875E+06
           11897    -14.8189E+06     6.14927E+06              0.    -19.8853E+06
           11898    -15.2741E+06     6.14541E+06              0.    -20.3901E+06
           11899    -15.7371E+06     6.12928E+06              0.    -20.9012E+06
           11900    -16.2078E+06     6.09993E+06              0.    -21.4181E+06
           11901    -16.6860E+06     6.05640E+06              0.    -21.9398E+06
           11902    -17.1717E+06     5.99763E+06              0.    -22.4655E+06
           11903    -17.6647E+06     5.92254E+06              0.    -22.9942E+06
           11904    -18.1650E+06     5.82997E+06              0.    -23.5246E+06
           11905    -18.6726E+06     5.71872E+06              0.    -24.0555E+06
           11906    -19.1871E+06     5.58749E+06              0.    -24.5852E+06
           11907    -19.7086E+06     5.43495E+06              0.    -25.1123E+06
           11908    -20.2369E+06     5.25966E+06              0.    -25.6347E+06
           11909    -20.7719E+06     5.06014E+06              0.    -26.1504E+06
           11910    -21.3135E+06     4.83479E+06              0.    -26.6570E+06
           11911    -21.8615E+06     4.58198E+06              0.    -27.1519E+06
           11912    -22.4159E+06     4.29993E+06              0.    -27.6322E+06
           11913    -22.9765E+06     3.98683E+06              0.    -28.0947E+06
           11914    -23.5433E+06     3.64074E+06              0.    -28.5360E+06
           11915    -24.1160E+06     3.25964E+06              0.    -28.9520E+06
           11916    -24.6948E+06     2.84141E+06              0.    -29.3384E+06
           11917    -25.2796E+06     2.38383E+06              0.    -29.6907E+06
           11918    -25.8703E+06     1.88459E+06              0.    -30.0034E+06
           11919    -26.4670E+06     1.34128E+06              0.    -30.2710E+06
           11920    -27.0698E+06     751.397E+03              0.    -30.4871E+06
           11921    -27.6788E+06     112.354E+03              0.    -30.6450E+06
           11922    -28.2943E+06    -578.520E+03              0.    -30.7371E+06
           11923    -28.9167E+06    -1.32396E+06              0.    -30.7553E+06
           11924    -29.5463E+06    -2.12673E+06              0.    -30.6907E+06
           11925    -30.1838E+06    -2.98966E+06              0.    -30.5334E+06
           11926    -30.8298E+06    -3.91557E+06              0.    -30.2730E+06
           11927    -31.4854E+06    -4.90726E+06              0.    -29.8978E+06
           11928    -32.1516E+06    -5.96746E+06              0.    -29.3953E+06
           11929    -32.8300E+06    -7.09876E+06              0.    -28.7520E+06
           11930    -33.5222E+06    -8.30363E+06              0.    -27.9529E+06
           11931    -34.2305E+06    -9.58426E+06              0.    -26.9819E+06
           11932    -34.9573E+06    -10.9425E+06              0.    -25.8216E+06
           11933    -35.7059E+06    -12.3799E+06              0.    -24.4531E+06
           11934    -36.4800E+06    -13.8972E+06              0.    -22.8556E+06
           11935    -37.2596E+06    -15.7103E+06              0.    -22.4578E+06
           11936     929.607E+03     419.011E+03              0.    -771.890E+03
           11937     926.943E+03     393.820E+03              0.    -770.525E+03
           11938     935.187E+03     373.800E+03              0.    -762.851E+03
           11939     943.365E+03     354.039E+03              0.    -755.734E+03
           11940     951.474E+03     334.543E+03              0.    -749.159E+03
           11941     959.510E+03     315.316E+03              0.    -743.115E+03
           11942     967.469E+03     296.363E+03              0.    -737.590E+03
           11943     975.350E+03     277.690E+03              0.    -732.571E+03
           11944     983.148E+03     259.299E+03              0.    -728.050E+03
           11945     990.861E+03     241.195E+03              0.    -724.016E+03
           11946     998.487E+03     223.381E+03              0.    -720.459E+03
           11947     1.00602E+06     205.860E+03              0.    -717.371E+03
           11948     1.01347E+06     188.636E+03              0.    -714.742E+03
           11949     1.02081E+06     171.711E+03              0.    -712.566E+03
           11950     1.02807E+06     155.088E+03              0.    -710.835E+03
           11951     1.03522E+06     138.771E+03              0.    -709.541E+03
           11952     1.04227E+06     122.760E+03              0.    -708.678E+03
           11953     1.04921E+06     107.058E+03              0.    -708.241E+03
           11954     1.05605E+06     91.6686E+03              0.    -708.224E+03
           11955     1.06278E+06     76.5927E+03              0.    -708.621E+03
           11956     1.06940E+06     61.8330E+03              0.    -709.427E+03
           11957     1.07590E+06     47.3911E+03              0.    -710.639E+03
           11958     1.08229E+06     33.2696E+03              0.    -712.253E+03
           11959     1.08856E+06     19.4699E+03              0.    -714.264E+03
           11960     1.09470E+06     5.99453E+03              0.    -716.671E+03
           11961     1.10072E+06    -7.15446E+03              0.    -719.469E+03
           11962     1.10661E+06    -19.9753E+03              0.    -722.656E+03
           11963     1.11237E+06    -32.4654E+03              0.    -726.232E+03
           11964     1.11799E+06    -44.6229E+03              0.    -730.193E+03
           11965     1.12348E+06    -56.4453E+03              0.    -734.538E+03
           11966     1.12882E+06    -67.9304E+03              0.    -739.267E+03
           11967     1.13402E+06    -79.0757E+03              0.    -744.379E+03
           11968     1.13906E+06    -89.8784E+03              0.    -749.874E+03
           11969     1.14395E+06    -100.336E+03              0.    -755.752E+03
           11970     1.14868E+06    -110.446E+03              0.    -762.013E+03
           11971     1.15325E+06    -120.205E+03              0.    -768.658E+03
           11972     1.15764E+06    -129.609E+03              0.    -775.689E+03
           11973     1.16187E+06    -138.657E+03              0.    -783.106E+03
           11974     1.16591E+06    -147.343E+03              0.    -790.912E+03
           11975     1.16976E+06    -155.666E+03              0.    -799.109E+03
           11976     1.17342E+06    -163.620E+03              0.    -807.700E+03
           11977     1.17688E+06    -171.201E+03              0.    -816.688E+03
           11978     1.18014E+06    -178.406E+03              0.    -826.075E+03
           11979     1.18318E+06    -185.231E+03              0.    -835.866E+03
           11980     1.18600E+06    -191.669E+03              0.    -846.065E+03
           11981     1.18859E+06    -197.717E+03              0.    -856.677E+03
           11982     1.19095E+06    -203.369E+03              0.    -867.705E+03
           11983     1.19305E+06    -208.620E+03              0.    -879.156E+03
           11984     1.19491E+06    -213.464E+03              0.    -891.035E+03
           11985     1.19649E+06    -217.896E+03              0.    -903.348E+03
           11986     1.19780E+06    -221.908E+03              0.    -916.102E+03
           11987     1.19883E+06    -225.494E+03              0.    -929.304E+03
           11988     1.19956E+06    -228.648E+03              0.    -942.960E+03
           11989     1.19998E+06    -231.362E+03              0.    -957.079E+03
           11990     1.20008E+06    -233.629E+03              0.    -971.669E+03
           11991     1.19984E+06    -235.441E+03              0.    -986.739E+03
           11992     1.19926E+06    -236.790E+03              0.    -1.00230E+06
           11993     1.19832E+06    -237.667E+03              0.    -1.01836E+06
           11994     1.19701E+06    -238.063E+03              0.    -1.03492E+06
           11995     1.19531E+06    -237.970E+03              0.    -1.05201E+06
           11996     1.19320E+06    -237.378E+03              0.    -1.06962E+06
           11997     1.19068E+06    -236.277E+03              0.    -1.08778E+06
           11998     1.18772E+06    -234.656E+03              0.    -1.10649E+06
           11999     1.18430E+06    -232.504E+03              0.    -1.12577E+06
           12000     1.18041E+06    -229.812E+03              0.    -1.14563E+06
           12001     1.17603E+06    -226.566E+03              0.    -1.16609E+06
           12002     1.17114E+06    -222.756E+03              0.    -1.18715E+06
           12003     1.16571E+06    -218.368E+03              0.    -1.20884E+06
           12004     1.15974E+06    -213.391E+03              0.    -1.23117E+06
           12005     1.15319E+06    -207.810E+03              0.    -1.25416E+06
           12006     1.14605E+06    -201.612E+03              0.    -1.27782E+06
           12007     1.13828E+06    -194.784E+03              0.    -1.30217E+06
           12008     1.12987E+06    -187.309E+03              0.    -1.32723E+06
           12009     1.12079E+06    -179.174E+03              0.    -1.35303E+06
           12010     1.11101E+06    -170.363E+03              0.    -1.37957E+06
           12011     1.10051E+06    -160.859E+03              0.    -1.40688E+06
           12012     1.08926E+06    -150.646E+03              0.    -1.43499E+06
           12013     1.07722E+06    -139.708E+03              0.    -1.46391E+06
           12014     1.06438E+06    -128.027E+03              0.    -1.49367E+06
           12015     1.05069E+06    -115.585E+03              0.    -1.52429E+06
           12016     1.03612E+06    -102.363E+03              0.    -1.55580E+06
           12017     1.02065E+06    -88.3425E+03              0.    -1.58823E+06
           12018     1.00423E+06    -73.5043E+03              0.    -1.62159E+06
           12019     986.835E+03    -57.8283E+03              0.    -1.65593E+06
           12020     968.421E+03    -41.2941E+03              0.    -1.69126E+06
           12021     948.953E+03    -23.8806E+03              0.    -1.72762E+06
           12022     928.389E+03    -5.56658E+03              0.    -1.76504E+06
           12023     906.690E+03     13.6700E+03              0.    -1.80356E+06
           12024     883.813E+03     33.8515E+03              0.    -1.84319E+06
           12025     859.714E+03     55.0007E+03              0.    -1.88399E+06
           12026     834.348E+03     77.1412E+03              0.    -1.92598E+06
           12027     807.668E+03     100.297E+03              0.    -1.96920E+06
           12028     779.628E+03     124.491E+03              0.    -2.01370E+06
           12029     750.176E+03     149.750E+03              0.    -2.05950E+06
           12030     719.263E+03     176.098E+03              0.    -2.10665E+06
           12031     686.834E+03     203.561E+03              0.    -2.15520E+06
           12032     652.837E+03     232.165E+03              0.    -2.20519E+06
           12033     617.216E+03     261.936E+03              0.    -2.25665E+06
           12034     579.912E+03     292.901E+03              0.    -2.30965E+06
           12035     540.867E+03     325.087E+03              0.    -2.36422E+06
           12036     500.020E+03     358.522E+03              0.    -2.42042E+06
           12037     457.308E+03     393.233E+03              0.    -2.47829E+06
           12038     412.666E+03     429.248E+03              0.    -2.53790E+06
           12039     366.029E+03     466.596E+03              0.    -2.59929E+06
           12040     317.327E+03     505.304E+03              0.    -2.66253E+06
           12041     266.492E+03     545.402E+03              0.    -2.72767E+06
           12042     213.450E+03     586.917E+03              0.    -2.79476E+06
           12043     158.128E+03     629.880E+03              0.    -2.86388E+06
           12044     100.451E+03     674.317E+03              0.    -2.93509E+06
           12045     40.3399E+03     720.258E+03              0.    -3.00845E+06
           12046    -22.2847E+03     767.731E+03              0.    -3.08403E+06
           12047    -87.5047E+03     816.765E+03              0.    -3.16191E+06
           12048    -155.404E+03     867.388E+03              0.    -3.24214E+06
           12049    -226.069E+03     919.627E+03              0.    -3.32482E+06
           12050    -299.587E+03     973.509E+03              0.    -3.41001E+06
           12051    -376.048E+03     1.02906E+06              0.    -3.49779E+06
           12052    -455.546E+03     1.08631E+06              0.    -3.58825E+06
           12053    -538.174E+03     1.14528E+06              0.    -3.68147E+06
           12054    -624.028E+03     1.20600E+06              0.    -3.77754E+06
           12055    -713.208E+03     1.26848E+06              0.    -3.87654E+06
           12056    -805.813E+03     1.33276E+06              0.    -3.97856E+06
           12057    -901.948E+03     1.39885E+06              0.    -4.08371E+06
           12058    -1.00172E+06     1.46678E+06              0.    -4.19207E+06
           12059    -1.10522E+06     1.53655E+06              0.    -4.30374E+06
           12060    -1.21258E+06     1.60820E+06              0.    -4.41883E+06
           12061    -1.32390E+06     1.68173E+06              0.    -4.53745E+06
           12062    -1.43929E+06     1.75716E+06              0.    -4.65969E+06
           12063    -1.55887E+06     1.83449E+06              0.    -4.78568E+06
           12064    -1.68276E+06     1.91374E+06              0.    -4.91551E+06
           12065    -1.81107E+06     1.99491E+06              0.    -5.04932E+06
           12066    -1.94392E+06     2.07800E+06              0.    -5.18721E+06
           12067    -2.08144E+06     2.16302E+06              0.    -5.32932E+06
           12068    -2.22376E+06     2.24996E+06              0.    -5.47576E+06
           12069    -2.37099E+06     2.33881E+06              0.    -5.62666E+06
           12070    -2.52326E+06     2.42956E+06              0.    -5.78215E+06
           12071    -2.68070E+06     2.52219E+06              0.    -5.94238E+06
           12072    -2.84345E+06     2.61669E+06              0.    -6.10746E+06
           12073    -3.01163E+06     2.71303E+06              0.    -6.27756E+06
           12074    -3.18538E+06     2.81119E+06              0.    -6.45280E+06
           12075    -3.36482E+06     2.91111E+06              0.    -6.63332E+06
           12076    -3.55010E+06     3.01276E+06              0.    -6.81930E+06
           12077    -3.74134E+06     3.11610E+06              0.    -7.01085E+06
           12078    -3.93869E+06     3.22107E+06              0.    -7.20816E+06
           12079    -4.14228E+06     3.32761E+06              0.    -7.41136E+06
           12080    -4.35225E+06     3.43563E+06              0.    -7.62062E+06
           12081    -4.56872E+06     3.54508E+06              0.    -7.83610E+06
           12082    -4.79185E+06     3.65585E+06              0.    -8.05796E+06
           12083    -5.02175E+06     3.76786E+06              0.    -8.28636E+06
           12084    -5.25858E+06     3.88099E+06              0.    -8.52147E+06
           12085    -5.50246E+06     3.99513E+06              0.    -8.76344E+06
           12086    -5.75352E+06     4.11015E+06              0.    -9.01246E+06
           12087    -6.01191E+06     4.22590E+06              0.    -9.26869E+06
           12088    -6.27774E+06     4.34225E+06              0.    -9.53229E+06
           12089    -6.55115E+06     4.45902E+06              0.    -9.80342E+06
           12090    -6.83226E+06     4.57602E+06              0.    -10.0823E+06
           12091    -7.12121E+06     4.69308E+06              0.    -10.3690E+06
           12092    -7.41810E+06     4.80997E+06              0.    -10.6637E+06
           12093    -7.72307E+06     4.92647E+06              0.    -10.9666E+06
           12094    -8.03623E+06     5.04234E+06              0.    -11.2778E+06
           12095    -8.35768E+06     5.15731E+06              0.    -11.5976E+06
           12096    -8.68754E+06     5.27110E+06              0.    -11.9259E+06
           12097    -9.02591E+06     5.38342E+06              0.    -12.2630E+06
           12098    -9.37289E+06     5.49394E+06              0.    -12.6089E+06
           12099    -9.72859E+06     5.60231E+06              0.    -12.9639E+06
           12100    -10.0931E+06     5.70817E+06              0.    -13.3279E+06
           12101    -10.4664E+06     5.81112E+06              0.    -13.7011E+06
           12102    -10.8488E+06     5.91075E+06              0.    -14.0835E+06
           12103    -11.2401E+06     6.00660E+06              0.    -14.4752E+06
           12104    -11.6406E+06     6.09821E+06              0.    -14.8761E+06
           12105    -12.0502E+06     6.18506E+06              0.    -15.2864E+06
           12106    -12.4691E+06     6.26662E+06              0.    -15.7059E+06
           12107    -12.8971E+06     6.34232E+06              0.    -16.1347E+06
           12108    -13.3345E+06     6.41154E+06              0.    -16.5725E+06
           12109    -13.7812E+06     6.47366E+06              0.    -17.0194E+06
           12110    -14.2373E+06     6.52798E+06              0.    -17.4750E+06
           12111    -14.7026E+06     6.57377E+06              0.    -17.9391E+06
           12112    -15.1774E+06     6.61028E+06              0.    -18.4116E+06
           12113    -15.6615E+06     6.63668E+06              0.    -18.8919E+06
           12114    -16.1549E+06     6.65211E+06              0.    -19.3798E+06
           12115    -16.6576E+06     6.65566E+06              0.    -19.8746E+06
           12116    -17.1696E+06     6.64635E+06              0.    -20.3759E+06
           12117    -17.6908E+06     6.62317E+06              0.    -20.8829E+06
           12118    -18.2211E+06     6.58502E+06              0.    -21.3948E+06
           12119    -18.7606E+06     6.53075E+06              0.    -21.9109E+06
           12120    -19.3090E+06     6.45915E+06              0.    -22.4300E+06
           12121    -19.8664E+06     6.36891E+06              0.    -22.9510E+06
           12122    -20.4325E+06     6.25868E+06              0.    -23.4726E+06
           12123    -21.0074E+06     6.12700E+06              0.    -23.9933E+06
           12124    -21.5909E+06     5.97235E+06              0.    -24.5115E+06
           12125    -22.1828E+06     5.79310E+06              0.    -25.0253E+06
           12126    -22.7829E+06     5.58752E+06              0.    -25.5326E+06
           12127    -23.3913E+06     5.35381E+06              0.    -26.0312E+06
           12128    -24.0076E+06     5.09005E+06              0.    -26.5184E+06
           12129    -24.6317E+06     4.79419E+06              0.    -26.9915E+06
           12130    -25.2635E+06     4.46410E+06              0.    -27.4473E+06
           12131    -25.9028E+06     4.09751E+06              0.    -27.8822E+06
           12132    -26.5493E+06     3.69203E+06              0.    -28.2924E+06
           12133    -27.2030E+06     3.24513E+06              0.    -28.6738E+06
           12134    -27.8637E+06     2.75418E+06              0.    -29.0215E+06
           12135    -28.5312E+06     2.21639E+06              0.    -29.3305E+06
           12136    -29.2053E+06     1.62884E+06              0.    -29.5950E+06
           12137    -29.8861E+06     988.469E+03              0.    -29.8091E+06
           12138    -30.5734E+06     292.113E+03              0.    -29.9657E+06
           12139    -31.2671E+06    -463.555E+03              0.    -30.0576E+06
           12140    -31.9675E+06    -1.28196E+06              0.    -30.0765E+06
           12141    -32.6745E+06    -2.16664E+06              0.    -30.0137E+06
           12142    -33.3885E+06    -3.12123E+06              0.    -29.8594E+06
           12143    -34.1096E+06    -4.14942E+06              0.    -29.6031E+06
           12144    -34.8386E+06    -5.25499E+06              0.    -29.2333E+06
           12145    -35.5759E+06    -6.44170E+06              0.    -28.7373E+06
           12146    -36.3225E+06    -7.71325E+06              0.    -28.1017E+06
           12147    -37.0795E+06    -9.07335E+06              0.    -27.3114E+06
           12148    -37.8483E+06    -10.5255E+06              0.    -26.3503E+06
           12149    -38.6308E+06    -12.0729E+06              0.    -25.2008E+06
           12150    -39.4290E+06    -13.7187E+06              0.    -23.8437E+06
           12151    -40.2457E+06    -15.4653E+06              0.    -22.2583E+06
           12152    -41.1195E+06    -17.5487E+06              0.    -21.8474E+06
           12153     910.251E+03     410.325E+03              0.    -780.037E+03
           12154     907.663E+03     385.849E+03              0.    -778.659E+03
           12155     915.675E+03     366.389E+03              0.    -770.923E+03
           12156     923.622E+03     347.176E+03              0.    -763.738E+03
           12157     931.503E+03     328.214E+03              0.    -757.093E+03
           12158     939.312E+03     309.509E+03              0.    -750.975E+03
           12159     947.046E+03     291.068E+03              0.    -745.373E+03
           12160     954.702E+03     272.894E+03              0.    -740.274E+03
           12161     962.277E+03     254.993E+03              0.    -735.670E+03
           12162     969.767E+03     237.369E+03              0.    -731.550E+03
           12163     977.169E+03     220.027E+03              0.    -727.904E+03
           12164     984.481E+03     202.968E+03              0.    -724.724E+03
           12165     991.700E+03     186.199E+03              0.    -722.001E+03
           12166     998.822E+03     169.720E+03              0.    -719.728E+03
           12167     1.00585E+06     153.537E+03              0.    -717.898E+03
           12168     1.01277E+06     137.652E+03              0.    -716.502E+03
           12169     1.01959E+06     122.068E+03              0.    -715.535E+03
           12170     1.02630E+06     106.787E+03              0.    -714.991E+03
           12171     1.03290E+06     91.8125E+03              0.    -714.864E+03
           12172     1.03939E+06     77.1469E+03              0.    -715.149E+03
           12173     1.04576E+06     62.7928E+03              0.    -715.841E+03
           12174     1.05202E+06     48.7524E+03              0.    -716.936E+03
           12175     1.05816E+06     35.0284E+03              0.    -718.429E+03
           12176     1.06417E+06     21.6230E+03              0.    -720.317E+03
           12177     1.07005E+06     8.53880E+03              0.    -722.597E+03
           12178     1.07581E+06    -4.22169E+03              0.    -725.265E+03
           12179     1.08143E+06    -16.6563E+03              0.    -728.320E+03
           12180     1.08691E+06    -28.7622E+03              0.    -731.759E+03
           12181     1.09225E+06    -40.5371E+03              0.     -735.58E+03
           12182     1.09745E+06    -51.9781E+03              0.    -739.782E+03
           12183     1.10250E+06    -63.0827E+03              0.    -744.363E+03
           12184     1.10739E+06    -73.8480E+03              0.    -749.323E+03
           12185     1.11213E+06    -84.2709E+03              0.    -754.661E+03
           12186     1.11670E+06    -94.3486E+03              0.    -760.377E+03
           12187     1.12111E+06    -104.078E+03              0.    -766.472E+03
           12188     1.12534E+06    -113.455E+03              0.    -772.946E+03
           12189     1.12939E+06    -122.478E+03              0.    -779.800E+03
           12190     1.13327E+06    -131.141E+03              0.    -787.034E+03
           12191     1.13695E+06    -139.442E+03              0.    -794.652E+03
           12192     1.14043E+06    -147.376E+03              0.    -802.654E+03
           12193     1.14371E+06    -154.939E+03              0.    -811.043E+03
           12194     1.14678E+06    -162.127E+03              0.    -819.822E+03
           12195     1.14963E+06    -168.935E+03              0.    -828.994E+03
           12196     1.15226E+06    -175.358E+03              0.    -838.561E+03
           12197     1.15465E+06    -181.392E+03              0.    -848.529E+03
           12198     1.15681E+06    -187.030E+03              0.    -858.900E+03
           12199     1.15871E+06    -192.269E+03              0.    -869.679E+03
           12200     1.16035E+06    -197.100E+03              0.    -880.872E+03
           12201     1.16172E+06    -201.519E+03              0.    -892.483E+03
           12202     1.16281E+06    -205.519E+03              0.    -904.518E+03
           12203     1.16361E+06    -209.094E+03              0.    -916.984E+03
           12204     1.16411E+06    -212.236E+03              0.    -929.885E+03
           12205     1.16430E+06    -214.938E+03              0.    -943.231E+03
           12206     1.16416E+06    -217.193E+03              0.    -957.026E+03
           12207     1.16368E+06    -218.992E+03              0.    -971.280E+03
           12208     1.16285E+06    -220.328E+03              0.    -986.001E+03
           12209     1.16166E+06    -221.192E+03              0.    -1.00120E+06
           12210     1.16008E+06    -221.574E+03              0.    -1.01688E+06
           12211     1.15812E+06    -221.466E+03              0.    -1.03305E+06
           12212     1.15574E+06    -220.858E+03              0.    -1.04973E+06
           12213     1.15294E+06    -219.739E+03              0.    -1.06692E+06
           12214     1.14969E+06    -218.100E+03              0.    -1.08464E+06
           12215     1.14598E+06    -215.929E+03              0.    -1.10289E+06
           12216     1.14180E+06    -213.215E+03              0.    -1.12169E+06
           12217     1.13711E+06    -209.946E+03              0.    -1.14106E+06
           12218     1.13191E+06    -206.111E+03              0.    -1.16100E+06
           12219     1.12617E+06    -201.696E+03              0.    -1.18153E+06
           12220     1.11987E+06    -196.689E+03              0.    -1.20266E+06
           12221     1.11299E+06    -191.077E+03              0.    -1.22441E+06
           12222     1.10551E+06    -184.844E+03              0.    -1.24679E+06
           12223     1.09740E+06    -177.978E+03              0.    -1.26983E+06
           12224     1.08863E+06    -170.463E+03              0.    -1.29353E+06
           12225     1.07919E+06    -162.284E+03              0.    -1.31792E+06
           12226     1.06904E+06    -153.425E+03              0.    -1.34301E+06
           12227     1.05815E+06    -143.870E+03              0.    -1.36882E+06
           12228     1.04651E+06    -133.602E+03              0.    -1.39537E+06
           12229     1.03408E+06    -122.604E+03              0.    -1.42269E+06
           12230     1.02082E+06    -110.858E+03              0.    -1.45079E+06
           12231     1.00671E+06    -98.3456E+03              0.    -1.47970E+06
           12232     991.711E+03    -85.0481E+03              0.    -1.50944E+06
           12233     975.794E+03    -70.9461E+03              0.    -1.54003E+06
           12234     958.920E+03    -56.0199E+03              0.    -1.57151E+06
           12235     941.054E+03    -40.2489E+03              0.    -1.60388E+06
           12236     922.159E+03    -23.6125E+03              0.    -1.63719E+06
           12237     902.194E+03    -6.08901E+03              0.    -1.67145E+06
           12238     881.121E+03     12.3435E+03              0.    -1.70671E+06
           12239     858.896E+03     31.7073E+03              0.    -1.74298E+06
           12240     835.477E+03     52.0258E+03              0.     -1.7803E+06
           12241     810.820E+03     73.3221E+03              0.    -1.81870E+06
           12242     784.879E+03     95.6205E+03              0.    -1.85821E+06
           12243     757.606E+03     118.946E+03              0.    -1.89888E+06
           12244     728.952E+03     143.322E+03              0.    -1.94072E+06
           12245     698.868E+03     168.776E+03              0.    -1.98379E+06
           12246     667.300E+03     195.333E+03              0.    -2.02811E+06
           12247     634.195E+03     223.020E+03              0.    -2.07373E+06
           12248     599.498E+03     251.864E+03              0.    -2.12068E+06
           12249     563.151E+03     281.892E+03              0.    -2.16902E+06
           12250     525.096E+03     313.132E+03              0.    -2.21878E+06
           12251     485.273E+03     345.613E+03              0.    -2.27001E+06
           12252     443.618E+03     379.362E+03              0.    -2.32275E+06
           12253     400.067E+03     414.410E+03              0.    -2.37705E+06
           12254     354.555E+03     450.784E+03              0.    -2.43297E+06
           12255     307.013E+03     488.516E+03              0.    -2.49054E+06
           12256     257.371E+03     527.635E+03              0.    -2.54984E+06
           12257     205.557E+03     568.170E+03              0.    -2.61090E+06
           12258     151.497E+03     610.153E+03              0.    -2.67379E+06
           12259     95.1143E+03     653.614E+03              0.    -2.73856E+06
           12260     36.3314E+03     698.583E+03              0.    -2.80528E+06
           12261    -24.9325E+03     745.091E+03              0.    -2.87401E+06
           12262    -88.7598E+03     793.168E+03              0.     -2.9448E+06
           12263    -155.235E+03     842.846E+03              0.    -3.01773E+06
           12264    -224.446E+03     894.154E+03              0.    -3.09286E+06
           12265    -296.481E+03     947.122E+03              0.    -3.17027E+06
           12266    -371.431E+03     1.00178E+06              0.    -3.25003E+06
           12267    -449.391E+03     1.05816E+06              0.     -3.3322E+06
           12268    -530.457E+03     1.11629E+06              0.    -3.41687E+06
           12269    -614.726E+03     1.17619E+06              0.    -3.50412E+06
           12270    -702.300E+03     1.23791E+06              0.    -3.59402E+06
           12271    -793.282E+03     1.30145E+06              0.    -3.68667E+06
           12272    -887.777E+03     1.36685E+06              0.    -3.78214E+06
           12273    -985.892E+03     1.43414E+06              0.    -3.88053E+06
           12274    -1.08774E+06     1.50333E+06              0.    -3.98193E+06
           12275    -1.19343E+06     1.57445E+06              0.    -4.08643E+06
           12276    -1.30308E+06     1.64752E+06              0.    -4.19413E+06
           12277    -1.41680E+06     1.72257E+06              0.    -4.30513E+06
           12278    -1.53472E+06     1.79960E+06              0.    -4.41952E+06
           12279    -1.65696E+06     1.87864E+06              0.    -4.53743E+06
           12280    -1.78364E+06     1.95970E+06              0.    -4.65894E+06
           12281    -1.91488E+06     2.04278E+06              0.    -4.78418E+06
           12282    -2.05083E+06     2.12790E+06              0.    -4.91326E+06
           12283    -2.19160E+06     2.21507E+06              0.    -5.04629E+06
           12284    -2.33733E+06     2.30428E+06              0.    -5.18339E+06
           12285    -2.48815E+06     2.39554E+06              0.    -5.32469E+06
           12286    -2.64422E+06     2.48884E+06              0.    -5.47031E+06
           12287    -2.80565E+06     2.58417E+06              0.    -5.62038E+06
           12288    -2.97260E+06     2.68153E+06              0.    -5.77504E+06
           12289    -3.14520E+06     2.78088E+06              0.    -5.93441E+06
           12290    -3.32360E+06     2.88222E+06              0.    -6.09863E+06
           12291    -3.50796E+06     2.98551E+06              0.    -6.26786E+06
           12292    -3.69841E+06     3.09072E+06              0.    -6.44221E+06
           12293    -3.89510E+06     3.19782E+06              0.    -6.62186E+06
           12294    -4.09819E+06     3.30675E+06              0.    -6.80693E+06
           12295    -4.30783E+06     3.41747E+06              0.    -6.99759E+06
           12296    -4.52416E+06     3.52990E+06              0.    -7.19400E+06
           12297    -4.74736E+06     3.64400E+06              0.    -7.39629E+06
           12298    -4.97755E+06     3.75967E+06              0.    -7.60464E+06
           12299    -5.21492E+06     3.87684E+06              0.    -7.81921E+06
           12300    -5.45960E+06     3.99541E+06              0.    -8.04015E+06
           12301    -5.71176E+06     4.11527E+06              0.    -8.26764E+06
           12302    -5.97154E+06     4.23632E+06              0.    -8.50183E+06
           12303    -6.23911E+06     4.35841E+06              0.    -8.74289E+06
           12304    -6.51462E+06     4.48142E+06              0.    -8.99100E+06
           12305    -6.79822E+06     4.60518E+06              0.    -9.24631E+06
           12306    -7.09007E+06     4.72954E+06              0.    -9.50899E+06
           12307    -7.39032E+06     4.85431E+06              0.    -9.77921E+06
           12308    -7.69911E+06     4.97929E+06              0.    -10.0571E+06
           12309    -8.01661E+06     5.10429E+06              0.    -10.3429E+06
           12310    -8.34294E+06     5.22905E+06              0.    -10.6367E+06
           12311    -8.67826E+06     5.35334E+06              0.    -10.9387E+06
           12312    -9.02271E+06     5.47689E+06              0.    -11.2490E+06
           12313    -9.37643E+06     5.59941E+06              0.    -11.5677E+06
           12314    -9.73955E+06     5.72060E+06              0.    -11.8951E+06
           12315    -10.1122E+06     5.84012E+06              0.    -12.2311E+06
           12316    -10.4945E+06     5.95762E+06              0.    -12.5760E+06
           12317    -10.8866E+06     6.07272E+06              0.    -12.9299E+06
           12318    -11.2886E+06     6.18500E+06              0.    -13.2927E+06
           12319    -11.7006E+06     6.29404E+06              0.    -13.6646E+06
           12320    -12.1227E+06     6.39937E+06              0.    -14.0457E+06
           12321    -12.5551E+06     6.50048E+06              0.    -14.4360E+06
           12322    -12.9977E+06     6.59686E+06              0.    -14.8354E+06
           12323    -13.4508E+06     6.68794E+06              0.    -15.2440E+06
           12324    -13.9143E+06     6.77311E+06              0.    -15.6617E+06
           12325    -14.3884E+06     6.85173E+06              0.    -16.0884E+06
           12326    -14.8731E+06     6.92312E+06              0.    -16.5240E+06
           12327    -15.3685E+06     6.98655E+06              0.    -16.9683E+06
           12328    -15.8746E+06     7.04125E+06              0.    -17.4211E+06
           12329    -16.3914E+06     7.08639E+06              0.    -17.8821E+06
           12330    -16.9190E+06     7.12110E+06              0.     -18.351E+06
           12331    -17.4574E+06     7.14445E+06              0.    -18.8273E+06
           12332    -18.0066E+06     7.15544E+06              0.    -19.3107E+06
           12333    -18.5666E+06     7.15302E+06              0.    -19.8004E+06
           12334    -19.1374E+06     7.13608E+06              0.    -20.2960E+06
           12335    -19.7188E+06     7.10342E+06              0.    -20.7965E+06
           12336    -20.3110E+06     7.05378E+06              0.    -21.3012E+06
           12337    -20.9137E+06     6.98582E+06              0.    -21.8090E+06
           12338    -21.5270E+06     6.89811E+06              0.    -22.3188E+06
           12339    -22.1507E+06     6.78913E+06              0.    -22.8294E+06
           12340    -22.7847E+06     6.65726E+06              0.    -23.3393E+06
           12341    -23.4289E+06     6.50081E+06              0.    -23.8469E+06
           12342    -24.0831E+06     6.31793E+06              0.    -24.3503E+06
           12343    -24.7472E+06     6.10671E+06              0.    -24.8476E+06
           12344    -25.4210E+06     5.86510E+06              0.    -25.3365E+06
           12345    -26.1043E+06      5.5909E+06              0.    -25.8144E+06
           12346    -26.7968E+06     5.28181E+06              0.    -26.2786E+06
           12347    -27.4984E+06     4.93538E+06              0.    -26.7259E+06
           12348    -28.2088E+06     4.54902E+06              0.    -27.1530E+06
           12349    -28.9276E+06     4.11996E+06              0.    -27.5561E+06
           12350    -29.6547E+06     3.64530E+06              0.    -27.9309E+06
           12351    -30.3898E+06     3.12197E+06              0.    -28.2729E+06
           12352    -31.1325E+06     2.54671E+06              0.    -28.5770E+06
           12353    -31.8826E+06     1.91611E+06              0.    -28.8376E+06
           12354    -32.6397E+06     1.22658E+06              0.    -29.0487E+06
           12355    -33.4035E+06     474.333E+03              0.    -29.2036E+06
           12356    -34.1739E+06    -344.582E+03              0.    -29.2948E+06
           12357    -34.9505E+06    -1.23429E+06              0.    -29.3144E+06
           12358    -35.7332E+06    -2.19907E+06              0.    -29.2537E+06
           12359    -36.5218E+06    -3.24339E+06              0.    -29.1029E+06
           12360    -37.3162E+06    -4.37183E+06              0.    -28.8516E+06
           12361    -38.1165E+06    -5.58911E+06              0.    -28.4884E+06
           12362    -38.9228E+06    -6.90005E+06              0.    -28.0008E+06
           12363    -39.7355E+06    -8.30948E+06              0.    -27.3751E+06
           12364    -40.5549E+06    -9.82233E+06              0.    -26.5966E+06
           12365    -41.3819E+06    -11.4434E+06              0.    -25.6489E+06
           12366    -42.2173E+06    -13.1775E+06              0.    -24.5144E+06
           12367    -43.0625E+06    -15.0292E+06              0.    -23.1740E+06
           12368    -43.9190E+06    -17.0027E+06              0.    -21.6066E+06
           12369    -44.8858E+06    -19.3545E+06              0.    -21.1857E+06
           12370     890.776E+03     401.584E+03              0.    -787.951E+03
           12371     888.265E+03     377.818E+03              0.    -786.559E+03
           12372     896.045E+03     358.915E+03              0.    -778.763E+03
           12373     903.764E+03     340.244E+03              0.    -771.514E+03
           12374     911.418E+03     321.813E+03              0.    -764.801E+03
           12375     919.002E+03     303.628E+03              0.    -758.611E+03
           12376     926.513E+03     285.694E+03              0.    -752.932E+03
           12377     933.947E+03     268.017E+03              0.    -747.754E+03
           12378     941.299E+03     250.603E+03              0.    -743.067E+03
           12379     948.568E+03     233.457E+03              0.    -738.861E+03
           12380     955.749E+03     216.582E+03              0.    -735.126E+03
           12381     962.838E+03     199.983E+03              0.    -731.854E+03
           12382     969.834E+03     183.665E+03              0.    -729.036E+03
           12383     976.733E+03     167.631E+03              0.    -726.665E+03
           12384     983.532E+03     151.884E+03              0.    -724.733E+03
           12385     990.227E+03     136.429E+03              0.    -723.234E+03
           12386     996.817E+03     121.269E+03              0.    -722.161E+03
           12387     1.00330E+06     106.406E+03              0.    -721.508E+03
           12388     1.00967E+06     91.8442E+03              0.    -721.268E+03
           12389     1.01592E+06     77.5860E+03              0.    -721.438E+03
           12390     1.02205E+06     63.6347E+03              0.    -722.012E+03
           12391     1.02807E+06     49.9928E+03              0.    -722.985E+03
           12392     1.03395E+06     36.6634E+03              0.    -724.354E+03
           12393     1.03971E+06     23.6491E+03              0.    -726.114E+03
           12394     1.04534E+06     10.9527E+03              0.    -728.263E+03
           12395     1.05084E+06    -1.42266E+03              0.    -730.797E+03
           12396     1.05619E+06    -13.4747E+03              0.    -733.713E+03
           12397     1.06140E+06    -25.2000E+03              0.    -737.010E+03
           12398     1.06647E+06    -36.5962E+03              0.    -740.685E+03
           12399     1.07138E+06    -47.6599E+03              0.    -744.737E+03
           12400     1.07614E+06    -58.3882E+03              0.    -749.163E+03
           12401     1.08074E+06    -68.7781E+03              0.    -753.964E+03
           12402     1.08517E+06    -78.8260E+03              0.    -759.138E+03
           12403     1.08944E+06    -88.5287E+03              0.    -764.686E+03
           12404     1.09353E+06    -97.8827E+03              0.    -770.606E+03
           12405     1.09743E+06    -106.884E+03              0.    -776.900E+03
           12406     1.10115E+06    -115.530E+03              0.    -783.569E+03
           12407     1.10468E+06    -123.815E+03              0.    -790.612E+03
           12408     1.10801E+06    -131.736E+03              0.    -798.031E+03
           12409     1.11113E+06    -139.289E+03              0.    -805.828E+03
           12410     1.11404E+06    -146.468E+03              0.    -814.006E+03
           12411     1.11673E+06    -153.270E+03              0.    -822.565E+03
           12412     1.11919E+06    -159.688E+03              0.    -831.510E+03
           12413     1.12142E+06    -165.719E+03              0.    -840.842E+03
           12414     1.12339E+06    -171.356E+03              0.    -850.566E+03
           12415     1.12512E+06    -176.594E+03              0.    -860.684E+03
           12416     1.12658E+06    -181.427E+03              0.    -871.202E+03
           12417     1.12777E+06    -185.849E+03              0.    -882.123E+03
           12418     1.12867E+06    -189.853E+03              0.    -893.452E+03
           12419     1.12929E+06    -193.433E+03              0.    -905.195E+03
           12420     1.12959E+06    -196.581E+03              0.    -917.356E+03
           12421     1.12958E+06    -199.291E+03              0.    -929.942E+03
           12422     1.12924E+06    -201.553E+03              0.     -942.96E+03
           12423     1.12856E+06    -203.362E+03              0.    -956.415E+03
           12424     1.12752E+06    -204.707E+03              0.    -970.316E+03
           12425     1.12612E+06    -205.580E+03              0.    -984.669E+03
           12426     1.12433E+06    -205.973E+03              0.    -999.483E+03
           12427     1.12214E+06    -205.875E+03              0.    -1.01477E+06
           12428     1.11954E+06    -205.278E+03              0.    -1.03053E+06
           12429     1.11651E+06    -204.171E+03              0.    -1.04678E+06
           12430     1.11303E+06    -202.543E+03              0.    -1.06352E+06
           12431     1.10909E+06    -200.383E+03              0.    -1.08078E+06
           12432     1.10467E+06    -197.680E+03              0.    -1.09855E+06
           12433     1.09974E+06    -194.422E+03              0.    -1.11685E+06
           12434     1.09429E+06    -190.597E+03              0.    -1.13570E+06
           12435     1.08829E+06    -186.193E+03              0.    -1.15509E+06
           12436     1.08174E+06    -181.195E+03              0.    -1.17506E+06
           12437     1.07459E+06    -175.591E+03              0.    -1.19561E+06
           12438     1.06684E+06    -169.366E+03              0.    -1.21675E+06
           12439     1.05845E+06    -162.507E+03              0.    -1.23850E+06
           12440     1.04941E+06    -154.997E+03              0.    -1.26088E+06
           12441     1.03968E+06    -146.822E+03              0.    -1.28390E+06
           12442     1.02924E+06    -137.965E+03              0.    -1.30757E+06
           12443     1.01806E+06    -128.410E+03              0.    -1.33192E+06
           12444     1.00611E+06    -118.140E+03              0.    -1.35697E+06
           12445     993.370E+03    -107.137E+03              0.    -1.38273E+06
           12446     979.797E+03    -95.3841E+03              0.    -1.40922E+06
           12447     965.363E+03    -82.8618E+03              0.    -1.43646E+06
           12448     950.035E+03    -69.5512E+03              0.    -1.46448E+06
           12449     933.780E+03    -55.4326E+03              0.    -1.49329E+06
           12450      916.56E+03    -40.4859E+03              0.    -1.52292E+06
           12451     898.340E+03    -24.6904E+03              0.    -1.55339E+06
           12452     879.081E+03    -8.02459E+03              0.    -1.58473E+06
           12453     858.743E+03     9.53314E+03              0.    -1.61696E+06
           12454     837.287E+03     28.0053E+03              0.    -1.65010E+06
           12455     814.670E+03     47.4149E+03              0.    -1.68420E+06
           12456     790.848E+03     67.7853E+03              0.    -1.71926E+06
           12457     765.776E+03     89.1408E+03              0.    -1.75534E+06
           12458     739.408E+03     111.506E+03              0.    -1.79244E+06
           12459     711.696E+03     134.906E+03              0.    -1.83061E+06
           12460     682.590E+03     159.366E+03              0.    -1.86988E+06
           12461     652.038E+03     184.913E+03              0.    -1.91028E+06
           12462     619.989E+03     211.574E+03              0.    -1.95184E+06
           12463     586.387E+03     239.375E+03              0.    -1.99461E+06
           12464     551.176E+03     268.345E+03              0.    -2.03862E+06
           12465     514.298E+03     298.512E+03              0.    -2.08391E+06
           12466     475.693E+03     329.905E+03              0.    -2.13052E+06
           12467     435.300E+03     362.553E+03              0.    -2.17849E+06
           12468     393.055E+03     396.486E+03              0.    -2.22786E+06
           12469     348.892E+03     431.733E+03              0.    -2.27868E+06
           12470     302.743E+03     468.326E+03              0.    -2.33100E+06
           12471     254.540E+03     506.296E+03              0.    -2.38486E+06
           12472     204.210E+03     545.673E+03              0.    -2.44030E+06
           12473     151.680E+03     586.490E+03              0.    -2.49739E+06
           12474     96.8741E+03     628.777E+03              0.    -2.55618E+06
           12475     39.7143E+03     672.568E+03              0.    -2.61671E+06
           12476    -19.8796E+03     717.894E+03              0.    -2.67904E+06
           12477    -81.9902E+03     764.788E+03              0.    -2.74324E+06
           12478    -146.702E+03     813.282E+03              0.    -2.80935E+06
           12479    -214.103E+03     863.410E+03              0.    -2.87745E+06
           12480    -284.281E+03     915.203E+03              0.    -2.94760E+06
           12481    -357.329E+03     968.693E+03              0.    -3.01985E+06
           12482    -433.342E+03     1.02391E+06              0.    -3.09429E+06
           12483    -512.415E+03     1.08090E+06              0.    -3.17097E+06
           12484    -594.648E+03     1.13968E+06              0.    -3.24997E+06
           12485    -680.143E+03     1.20028E+06              0.    -3.33137E+06
           12486    -769.005E+03     1.26274E+06              0.    -3.41524E+06
           12487    -861.339E+03     1.32708E+06              0.    -3.50165E+06
           12488    -957.255E+03     1.39335E+06              0.    -3.59070E+06
           12489    -1.05687E+06     1.46155E+06              0.    -3.68246E+06
           12490    -1.16029E+06     1.53173E+06              0.    -3.77702E+06
           12491    -1.26764E+06     1.60391E+06              0.    -3.87447E+06
           12492    -1.37903E+06     1.67811E+06              0.    -3.97490E+06
           12493    -1.49459E+06     1.75436E+06              0.    -4.07840E+06
           12494    -1.61445E+06     1.83268E+06              0.    -4.18508E+06
           12495    -1.73873E+06     1.91309E+06              0.    -4.29502E+06
           12496    -1.86757E+06     1.99561E+06              0.    -4.40834E+06
           12497    -2.00109E+06     2.08025E+06              0.    -4.52513E+06
           12498    -2.13943E+06     2.16704E+06              0.    -4.64551E+06
           12499    -2.28274E+06     2.25598E+06              0.    -4.76958E+06
           12500    -2.43114E+06     2.34708E+06              0.    -4.89746E+06
           12501    -2.58480E+06     2.44034E+06              0.    -5.02927E+06
           12502    -2.74384E+06     2.53577E+06              0.    -5.16513E+06
           12503    -2.90843E+06     2.63338E+06              0.    -5.30515E+06
           12504    -3.07871E+06     2.73314E+06              0.    -5.44947E+06
           12505    -3.25483E+06     2.83506E+06              0.    -5.59821E+06
           12506    -3.43696E+06     2.93911E+06              0.    -5.75151E+06
           12507    -3.62525E+06     3.04529E+06              0.    -5.90950E+06
           12508    -3.81985E+06     3.15356E+06              0.    -6.07231E+06
           12509    -4.02094E+06     3.26390E+06              0.    -6.24010E+06
           12510    -4.22868E+06     3.37627E+06              0.    -6.41300E+06
           12511    -4.44322E+06     3.49063E+06              0.    -6.59116E+06
           12512    -4.66475E+06     3.60692E+06              0.    -6.77473E+06
           12513    -4.89343E+06     3.72510E+06              0.    -6.96387E+06
           12514    -5.12942E+06     3.84509E+06              0.    -7.15871E+06
           12515    -5.37291E+06     3.96682E+06              0.    -7.35944E+06
           12516    -5.62407E+06     4.09022E+06              0.    -7.56619E+06
           12517    -5.88307E+06     4.21517E+06              0.    -7.77913E+06
           12518    -6.15009E+06     4.34159E+06              0.    -7.99843E+06
           12519    -6.42530E+06     4.46936E+06              0.    -8.22425E+06
           12520    -6.70888E+06     4.59835E+06              0.    -8.45676E+06
           12521    -7.00100E+06     4.72843E+06              0.    -8.69611E+06
           12522    -7.30185E+06     4.85943E+06              0.    -8.94248E+06
           12523    -7.61160E+06     4.99120E+06              0.    -9.19603E+06
           12524    -7.93042E+06     5.12356E+06              0.    -9.45693E+06
           12525    -8.25850E+06     5.25630E+06              0.    -9.72533E+06
           12526    -8.59600E+06     5.38922E+06              0.    -10.0014E+06
           12527    -8.94310E+06     5.52207E+06              0.    -10.2853E+06
           12528    -9.29997E+06     5.65461E+06              0.    -10.5772E+06
           12529    -9.66678E+06     5.78657E+06              0.    -10.8772E+06
           12530    -10.0437E+06     5.91765E+06              0.    -11.1855E+06
           12531    -10.4309E+06     6.04755E+06              0.    -11.5022E+06
           12532    -10.8285E+06     6.17591E+06              0.    -11.8274E+06
           12533    -11.2367E+06     6.30237E+06              0.    -12.1613E+06
           12534    -11.6557E+06     6.42655E+06              0.    -12.5039E+06
           12535    -12.0856E+06     6.54801E+06              0.    -12.8554E+06
           12536    -12.5265E+06     6.66632E+06              0.    -13.2158E+06
           12537    -12.9785E+06     6.78097E+06              0.    -13.5852E+06
           12538    -13.4420E+06     6.89147E+06              0.    -13.9636E+06
           12539    -13.9168E+06     6.99725E+06              0.    -14.3510E+06
           12540    -14.4032E+06     7.09772E+06              0.    -14.7474E+06
           12541    -14.9013E+06     7.19225E+06              0.    -15.1528E+06
           12542    -15.4112E+06     7.28017E+06              0.    -15.5671E+06
           12543    -15.9330E+06     7.36074E+06              0.    -15.9901E+06
           12544    -16.4667E+06     7.43321E+06              0.    -16.4217E+06
           12545    -17.0125E+06     7.49674E+06              0.    -16.8617E+06
           12546    -17.5705E+06     7.55047E+06              0.    -17.3098E+06
           12547    -18.1406E+06     7.59345E+06              0.    -17.7657E+06
           12548    -18.7229E+06     7.62469E+06              0.    -18.2291E+06
           12549    -19.3175E+06     7.64312E+06              0.    -18.6993E+06
           12550    -19.9243E+06     7.64762E+06              0.    -19.1760E+06
           12551    -20.5435E+06     7.63696E+06              0.    -19.6584E+06
           12552    -21.1748E+06     7.60987E+06              0.    -20.1459E+06
           12553    -21.8184E+06     7.56496E+06              0.    -20.6375E+06
           12554    -22.4742E+06     7.50077E+06              0.    -21.1324E+06
           12555    -23.1421E+06     7.41575E+06              0.    -21.6294E+06
           12556    -23.8220E+06     7.30822E+06              0.    -22.1272E+06
           12557    -24.5137E+06     7.17642E+06              0.    -22.6246E+06
           12558    -25.2173E+06     7.01846E+06              0.    -23.1198E+06
           12559    -25.9324E+06     6.83232E+06              0.    -23.6111E+06
           12560    -26.6589E+06     6.61586E+06              0.    -24.0966E+06
           12561    -27.3967E+06     6.36680E+06              0.    -24.5741E+06
           12562    -28.1454E+06     6.08270E+06              0.     -25.041E+06
           12563    -28.9048E+06     5.76099E+06              0.    -25.4947E+06
           12564    -29.6745E+06     5.39891E+06              0.    -25.9321E+06
           12565    -30.4544E+06     4.99354E+06              0.    -26.3498E+06
           12566    -31.2439E+06     4.54178E+06              0.    -26.7442E+06
           12567    -32.0427E+06     4.04033E+06              0.    -27.1112E+06
           12568    -32.8504E+06     3.48569E+06              0.    -27.4463E+06
           12569    -33.6666E+06     2.87417E+06              0.    -27.7444E+06
           12570    -34.4908E+06     2.20185E+06              0.    -28.0002E+06
           12571    -35.3224E+06     1.46459E+06              0.    -28.2076E+06
           12572    -36.1610E+06     658.051E+03              0.    -28.3600E+06
           12573    -37.0060E+06    -222.375E+03              0.    -28.4503E+06
           12574    -37.8570E+06    -1.18149E+06              0.    -28.4705E+06
           12575    -38.7133E+06    -2.22434E+06              0.    -28.4120E+06
           12576    -39.5745E+06    -3.35619E+06              0.    -28.2652E+06
           12577    -40.4401E+06    -4.58250E+06              0.    -28.0199E+06
           12578    -41.3096E+06    -5.90898E+06              0.    -27.6647E+06
           12579    -42.1828E+06    -7.34146E+06              0.    -27.1871E+06
           12580    -43.0591E+06    -8.88594E+06              0.    -26.5737E+06
           12581    -43.9386E+06    -10.5486E+06              0.    -25.8098E+06
           12582    -44.8211E+06    -12.3355E+06              0.    -24.8791E+06
           12583    -45.7068E+06    -14.2531E+06              0.    -23.7640E+06
           12584    -46.5962E+06    -16.3075E+06              0.    -22.4453E+06
           12585    -47.4902E+06    -18.5047E+06              0.    -20.9020E+06
           12586    -48.5487E+06    -21.1222E+06              0.    -20.4732E+06
           12587     871.190E+03     392.794E+03              0.    -795.631E+03
           12588     868.754E+03     369.731E+03              0.    -794.228E+03
           12589     876.305E+03     351.380E+03              0.    -786.374E+03
           12590     883.798E+03     333.248E+03              0.    -779.063E+03
           12591     891.227E+03     315.343E+03              0.    -772.284E+03
           12592     898.588E+03     297.672E+03              0.    -766.023E+03
           12593     905.878E+03     280.242E+03              0.    -760.269E+03
           12594     913.091E+03     263.059E+03              0.    -755.013E+03
           12595     920.224E+03     246.129E+03              0.    -750.244E+03
           12596     927.273E+03     229.456E+03              0.    -745.951E+03
           12597     934.234E+03     213.046E+03              0.    -742.127E+03
           12598     941.104E+03     196.904E+03              0.    -738.762E+03
           12599     947.880E+03     181.034E+03              0.    -735.849E+03
           12600     954.557E+03     165.441E+03              0.    -733.379E+03
           12601     961.133E+03     150.129E+03              0.    -731.345E+03
           12602     967.605E+03     135.101E+03              0.    -729.740E+03
           12603     973.968E+03     120.361E+03              0.    -728.558E+03
           12604     980.220E+03     105.913E+03              0.    -727.793E+03
           12605     986.358E+03     91.7606E+03              0.    -727.439E+03
           12606     992.377E+03     77.9067E+03              0.    -727.490E+03
           12607     998.275E+03     64.3550E+03              0.    -727.942E+03
           12608     1.00405E+06     51.1084E+03              0.    -728.791E+03
           12609     1.00969E+06     38.1703E+03              0.    -730.031E+03
           12610     1.01521E+06     25.5436E+03              0.    -731.660E+03
           12611     1.02058E+06     13.2316E+03              0.    -733.673E+03
           12612     1.02582E+06     1.23753E+03              0.    -736.068E+03
           12613     1.03092E+06    -10.4357E+03              0.    -738.842E+03
           12614     1.03586E+06    -21.7846E+03              0.    -741.991E+03
           12615     1.04066E+06    -32.8062E+03              0.    -745.514E+03
           12616     1.04529E+06    -43.4971E+03              0.    -749.409E+03
           12617     1.04977E+06    -53.8538E+03              0.    -753.675E+03
           12618     1.05408E+06    -63.8730E+03              0.    -758.310E+03
           12619     1.05822E+06    -73.5509E+03              0.    -763.314E+03
           12620     1.06218E+06    -82.8840E+03              0.    -768.685E+03
           12621     1.06596E+06    -91.8683E+03              0.    -774.424E+03
           12622     1.06955E+06    -100.500E+03              0.    -780.530E+03
           12623     1.07294E+06    -108.775E+03              0.    -787.004E+03
           12624     1.07613E+06    -116.689E+03              0.    -793.847E+03
           12625     1.07912E+06    -124.237E+03              0.    -801.059E+03
           12626     1.08189E+06    -131.415E+03              0.    -808.642E+03
           12627     1.08444E+06    -138.218E+03              0.    -816.598E+03
           12628     1.08676E+06    -144.641E+03              0.    -824.928E+03
           12629     1.08884E+06    -150.678E+03              0.    -833.635E+03
           12630     1.09067E+06    -156.324E+03              0.    -842.721E+03
           12631     1.09224E+06    -161.574E+03              0.    -852.189E+03
           12632     1.09356E+06    -166.421E+03              0.    -862.043E+03
           12633     1.09459E+06    -170.859E+03              0.    -872.286E+03
           12634     1.09534E+06    -174.882E+03              0.    -882.923E+03
           12635     1.09579E+06    -178.482E+03              0.    -893.956E+03
           12636     1.09594E+06    -181.652E+03              0.    -905.392E+03
           12637     1.09577E+06    -184.385E+03              0.    -917.236E+03
           12638     1.09526E+06    -186.674E+03              0.    -929.491E+03
           12639     1.09441E+06    -188.510E+03              0.    -942.166E+03
           12640     1.09321E+06    -189.885E+03              0.    -955.265E+03
           12641     1.09163E+06    -190.789E+03              0.    -968.795E+03
           12642     1.08967E+06    -191.215E+03              0.    -982.763E+03
           12643     1.08731E+06    -191.152E+03              0.    -997.178E+03
           12644     1.08453E+06    -190.590E+03              0.    -1.01205E+06
           12645     1.08132E+06    -189.520E+03              0.    -1.02737E+06
           12646     1.07766E+06    -187.931E+03              0.    -1.04317E+06
           12647     1.07353E+06    -185.811E+03              0.    -1.05945E+06
           12648     1.06892E+06    -183.149E+03              0.    -1.07622E+06
           12649     1.06380E+06    -179.933E+03              0.    -1.09349E+06
           12650     1.05816E+06    -176.152E+03              0.    -1.11127E+06
           12651     1.05197E+06    -171.791E+03              0.    -1.12957E+06
           12652     1.04521E+06    -166.839E+03              0.    -1.14840E+06
           12653     1.03787E+06    -161.280E+03              0.    -1.16778E+06
           12654     1.02992E+06    -155.102E+03              0.    -1.18771E+06
           12655     1.02132E+06    -148.290E+03              0.    -1.20822E+06
           12656     1.01207E+06    -140.827E+03              0.    -1.22931E+06
           12657     1.00213E+06    -132.700E+03              0.    -1.25100E+06
           12658     991.475E+03    -123.891E+03              0.    -1.27330E+06
           12659     980.078E+03    -114.384E+03              0.    -1.29624E+06
           12660     967.910E+03    -104.162E+03              0.    -1.31982E+06
           12661     954.941E+03    -93.2069E+03              0.    -1.34406E+06
           12662     941.140E+03    -81.5008E+03              0.    -1.36899E+06
           12663     926.475E+03    -69.0249E+03              0.    -1.39461E+06
           12664     910.912E+03    -55.7596E+03              0.    -1.42096E+06
           12665     894.417E+03    -41.6854E+03              0.    -1.44804E+06
           12666     876.954E+03    -26.7815E+03              0.    -1.47588E+06
           12667     858.486E+03    -11.0271E+03              0.    -1.50451E+06
           12668     838.974E+03     5.59953E+03              0.    -1.53394E+06
           12669     818.379E+03     23.1206E+03              0.    -1.56419E+06
           12670     796.660E+03     41.5586E+03              0.    -1.59529E+06
           12671     773.774E+03     60.9371E+03              0.    -1.62727E+06
           12672     749.677E+03     81.2800E+03              0.    -1.66015E+06
           12673     724.325E+03     102.612E+03              0.    -1.69396E+06
           12674     697.669E+03     124.958E+03              0.    -1.72873E+06
           12675     669.662E+03     148.343E+03              0.    -1.76448E+06
           12676     640.253E+03     172.794E+03              0.    -1.80125E+06
           12677     609.391E+03     198.338E+03              0.    -1.83906E+06
           12678     577.022E+03     225.002E+03              0.    -1.87795E+06
           12679     543.091E+03     252.814E+03              0.    -1.91795E+06
           12680     507.541E+03     281.803E+03              0.    -1.95910E+06
           12681     470.314E+03     311.998E+03              0.    -2.00143E+06
           12682     431.348E+03     343.428E+03              0.    -2.04497E+06
           12683     390.581E+03     376.123E+03              0.    -2.08978E+06
           12684     347.948E+03     410.115E+03              0.    -2.13588E+06
           12685     303.384E+03     445.433E+03              0.    -2.18331E+06
           12686     256.819E+03     482.111E+03              0.    -2.23213E+06
           12687     208.182E+03     520.179E+03              0.    -2.28237E+06
           12688     157.402E+03     559.671E+03              0.    -2.33407E+06
           12689     104.403E+03     600.619E+03              0.    -2.38730E+06
           12690     49.1078E+03     643.056E+03              0.    -2.44208E+06
           12691    -8.56302E+03     687.016E+03              0.    -2.49848E+06
           12692    -68.6912E+03     732.533E+03              0.    -2.55655E+06
           12693    -131.361E+03     779.641E+03              0.    -2.61633E+06
           12694    -196.659E+03     828.374E+03              0.    -2.67789E+06
           12695    -264.673E+03     878.766E+03              0.    -2.74128E+06
           12696    -335.497E+03     930.852E+03              0.    -2.80656E+06
           12697    -409.223E+03     984.667E+03              0.    -2.87379E+06
           12698    -485.948E+03     1.04024E+06              0.    -2.94303E+06
           12699    -565.771E+03     1.09762E+06              0.    -3.01435E+06
           12700    -648.795E+03     1.15683E+06              0.    -3.08782E+06
           12701    -735.123E+03     1.21790E+06              0.    -3.16350E+06
           12702    -824.864E+03     1.28087E+06              0.    -3.24147E+06
           12703    -918.127E+03     1.34577E+06              0.    -3.32179E+06
           12704    -1.01503E+06     1.41264E+06              0.    -3.40455E+06
           12705    -1.11567E+06     1.48151E+06              0.    -3.48982E+06
           12706    -1.22019E+06     1.55240E+06              0.    -3.57769E+06
           12707    -1.32870E+06     1.62535E+06              0.    -3.66824E+06
           12708    -1.44133E+06     1.70038E+06              0.    -3.76154E+06
           12709    -1.55819E+06     1.77754E+06              0.    -3.85770E+06
           12710    -1.67943E+06     1.85683E+06              0.    -3.95680E+06
           12711    -1.80518E+06     1.93829E+06              0.    -4.05893E+06
           12712    -1.93557E+06     2.02194E+06              0.    -4.16419E+06
           12713    -2.07074E+06     2.10781E+06              0.    -4.27268E+06
           12714    -2.21083E+06     2.19590E+06              0.    -4.38451E+06
           12715    -2.35599E+06     2.28624E+06              0.    -4.49977E+06
           12716    -2.50637E+06     2.37885E+06              0.    -4.61858E+06
           12717    -2.66212E+06     2.47373E+06              0.    -4.74103E+06
           12718    -2.82339E+06     2.57089E+06              0.    -4.86726E+06
           12719    -2.99034E+06     2.67034E+06              0.    -4.99738E+06
           12720    -3.16312E+06     2.77209E+06              0.    -5.13149E+06
           12721    -3.34191E+06     2.87612E+06              0.    -5.26974E+06
           12722    -3.52687E+06     2.98244E+06              0.    -5.41223E+06
           12723    -3.71816E+06     3.09103E+06              0.    -5.55911E+06
           12724    -3.91596E+06     3.20187E+06              0.    -5.71051E+06
           12725    -4.12044E+06     3.31495E+06              0.    -5.86655E+06
           12726    -4.33177E+06     3.43024E+06              0.    -6.02737E+06
           12727    -4.55014E+06     3.54771E+06              0.    -6.19313E+06
           12728    -4.77573E+06     3.66731E+06              0.    -6.36395E+06
           12729    -5.00872E+06     3.78900E+06              0.    -6.54000E+06
           12730    -5.24930E+06     3.91272E+06              0.    -6.72141E+06
           12731    -5.49765E+06     4.03842E+06              0.    -6.90834E+06
           12732    -5.75396E+06     4.16602E+06              0.    -7.10094E+06
           12733    -6.01843E+06     4.29544E+06              0.    -7.29937E+06
           12734    -6.29125E+06     4.42659E+06              0.    -7.50379E+06
           12735    -6.57262E+06     4.55937E+06              0.    -7.71436E+06
           12736    -6.86273E+06     4.69367E+06              0.    -7.93124E+06
           12737    -7.16177E+06     4.82936E+06              0.    -8.15459E+06
           12738    -7.46995E+06     4.96630E+06              0.    -8.38458E+06
           12739    -7.78747E+06     5.10435E+06              0.    -8.62137E+06
           12740    -8.11453E+06     5.24333E+06              0.    -8.86512E+06
           12741    -8.45132E+06     5.38306E+06              0.    -9.11600E+06
           12742    -8.79805E+06     5.52336E+06              0.    -9.37418E+06
           12743    -9.15492E+06     5.66399E+06              0.    -9.63980E+06
           12744    -9.52212E+06     5.80473E+06              0.    -9.91304E+06
           12745    -9.89986E+06     5.94532E+06              0.    -10.1940E+06
           12746    -10.2883E+06     6.08549E+06              0.    -10.4829E+06
           12747    -10.6877E+06     6.22493E+06              0.    -10.7799E+06
           12748    -11.0983E+06     6.36333E+06              0.    -11.0851E+06
           12749    -11.5201E+06     6.50033E+06              0.    -11.3985E+06
           12750    -11.9534E+06     6.63556E+06              0.    -11.7204E+06
           12751    -12.3984E+06     6.76863E+06              0.    -12.0509E+06
           12752    -12.8553E+06     6.89909E+06              0.    -12.3900E+06
           12753    -13.3243E+06     7.02647E+06              0.    -12.7378E+06
           12754    -13.8055E+06     7.15028E+06              0.    -13.0944E+06
           12755    -14.2990E+06     7.26998E+06              0.    -13.4598E+06
           12756    -14.8051E+06     7.38500E+06              0.    -13.8340E+06
           12757    -15.3239E+06     7.49470E+06              0.    -14.2170E+06
           12758    -15.8556E+06     7.59844E+06              0.    -14.6089E+06
           12759    -16.4003E+06     7.69551E+06              0.    -15.0094E+06
           12760    -16.9581E+06     7.78514E+06              0.    -15.4185E+06
           12761    -17.5291E+06     7.86652E+06              0.    -15.8361E+06
           12762    -18.1135E+06     7.93878E+06              0.    -16.2619E+06
           12763    -18.7114E+06       8.001E+06              0.    -16.6957E+06
           12764    -19.3228E+06     8.05218E+06              0.    -17.1372E+06
           12765    -19.9478E+06     8.09126E+06              0.    -17.5861E+06
           12766    -20.5865E+06     8.11710E+06              0.    -18.0417E+06
           12767    -21.2390E+06     8.12848E+06              0.    -18.5038E+06
           12768    -21.9051E+06     8.12413E+06              0.    -18.9715E+06
           12769    -22.5850E+06     8.10263E+06              0.    -19.4443E+06
           12770    -23.2787E+06     8.06253E+06              0.    -19.9212E+06
           12771    -23.9861E+06     8.00222E+06              0.    -20.4015E+06
           12772    -24.7071E+06     7.92003E+06              0.    -20.8839E+06
           12773    -25.4416E+06     7.81415E+06              0.    -21.3674E+06
           12774    -26.1896E+06     7.68264E+06              0.    -21.8504E+06
           12775    -26.9509E+06     7.52346E+06              0.    -22.3316E+06
           12776    -27.7253E+06     7.33439E+06              0.    -22.8092E+06
           12777    -28.5126E+06     7.11309E+06              0.    -23.2812E+06
           12778    -29.3126E+06     6.85706E+06              0.    -23.7456E+06
           12779    -30.1250E+06     6.56361E+06              0.    -24.1999E+06
           12780    -30.9494E+06     6.22991E+06              0.    -24.6415E+06
           12781    -31.7855E+06     5.85290E+06              0.    -25.0673E+06
           12782    -32.6330E+06     5.42935E+06              0.    -25.4743E+06
           12783    -33.4912E+06     4.95580E+06              0.    -25.8587E+06
           12784    -34.3599E+06     4.42860E+06              0.    -26.2165E+06
           12785    -35.2383E+06     3.84382E+06              0.    -26.5433E+06
           12786    -36.1259E+06     3.19732E+06              0.    -26.8344E+06
           12787    -37.0222E+06     2.48472E+06              0.    -27.0843E+06
           12788    -37.9262E+06     1.70133E+06              0.    -27.2873E+06
           12789    -38.8375E+06     842.239E+03              0.    -27.4368E+06
           12790    -39.7551E+06    -97.7784E+03              0.    -27.5257E+06
           12791    -40.6782E+06    -1.12421E+06              0.    -27.5464E+06
           12792    -41.6060E+06    -2.24284E+06              0.    -27.4903E+06
           12793    -42.5376E+06    -3.45974E+06              0.    -27.3481E+06
           12794    -43.4721E+06    -4.78126E+06              0.    -27.1096E+06
           12795    -44.4086E+06    -6.21404E+06              0.    -26.7636E+06
           12796    -45.3461E+06    -7.76499E+06              0.    -26.2979E+06
           12797    -46.2838E+06    -9.44123E+06              0.    -25.6992E+06
           12798    -47.2207E+06    -11.2502E+06              0.    -24.9528E+06
           12799    -48.1562E+06    -13.1993E+06              0.    -24.0426E+06
           12800    -49.0894E+06    -15.2965E+06              0.    -22.9513E+06
           12801    -50.0197E+06    -17.5494E+06              0.    -21.6595E+06
           12802    -50.9463E+06    -19.9657E+06              0.    -20.1464E+06
           12803    -52.0926E+06    -22.8434E+06              0.    -19.7129E+06
           12804     851.501E+03     383.956E+03              0.    -803.082E+03
           12805     849.140E+03     361.590E+03              0.    -801.666E+03
           12806     856.464E+03     343.785E+03              0.    -793.758E+03
           12807     863.732E+03     326.187E+03              0.    -786.388E+03
           12808     870.938E+03     308.805E+03              0.    -779.544E+03
           12809     878.079E+03     291.645E+03              0.    -773.214E+03
           12810     885.149E+03     274.715E+03              0.    -767.387E+03
           12811     892.144E+03     258.021E+03              0.    -762.053E+03
           12812     899.059E+03     241.570E+03              0.    -757.201E+03
           12813     905.891E+03     225.367E+03              0.    -752.823E+03
           12814     912.635E+03     209.419E+03              0.    -748.910E+03
           12815     919.288E+03     193.730E+03              0.    -745.452E+03
           12816     925.845E+03     178.306E+03              0.    -742.442E+03
           12817     932.304E+03     163.150E+03              0.    -739.871E+03
           12818     938.660E+03     148.268E+03              0.    -737.734E+03
           12819     944.910E+03     133.664E+03              0.    -736.022E+03
           12820     951.051E+03     119.342E+03              0.    -734.730E+03
           12821     957.078E+03     105.305E+03              0.    -733.850E+03
           12822     962.988E+03     91.5590E+03              0.    -733.379E+03
           12823     968.777E+03     78.1061E+03              0.    -733.309E+03
           12824     974.443E+03     64.9506E+03              0.    -733.637E+03
           12825     979.980E+03     52.0957E+03              0.    -734.358E+03
           12826     985.386E+03     39.5453E+03              0.    -735.466E+03
           12827     990.657E+03     27.3024E+03              0.    -736.959E+03
           12828     995.787E+03     15.3709E+03              0.    -738.833E+03
           12829     1.00077E+06     3.75415E+03              0.    -741.084E+03
           12830     1.00561E+06    -7.54450E+03              0.    -743.709E+03
           12831     1.01030E+06    -18.5213E+03              0.    -746.706E+03
           12832     1.01483E+06    -29.1729E+03              0.    -750.072E+03
           12833     1.01919E+06    -39.4955E+03              0.    -753.806E+03
           12834     1.02339E+06    -49.4856E+03              0.    -757.905E+03
           12835     1.02742E+06    -59.1393E+03              0.    -762.368E+03
           12836     1.03127E+06    -68.4526E+03              0.    -767.194E+03
           12837     1.03493E+06    -77.4217E+03              0.    -772.382E+03
           12838     1.03841E+06    -86.0423E+03              0.    -777.931E+03
           12839     1.04169E+06    -94.3101E+03              0.    -783.842E+03
           12840     1.04477E+06    -102.221E+03              0.    -790.115E+03
           12841     1.04764E+06    -109.770E+03              0.    -796.749E+03
           12842     1.05029E+06    -116.952E+03              0.    -803.745E+03
           12843     1.05272E+06    -123.763E+03              0.    -811.105E+03
           12844     1.05492E+06    -130.198E+03              0.    -818.830E+03
           12845     1.05688E+06     -136.25E+03              0.    -826.920E+03
           12846     1.05859E+06    -141.915E+03              0.    -835.380E+03
           12847     1.06004E+06    -147.186E+03              0.    -844.209E+03
           12848     1.06122E+06    -152.057E+03              0.    -853.411E+03
           12849     1.06213E+06    -156.523E+03              0.    -862.989E+03
           12850     1.06276E+06    -160.576E+03              0.    -872.946E+03
           12851     1.06308E+06    -164.210E+03              0.    -883.285E+03
           12852     1.06310E+06    -167.417E+03              0.    -894.011E+03
           12853     1.06280E+06    -170.189E+03              0.    -905.127E+03
           12854     1.06216E+06    -172.520E+03              0.    -916.639E+03
           12855     1.06118E+06    -174.401E+03              0.    -928.550E+03
           12856     1.05984E+06    -175.824E+03              0.    -940.866E+03
           12857     1.05813E+06    -176.779E+03              0.    -953.593E+03
           12858     1.05604E+06    -177.257E+03              0.    -966.737E+03
           12859     1.05354E+06    -177.250E+03              0.    -980.304E+03
           12860     1.05062E+06    -176.747E+03              0.    -994.301E+03
           12861     1.04728E+06    -175.737E+03              0.    -1.00874E+06
           12862     1.04348E+06    -174.211E+03              0.    -1.02361E+06
           12863     1.03921E+06    -172.157E+03              0.    -1.03895E+06
           12864     1.03446E+06    -169.564E+03              0.    -1.05474E+06
           12865     1.02920E+06    -166.419E+03              0.    -1.07100E+06
           12866     1.02342E+06    -162.710E+03              0.    -1.08775E+06
           12867     1.01709E+06    -158.426E+03              0.    -1.10498E+06
           12868     1.01019E+06    -153.551E+03              0.    -1.12271E+06
           12869     1.00271E+06    -148.073E+03              0.    -1.14095E+06
           12870     994.612E+03    -141.977E+03              0.    -1.15972E+06
           12871     985.877E+03    -135.249E+03              0.    -1.17901E+06
           12872     976.481E+03    -127.873E+03              0.    -1.19886E+06
           12873     966.397E+03    -119.835E+03              0.    -1.21926E+06
           12874     955.598E+03    -111.116E+03              0.    -1.24023E+06
           12875     944.057E+03    -101.702E+03              0.    -1.26179E+06
           12876     931.745E+03    -91.5738E+03              0.    -1.28396E+06
           12877     918.631E+03    -80.7146E+03              0.    -1.30673E+06
           12878     904.685E+03    -69.1058E+03              0.    -1.33014E+06
           12879     889.874E+03    -56.7285E+03              0.    -1.35420E+06
           12880     874.164E+03    -43.5632E+03              0.    -1.37893E+06
           12881     857.522E+03    -29.5898E+03              0.    -1.40434E+06
           12882     839.911E+03    -14.7877E+03              0.    -1.43045E+06
           12883     821.294E+03         864.255              0.    -1.45729E+06
           12884     801.633E+03     17.3880E+03              0.    -1.48486E+06
           12885     780.888E+03     34.8058E+03              0.    -1.51320E+06
           12886     759.017E+03     53.1409E+03              0.    -1.54233E+06
           12887     735.978E+03     72.4166E+03              0.    -1.57226E+06
           12888     711.727E+03     92.6573E+03              0.    -1.60303E+06
           12889     686.218E+03     113.888E+03              0.    -1.63465E+06
           12890     659.404E+03     136.134E+03              0.    -1.66715E+06
           12891     631.237E+03     159.421E+03              0.    -1.70056E+06
           12892     601.666E+03     183.776E+03              0.    -1.73490E+06
           12893     570.638E+03     209.227E+03              0.    -1.77020E+06
           12894     538.100E+03     235.801E+03              0.    -1.80650E+06
           12895     503.997E+03     263.527E+03              0.    -1.84382E+06
           12896     468.272E+03     292.433E+03              0.    -1.88220E+06
           12897     430.863E+03     322.550E+03              0.    -1.92165E+06
           12898     391.712E+03     353.908E+03              0.    -1.96223E+06
           12899     350.754E+03     386.538E+03              0.    -2.00397E+06
           12900     307.925E+03     420.470E+03              0.    -2.04689E+06
           12901     263.157E+03     455.738E+03              0.    -2.09105E+06
           12902     216.381E+03     492.374E+03              0.    -2.13647E+06
           12903     167.525E+03     530.410E+03              0.    -2.18320E+06
           12904     116.516E+03     569.880E+03              0.    -2.23127E+06
           12905     63.2786E+03     610.818E+03              0.    -2.28074E+06
           12906     7.73372E+03     653.259E+03              0.    -2.33165E+06
           12907    -50.1988E+03     697.236E+03              0.    -2.38403E+06
           12908    -110.602E+03     742.786E+03              0.    -2.43795E+06
           12909    -173.561E+03     789.944E+03              0.    -2.49345E+06
           12910    -239.165E+03     838.746E+03              0.    -2.55058E+06
           12911    -307.502E+03     889.227E+03              0.    -2.60939E+06
           12912    -378.668E+03     941.424E+03              0.    -2.66993E+06
           12913    -452.756E+03     995.374E+03              0.    -2.73227E+06
           12914    -529.866E+03     1.05111E+06              0.    -2.79646E+06
           12915    -610.100E+03     1.10867E+06              0.    -2.86256E+06
           12916    -693.559E+03     1.16810E+06              0.    -2.93064E+06
           12917    -780.353E+03     1.22942E+06              0.    -3.00075E+06
           12918    -870.590E+03     1.29268E+06              0.    -3.07297E+06
           12919    -964.384E+03     1.35790E+06              0.    -3.14735E+06
           12920    -1.06185E+06     1.42514E+06              0.    -3.22398E+06
           12921    -1.16310E+06     1.49441E+06              0.    -3.30293E+06
           12922    -1.26827E+06     1.56575E+06              0.    -3.38426E+06
           12923    -1.37748E+06     1.63921E+06              0.    -3.46806E+06
           12924    -1.49085E+06     1.71480E+06              0.    -3.55440E+06
           12925    -1.60851E+06     1.79257E+06              0.    -3.64338E+06
           12926    -1.73061E+06     1.87254E+06              0.    -3.73507E+06
           12927    -1.85727E+06     1.95474E+06              0.    -3.82955E+06
           12928    -1.98865E+06     2.03920E+06              0.    -3.92693E+06
           12929    -2.12487E+06     2.12595E+06              0.    -4.02730E+06
           12930    -2.26610E+06     2.21501E+06              0.    -4.13074E+06
           12931    -2.41248E+06     2.30640E+06              0.    -4.23736E+06
           12932    -2.56417E+06     2.40014E+06              0.    -4.34726E+06
           12933    -2.72131E+06     2.49626E+06              0.    -4.46054E+06
           12934    -2.88409E+06     2.59476E+06              0.    -4.57731E+06
           12935    -3.05264E+06     2.69565E+06              0.    -4.69769E+06
           12936    -3.22716E+06     2.79896E+06              0.    -4.82177E+06
           12937    -3.40780E+06     2.90467E+06              0.    -4.94968E+06
           12938    -3.59474E+06     3.01280E+06              0.    -5.08154E+06
           12939    -3.78816E+06     3.12334E+06              0.    -5.21747E+06
           12940    -3.98823E+06     3.23627E+06              0.    -5.35760E+06
           12941    -4.19515E+06     3.35160E+06              0.    -5.50204E+06
           12942    -4.40910E+06     3.46930E+06              0.    -5.65095E+06
           12943    -4.63026E+06     3.58935E+06              0.    -5.80444E+06
           12944    -4.85884E+06     3.71171E+06              0.    -5.96266E+06
           12945    -5.09503E+06     3.83636E+06              0.    -6.12574E+06
           12946    -5.33902E+06     3.96325E+06              0.    -6.29383E+06
           12947    -5.59102E+06     4.09232E+06              0.    -6.46708E+06
           12948    -5.85124E+06     4.22351E+06              0.    -6.64564E+06
           12949    -6.11987E+06     4.35677E+06              0.    -6.82965E+06
           12950    -6.39714E+06     4.49201E+06              0.    -7.01926E+06
           12951    -6.68325E+06     4.62914E+06              0.    -7.21464E+06
           12952    -6.97841E+06     4.76806E+06              0.    -7.41595E+06
           12953    -7.28285E+06     4.90866E+06              0.    -7.62333E+06
           12954    -7.59678E+06     5.05083E+06              0.    -7.83695E+06
           12955    -7.92041E+06     5.19442E+06              0.    -8.05698E+06
           12956    -8.25398E+06     5.33927E+06              0.    -8.28357E+06
           12957    -8.59771E+06     5.48524E+06              0.    -8.51688E+06
           12958    -8.95181E+06     5.63213E+06              0.    -8.75708E+06
           12959    -9.31651E+06     5.77974E+06              0.    -9.00433E+06
           12960    -9.69204E+06     5.92786E+06              0.    -9.25879E+06
           12961    -10.0786E+06     6.07625E+06              0.    -9.52061E+06
           12962    -10.4765E+06     6.22466E+06              0.    -9.78994E+06
           12963    -10.8858E+06      6.3728E+06              0.    -10.0669E+06
           12964    -11.3069E+06     6.52037E+06              0.    -10.3517E+06
           12965    -11.7400E+06     6.66704E+06              0.    -10.6445E+06
           12966    -12.1852E+06     6.81245E+06              0.    -10.9453E+06
           12967    -12.6428E+06     6.95623E+06              0.    -11.2543E+06
           12968    -13.1130E+06     7.09796E+06              0.    -11.5716E+06
           12969    -13.5960E+06     7.23718E+06              0.    -11.8973E+06
           12970    -14.0920E+06     7.37343E+06              0.    -12.2315E+06
           12971    -14.6013E+06     7.50618E+06              0.    -12.5742E+06
           12972    -15.1240E+06     7.63487E+06              0.    -12.9255E+06
           12973    -15.6603E+06     7.75892E+06              0.    -13.2854E+06
           12974    -16.2105E+06     7.87766E+06              0.    -13.6539E+06
           12975    -16.7746E+06     7.99042E+06              0.    -14.0310E+06
           12976    -17.3529E+06     8.09645E+06              0.    -14.4165E+06
           12977    -17.9455E+06     8.19496E+06              0.    -14.8105E+06
           12978    -18.5527E+06     8.28510E+06              0.    -15.2127E+06
           12979    -19.1744E+06     8.36594E+06              0.    -15.6230E+06
           12980    -19.8110E+06     8.43652E+06              0.    -16.0411E+06
           12981    -20.4623E+06     8.49578E+06              0.    -16.4668E+06
           12982    -21.1287E+06     8.54260E+06              0.    -16.8996E+06
           12983    -21.8102E+06     8.57578E+06              0.    -17.3392E+06
           12984    -22.5067E+06     8.59401E+06              0.    -17.7851E+06
           12985    -23.2185E+06     8.59593E+06              0.    -18.2366E+06
           12986    -23.9454E+06     8.58004E+06              0.    -18.6931E+06
           12987    -24.6876E+06     8.54478E+06              0.    -19.1538E+06
           12988    -25.4449E+06     8.48843E+06              0.    -19.6178E+06
           12989    -26.2174E+06     8.40919E+06              0.    -20.0841E+06
           12990    -27.0050E+06     8.30512E+06              0.    -20.5514E+06
           12991    -27.8074E+06     8.17412E+06              0.    -21.0186E+06
           12992    -28.6247E+06     8.01398E+06              0.    -21.4841E+06
           12993    -29.4565E+06     7.82232E+06              0.    -21.9462E+06
           12994    -30.3027E+06     7.59659E+06              0.    -22.4032E+06
           12995    -31.1630E+06     7.33406E+06              0.    -22.8528E+06
           12996    -32.0371E+06     7.03183E+06              0.    -23.2929E+06
           12997    -32.9246E+06     6.68678E+06              0.    -23.7207E+06
           12998    -33.8251E+06     6.29559E+06              0.    -24.1336E+06
           12999    -34.7380E+06     5.85471E+06              0.    -24.5282E+06
           13000    -35.6630E+06     5.36036E+06              0.    -24.9012E+06
           13001    -36.5993E+06     4.80850E+06              0.    -25.2485E+06
           13002    -37.5462E+06     4.19481E+06              0.    -25.5661E+06
           13003    -38.5031E+06     3.51474E+06              0.    -25.8490E+06
           13004    -39.4692E+06     2.76339E+06              0.    -26.0921E+06
           13005    -40.4434E+06     1.93559E+06              0.    -26.2898E+06
           13006    -41.4250E+06     1.02585E+06              0.    -26.4358E+06
           13007    -42.4128E+06     28.3389E+03              0.    -26.5230E+06
           13008    -43.4058E+06    -1.06311E+06              0.    -26.5441E+06
           13009    -44.4027E+06    -2.25500E+06              0.    -26.4906E+06
           13010    -45.4023E+06    -3.55421E+06              0.    -26.3535E+06
           13011    -46.4033E+06    -4.96794E+06              0.    -26.1226E+06
           13012    -47.4042E+06    -6.50382E+06              0.    -25.7872E+06
           13013    -48.4036E+06    -8.16975E+06              0.    -25.3352E+06
           13014    -49.4000E+06    -9.97402E+06              0.    -24.7534E+06
           13015    -50.3918E+06    -11.9253E+06              0.    -24.0274E+06
           13016    -51.3774E+06    -14.0324E+06              0.    -23.1415E+06
           13017    -52.3553E+06    -16.3046E+06              0.    -22.0782E+06
           13018    -53.3239E+06    -18.7515E+06              0.    -20.8186E+06
           13019    -54.2818E+06    -21.3826E+06              0.    -19.3420E+06
           13020    -55.5145E+06    -24.5157E+06              0.    -18.9069E+06
           13021     831.716E+03     375.075E+03              0.    -810.305E+03
           13022     829.429E+03     353.399E+03              0.    -808.878E+03
           13023     836.529E+03     336.135E+03              0.    -800.918E+03
           13024     843.574E+03     319.066E+03              0.    -793.490E+03
           13025     850.560E+03     302.200E+03              0.    -786.583E+03
           13026     857.483E+03     285.546E+03              0.    -780.185E+03
           13027     864.335E+03     269.111E+03              0.    -774.286E+03
           13028     871.114E+03     252.903E+03              0.    -768.875E+03
           13029     877.814E+03     236.927E+03              0.    -763.943E+03
           13030     884.431E+03     221.191E+03              0.    -759.479E+03
           13031     890.961E+03     205.701E+03              0.    -755.476E+03
           13032     897.398E+03     190.461E+03              0.    -751.925E+03
           13033     903.741E+03     175.478E+03              0.    -748.818E+03
           13034     909.983E+03     160.756E+03              0.    -746.146E+03
           13035     916.122E+03     146.301E+03              0.    -743.904E+03
           13036     922.154E+03     132.117E+03              0.    -742.083E+03
           13037     928.074E+03     118.209E+03              0.    -740.679E+03
           13038     933.880E+03     104.581E+03              0.    -739.683E+03
           13039     939.566E+03     91.2370E+03              0.    -739.092E+03
           13040     945.129E+03     78.1814E+03              0.    -738.899E+03
           13041     950.566E+03     65.4184E+03              0.    -739.100E+03
           13042     955.872E+03     52.9514E+03              0.    -739.689E+03
           13043     961.043E+03     40.7846E+03              0.    -740.662E+03
           13044     966.075E+03     28.9217E+03              0.    -742.016E+03
           13045     970.963E+03     17.3664E+03              0.    -743.746E+03
           13046     975.704E+03     6.12274E+03              0.    -745.848E+03
           13047     980.292E+03    -4.80577E+03              0.    -748.321E+03
           13048     984.723E+03    -15.4150E+03              0.    -751.161E+03
           13049     988.992E+03    -25.7015E+03              0.    -754.365E+03
           13050     993.094E+03    -35.6609E+03              0.    -757.932E+03
           13051     997.024E+03    -45.2895E+03              0.    -761.858E+03
           13052     1.00078E+06    -54.5832E+03              0.    -766.144E+03
           13053     1.00434E+06    -63.5376E+03              0.    -770.786E+03
           13054     1.00772E+06    -72.1486E+03              0.    -775.784E+03
           13055     1.01090E+06    -80.4117E+03              0.    -781.138E+03
           13056     1.01388E+06    -88.3223E+03              0.    -786.846E+03
           13057     1.01665E+06    -95.8757E+03              0.    -792.910E+03
           13058     1.01921E+06    -103.067E+03              0.    -799.327E+03
           13059     1.02154E+06    -109.891E+03              0.    -806.100E+03
           13060     1.02364E+06    -116.343E+03              0.    -813.228E+03
           13061     1.02549E+06    -122.417E+03              0.    -820.713E+03
           13062     1.02710E+06    -128.107E+03              0.    -828.555E+03
           13063     1.02846E+06    -133.408E+03              0.    -836.757E+03
           13064     1.02954E+06    -138.313E+03              0.    -845.319E+03
           13065     1.03035E+06    -142.816E+03              0.    -854.245E+03
           13066     1.03087E+06    -146.911E+03              0.    -863.536E+03
           13067     1.03110E+06    -150.590E+03              0.    -873.196E+03
           13068     1.03101E+06    -153.846E+03              0.    -883.227E+03
           13069     1.03061E+06    -156.671E+03              0.    -893.632E+03
           13070     1.02988E+06    -159.058E+03              0.    -904.416E+03
           13071     1.02880E+06    -161.000E+03              0.    -915.582E+03
           13072     1.02736E+06    -162.486E+03              0.    -927.135E+03
           13073     1.02555E+06    -163.508E+03              0.    -939.080E+03
           13074     1.02335E+06    -164.058E+03              0.    -951.420E+03
           13075     1.02076E+06    -164.126E+03              0.    -964.163E+03
           13076     1.01774E+06    -163.701E+03              0.    -977.313E+03
           13077     1.01430E+06    -162.774E+03              0.    -990.877E+03
           13078     1.01041E+06    -161.334E+03              0.    -1.00486E+06
           13079     1.00604E+06    -159.369E+03              0.    -1.01927E+06
           13080     1.00120E+06    -156.869E+03              0.    -1.03412E+06
           13081     995.848E+03    -153.821E+03              0.    -1.04941E+06
           13082     989.974E+03    -150.213E+03              0.    -1.06514E+06
           13083     983.555E+03    -146.033E+03              0.    -1.08134E+06
           13084     976.571E+03    -141.266E+03              0.    -1.09801E+06
           13085     968.998E+03    -135.900E+03              0.    -1.11515E+06
           13086     960.814E+03    -129.919E+03              0.    -1.13278E+06
           13087     951.996E+03    -123.310E+03              0.    -1.15091E+06
           13088     942.517E+03    -116.057E+03              0.    -1.16954E+06
           13089     932.353E+03    -108.144E+03              0.    -1.18870E+06
           13090     921.476E+03    -99.5558E+03              0.    -1.20838E+06
           13091     909.859E+03    -90.2745E+03              0.    -1.22862E+06
           13092     897.473E+03    -80.2834E+03              0.    -1.24941E+06
           13093     884.287E+03    -69.5645E+03              0.    -1.27077E+06
           13094     870.272E+03    -58.0993E+03              0.    -1.29271E+06
           13095     855.394E+03    -45.8690E+03              0.    -1.31526E+06
           13096     839.620E+03    -32.8539E+03              0.    -1.33842E+06
           13097     822.916E+03    -19.0339E+03              0.    -1.36221E+06
           13098     805.246E+03    -4.38828E+03              0.    -1.38665E+06
           13099     786.572E+03     11.1043E+03              0.    -1.41176E+06
           13100     766.857E+03     27.4658E+03              0.    -1.43755E+06
           13101     746.061E+03     44.7189E+03              0.    -1.46404E+06
           13102     724.141E+03     62.8866E+03              0.    -1.49125E+06
           13103     701.057E+03     81.9929E+03              0.    -1.51921E+06
           13104     676.763E+03     102.062E+03              0.    -1.54793E+06
           13105     651.214E+03     123.119E+03              0.    -1.57743E+06
           13106     624.362E+03     145.190E+03              0.    -1.60774E+06
           13107     596.160E+03     168.301E+03              0.    -1.63889E+06
           13108     566.556E+03     192.479E+03              0.    -1.67089E+06
           13109     535.498E+03     217.752E+03              0.    -1.70377E+06
           13110     502.932E+03     244.148E+03              0.    -1.73756E+06
           13111     468.803E+03     271.696E+03              0.    -1.77229E+06
           13112     433.052E+03     300.425E+03              0.    -1.80798E+06
           13113     395.621E+03     330.367E+03              0.    -1.84467E+06
           13114     356.448E+03     361.550E+03              0.    -1.88238E+06
           13115     315.470E+03     394.008E+03              0.    -1.92114E+06
           13116     272.621E+03     427.772E+03              0.    -1.96099E+06
           13117     227.833E+03     462.874E+03              0.    -2.00197E+06
           13118     181.037E+03     499.348E+03              0.    -2.04411E+06
           13119     132.161E+03     537.229E+03              0.    -2.08744E+06
           13120     81.1304E+03     576.549E+03              0.    -2.13200E+06
           13121     27.8692E+03     617.344E+03              0.    -2.17783E+06
           13122    -27.7016E+03     659.649E+03              0.    -2.22498E+06
           13123    -85.6634E+03     703.501E+03              0.    -2.27348E+06
           13124    -146.100E+03     748.935E+03              0.    -2.32338E+06
           13125    -209.097E+03     795.989E+03              0.    -2.37472E+06
           13126    -274.745E+03     844.698E+03              0.    -2.42755E+06
           13127    -343.133E+03     895.102E+03              0.    -2.48192E+06
           13128    -414.358E+03     947.237E+03              0.    -2.53788E+06
           13129    -488.515E+03     1.00114E+06              0.    -2.59547E+06
           13130    -565.704E+03     1.05685E+06              0.    -2.65476E+06
           13131    -646.029E+03     1.11441E+06              0.    -2.71579E+06
           13132    -729.593E+03     1.17386E+06              0.    -2.77863E+06
           13133    -816.508E+03     1.23522E+06              0.    -2.84333E+06
           13134    -906.883E+03     1.29855E+06              0.    -2.90996E+06
           13135    -1.00083E+06     1.36387E+06              0.    -2.97857E+06
           13136    -1.09848E+06     1.43124E+06              0.    -3.04923E+06
           13137    -1.19994E+06     1.50068E+06              0.    -3.12202E+06
           13138    -1.30533E+06     1.57223E+06              0.    -3.19699E+06
           13139    -1.41480E+06     1.64592E+06              0.    -3.27422E+06
           13140    -1.52846E+06     1.72181E+06              0.    -3.35379E+06
           13141    -1.64645E+06     1.79991E+06              0.    -3.43576E+06
           13142    -1.76891E+06     1.88027E+06              0.    -3.52022E+06
           13143    -1.89598E+06     1.96291E+06              0.    -3.60726E+06
           13144    -2.02780E+06     2.04788E+06              0.    -3.69694E+06
           13145    -2.16453E+06     2.13519E+06              0.    -3.78937E+06
           13146    -2.30632E+06     2.22488E+06              0.    -3.88462E+06
           13147    -2.45331E+06     2.31698E+06              0.    -3.98280E+06
           13148    -2.60567E+06     2.41151E+06              0.    -4.08399E+06
           13149    -2.76357E+06     2.50849E+06              0.    -4.18829E+06
           13150    -2.92716E+06     2.60794E+06              0.    -4.29580E+06
           13151    -3.09663E+06     2.70989E+06              0.    -4.40663E+06
           13152    -3.27213E+06     2.81435E+06              0.    -4.52088E+06
           13153    -3.45386E+06     2.92132E+06              0.    -4.63866E+06
           13154    -3.64199E+06     3.03083E+06              0.    -4.76008E+06
           13155    -3.83670E+06     3.14286E+06              0.    -4.88526E+06
           13156    -4.03819E+06     3.25743E+06              0.    -5.01431E+06
           13157    -4.24665E+06     3.37452E+06              0.    -5.14736E+06
           13158    -4.46227E+06     3.49413E+06              0.    -5.28452E+06
           13159    -4.68525E+06     3.61625E+06              0.    -5.42594E+06
           13160    -4.91580E+06     3.74085E+06              0.    -5.57173E+06
           13161    -5.15413E+06     3.86790E+06              0.    -5.72204E+06
           13162    -5.40044E+06     3.99738E+06              0.    -5.87699E+06
           13163    -5.65495E+06     4.12925E+06              0.    -6.03672E+06
           13164    -5.91787E+06     4.26344E+06              0.    -6.20139E+06
           13165    -6.18943E+06     4.39992E+06              0.    -6.37112E+06
           13166    -6.46985E+06     4.53860E+06              0.    -6.54608E+06
           13167    -6.75936E+06     4.67942E+06              0.    -6.72641E+06
           13168    -7.05818E+06     4.82230E+06              0.    -6.91225E+06
           13169    -7.36656E+06     4.96712E+06              0.    -7.10377E+06
           13170    -7.68472E+06     5.11379E+06              0.    -7.30113E+06
           13171    -8.01290E+06     5.26219E+06              0.    -7.50446E+06
           13172    -8.35135E+06     5.41217E+06              0.    -7.71395E+06
           13173    -8.70030E+06     5.56359E+06              0.    -7.92974E+06
           13174    -9.06000E+06     5.71629E+06              0.    -8.15199E+06
           13175    -9.43070E+06     5.87007E+06              0.    -8.38086E+06
           13176    -9.81265E+06     6.02475E+06              0.    -8.61651E+06
           13177    -10.2061E+06     6.18010E+06              0.    -8.85909E+06
           13178    -10.6113E+06     6.33589E+06              0.    -9.10877E+06
           13179    -11.0284E+06     6.49185E+06              0.    -9.36569E+06
           13180    -11.4579E+06     6.64770E+06              0.    -9.62999E+06
           13181    -11.8998E+06     6.80313E+06              0.    -9.90183E+06
           13182    -12.3545E+06     6.95781E+06              0.    -10.1813E+06
           13183    -12.8221E+06     7.11137E+06              0.    -10.4686E+06
           13184    -13.3030E+06     7.26343E+06              0.    -10.7638E+06
           13185    -13.7974E+06     7.41356E+06              0.    -11.0671E+06
           13186    -14.3055E+06     7.56130E+06              0.    -11.3784E+06
           13187    -14.8276E+06     7.70615E+06              0.    -11.6980E+06
           13188    -15.3640E+06     7.84758E+06              0.    -12.0258E+06
           13189    -15.9147E+06     7.98502E+06              0.    -12.3619E+06
           13190    -16.4801E+06     8.11785E+06              0.    -12.7064E+06
           13191    -17.0604E+06     8.24540E+06              0.    -13.0592E+06
           13192    -17.6558E+06     8.36695E+06              0.    -13.4203E+06
           13193    -18.2665E+06     8.48173E+06              0.    -13.7897E+06
           13194    -18.8927E+06     8.58891E+06              0.    -14.1673E+06
           13195    -19.5346E+06     8.68760E+06              0.    -14.5528E+06
           13196    -20.1924E+06     8.77684E+06              0.    -14.9463E+06
           13197    -20.8662E+06     8.85561E+06              0.    -15.3474E+06
           13198    -21.5561E+06     8.92280E+06              0.    -15.7558E+06
           13199    -22.2623E+06     8.97723E+06              0.    -16.1713E+06
           13200    -22.9849E+06     9.01763E+06              0.    -16.5933E+06
           13201    -23.7241E+06     9.04262E+06              0.    -17.0215E+06
           13202    -24.4798E+06     9.05075E+06              0.    -17.4553E+06
           13203    -25.2521E+06     9.04045E+06              0.    -17.8940E+06
           13204    -26.0410E+06     9.01004E+06              0.    -18.3369E+06
           13205    -26.8466E+06     8.95770E+06              0.    -18.7830E+06
           13206    -27.6687E+06     8.88150E+06              0.    -19.2315E+06
           13207    -28.5074E+06     8.77937E+06              0.    -19.6812E+06
           13208    -29.3624E+06     8.64908E+06              0.    -20.1309E+06
           13209    -30.2336E+06     8.48825E+06              0.    -20.5790E+06
           13210    -31.1209E+06     8.29432E+06              0.    -21.0241E+06
           13211    -32.0240E+06     8.06455E+06              0.    -21.4643E+06
           13212    -32.9425E+06     7.79601E+06              0.    -21.8977E+06
           13213    -33.8762E+06     7.48555E+06              0.    -22.3220E+06
           13214    -34.8245E+06     7.12983E+06              0.    -22.7346E+06
           13215    -35.7871E+06     6.72523E+06              0.    -23.1330E+06
           13216    -36.7633E+06     6.26792E+06              0.    -23.5139E+06
           13217    -37.7526E+06     5.75378E+06              0.    -23.8740E+06
           13218    -38.7541E+06     5.17842E+06              0.    -24.2096E+06
           13219    -39.7672E+06     4.53715E+06              0.    -24.5166E+06
           13220    -40.7910E+06     3.82497E+06              0.    -24.7903E+06
           13221    -41.8244E+06     3.03653E+06              0.    -25.0258E+06
           13222    -42.8663E+06     2.16616E+06              0.    -25.2175E+06
           13223    -43.9157E+06     1.20782E+06              0.    -25.3593E+06
           13224    -44.9713E+06     155.074E+03              0.    -25.4445E+06
           13225    -46.0315E+06    -998.894E+03              0.    -25.4658E+06
           13226    -47.0949E+06    -2.26130E+06              0.    -25.4151E+06
           13227    -48.1599E+06    -3.63981E+06              0.    -25.2835E+06
           13228    -49.2247E+06    -5.14249E+06              0.    -25.0613E+06
           13229    -50.2875E+06    -6.77788E+06              0.    -24.7377E+06
           13230    -51.3461E+06    -8.55494E+06              0.    -24.3011E+06
           13231    -52.3985E+06    -10.4830E+06              0.    -23.7385E+06
           13232    -53.4424E+06    -12.5721E+06              0.    -23.0359E+06
           13233    -54.4755E+06    -14.8324E+06              0.    -22.1777E+06
           13234    -55.4952E+06    -17.2745E+06              0.    -21.1469E+06
           13235    -56.4989E+06    -19.9097E+06              0.    -19.9248E+06
           13236    -57.4838E+06    -22.7493E+06              0.    -18.4909E+06
           13237    -58.7989E+06    -26.1305E+06              0.    -18.0571E+06
           13238     811.843E+03     366.154E+03              0.    -817.302E+03
           13239     809.629E+03     345.159E+03              0.    -815.864E+03
           13240     816.506E+03     328.431E+03              0.    -807.855E+03
           13241     823.332E+03     311.885E+03              0.    -800.372E+03
           13242     830.100E+03     295.531E+03              0.    -793.404E+03
           13243     836.806E+03     279.378E+03              0.    -786.941E+03
           13244     843.444E+03     263.434E+03              0.    -780.970E+03
           13245     850.010E+03     247.706E+03              0.    -775.483E+03
           13246     856.497E+03     232.201E+03              0.    -770.470E+03
           13247     862.901E+03     216.927E+03              0.    -765.922E+03
           13248     869.219E+03     201.890E+03              0.    -761.830E+03
           13249     875.444E+03     187.096E+03              0.    -758.184E+03
           13250     881.574E+03     172.550E+03              0.    -754.979E+03
           13251     887.603E+03     158.259E+03              0.    -752.206E+03
           13252     893.528E+03     144.227E+03              0.    -749.857E+03
           13253     899.345E+03     130.459E+03              0.    -747.927E+03
           13254     905.048E+03     116.961E+03              0.    -746.409E+03
           13255     910.636E+03     103.737E+03              0.    -745.296E+03
           13256     916.102E+03     90.7921E+03              0.    -744.582E+03
           13257     921.443E+03     78.1299E+03              0.    -744.264E+03
           13258     926.655E+03     65.7553E+03              0.    -744.334E+03
           13259     931.733E+03     53.6721E+03              0.    -744.789E+03
           13260     936.674E+03     41.8850E+03              0.    -745.624E+03
           13261     941.472E+03     30.3976E+03              0.    -746.835E+03
           13262     946.124E+03     19.2142E+03              0.    -748.417E+03
           13263     950.624E+03     8.33903E+03              0.    -750.368E+03
           13264     954.967E+03    -2.22406E+03              0.    -752.684E+03
           13265     959.150E+03    -12.4707E+03              0.    -755.363E+03
           13266     963.166E+03    -22.3970E+03              0.    -758.400E+03
           13267      967.01E+03    -31.9986E+03              0.    -761.794E+03
           13268     970.677E+03    -41.2712E+03              0.    -765.543E+03
           13269     974.160E+03    -50.2106E+03              0.    -769.645E+03
           13270     977.455E+03    -58.8121E+03              0.    -774.098E+03
           13271     980.553E+03    -67.0713E+03              0.    -778.901E+03
           13272     983.450E+03    -74.9833E+03              0.    -784.052E+03
           13273     986.138E+03    -82.5435E+03              0.    -789.552E+03
           13274     988.610E+03    -89.7468E+03              0.    -795.398E+03
           13275     990.858E+03    -96.5879E+03              0.    -801.592E+03
           13276     992.876E+03    -103.062E+03              0.    -808.133E+03
           13277     994.654E+03    -109.162E+03              0.    -815.022E+03
           13278     996.183E+03    -114.884E+03              0.    -822.258E+03
           13279     997.457E+03    -120.221E+03              0.    -829.844E+03
           13280     998.464E+03    -125.168E+03              0.    -837.779E+03
           13281     999.196E+03    -129.717E+03              0.    -846.065E+03
           13282     999.641E+03    -133.862E+03              0.    -854.705E+03
           13283     999.791E+03    -137.595E+03              0.    -863.699E+03
           13284     999.633E+03    -140.911E+03              0.    -873.051E+03
           13285     999.157E+03    -143.801E+03              0.    -882.762E+03
           13286     998.349E+03    -146.257E+03              0.    -892.836E+03
           13287     997.199E+03    -148.272E+03              0.    -903.276E+03
           13288     995.692E+03    -149.836E+03              0.    -914.085E+03
           13289     993.815E+03    -150.941E+03              0.    -925.267E+03
           13290     991.554E+03    -151.578E+03              0.    -936.826E+03
           13291     988.894E+03    -151.738E+03              0.    -948.767E+03
           13292     985.819E+03    -151.410E+03              0.    -961.094E+03
           13293     982.315E+03    -150.584E+03              0.    -973.813E+03
           13294     978.363E+03     -149.25E+03              0.    -986.928E+03
           13295     973.946E+03    -147.396E+03              0.    -1.00045E+06
           13296     969.048E+03    -145.012E+03              0.    -1.01437E+06
           13297     963.647E+03    -142.084E+03              0.    -1.02872E+06
           13298     957.726E+03    -138.602E+03              0.    -1.04348E+06
           13299     951.263E+03    -134.552E+03              0.    -1.05868E+06
           13300     944.238E+03    -129.920E+03              0.    -1.07431E+06
           13301     936.628E+03    -124.694E+03              0.    -1.09039E+06
           13302     928.410E+03    -118.859E+03              0.    -1.10692E+06
           13303     919.562E+03    -112.400E+03              0.    -1.12392E+06
           13304     910.057E+03    -105.302E+03              0.    -1.14138E+06
           13305     899.871E+03    -97.5499E+03              0.    -1.15934E+06
           13306     888.976E+03    -89.1270E+03              0.    -1.17778E+06
           13307     877.346E+03    -80.0165E+03              0.    -1.19673E+06
           13308     864.951E+03    -70.2013E+03              0.    -1.21619E+06
           13309     851.761E+03    -59.6635E+03              0.    -1.23618E+06
           13310     837.746E+03    -48.3847E+03              0.    -1.25672E+06
           13311     822.875E+03    -36.3458E+03              0.    -1.27780E+06
           13312     807.112E+03    -23.5274E+03              0.    -1.29945E+06
           13313     790.425E+03    -9.90911E+03              0.    -1.32168E+06
           13314     772.778E+03     4.52963E+03              0.    -1.34451E+06
           13315     754.133E+03     19.8104E+03              0.    -1.36795E+06
           13316     734.452E+03      35.955E+03              0.    -1.39201E+06
           13317     713.697E+03     52.9862E+03              0.    -1.41672E+06
           13318     691.824E+03     70.9274E+03              0.    -1.44209E+06
           13319     668.793E+03     89.8022E+03              0.    -1.46814E+06
           13320     644.559E+03     109.635E+03              0.    -1.49489E+06
           13321     619.077E+03     130.452E+03              0.    -1.52235E+06
           13322     592.299E+03     152.278E+03              0.    -1.55055E+06
           13323     564.177E+03     175.141E+03              0.    -1.57952E+06
           13324     534.660E+03     199.066E+03              0.    -1.60926E+06
           13325     503.697E+03     224.083E+03              0.    -1.63980E+06
           13326     471.233E+03     250.219E+03              0.    -1.67118E+06
           13327     437.212E+03     277.504E+03              0.    -1.70341E+06
           13328     401.578E+03     305.968E+03              0.    -1.73651E+06
           13329     364.270E+03     335.642E+03              0.    -1.77052E+06
           13330     325.227E+03     366.556E+03              0.    -1.80546E+06
           13331     284.386E+03     398.742E+03              0.    -1.84136E+06
           13332     241.681E+03     432.233E+03              0.    -1.87825E+06
           13333     197.044E+03     467.063E+03              0.    -1.91616E+06
           13334     150.406E+03     503.265E+03              0.    -1.95512E+06
           13335     101.694E+03     540.873E+03              0.    -1.99517E+06
           13336     50.8335E+03     579.923E+03              0.    -2.03634E+06
           13337    -2.25162E+03     620.450E+03              0.    -2.07866E+06
           13338    -57.6409E+03     662.491E+03              0.    -2.12218E+06
           13339    -115.416E+03     706.081E+03              0.    -2.16692E+06
           13340    -175.661E+03     751.260E+03              0.    -2.21293E+06
           13341    -238.463E+03     798.063E+03              0.    -2.26026E+06
           13342    -303.911E+03     846.530E+03              0.    -2.30893E+06
           13343    -372.098E+03     896.698E+03              0.    -2.35901E+06
           13344    -443.118E+03     948.609E+03              0.    -2.41052E+06
           13345    -517.070E+03     1.00230E+06              0.    -2.46352E+06
           13346    -594.053E+03     1.05781E+06              0.    -2.51806E+06
           13347    -674.173E+03     1.11518E+06              0.    -2.57419E+06
           13348    -757.534E+03     1.17445E+06              0.    -2.63195E+06
           13349    -844.248E+03     1.23566E+06              0.    -2.69141E+06
           13350    -934.426E+03     1.29886E+06              0.    -2.75262E+06
           13351    -1.02819E+06     1.36407E+06              0.    -2.81563E+06
           13352    -1.12565E+06     1.43135E+06              0.    -2.88051E+06
           13353    -1.22693E+06     1.50072E+06              0.    -2.94732E+06
           13354    -1.33216E+06     1.57224E+06              0.    -3.01611E+06
           13355    -1.44148E+06     1.64594E+06              0.    -3.08697E+06
           13356    -1.55500E+06     1.72186E+06              0.    -3.15994E+06
           13357    -1.67288E+06     1.80003E+06              0.    -3.23512E+06
           13358    -1.79524E+06     1.88051E+06              0.    -3.31256E+06
           13359    -1.92224E+06     1.96331E+06              0.    -3.39234E+06
           13360    -2.05401E+06     2.04848E+06              0.    -3.47454E+06
           13361    -2.19072E+06     2.13605E+06              0.    -3.55923E+06
           13362    -2.33252E+06     2.22606E+06              0.    -3.64651E+06
           13363    -2.47957E+06     2.31853E+06              0.    -3.73646E+06
           13364    -2.63202E+06     2.41350E+06              0.    -3.82916E+06
           13365    -2.79005E+06     2.51100E+06              0.    -3.92470E+06
           13366    -2.95383E+06     2.61105E+06              0.    -4.02318E+06
           13367    -3.12354E+06     2.71367E+06              0.    -4.12469E+06
           13368    -3.29934E+06     2.81888E+06              0.    -4.22933E+06
           13369    -3.48144E+06     2.92671E+06              0.    -4.33720E+06
           13370       -3.67E+06     3.03717E+06              0.    -4.44841E+06
           13371    -3.86523E+06     3.15027E+06              0.    -4.56306E+06
           13372    -4.06732E+06     3.26601E+06              0.    -4.68127E+06
           13373    -4.27647E+06     3.38440E+06              0.    -4.80315E+06
           13374    -4.49288E+06     3.50545E+06              0.    -4.92881E+06
           13375    -4.71677E+06     3.62913E+06              0.    -5.05838E+06
           13376    -4.94834E+06     3.75545E+06              0.    -5.19197E+06
           13377    -5.18781E+06     3.88438E+06              0.    -5.32972E+06
           13378    -5.43539E+06     4.01590E+06              0.    -5.47175E+06
           13379    -5.69133E+06     4.14998E+06              0.    -5.61819E+06
           13380    -5.95584E+06     4.28659E+06              0.    -5.76917E+06
           13381    -6.22915E+06     4.42567E+06              0.    -5.92484E+06
           13382    -6.51150E+06     4.56718E+06              0.    -6.08534E+06
           13383    -6.80314E+06     4.71105E+06              0.    -6.25080E+06
           13384    -7.10430E+06     4.85720E+06              0.    -6.42138E+06
           13385    -7.41524E+06     5.00556E+06              0.    -6.59722E+06
           13386    -7.73619E+06     5.15604E+06              0.    -6.77846E+06
           13387    -8.06743E+06     5.30851E+06              0.    -6.96526E+06
           13388    -8.40920E+06     5.46287E+06              0.    -7.15778E+06
           13389    -8.76176E+06     5.61898E+06              0.    -7.35617E+06
           13390    -9.12539E+06     5.77669E+06              0.    -7.56057E+06
           13391    -9.50033E+06     5.93584E+06              0.    -7.77116E+06
           13392    -9.88687E+06     6.09624E+06              0.    -7.98807E+06
           13393    -10.2853E+06     6.25770E+06              0.    -8.21148E+06
           13394    -10.6958E+06        6.42E+06              0.    -8.44152E+06
           13395    -11.1188E+06     6.58289E+06              0.    -8.67836E+06
           13396    -11.5544E+06     6.74611E+06              0.    -8.92213E+06
           13397    -12.0030E+06     6.90939E+06              0.    -9.17299E+06
           13398    -12.4648E+06     7.07239E+06              0.    -9.43107E+06
           13399    -12.9402E+06     7.23479E+06              0.    -9.69652E+06
           13400    -13.4293E+06     7.39621E+06              0.    -9.96945E+06
           13401    -13.9325E+06     7.55625E+06              0.    -10.2500E+06
           13402    -14.4501E+06     7.71449E+06              0.    -10.5382E+06
           13403    -14.9822E+06     7.87044E+06              0.    -10.8343E+06
           13404    -15.5293E+06     8.02361E+06              0.    -11.1382E+06
           13405    -16.0915E+06     8.17344E+06              0.    -11.4502E+06
           13406    -16.6691E+06     8.31934E+06              0.    -11.7701E+06
           13407    -17.2623E+06     8.46068E+06              0.    -12.0981E+06
           13408    -17.8715E+06     8.59675E+06              0.    -12.4341E+06
           13409    -18.4969E+06     8.72682E+06              0.    -12.7782E+06
           13410    -19.1387E+06     8.85009E+06              0.    -13.1302E+06
           13411    -19.7970E+06     8.96570E+06              0.    -13.4901E+06
           13412    -20.4723E+06     9.07271E+06              0.    -13.8578E+06
           13413    -21.1645E+06     9.17012E+06              0.    -14.2332E+06
           13414    -21.8740E+06     9.25688E+06              0.    -14.6159E+06
           13415    -22.6009E+06     9.33181E+06              0.    -15.0058E+06
           13416    -23.3454E+06     9.39367E+06              0.    -15.4025E+06
           13417    -24.1075E+06     9.44114E+06              0.    -15.8056E+06
           13418    -24.8875E+06     9.47277E+06              0.    -16.2147E+06
           13419    -25.6854E+06     9.48703E+06              0.    -16.6293E+06
           13420    -26.5012E+06     9.48225E+06              0.    -17.0487E+06
           13421    -27.3351E+06     9.45667E+06              0.    -17.4723E+06
           13422    -28.1869E+06     9.40836E+06              0.    -17.8991E+06
           13423    -29.0567E+06     9.33527E+06              0.    -18.3283E+06
           13424    -29.9445E+06     9.23521E+06              0.    -18.7587E+06
           13425    -30.8500E+06     9.10580E+06              0.    -19.1893E+06
           13426    -31.7731E+06     8.94452E+06              0.    -19.6186E+06
           13427    -32.7136E+06     8.74863E+06              0.    -20.0450E+06
           13428    -33.6713E+06     8.51521E+06              0.    -20.4670E+06
           13429    -34.6457E+06     8.24113E+06              0.    -20.8825E+06
           13430    -35.6366E+06     7.92303E+06              0.    -21.2894E+06
           13431    -36.6434E+06     7.55731E+06              0.    -21.6854E+06
           13432    -37.6656E+06     7.14011E+06              0.    -22.0677E+06
           13433    -38.7026E+06     6.66729E+06              0.    -22.4335E+06
           13434    -39.7536E+06     6.13443E+06              0.    -22.7796E+06
           13435    -40.8179E+06     5.53679E+06              0.    -23.1022E+06
           13436    -41.8945E+06     4.86930E+06              0.    -23.3974E+06
           13437    -42.9825E+06     4.12656E+06              0.    -23.6609E+06
           13438    -44.0806E+06     3.30279E+06              0.    -23.8878E+06
           13439    -45.1876E+06     2.39181E+06              0.    -24.0727E+06
           13440    -46.3021E+06     1.38705E+06              0.    -24.2098E+06
           13441    -47.4225E+06     281.494E+03              0.    -24.2927E+06
           13442    -48.5473E+06    -932.309E+03              0.    -24.3141E+06
           13443    -49.6745E+06    -2.26227E+06              0.    -24.2663E+06
           13444    -50.8021E+06    -3.71683E+06              0.    -24.1408E+06
           13445    -51.9280E+06    -5.30488E+06              0.    -23.9279E+06
           13446    -53.0497E+06    -7.03588E+06              0.    -23.6174E+06
           13447    -54.1648E+06    -8.91980E+06              0.    -23.1979E+06
           13448    -55.2705E+06    -10.9671E+06              0.    -22.6569E+06
           13449    -56.3637E+06    -13.1890E+06              0.    -21.9805E+06
           13450    -57.4414E+06    -15.5970E+06              0.    -21.1537E+06
           13451    -58.5002E+06    -18.2033E+06              0.    -20.1597E+06
           13452    -59.5362E+06    -21.0206E+06              0.    -18.9804E+06
           13453    -60.5457E+06    -24.0622E+06              0.    -17.5955E+06
           13454      -61.94E+06    -27.6839E+06              0.    -17.1667E+06
           13455     791.889E+03     357.195E+03              0.    -824.077E+03
           13456     789.747E+03     336.875E+03              0.    -822.628E+03
           13457     796.404E+03     320.675E+03              0.    -814.572E+03
           13458     803.012E+03     304.647E+03              0.    -807.036E+03
           13459     809.566E+03     288.799E+03              0.    -800.010E+03
           13460     816.058E+03     273.142E+03              0.    -793.481E+03
           13461     822.484E+03     257.683E+03              0.    -787.442E+03
           13462     828.838E+03     242.431E+03              0.    -781.880E+03
           13463     835.115E+03     227.393E+03              0.    -776.787E+03
           13464      841.31E+03     212.576E+03              0.    -772.154E+03
           13465     847.418E+03     197.988E+03              0.    -767.972E+03
           13466     853.434E+03     183.635E+03              0.    -764.233E+03
           13467     859.354E+03     169.522E+03              0.    -760.929E+03
           13468     865.174E+03     155.657E+03              0.    -758.053E+03
           13469     870.888E+03     142.044E+03              0.    -755.598E+03
           13470     876.492E+03     128.689E+03              0.    -753.557E+03
           13471     881.983E+03     115.597E+03              0.    -751.923E+03
           13472     887.356E+03     102.773E+03              0.    -750.691E+03
           13473     892.605E+03     90.2223E+03              0.    -749.854E+03
           13474     897.728E+03     77.9493E+03              0.    -749.407E+03
           13475     902.719E+03     65.9589E+03              0.    -749.345E+03
           13476     907.575E+03     54.2553E+03              0.    -749.663E+03
           13477     912.290E+03     42.8432E+03              0.    -750.356E+03
           13478     916.860E+03     31.7268E+03              0.    -751.421E+03
           13479     921.280E+03     20.9107E+03              0.    -752.853E+03
           13480     925.545E+03     10.3992E+03              0.    -754.649E+03
           13481     929.650E+03         196.567              0.    -756.804E+03
           13482     933.590E+03    -9.69261E+03              0.    -759.317E+03
           13483     937.359E+03    -19.2641E+03              0.    -762.183E+03
           13484     940.952E+03    -28.5134E+03              0.    -765.400E+03
           13485     944.363E+03    -37.4358E+03              0.    -768.967E+03
           13486     947.586E+03    -46.0269E+03              0.     -772.88E+03
           13487     950.615E+03    -54.2818E+03              0.    -777.138E+03
           13488     953.443E+03    -62.1956E+03              0.    -781.739E+03
           13489     956.063E+03    -69.7635E+03              0.    -786.683E+03
           13490     958.468E+03    -76.9804E+03              0.    -791.967E+03
           13491     960.651E+03    -83.8409E+03              0.    -797.591E+03
           13492     962.605E+03    -90.3395E+03              0.    -803.554E+03
           13493     964.320E+03    -96.4708E+03              0.    -809.856E+03
           13494     965.789E+03    -102.229E+03              0.    -816.498E+03
           13495     967.002E+03    -107.608E+03              0.    -823.478E+03
           13496     967.952E+03    -112.601E+03              0.    -830.798E+03
           13497     968.627E+03    -117.203E+03              0.    -838.459E+03
           13498     969.018E+03    -121.405E+03              0.    -846.461E+03
           13499     969.115E+03    -125.203E+03              0.    -854.805E+03
           13500     968.907E+03    -128.587E+03              0.    -863.493E+03
           13501     968.381E+03    -131.551E+03              0.    -872.527E+03
           13502     967.528E+03    -134.087E+03              0.    -881.908E+03
           13503     966.333E+03    -136.186E+03              0.    -891.640E+03
           13504     964.785E+03    -137.841E+03              0.    -901.725E+03
           13505     962.869E+03    -139.042E+03              0.    -912.165E+03
           13506     960.572E+03    -139.780E+03              0.    -922.965E+03
           13507     957.880E+03    -140.047E+03              0.    -934.126E+03
           13508     954.776E+03    -139.831E+03              0.    -945.654E+03
           13509     951.245E+03    -139.124E+03              0.    -957.553E+03
           13510     947.271E+03    -137.914E+03              0.    -969.826E+03
           13511     942.836E+03    -136.190E+03              0.    -982.479E+03
           13512     937.922E+03    -133.941E+03              0.    -995.516E+03
           13513     932.511E+03    -131.155E+03              0.    -1.00894E+06
           13514     926.584E+03    -127.820E+03              0.    -1.02277E+06
           13515     920.120E+03    -123.923E+03              0.    -1.03699E+06
           13516     913.098E+03    -119.452E+03              0.    -1.05163E+06
           13517     905.497E+03    -114.391E+03              0.    -1.06668E+06
           13518     897.293E+03    -108.728E+03              0.    -1.08215E+06
           13519     888.464E+03    -102.448E+03              0.    -1.09805E+06
           13520     878.984E+03    -95.5354E+03              0.    -1.11440E+06
           13521     868.829E+03    -87.9748E+03              0.    -1.13119E+06
           13522     857.972E+03    -79.7500E+03              0.    -1.14843E+06
           13523     846.386E+03    -70.8444E+03              0.    -1.16614E+06
           13524     834.042E+03    -61.2408E+03              0.    -1.18433E+06
           13525     820.911E+03    -50.9214E+03              0.    -1.20300E+06
           13526     806.962E+03    -39.8678E+03              0.    -1.22217E+06
           13527     792.163E+03    -28.0610E+03              0.    -1.24185E+06
           13528     776.482E+03    -15.4817E+03              0.    -1.26204E+06
           13529     759.885E+03    -2.10954E+03              0.    -1.28277E+06
           13530     742.335E+03     12.0762E+03              0.    -1.30405E+06
           13531     723.797E+03     27.0967E+03              0.    -1.32588E+06
           13532     704.232E+03     42.9742E+03              0.    -1.34829E+06
           13533     683.602E+03     59.7311E+03              0.    -1.37128E+06
           13534     661.864E+03     77.3909E+03              0.    -1.39487E+06
           13535     638.978E+03     95.9775E+03              0.    -1.41909E+06
           13536     614.899E+03     115.515E+03              0.    -1.44394E+06
           13537     589.582E+03      136.03E+03              0.    -1.46944E+06
           13538     562.980E+03     157.547E+03              0.    -1.49561E+06
           13539     535.045E+03     180.094E+03              0.    -1.52247E+06
           13540     505.727E+03     203.697E+03              0.    -1.55004E+06
           13541     474.973E+03     228.384E+03              0.    -1.57834E+06
           13542     442.730E+03     254.185E+03              0.    -1.60738E+06
           13543     408.943E+03     281.129E+03              0.    -1.63720E+06
           13544     373.554E+03     309.245E+03              0.    -1.66782E+06
           13545     336.504E+03     338.566E+03              0.    -1.69925E+06
           13546     297.731E+03     369.121E+03              0.    -1.73152E+06
           13547     257.173E+03     400.944E+03              0.    -1.76466E+06
           13548     214.763E+03     434.067E+03              0.    -1.79870E+06
           13549     170.435E+03     468.525E+03              0.    -1.83366E+06
           13550     124.118E+03     504.350E+03              0.    -1.86956E+06
           13551     75.7405E+03     541.578E+03              0.    -1.90645E+06
           13552     25.2278E+03     580.246E+03              0.    -1.94435E+06
           13553    -27.4968E+03     620.388E+03              0.    -1.98329E+06
           13554    -82.5126E+03     662.042E+03              0.    -2.02330E+06
           13555    -139.901E+03     705.245E+03              0.    -2.06443E+06
           13556    -199.747E+03     750.036E+03              0.    -2.10669E+06
           13557    -262.137E+03     796.453E+03              0.    -2.15014E+06
           13558    -327.161E+03     844.535E+03              0.    -2.19481E+06
           13559    -394.912E+03     894.322E+03              0.    -2.24074E+06
           13560    -465.484E+03     945.854E+03              0.    -2.28797E+06
           13561    -538.977E+03     999.171E+03              0.    -2.33653E+06
           13562    -615.490E+03     1.05432E+06              0.    -2.38649E+06
           13563    -695.129E+03     1.11133E+06              0.    -2.43787E+06
           13564    -778.001E+03     1.17025E+06              0.    -2.49074E+06
           13565    -864.216E+03     1.23112E+06              0.    -2.54513E+06
           13566    -953.888E+03     1.29399E+06              0.    -2.60110E+06
           13567    -1.04713E+06     1.35889E+06              0.    -2.65870E+06
           13568    -1.14408E+06     1.42587E+06              0.    -2.71798E+06
           13569    -1.24483E+06     1.49497E+06              0.      -2.779E+06
           13570    -1.34954E+06     1.56623E+06              0.    -2.84182E+06
           13571    -1.45832E+06     1.63970E+06              0.    -2.90650E+06
           13572    -1.57132E+06     1.71541E+06              0.    -2.97309E+06
           13573    -1.68866E+06     1.79340E+06              0.    -3.04167E+06
           13574    -1.81050E+06     1.87373E+06              0.    -3.11230E+06
           13575    -1.93697E+06     1.95642E+06              0.    -3.18505E+06
           13576    -2.06824E+06     2.04152E+06              0.    -3.25998E+06
           13577    -2.20444E+06     2.12906E+06              0.    -3.33718E+06
           13578    -2.34575E+06     2.21908E+06              0.    -3.41671E+06
           13579    -2.49232E+06     2.31162E+06              0.    -3.49866E+06
           13580    -2.64432E+06     2.40671E+06              0.    -3.58311E+06
           13581    -2.80192E+06     2.50438E+06              0.    -3.67013E+06
           13582    -2.96529E+06     2.60467E+06              0.    -3.75982E+06
           13583    -3.13461E+06     2.70760E+06              0.    -3.85226E+06
           13584    -3.31007E+06     2.81319E+06              0.    -3.94754E+06
           13585    -3.49185E+06     2.92149E+06              0.    -4.04577E+06
           13586    -3.68016E+06     3.03249E+06              0.    -4.14702E+06
           13587    -3.87517E+06     3.14623E+06              0.    -4.25141E+06
           13588    -4.07710E+06     3.26272E+06              0.    -4.35904E+06
           13589    -4.28615E+06     3.38196E+06              0.    -4.47001E+06
           13590    -4.50252E+06     3.50397E+06              0.    -4.58443E+06
           13591    -4.72645E+06     3.62874E+06              0.    -4.70241E+06
           13592    -4.95814E+06     3.75627E+06              0.    -4.82407E+06
           13593    -5.19781E+06     3.88656E+06              0.    -4.94952E+06
           13594    -5.44571E+06     4.01959E+06              0.    -5.07889E+06
           13595    -5.70205E+06     4.15534E+06              0.    -5.21229E+06
           13596    -5.96708E+06     4.29378E+06              0.    -5.34986E+06
           13597    -6.24105E+06     4.43488E+06              0.    -5.49173E+06
           13598    -6.52419E+06      4.5786E+06              0.    -5.63801E+06
           13599    -6.81675E+06     4.72488E+06              0.    -5.78886E+06
           13600    -7.11901E+06     4.87367E+06              0.    -5.94441E+06
           13601    -7.43120E+06     5.02489E+06              0.     -6.1048E+06
           13602    -7.75360E+06     5.17847E+06              0.    -6.27017E+06
           13603    -8.08648E+06     5.33431E+06              0.    -6.44066E+06
           13604    -8.43011E+06     5.49231E+06              0.    -6.61642E+06
           13605    -8.78476E+06     5.65234E+06              0.    -6.79761E+06
           13606    -9.15071E+06     5.81429E+06              0.    -6.98436E+06
           13607    -9.52825E+06     5.97800E+06              0.    -7.17683E+06
           13608    -9.91766E+06     6.14330E+06              0.    -7.37517E+06
           13609    -10.3192E+06     6.31002E+06              0.    -7.57953E+06
           13610    -10.7333E+06     6.47795E+06              0.    -7.79006E+06
           13611    -11.1600E+06     6.64688E+06              0.    -8.00692E+06
           13612    -11.5998E+06     6.81657E+06              0.    -8.23024E+06
           13613    -12.0530E+06     6.98674E+06              0.    -8.46017E+06
           13614    -12.5198E+06     7.15711E+06              0.    -8.69686E+06
           13615    -13.0006E+06     7.32736E+06              0.    -8.94044E+06
           13616    -13.4956E+06     7.49715E+06              0.    -9.19105E+06
           13617    -14.0052E+06     7.66610E+06              0.    -9.44881E+06
           13618    -14.5296E+06     7.83381E+06              0.    -9.71383E+06
           13619    -15.0692E+06     7.99983E+06              0.    -9.98624E+06
           13620    -15.6242E+06     8.16368E+06              0.    -10.2661E+06
           13621    -16.1950E+06     8.32484E+06              0.    -10.5535E+06
           13622    -16.7819E+06     8.48274E+06              0.    -10.8486E+06
           13623    -17.3851E+06     8.63679E+06              0.    -11.1514E+06
           13624    -18.0049E+06     8.78631E+06              0.    -11.4618E+06
           13625    -18.6416E+06     8.93060E+06              0.    -11.7800E+06
           13626    -19.2955E+06     9.06890E+06              0.    -12.1059E+06
           13627    -19.9669E+06     9.20036E+06              0.    -12.4395E+06
           13628    -20.6559E+06     9.32410E+06              0.    -12.7806E+06
           13629    -21.3629E+06     9.43916E+06              0.    -13.1293E+06
           13630    -22.0881E+06     9.54449E+06              0.    -13.4852E+06
           13631    -22.8317E+06     9.63898E+06              0.    -13.8484E+06
           13632    -23.5939E+06     9.72142E+06              0.    -14.2184E+06
           13633    -24.3748E+06     9.79052E+06              0.    -14.5950E+06
           13634    -25.1747E+06     9.84488E+06              0.    -14.9779E+06
           13635    -25.9937E+06     9.88299E+06              0.    -15.3666E+06
           13636    -26.8318E+06     9.90325E+06              0.    -15.7605E+06
           13637    -27.6892E+06     9.90391E+06              0.    -16.1592E+06
           13638    -28.5659E+06     9.88309E+06              0.    -16.5620E+06
           13639     -29.462E+06     9.83880E+06              0.    -16.9680E+06
           13640    -30.3774E+06     9.76887E+06              0.    -17.3764E+06
           13641    -31.3120E+06     9.67097E+06              0.    -17.7861E+06
           13642    -32.2657E+06     9.54261E+06              0.    -18.1960E+06
           13643    -33.2383E+06     9.38109E+06              0.    -18.6049E+06
           13644    -34.2297E+06     9.18355E+06              0.    -19.0112E+06
           13645    -35.2395E+06     8.94687E+06              0.    -19.4134E+06
           13646    -36.2675E+06     8.66773E+06              0.    -19.8096E+06
           13647    -37.3130E+06     8.34257E+06              0.    -20.1977E+06
           13648    -38.3757E+06     7.96755E+06              0.    -20.5755E+06
           13649    -39.4549E+06     7.53855E+06              0.    -20.9405E+06
           13650    -40.5500E+06     7.05117E+06              0.    -21.2898E+06
           13651    -41.6601E+06     6.50068E+06              0.    -21.6204E+06
           13652    -42.7843E+06     5.88202E+06              0.    -21.9289E+06
           13653    -43.9216E+06     5.18977E+06              0.    -22.2113E+06
           13654    -45.0709E+06     4.41811E+06              0.    -22.4635E+06
           13655    -46.2308E+06     3.56084E+06              0.    -22.6809E+06
           13656    -47.3999E+06     2.61131E+06              0.    -22.8584E+06
           13657    -48.5766E+06     1.56245E+06              0.    -22.9902E+06
           13658    -49.7591E+06     406.666E+03              0.    -23.0703E+06
           13659    -50.9454E+06    -864.106E+03              0.    -23.0918E+06
           13660    -52.1334E+06    -2.25846E+06              0.    -23.0471E+06
           13661    -53.3207E+06    -3.78556E+06              0.    -22.9280E+06
           13662    -54.5047E+06    -5.45512E+06              0.    -22.7253E+06
           13663    -55.6825E+06    -7.27752E+06              0.    -22.4292E+06
           13664    -56.8512E+06    -9.26368E+06              0.    -22.0285E+06
           13665    -58.0072E+06    -11.4252E+06              0.    -21.5111E+06
           13666    -59.1470E+06    -13.7744E+06              0.    -20.8638E+06
           13667    -60.2665E+06    -16.3241E+06              0.    -20.0718E+06
           13668    -61.3616E+06    -19.0881E+06              0.    -19.1191E+06
           13669    -62.4274E+06    -22.0806E+06              0.    -17.9877E+06
           13670    -63.4591E+06    -25.3167E+06              0.    -16.6581E+06
           13671    -64.9297E+06    -29.1708E+06              0.    -16.2373E+06
           13672     771.859E+03     348.202E+03              0.    -830.631E+03
           13673     769.789E+03     328.547E+03              0.    -829.172E+03
           13674     776.229E+03     312.870E+03              0.    -821.072E+03
           13675     782.623E+03     297.353E+03              0.    -813.485E+03
           13676     788.964E+03     282.006E+03              0.    -806.402E+03
           13677     795.245E+03     266.839E+03              0.    -799.811E+03
           13678     801.462E+03     251.860E+03              0.    -793.702E+03
           13679     807.608E+03     237.079E+03              0.    -788.067E+03
           13680     813.677E+03     222.502E+03              0.    -782.894E+03
           13681     819.665E+03     208.138E+03              0.    -778.177E+03
           13682     825.567E+03     193.994E+03              0.    -773.906E+03
           13683     831.376E+03     180.077E+03              0.    -770.073E+03
           13684      837.09E+03     166.394E+03              0.    -766.671E+03
           13685     842.702E+03     152.950E+03              0.    -763.692E+03
           13686     848.209E+03     139.751E+03              0.    -761.130E+03
           13687     853.605E+03     126.804E+03              0.    -758.976E+03
           13688     858.886E+03     114.114E+03              0.    -757.226E+03
           13689     864.048E+03     101.686E+03              0.    -755.872E+03
           13690     869.085E+03     89.5255E+03              0.    -754.910E+03
           13691     873.994E+03     77.6373E+03              0.    -754.333E+03
           13692     878.769E+03     66.0266E+03              0.    -754.136E+03
           13693     883.407E+03     54.6980E+03              0.    -754.315E+03
           13694     887.901E+03     43.6564E+03              0.    -754.865E+03
           13695     892.247E+03     32.9063E+03              0.    -755.781E+03
           13696     896.441E+03     22.4524E+03              0.    -757.059E+03
           13697     900.477E+03     12.2996E+03              0.    -758.695E+03
           13698     904.349E+03     2.45220E+03              0.    -760.687E+03
           13699     908.053E+03    -7.08490E+03              0.    -763.029E+03
           13700     911.582E+03    -16.3073E+03              0.    -765.721E+03
           13701     914.932E+03    -25.2099E+03              0.    -768.757E+03
           13702     918.095E+03    -33.7882E+03              0.    -772.136E+03
           13703     921.065E+03    -42.0373E+03              0.    -775.856E+03
           13704     923.836E+03    -49.9520E+03              0.    -779.914E+03
           13705     926.402E+03    -57.5274E+03              0.    -784.309E+03
           13706     928.754E+03    -64.7582E+03              0.    -789.038E+03
           13707     930.887E+03    -71.6391E+03              0.    -794.101E+03
           13708     932.791E+03    -78.1645E+03              0.    -799.496E+03
           13709     934.460E+03    -84.3288E+03              0.    -805.223E+03
           13710     935.884E+03    -90.1261E+03              0.    -811.280E+03
           13711     937.056E+03    -95.5504E+03              0.    -817.668E+03
           13712     937.965E+03    -100.595E+03              0.    -824.385E+03
           13713     938.603E+03    -105.254E+03              0.    -831.432E+03
           13714     938.959E+03    -109.521E+03              0.    -838.810E+03
           13715     939.024E+03    -113.388E+03              0.    -846.519E+03
           13716     938.786E+03    -116.848E+03              0.    -854.559E+03
           13717     938.235E+03    -119.894E+03              0.    -862.932E+03
           13718     937.359E+03    -122.518E+03              0.    -871.639E+03
           13719     936.145E+03    -124.712E+03              0.    -880.682E+03
           13720     934.580E+03    -126.468E+03              0.    -890.062E+03
           13721     932.653E+03    -127.776E+03              0.    -899.781E+03
           13722     930.347E+03    -128.628E+03              0.    -909.842E+03
           13723     927.650E+03    -129.014E+03              0.    -920.247E+03
           13724     924.547E+03    -128.925E+03              0.    -931.000E+03
           13725     921.021E+03    -128.351E+03              0.    -942.103E+03
           13726     917.056E+03    -127.280E+03              0.    -953.561E+03
           13727     912.635E+03    -125.703E+03              0.    -965.375E+03
           13728     907.742E+03    -123.607E+03              0.    -977.552E+03
           13729     902.356E+03    -120.981E+03              0.    -990.095E+03
           13730     896.460E+03    -117.814E+03              0.    -1.00301E+06
           13731     890.033E+03    -114.091E+03              0.    -1.01630E+06
           13732     883.055E+03    -109.801E+03              0.    -1.02997E+06
           13733     875.504E+03    -104.930E+03              0.    -1.04403E+06
           13734     867.358E+03    -99.4635E+03              0.    -1.05848E+06
           13735     858.593E+03    -93.3873E+03              0.    -1.07333E+06
           13736     849.186E+03    -86.6865E+03              0.    -1.08859E+06
           13737     839.111E+03    -79.3455E+03              0.    -1.10426E+06
           13738     828.342E+03    -71.3482E+03              0.    -1.12035E+06
           13739     816.853E+03    -62.6783E+03              0.    -1.13687E+06
           13740     804.615E+03    -53.3186E+03              0.    -1.15383E+06
           13741     791.599E+03    -43.2513E+03              0.    -1.17123E+06
           13742     777.774E+03    -32.4582E+03              0.    -1.18909E+06
           13743     763.111E+03    -20.9205E+03              0.    -1.20741E+06
           13744     747.575E+03    -8.61879E+03              0.    -1.22621E+06
           13745     731.133E+03     4.46693E+03              0.    -1.24550E+06
           13746     713.750E+03     18.3574E+03              0.    -1.26528E+06
           13747     695.390E+03     33.0738E+03              0.    -1.28557E+06
           13748     676.016E+03     48.6381E+03              0.    -1.30638E+06
           13749     655.588E+03     65.0729E+03              0.    -1.32772E+06
           13750     634.066E+03     82.4014E+03              0.    -1.34961E+06
           13751     611.408E+03     100.647E+03              0.    -1.37206E+06
           13752     587.570E+03     119.836E+03              0.    -1.39509E+06
           13753     562.509E+03     139.991E+03              0.    -1.41871E+06
           13754     536.177E+03     161.140E+03              0.    -1.44293E+06
           13755     508.527E+03     183.309E+03              0.    -1.46777E+06
           13756     479.508E+03     206.525E+03              0.    -1.49325E+06
           13757     449.070E+03     230.817E+03              0.    -1.51939E+06
           13758     417.158E+03     256.213E+03              0.    -1.54620E+06
           13759     383.719E+03     282.743E+03              0.    -1.57371E+06
           13760     348.694E+03     310.436E+03              0.    -1.60193E+06
           13761     312.025E+03     339.325E+03              0.    -1.63089E+06
           13762     273.651E+03     369.440E+03              0.    -1.66060E+06
           13763     233.510E+03     400.814E+03              0.    -1.69109E+06
           13764     191.535E+03     433.480E+03              0.    -1.72239E+06
           13765     147.660E+03     467.472E+03              0.    -1.75451E+06
           13766     101.815E+03     502.824E+03              0.    -1.78748E+06
           13767     53.9283E+03     539.573E+03              0.    -1.82133E+06
           13768     3.92615E+03     577.753E+03              0.    -1.85608E+06
           13769    -48.2682E+03     617.402E+03              0.    -1.89176E+06
           13770    -102.734E+03     658.557E+03              0.    -1.92841E+06
           13771    -159.552E+03     701.255E+03              0.    -1.96605E+06
           13772    -218.808E+03     745.536E+03              0.    -2.00472E+06
           13773    -280.587E+03     791.440E+03              0.    -2.04444E+06
           13774    -344.979E+03     839.005E+03              0.    -2.08525E+06
           13775    -412.078E+03     888.272E+03              0.    -2.12719E+06
           13776    -481.977E+03     939.283E+03              0.    -2.17029E+06
           13777    -554.776E+03     992.078E+03              0.    -2.21459E+06
           13778    -630.576E+03     1.04670E+06              0.    -2.26013E+06
           13779    -709.481E+03     1.10319E+06              0.    -2.30694E+06
           13780    -791.599E+03     1.16160E+06              0.    -2.35508E+06
           13781    -877.040E+03     1.22196E+06              0.    -2.40459E+06
           13782    -965.918E+03     1.28432E+06              0.    -2.45551E+06
           13783    -1.05835E+06     1.34872E+06              0.    -2.50788E+06
           13784    -1.15446E+06     1.41521E+06              0.    -2.56177E+06
           13785    -1.25437E+06     1.48382E+06              0.    -2.61721E+06
           13786    -1.35821E+06     1.55462E+06              0.    -2.67426E+06
           13787    -1.46611E+06     1.62763E+06              0.    -2.73297E+06
           13788    -1.57821E+06     1.70291E+06              0.    -2.79340E+06
           13789    -1.69464E+06     1.78049E+06              0.    -2.85561E+06
           13790    -1.81556E+06     1.86042E+06              0.    -2.91965E+06
           13791    -1.94110E+06     1.94274E+06              0.    -2.98560E+06
           13792    -2.07142E+06     2.02750E+06              0.    -3.05350E+06
           13793    -2.20667E+06     2.11473E+06              0.    -3.12344E+06
           13794    -2.34701E+06     2.20448E+06              0.    -3.19548E+06
           13795    -2.49262E+06     2.29678E+06              0.    -3.26968E+06
           13796    -2.64365E+06     2.39168E+06              0.    -3.34613E+06
           13797    -2.80028E+06     2.48921E+06              0.    -3.42490E+06
           13798    -2.96269E+06     2.58940E+06              0.    -3.50606E+06
           13799    -3.13106E+06     2.69230E+06              0.    -3.58970E+06
           13800    -3.30557E+06     2.79792E+06              0.    -3.67590E+06
           13801    -3.48642E+06     2.90630E+06              0.    -3.76475E+06
           13802    -3.67380E+06     3.01747E+06              0.    -3.85633E+06
           13803    -3.86792E+06     3.13145E+06              0.    -3.95074E+06
           13804    -4.06897E+06     3.24826E+06              0.    -4.04807E+06
           13805    -4.27718E+06     3.36792E+06              0.    -4.14842E+06
           13806    -4.49275E+06     3.49044E+06              0.    -4.25190E+06
           13807    -4.71591E+06     3.61584E+06              0.    -4.35859E+06
           13808    -4.94688E+06     3.74411E+06              0.    -4.46861E+06
           13809    -5.18589E+06     3.87526E+06              0.    -4.58207E+06
           13810    -5.43317E+06     4.00927E+06              0.    -4.69908E+06
           13811    -5.68898E+06     4.14615E+06              0.    -4.81975E+06
           13812    -5.95354E+06     4.28588E+06              0.    -4.94420E+06
           13813    -6.22712E+06     4.42842E+06              0.    -5.07256E+06
           13814    -6.50997E+06     4.57376E+06              0.    -5.20495E+06
           13815    -6.80235E+06     4.72184E+06              0.    -5.34148E+06
           13816    -7.10452E+06     4.87262E+06              0.     -5.4823E+06
           13817    -7.41676E+06     5.02605E+06              0.    -5.62753E+06
           13818    -7.73934E+06     5.18205E+06              0.    -5.77731E+06
           13819    -8.07253E+06     5.34055E+06              0.    -5.93178E+06
           13820    -8.41663E+06     5.50147E+06              0.    -6.09107E+06
           13821    -8.77193E+06     5.66468E+06              0.    -6.25532E+06
           13822    -9.13871E+06     5.83009E+06              0.    -6.42468E+06
           13823    -9.51728E+06     5.99756E+06              0.    -6.59929E+06
           13824    -9.90793E+06     6.16695E+06              0.    -6.77929E+06
           13825    -10.3110E+06     6.33808E+06              0.    -6.96484E+06
           13826    -10.7267E+06     6.51079E+06              0.    -7.15608E+06
           13827    -11.1555E+06     6.68487E+06              0.    -7.35314E+06
           13828    -11.5976E+06     6.86010E+06              0.    -7.55619E+06
           13829    -12.0534E+06     7.03623E+06              0.    -7.76535E+06
           13830    -12.5231E+06     7.21301E+06              0.    -7.98078E+06
           13831    -13.0071E+06     7.39014E+06              0.    -8.20261E+06
           13832    -13.5058E+06     7.56729E+06              0.    -8.43097E+06
           13833    -14.0194E+06     7.74412E+06              0.    -8.66600E+06
           13834    -14.5482E+06     7.92025E+06              0.    -8.90781E+06
           13835    -15.0927E+06     8.09526E+06              0.    -9.15653E+06
           13836    -15.6532E+06     8.26871E+06              0.    -9.41225E+06
           13837    -16.2299E+06     8.44009E+06              0.    -9.67508E+06
           13838    -16.8231E+06     8.60889E+06              0.    -9.94511E+06
           13839    -17.4333E+06     8.77451E+06              0.    -10.2224E+06
           13840    -18.0607E+06     8.93635E+06              0.     -10.507E+06
           13841    -18.7057E+06     9.09372E+06              0.    -10.7990E+06
           13842    -19.3685E+06     9.24588E+06              0.    -11.0983E+06
           13843    -20.0495E+06     9.39206E+06              0.    -11.4050E+06
           13844    -20.7489E+06     9.53139E+06              0.    -11.7190E+06
           13845    -21.4671E+06     9.66294E+06              0.    -12.0403E+06
           13846    -22.2042E+06     9.78574E+06              0.    -12.3687E+06
           13847    -22.9606E+06     9.89868E+06              0.    -12.7042E+06
           13848    -23.7365E+06     10.0006E+06              0.    -13.0465E+06
           13849    -24.5321E+06     10.0903E+06              0.    -13.3954E+06
           13850    -25.3477E+06     10.1664E+06              0.    -13.7507E+06
           13851    -26.1834E+06     10.2274E+06              0.    -14.1120E+06
           13852    -27.0393E+06     10.2718E+06              0.    -14.4789E+06
           13853    -27.9157E+06     10.2979E+06              0.    -14.8510E+06
           13854    -28.8126E+06     10.3039E+06              0.    -15.2276E+06
           13855    -29.7300E+06     10.2878E+06              0.    -15.6082E+06
           13856    -30.6680E+06     10.2475E+06              0.    -15.9919E+06
           13857    -31.6266E+06     10.1807E+06              0.    -16.3781E+06
           13858    -32.6058E+06     10.0851E+06              0.    -16.7656E+06
           13859    -33.6053E+06     9.95787E+06              0.    -17.1535E+06
           13860    -34.6250E+06     9.79634E+06              0.    -17.5405E+06
           13861    -35.6647E+06     9.59743E+06              0.    -17.9253E+06
           13862    -36.7241E+06     9.35786E+06              0.    -18.3062E+06
           13863    -37.8028E+06     9.07414E+06              0.    -18.6816E+06
           13864    -38.9003E+06     8.74249E+06              0.    -19.0495E+06
           13865    -40.0161E+06     8.35887E+06              0.    -19.4078E+06
           13866    -41.1495E+06     7.91891E+06              0.    -19.7540E+06
           13867    -42.2998E+06     7.41795E+06              0.    -20.0856E+06
           13868     -43.466E+06     6.85097E+06              0.    -20.3996E+06
           13869    -44.6472E+06      6.2126E+06              0.    -20.6926E+06
           13870    -45.8422E+06     5.49707E+06              0.    -20.9611E+06
           13871    -47.0498E+06     4.69819E+06              0.    -21.2011E+06
           13872    -48.2684E+06     3.80935E+06              0.    -21.4081E+06
           13873    -49.4965E+06     2.82345E+06              0.    -21.5774E+06
           13874    -50.7323E+06     1.73292E+06              0.    -21.7035E+06
           13875    -51.9736E+06     529.637E+03              0.    -21.7804E+06
           13876    -53.2184E+06    -795.069E+03              0.    -21.8018E+06
           13877    -54.4640E+06    -2.25043E+06              0.    -21.7603E+06
           13878    -55.7079E+06    -3.84635E+06              0.    -21.6481E+06
           13879    -56.9469E+06    -5.59331E+06              0.    -21.4565E+06
           13880    -58.1778E+06    -7.50254E+06              0.    -21.1758E+06
           13881    -59.3970E+06    -9.58595E+06              0.    -20.7956E+06
           13882    -60.6004E+06    -11.8562E+06              0.    -20.3041E+06
           13883    -61.7839E+06    -14.3267E+06              0.    -19.6886E+06
           13884    -62.9425E+06    -17.0116E+06              0.    -18.9349E+06
           13885    -64.0711E+06    -19.9262E+06              0.    -18.0275E+06
           13886    -65.1640E+06    -23.0862E+06              0.    -16.9491E+06
           13887    -66.2152E+06    -26.5084E+06              0.    -15.6809E+06
           13888    -67.7580E+06    -30.5849E+06              0.    -15.2712E+06
           13889     751.762E+03     339.179E+03              0.    -836.968E+03
           13890     749.762E+03     320.180E+03              0.    -835.500E+03
           13891     755.989E+03     305.019E+03              0.    -827.358E+03
           13892     762.171E+03     290.006E+03              0.    -819.722E+03
           13893     768.302E+03     275.154E+03              0.    -812.584E+03
           13894     774.375E+03     260.471E+03              0.    -805.931E+03
           13895     780.385E+03     245.966E+03              0.    -799.755E+03
           13896     786.325E+03     231.650E+03              0.    -794.047E+03
           13897     792.190E+03     217.529E+03              0.    -788.796E+03
           13898     797.974E+03     203.613E+03              0.    -783.995E+03
           13899     803.672E+03     189.909E+03              0.    -779.635E+03
           13900     809.279E+03     176.423E+03              0.    -775.709E+03
           13901     814.789E+03     163.164E+03              0.    -772.208E+03
           13902     820.198E+03     150.137E+03              0.    -769.126E+03
           13903     825.500E+03     137.348E+03              0.    -766.455E+03
           13904     830.692E+03     124.805E+03              0.    -764.188E+03
           13905     835.767E+03     112.512E+03              0.    -762.320E+03
           13906     840.722E+03     100.475E+03              0.    -760.844E+03
           13907     845.551E+03     88.7001E+03              0.    -759.755E+03
           13908     850.250E+03     77.1920E+03              0.    -759.046E+03
           13909     854.814E+03     65.9564E+03              0.    -758.713E+03
           13910     859.238E+03     54.9979E+03              0.    -758.750E+03
           13911     863.516E+03     44.3219E+03              0.    -759.153E+03
           13912     867.645E+03     33.9331E+03              0.    -759.918E+03
           13913     871.618E+03     23.8364E+03              0.    -761.040E+03
           13914     875.430E+03     14.0370E+03              0.    -762.514E+03
           13915     879.076E+03     4.53934E+03              0.    -764.338E+03
           13916     882.551E+03    -4.65130E+03              0.    -766.508E+03
           13917     885.847E+03    -13.5303E+03              0.    -769.020E+03
           13918     888.960E+03    -22.0925E+03              0.    -771.872E+03
           13919     891.882E+03    -30.3329E+03              0.    -775.060E+03
           13920     894.608E+03    -38.2464E+03              0.    -778.582E+03
           13921     897.130E+03    -45.8278E+03              0.    -782.436E+03
           13922     899.442E+03    -53.0717E+03              0.    -786.619E+03
           13923     901.537E+03    -59.9727E+03              0.    -791.129E+03
           13924     903.406E+03    -66.5253E+03              0.    -795.966E+03
           13925     905.042E+03    -72.7237E+03              0.    -801.126E+03
           13926     906.437E+03    -78.5619E+03              0.    -806.610E+03
           13927     907.581E+03    -84.0338E+03              0.    -812.416E+03
           13928     908.467E+03    -89.1333E+03              0.    -818.543E+03
           13929     909.085E+03    -93.8537E+03              0.    -824.991E+03
           13930     909.424E+03    -98.1884E+03              0.    -831.758E+03
           13931     909.476E+03    -102.130E+03              0.    -838.846E+03
           13932     909.228E+03    -105.672E+03              0.    -846.255E+03
           13933     908.671E+03    -108.807E+03              0.    -853.983E+03
           13934     907.793E+03    -111.527E+03              0.    -862.033E+03
           13935     906.581E+03    -113.823E+03              0.    -870.405E+03
           13936     905.024E+03    -115.688E+03              0.    -879.099E+03
           13937     903.107E+03    -117.113E+03              0.    -888.118E+03
           13938     900.819E+03    -118.088E+03              0.    -897.463E+03
           13939     898.143E+03    -118.605E+03              0.    -907.135E+03
           13940     895.067E+03    -118.655E+03              0.    -917.136E+03
           13941     891.573E+03    -118.226E+03              0.    -927.469E+03
           13942     887.647E+03    -117.308E+03              0.    -938.137E+03
           13943     883.271E+03    -115.891E+03              0.    -949.141E+03
           13944     878.429E+03    -113.964E+03              0.    -960.486E+03
           13945     873.101E+03    -111.515E+03              0.    -972.175E+03
           13946     867.270E+03    -108.532E+03              0.    -984.211E+03
           13947     860.916E+03    -105.002E+03              0.    -996.597E+03
           13948     854.018E+03    -100.913E+03              0.    -1.00934E+06
           13949     846.556E+03    -96.2510E+03              0.    -1.02244E+06
           13950     838.506E+03    -91.0025E+03              0.    -1.03591E+06
           13951     829.847E+03    -85.1530E+03              0.    -1.04975E+06
           13952     820.555E+03    -78.6877E+03              0.    -1.06396E+06
           13953     810.604E+03    -71.5913E+03              0.    -1.07855E+06
           13954     799.970E+03    -63.8480E+03              0.    -1.09353E+06
           13955     788.625E+03    -55.4412E+03              0.    -1.10891E+06
           13956     776.543E+03    -46.3542E+03              0.    -1.12468E+06
           13957     763.694E+03    -36.5693E+03              0.    -1.14087E+06
           13958     750.048E+03    -26.0686E+03              0.    -1.15747E+06
           13959     735.574E+03    -14.8332E+03              0.    -1.17450E+06
           13960     720.242E+03    -2.84404E+03              0.    -1.19195E+06
           13961     704.016E+03     9.91890E+03              0.    -1.20985E+06
           13962     686.863E+03     23.4760E+03              0.    -1.22820E+06
           13963     668.747E+03     37.8484E+03              0.    -1.24701E+06
           13964     649.630E+03     53.0580E+03              0.    -1.26629E+06
           13965     629.475E+03     69.1271E+03              0.    -1.28606E+06
           13966     608.241E+03     86.0788E+03              0.    -1.30631E+06
           13967     585.888E+03     103.937E+03              0.    -1.32707E+06
           13968     562.372E+03     122.726E+03              0.    -1.34835E+06
           13969     537.648E+03     142.471E+03              0.    -1.37016E+06
           13970     511.672E+03     163.198E+03              0.    -1.39251E+06
           13971     484.396E+03     184.933E+03              0.    -1.41542E+06
           13972     455.769E+03     207.704E+03              0.    -1.43890E+06
           13973     425.743E+03     231.538E+03              0.    -1.46297E+06
           13974     394.263E+03     256.465E+03              0.    -1.48765E+06
           13975     361.275E+03     282.514E+03              0.    -1.51294E+06
           13976     326.723E+03     309.715E+03              0.    -1.53887E+06
           13977     290.548E+03     338.099E+03              0.    -1.56545E+06
           13978     252.690E+03     367.698E+03              0.    -1.59271E+06
           13979     213.087E+03     398.545E+03              0.    -1.62066E+06
           13980     171.674E+03     430.672E+03              0.    -1.64933E+06
           13981     128.385E+03     464.114E+03              0.    -1.67872E+06
           13982     83.1497E+03     498.905E+03              0.    -1.70888E+06
           13983     35.8978E+03     535.081E+03              0.    -1.73982E+06
           13984    -13.4445E+03     572.678E+03              0.    -1.77155E+06
           13985    -64.9532E+03     611.732E+03              0.    -1.80412E+06
           13986    -118.707E+03     652.283E+03              0.    -1.83754E+06
           13987    -174.787E+03     694.368E+03              0.    -1.87184E+06
           13988    -233.276E+03     738.027E+03              0.    -1.90705E+06
           13989    -294.262E+03     783.298E+03              0.    -1.94319E+06
           13990    -357.833E+03     830.223E+03              0.    -1.98030E+06
           13991    -424.081E+03     878.843E+03              0.    -2.01840E+06
           13992    -493.102E+03     929.199E+03              0.    -2.05754E+06
           13993    -564.992E+03     981.334E+03              0.    -2.09774E+06
           13994    -639.855E+03     1.03529E+06              0.    -2.13904E+06
           13995    -717.793E+03     1.09111E+06              0.    -2.18147E+06
           13996    -798.913E+03     1.14884E+06              0.    -2.22507E+06
           13997    -883.327E+03     1.20853E+06              0.    -2.26988E+06
           13998    -971.149E+03     1.27021E+06              0.    -2.31594E+06
           13999    -1.06250E+06     1.33394E+06              0.    -2.36329E+06
           14000    -1.15749E+06     1.39975E+06              0.    -2.41198E+06
           14001    -1.25625E+06     1.46770E+06              0.    -2.46204E+06
           14002    -1.35892E+06     1.53783E+06              0.    -2.51353E+06
           14003    -1.46561E+06     1.61018E+06              0.    -2.56650E+06
           14004    -1.57647E+06     1.68481E+06              0.    -2.62099E+06
           14005    -1.69164E+06     1.76175E+06              0.    -2.67706E+06
           14006    -1.81127E+06     1.84106E+06              0.    -2.73476E+06
           14007    -1.93549E+06     1.92277E+06              0.    -2.79415E+06
           14008    -2.06446E+06     2.00694E+06              0.    -2.85528E+06
           14009    -2.19834E+06     2.09360E+06              0.    -2.91821E+06
           14010    -2.33730E+06     2.18280E+06              0.    -2.98300E+06
           14011    -2.48148E+06     2.27459E+06              0.    -3.04973E+06
           14012    -2.63108E+06     2.36901E+06              0.    -3.11845E+06
           14013    -2.78625E+06     2.46609E+06              0.    -3.18923E+06
           14014    -2.94718E+06     2.56587E+06              0.    -3.26215E+06
           14015    -3.11406E+06     2.66840E+06              0.    -3.33728E+06
           14016    -3.28706E+06     2.77370E+06              0.    -3.41469E+06
           14017    -3.46640E+06     2.88182E+06              0.    -3.49446E+06
           14018    -3.65226E+06     2.99278E+06              0.    -3.57667E+06
           14019    -3.84484E+06     3.10662E+06              0.    -3.66141E+06
           14020    -4.04437E+06     3.22336E+06              0.    -3.74876E+06
           14021    -4.25104E+06     3.34303E+06              0.    -3.83881E+06
           14022    -4.46509E+06     3.46563E+06              0.    -3.93165E+06
           14023    -4.68673E+06     3.59120E+06              0.    -4.02738E+06
           14024    -4.91620E+06     3.71975E+06              0.    -4.12610E+06
           14025    -5.15373E+06     3.85128E+06              0.    -4.22790E+06
           14026    -5.39956E+06     3.98579E+06              0.    -4.33288E+06
           14027    -5.65394E+06     4.12328E+06              0.    -4.44116E+06
           14028    -5.91711E+06     4.26375E+06              0.    -4.55284E+06
           14029    -6.18935E+06     4.40719E+06              0.    -4.66803E+06
           14030    -6.47090E+06     4.55356E+06              0.    -4.78686E+06
           14031    -6.76204E+06     4.70285E+06              0.    -4.90943E+06
           14032    -7.06304E+06     4.85501E+06              0.    -5.03586E+06
           14033    -7.37418E+06     5.01001E+06              0.    -5.16628E+06
           14034    -7.69574E+06     5.16778E+06              0.    -5.30082E+06
           14035    -8.02802E+06     5.32826E+06              0.    -5.43960E+06
           14036    -8.37130E+06     5.49138E+06              0.    -5.58275E+06
           14037    -8.72590E+06     5.65705E+06              0.    -5.73040E+06
           14038    -9.09211E+06     5.82517E+06              0.    -5.88270E+06
           14039    -9.47024E+06     5.99563E+06              0.    -6.03977E+06
           14040    -9.86062E+06     6.16829E+06              0.    -6.20176E+06
           14041    -10.2636E+06     6.34302E+06              0.    -6.36880E+06
           14042    -10.6794E+06     6.51964E+06              0.    -6.54103E+06
           14043    -11.1084E+06     6.69799E+06              0.    -6.71859E+06
           14044    -11.5510E+06     6.87786E+06              0.    -6.90163E+06
           14045    -12.0075E+06     7.05903E+06              0.    -7.09028E+06
           14046    -12.4782E+06     7.24125E+06              0.    -7.28468E+06
           14047    -12.9634E+06     7.42427E+06              0.    -7.48497E+06
           14048    -13.4636E+06     7.60778E+06              0.    -7.69128E+06
           14049    -13.9790E+06     7.79145E+06              0.    -7.90374E+06
           14050    -14.5101E+06     7.97495E+06              0.    -8.12248E+06
           14051    -15.0571E+06     8.15787E+06              0.    -8.34762E+06
           14052    -15.6205E+06     8.33981E+06              0.    -8.57926E+06
           14053    -16.2005E+06     8.52029E+06              0.    -8.81753E+06
           14054    -16.7975E+06     8.69882E+06              0.    -9.06250E+06
           14055    -17.4119E+06     8.87487E+06              0.    -9.31427E+06
           14056    -18.0441E+06     9.04783E+06              0.    -9.57291E+06
           14057    -18.6943E+06     9.21707E+06              0.    -9.83847E+06
           14058    -19.3629E+06      9.3819E+06              0.     -10.111E+06
           14059    -20.0503E+06     9.54156E+06              0.    -10.3905E+06
           14060    -20.7567E+06     9.69525E+06              0.    -10.6770E+06
           14061    -21.4826E+06     9.84208E+06              0.    -10.9705E+06
           14062    -22.2281E+06     9.98109E+06              0.    -11.2708E+06
           14063    -22.9936E+06     10.1113E+06              0.    -11.5780E+06
           14064    -23.7795E+06     10.2315E+06              0.    -11.8918E+06
           14065    -24.5858E+06     10.3406E+06              0.    -12.2122E+06
           14066    -25.4130E+06     10.4372E+06              0.    -12.5389E+06
           14067    -26.2612E+06     10.5200E+06              0.    -12.8716E+06
           14068    -27.1306E+06     10.5875E+06              0.    -13.2101E+06
           14069    -28.0215E+06     10.6380E+06              0.    -13.5540E+06
           14070    -28.9339E+06     10.6697E+06              0.    -13.9028E+06
           14071    -29.8680E+06     10.6808E+06              0.    -14.2560E+06
           14072    -30.8238E+06     10.6693E+06              0.    -14.6131E+06
           14073    -31.8014E+06     10.6329E+06              0.    -14.9733E+06
           14074    -32.8009E+06     10.5693E+06              0.    -15.3358E+06
           14075     -33.822E+06     10.4759E+06              0.    -15.6999E+06
           14076    -34.8647E+06     10.3500E+06              0.    -16.0643E+06
           14077    -35.9289E+06     10.1887E+06              0.    -16.4281E+06
           14078    -37.0143E+06     9.98868E+06              0.    -16.7898E+06
           14079    -38.1204E+06     9.74659E+06              0.    -17.1481E+06
           14080    -39.2471E+06     9.45876E+06              0.    -17.5014E+06
           14081    -40.3937E+06     9.12121E+06              0.    -17.8477E+06
           14082    -41.5596E+06     8.72968E+06              0.    -18.1851E+06
           14083    -42.7442E+06     8.27961E+06              0.    -18.5114E+06
           14084    -43.9465E+06     7.76606E+06              0.    -18.8239E+06
           14085    -45.1658E+06     7.18376E+06              0.    -19.1200E+06
           14086    -46.4008E+06     6.52703E+06              0.    -19.3965E+06
           14087    -47.6503E+06     5.78976E+06              0.    -19.6501E+06
           14088    -48.9129E+06     4.96544E+06              0.    -19.8769E+06
           14089    -50.1870E+06     4.04704E+06              0.    -20.0728E+06
           14090    -51.4708E+06     3.02704E+06              0.    -20.2331E+06
           14091    -52.7623E+06     1.89739E+06              0.    -20.3529E+06
           14092    -54.0592E+06     649.465E+03              0.    -20.4264E+06
           14093    -55.3591E+06    -725.976E+03              0.    -20.4475E+06
           14094    -56.6591E+06    -2.23879E+06              0.    -20.4094E+06
           14095    -57.9563E+06    -3.89956E+06              0.    -20.3045E+06
           14096    -59.2471E+06    -5.71953E+06              0.    -20.1247E+06
           14097    -60.5279E+06    -7.71077E+06              0.    -19.8607E+06
           14098    -61.7944E+06    -9.88610E+06              0.    -19.5024E+06
           14099    -63.0423E+06    -12.2591E+06              0.    -19.0389E+06
           14100    -64.2664E+06    -14.8445E+06              0.    -18.4579E+06
           14101    -65.4612E+06    -17.6577E+06              0.    -17.7458E+06
           14102    -66.6207E+06    -20.7150E+06              0.    -16.8878E+06
           14103    -67.7381E+06    -24.0340E+06              0.    -15.8674E+06
           14104    -68.8059E+06    -27.6329E+06              0.    -14.6664E+06
           14105    -70.4164E+06    -31.9210E+06              0.    -14.2716E+06
           14106     731.604E+03     330.127E+03              0.    -843.092E+03
           14107     729.673E+03     311.775E+03              0.    -841.614E+03
           14108     735.689E+03     297.123E+03              0.    -833.432E+03
           14109     741.662E+03     282.608E+03              0.    -825.750E+03
           14110     747.586E+03     268.243E+03              0.    -818.558E+03
           14111     753.455E+03     254.038E+03              0.    -811.846E+03
           14112     759.261E+03     240.003E+03              0.    -805.604E+03
           14113     764.998E+03     226.146E+03              0.    -799.823E+03
           14114     770.662E+03     212.476E+03              0.    -794.495E+03
           14115     776.245E+03     199.002E+03              0.    -789.611E+03
           14116     781.742E+03     185.732E+03              0.    -785.163E+03
           14117     787.149E+03     172.673E+03              0.    -781.143E+03
           14118     792.459E+03     159.833E+03              0.    -777.543E+03
           14119     797.667E+03     147.218E+03              0.    -774.357E+03
           14120     802.769E+03     134.834E+03              0.    -771.577E+03
           14121     807.760E+03     122.690E+03              0.    -769.197E+03
           14122     812.633E+03     110.789E+03              0.     -767.21E+03
           14123     817.385E+03     99.1387E+03              0.    -765.611E+03
           14124     822.011E+03     87.7444E+03              0.    -764.393E+03
           14125     826.505E+03     76.6117E+03              0.    -763.551E+03
           14126     830.862E+03     65.7462E+03              0.    -763.079E+03
           14127     835.077E+03     55.1529E+03              0.    -762.973E+03
           14128     839.145E+03     44.8374E+03              0.    -763.228E+03
           14129     843.062E+03     34.8046E+03              0.    -763.839E+03
           14130     846.820E+03     25.0598E+03              0.    -764.802E+03
           14131     850.415E+03     15.6083E+03              0.    -766.111E+03
           14132     853.841E+03     6.45481E+03              0.    -767.765E+03
           14133     857.092E+03    -2.39521E+03              0.    -769.759E+03
           14134     860.163E+03    -10.9369E+03              0.    -772.089E+03
           14135     863.046E+03    -19.1648E+03              0.    -774.752E+03
           14136     865.736E+03    -27.0737E+03              0.    -777.745E+03
           14137     868.225E+03    -34.6585E+03              0.    -781.065E+03
           14138     870.508E+03    -41.9135E+03              0.    -784.710E+03
           14139     872.576E+03    -48.8332E+03              0.    -788.678E+03
           14140     874.421E+03    -55.4121E+03              0.    -792.965E+03
           14141     876.037E+03    -61.6442E+03              0.    -797.570E+03
           14142     877.416E+03    -67.5237E+03              0.    -802.491E+03
           14143     878.548E+03    -73.0444E+03              0.    -807.727E+03
           14144     879.424E+03    -78.2000E+03              0.    -813.276E+03
           14145     880.037E+03    -82.9839E+03              0.    -819.136E+03
           14146     880.375E+03    -87.3896E+03              0.    -825.308E+03
           14147     880.430E+03    -91.4100E+03              0.    -831.790E+03
           14148     880.190E+03    -95.0379E+03              0.    -838.582E+03
           14149     879.645E+03    -98.2659E+03              0.    -845.683E+03
           14150     878.784E+03    -101.086E+03              0.    -853.093E+03
           14151     877.594E+03    -103.491E+03              0.    -860.812E+03
           14152     876.064E+03    -105.472E+03              0.    -868.841E+03
           14153     874.181E+03    -107.021E+03              0.    -877.179E+03
           14154     871.931E+03    -108.129E+03              0.    -885.828E+03
           14155     869.300E+03    -108.786E+03              0.    -894.790E+03
           14156     866.274E+03    -108.983E+03              0.    -904.063E+03
           14157     862.839E+03    -108.710E+03              0.    -913.652E+03
           14158     858.977E+03    -107.958E+03              0.    -923.556E+03
           14159     854.673E+03    -106.714E+03              0.    -933.777E+03
           14160     849.910E+03    -104.968E+03              0.    -944.319E+03
           14161     844.670E+03    -102.710E+03              0.    -955.183E+03
           14162     838.935E+03    -99.9257E+03              0.    -966.372E+03
           14163     832.685E+03    -96.6044E+03              0.    -977.889E+03
           14164     825.900E+03    -92.7330E+03              0.    -989.737E+03
           14165     818.561E+03    -88.2981E+03              0.    -1.00192E+06
           14166     810.644E+03    -83.2863E+03              0.    -1.01444E+06
           14167     802.127E+03    -77.6833E+03              0.    -1.02730E+06
           14168     792.988E+03    -71.4745E+03              0.    -1.04051E+06
           14169     783.202E+03    -64.6448E+03              0.    -1.05407E+06
           14170     772.744E+03    -57.1785E+03              0.    -1.06799E+06
           14171     761.588E+03    -49.0595E+03              0.    -1.08226E+06
           14172     749.706E+03    -40.2708E+03              0.    -1.09691E+06
           14173     737.070E+03    -30.7953E+03              0.    -1.11192E+06
           14174     723.651E+03    -20.6152E+03              0.    -1.12732E+06
           14175     709.419E+03    -9.71186E+03              0.    -1.14310E+06
           14176     694.342E+03     1.93372E+03              0.    -1.15927E+06
           14177     678.386E+03     14.3411E+03              0.    -1.17584E+06
           14178     661.520E+03     27.5308E+03              0.    -1.19282E+06
           14179     643.706E+03     41.5234E+03              0.    -1.21021E+06
           14180     624.909E+03     56.3407E+03              0.    -1.22803E+06
           14181     605.091E+03     72.0050E+03              0.    -1.24628E+06
           14182     584.212E+03     88.5389E+03              0.    -1.26497E+06
           14183     562.232E+03     105.966E+03              0.    -1.28412E+06
           14184     539.108E+03     124.311E+03              0.    -1.30373E+06
           14185     514.798E+03     143.599E+03              0.    -1.32381E+06
           14186     489.255E+03     163.854E+03              0.    -1.34437E+06
           14187     462.433E+03     185.105E+03              0.    -1.36543E+06
           14188     434.283E+03     207.377E+03              0.    -1.38700E+06
           14189     404.755E+03     230.698E+03              0.    -1.40909E+06
           14190     373.798E+03     255.098E+03              0.    -1.43172E+06
           14191     341.356E+03     280.606E+03              0.    -1.45489E+06
           14192     307.375E+03     307.251E+03              0.    -1.47863E+06
           14193     271.797E+03     335.065E+03              0.    -1.50294E+06
           14194     234.562E+03     364.080E+03              0.    -1.52785E+06
           14195     195.609E+03     394.327E+03              0.    -1.55338E+06
           14196     154.874E+03     425.840E+03              0.    -1.57953E+06
           14197     112.290E+03     458.653E+03              0.    -1.60632E+06
           14198     67.7898E+03     492.801E+03              0.    -1.63379E+06
           14199     21.3028E+03     528.319E+03              0.    -1.66193E+06
           14200    -27.2438E+03     565.245E+03              0.    -1.69079E+06
           14201    -77.9255E+03     603.614E+03              0.    -1.72037E+06
           14202     -130.82E+03     643.464E+03              0.    -1.75070E+06
           14203    -186.008E+03     684.836E+03              0.    -1.78180E+06
           14204    -243.571E+03     727.766E+03              0.    -1.81370E+06
           14205    -303.597E+03     772.298E+03              0.    -1.84641E+06
           14206    -366.173E+03     818.469E+03              0.    -1.87998E+06
           14207    -431.390E+03     866.323E+03              0.    -1.91442E+06
           14208    -499.344E+03     915.902E+03              0.    -1.94976E+06
           14209    -570.131E+03     967.249E+03              0.    -1.98603E+06
           14210    -643.851E+03     1.02041E+06              0.    -2.02326E+06
           14211    -720.609E+03     1.07542E+06              0.    -2.06148E+06
           14212    -800.511E+03     1.13233E+06              0.    -2.10073E+06
           14213    -883.666E+03     1.19119E+06              0.    -2.14103E+06
           14214    -970.190E+03     1.25204E+06              0.    -2.18244E+06
           14215    -1.06020E+06     1.31492E+06              0.    -2.22497E+06
           14216    -1.15381E+06     1.37989E+06              0.    -2.26867E+06
           14217    -1.25116E+06     1.44699E+06              0.    -2.31358E+06
           14218    -1.35236E+06     1.51627E+06              0.    -2.35974E+06
           14219    -1.45755E+06     1.58777E+06              0.    -2.40719E+06
           14220    -1.56687E+06     1.66155E+06              0.    -2.45597E+06
           14221    -1.68045E+06     1.73765E+06              0.    -2.50614E+06
           14222    -1.79845E+06     1.81611E+06              0.    -2.55774E+06
           14223    -1.92100E+06     1.89699E+06              0.    -2.61082E+06
           14224    -2.04826E+06     1.98033E+06              0.    -2.66542E+06
           14225    -2.18039E+06     2.06618E+06              0.    -2.72161E+06
           14226    -2.31755E+06     2.15459E+06              0.    -2.77944E+06
           14227    -2.45991E+06     2.24559E+06              0.    -2.83896E+06
           14228    -2.60763E+06     2.33925E+06              0.    -2.90024E+06
           14229    -2.76089E+06     2.43559E+06              0.    -2.96333E+06
           14230    -2.91987E+06     2.53467E+06              0.    -3.02830E+06
           14231    -3.08477E+06     2.63652E+06              0.    -3.09521E+06
           14232    -3.25575E+06     2.74118E+06              0.    -3.16414E+06
           14233    -3.43304E+06     2.84870E+06              0.    -3.23515E+06
           14234    -3.61681E+06     2.95911E+06              0.    -3.30831E+06
           14235    -3.80728E+06     3.07244E+06              0.    -3.38371E+06
           14236    -4.00467E+06     3.18873E+06              0.    -3.46141E+06
           14237    -4.20918E+06     3.30801E+06              0.    -3.54150E+06
           14238    -4.42104E+06     3.43030E+06              0.    -3.62406E+06
           14239    -4.64047E+06     3.55562E+06              0.    -3.70918E+06
           14240    -4.86772E+06     3.68400E+06              0.    -3.79694E+06
           14241    -5.10301E+06     3.81545E+06              0.    -3.88744E+06
           14242    -5.34659E+06     3.94998E+06              0.    -3.98077E+06
           14243    -5.59872E+06      4.0876E+06              0.    -4.07702E+06
           14244    -5.85965E+06     4.22831E+06              0.    -4.17631E+06
           14245    -6.12965E+06     4.37210E+06              0.    -4.27872E+06
           14246    -6.40897E+06     4.51897E+06              0.    -4.38436E+06
           14247    -6.69789E+06     4.66889E+06              0.    -4.49335E+06
           14248    -6.99670E+06     4.82184E+06              0.    -4.60578E+06
           14249    -7.30569E+06     4.97778E+06              0.    -4.72178E+06
           14250    -7.62513E+06     5.13669E+06              0.    -4.84147E+06
           14251    -7.95533E+06     5.29849E+06              0.    -4.96495E+06
           14252    -8.29660E+06     5.46314E+06              0.    -5.09236E+06
           14253    -8.64924E+06     5.63055E+06              0.    -5.22381E+06
           14254    -9.01356E+06     5.80065E+06              0.    -5.35943E+06
           14255    -9.38990E+06     5.97333E+06              0.    -5.49935E+06
           14256    -9.77857E+06     6.14849E+06              0.     -5.6437E+06
           14257    -10.1799E+06     6.32600E+06              0.    -5.79261E+06
           14258    -10.5943E+06     6.50570E+06              0.    -5.94621E+06
           14259    -11.0219E+06     6.68746E+06              0.    -6.10463E+06
           14260    -11.4633E+06     6.87108E+06              0.    -6.26802E+06
           14261    -11.9188E+06     7.05636E+06              0.    -6.43649E+06
           14262    -12.3886E+06     7.24309E+06              0.    -6.61020E+06
           14263    -12.8732E+06     7.43102E+06              0.    -6.78926E+06
           14264    -13.3729E+06     7.61988E+06              0.    -6.97382E+06
           14265    -13.8881E+06     7.80937E+06              0.    -7.16399E+06
           14266    -14.4192E+06     7.99917E+06              0.    -7.35991E+06
           14267    -14.9665E+06     8.18892E+06              0.    -7.56169E+06
           14268    -15.5305E+06     8.37823E+06              0.    -7.76946E+06
           14269    -16.1114E+06     8.56668E+06              0.    -7.98332E+06
           14270    -16.7097E+06     8.75379E+06              0.    -8.20338E+06
           14271    -17.3257E+06     8.93905E+06              0.    -8.42972E+06
           14272    -17.9599E+06     9.12193E+06              0.    -8.66244E+06
           14273    -18.6125E+06     9.30181E+06              0.    -8.90161E+06
           14274    -19.2840E+06     9.47804E+06              0.    -9.14728E+06
           14275    -19.9747E+06     9.64992E+06              0.    -9.39950E+06
           14276    -20.6850E+06     9.81667E+06              0.    -9.65828E+06
           14277    -21.4153E+06     9.97746E+06              0.    -9.92364E+06
           14278    -22.1658E+06     10.1314E+06              0.    -10.1955E+06
           14279    -22.9369E+06     10.2775E+06              0.    -10.4740E+06
           14280    -23.7290E+06     10.4147E+06              0.    -10.7588E+06
           14281    -24.5423E+06     10.5418E+06              0.    -11.0500E+06
           14282    -25.3772E+06     10.6577E+06              0.    -11.3473E+06
           14283    -26.2339E+06     10.7610E+06              0.    -11.6506E+06
           14284    -27.1126E+06     10.8502E+06              0.    -11.9597E+06
           14285    -28.0137E+06     10.9238E+06              0.    -12.2742E+06
           14286    -28.9372E+06     10.9801E+06              0.    -12.5939E+06
           14287    -29.8833E+06     11.0173E+06              0.    -12.9183E+06
           14288    -30.8523E+06     11.0334E+06              0.    -13.2469E+06
           14289    -31.8441E+06     11.0263E+06              0.    -13.5792E+06
           14290    -32.8588E+06     10.9937E+06              0.    -13.9146E+06
           14291    -33.8965E+06     10.9332E+06              0.    -14.2522E+06
           14292    -34.9570E+06     10.8422E+06              0.    -14.5914E+06
           14293    -36.0402E+06     10.7177E+06              0.    -14.9311E+06
           14294    -37.1460E+06     10.5566E+06              0.    -15.2703E+06
           14295    -38.2742E+06     10.3558E+06              0.    -15.6078E+06
           14296    -39.4242E+06     10.1115E+06              0.    -15.9422E+06
           14297    -40.5958E+06     9.82006E+06              0.    -16.2719E+06
           14298    -41.7884E+06     9.47718E+06              0.    -16.5954E+06
           14299    -43.0013E+06     9.07848E+06              0.    -16.9107E+06
           14300    -44.2339E+06     8.61914E+06              0.    -17.2157E+06
           14301    -45.4852E+06     8.09403E+06              0.    -17.5080E+06
           14302    -46.7541E+06     7.49759E+06              0.    -17.7851E+06
           14303    -48.0396E+06     6.82387E+06              0.    -18.0441E+06
           14304    -49.3402E+06     6.06648E+06              0.    -18.2817E+06
           14305    -50.6544E+06     5.21853E+06              0.    -18.4944E+06
           14306    -51.9805E+06     4.27265E+06              0.    -18.6783E+06
           14307    -53.3166E+06      3.2209E+06              0.    -18.8291E+06
           14308    -54.6603E+06     2.05480E+06              0.    -18.9420E+06
           14309    -56.0093E+06     765.222E+03              0.    -19.0118E+06
           14310    -57.3608E+06    -657.605E+03              0.    -19.0325E+06
           14311    -58.7117E+06    -2.22413E+06              0.    -18.9979E+06
           14312    -60.0587E+06    -3.94559E+06              0.    -18.9008E+06
           14313    -61.3979E+06    -5.83395E+06              0.    -18.7334E+06
           14314    -62.7253E+06    -7.90206E+06              0.    -18.4871E+06
           14315    -64.0360E+06    -10.1636E+06              0.    -18.1524E+06
           14316    -65.3251E+06    -12.6332E+06              0.    -17.7188E+06
           14317    -66.5869E+06    -15.3266E+06              0.    -17.1748E+06
           14318    -67.8151E+06    -18.2603E+06              0.    -16.5075E+06
           14319    -69.0029E+06    -21.4522E+06              0.    -15.7028E+06
           14320    -70.1426E+06    -24.9212E+06              0.    -14.7451E+06
           14321    -71.2262E+06    -28.6874E+06              0.    -13.6171E+06
           14322    -72.9014E+06    -33.1760E+06              0.    -13.2399E+06
           14323     711.390E+03     321.050E+03              0.    -849.004E+03
           14324     709.528E+03     303.335E+03              0.    -847.517E+03
           14325     715.336E+03     289.184E+03              0.    -839.298E+03
           14326     721.103E+03     275.161E+03              0.    -831.571E+03
           14327     726.823E+03     261.277E+03              0.    -824.328E+03
           14328     732.490E+03     247.544E+03              0.    -817.557E+03
           14329     738.095E+03     233.970E+03              0.    -811.251E+03
           14330     743.633E+03     220.567E+03              0.    -805.400E+03
           14331     749.098E+03     207.342E+03              0.    -799.995E+03
           14332     754.483E+03     194.305E+03              0.    -795.028E+03
           14333     759.784E+03     181.464E+03              0.    -790.492E+03
           14334     764.994E+03     168.826E+03              0.    -786.378E+03
           14335     770.107E+03     156.400E+03              0.    -782.680E+03
           14336     775.119E+03     144.192E+03              0.    -779.390E+03
           14337     780.024E+03     132.209E+03              0.    -776.500E+03
           14338     784.817E+03     120.458E+03              0.    -774.006E+03
           14339     789.493E+03     108.944E+03              0.      -771.9E+03
           14340     794.047E+03     97.6757E+03              0.    -770.176E+03
           14341     798.473E+03     86.6572E+03              0.    -768.829E+03
           14342     802.766E+03     75.8947E+03              0.    -767.852E+03
           14343     806.921E+03     65.3943E+03              0.    -767.241E+03
           14344     810.933E+03     55.1610E+03              0.    -766.990E+03
           14345     814.796E+03     45.2007E+03              0.    -767.095E+03
           14346     818.506E+03     35.5187E+03              0.    -767.550E+03
           14347     822.055E+03     26.1202E+03              0.    -768.351E+03
           14348     825.439E+03     17.0109E+03              0.    -769.494E+03
           14349     828.652E+03     8.19568E+03              0.    -770.974E+03
           14350     831.687E+03        -319.739              0.    -772.789E+03
           14351     834.539E+03    -8.53028E+03              0.    -774.934E+03
           14352     837.201E+03    -16.4304E+03              0.    -777.405E+03
           14353     839.666E+03    -24.0146E+03              0.    -780.200E+03
           14354     841.928E+03    -31.2775E+03              0.    -783.315E+03
           14355     843.979E+03    -38.2133E+03              0.    -786.748E+03
           14356     845.812E+03    -44.8164E+03              0.    -790.495E+03
           14357     847.419E+03    -51.0808E+03              0.    -794.555E+03
           14358     848.792E+03    -57.0006E+03              0.    -798.924E+03
           14359     849.923E+03    -62.5697E+03              0.    -803.601E+03
           14360     850.804E+03    -67.7816E+03              0.    -808.584E+03
           14361     851.424E+03    -72.6300E+03              0.    -813.871E+03
           14362     851.776E+03    -77.1080E+03              0.    -819.461E+03
           14363     851.848E+03    -81.2088E+03              0.    -825.351E+03
           14364     851.631E+03    -84.9252E+03              0.    -831.542E+03
           14365     851.115E+03    -88.2499E+03              0.    -838.031E+03
           14366     850.287E+03    -91.1752E+03              0.    -844.818E+03
           14367     849.137E+03    -93.6933E+03              0.    -851.903E+03
           14368     847.653E+03    -95.7959E+03              0.    -859.285E+03
           14369     845.821E+03    -97.4746E+03              0.    -866.964E+03
           14370     843.630E+03    -98.7206E+03              0.    -874.939E+03
           14371     841.064E+03    -99.5249E+03              0.    -883.212E+03
           14372     838.111E+03     -99.878E+03              0.    -891.781E+03
           14373     834.756E+03    -99.7702E+03              0.    -900.649E+03
           14374     830.982E+03    -99.1912E+03              0.    -909.815E+03
           14375     826.775E+03    -98.1308E+03              0.    -919.281E+03
           14376     822.116E+03    -96.5779E+03              0.    -929.048E+03
           14377     816.990E+03    -94.5213E+03              0.    -939.118E+03
           14378     811.378E+03    -91.9494E+03              0.    -949.491E+03
           14379     805.260E+03    -88.8499E+03              0.    -960.171E+03
           14380     798.619E+03    -85.2104E+03              0.    -971.158E+03
           14381     791.432E+03    -81.0180E+03              0.    -982.456E+03
           14382      783.68E+03    -76.2590E+03              0.    -994.067E+03
           14383     775.340E+03    -70.9197E+03              0.    -1.00599E+06
           14384     766.388E+03    -64.9855E+03              0.    -1.01824E+06
           14385     756.803E+03    -58.4417E+03              0.    -1.03081E+06
           14386     746.558E+03    -51.2728E+03              0.    -1.04370E+06
           14387     735.629E+03    -43.4627E+03              0.    -1.05693E+06
           14388     723.987E+03    -34.9950E+03              0.    -1.07048E+06
           14389     711.607E+03    -25.8526E+03              0.    -1.08438E+06
           14390     698.459E+03    -16.0180E+03              0.    -1.09862E+06
           14391     684.513E+03    -5.47297E+03              0.    -1.11321E+06
           14392     669.739E+03     5.80137E+03              0.    -1.12815E+06
           14393     654.103E+03     17.8244E+03              0.    -1.14345E+06
           14394     637.574E+03     30.6161E+03              0.    -1.15912E+06
           14395     620.116E+03     44.1973E+03              0.    -1.17516E+06
           14396     601.694E+03     58.5890E+03              0.    -1.19158E+06
           14397     582.269E+03     73.8133E+03              0.    -1.20839E+06
           14398     561.805E+03     89.8930E+03              0.    -1.22559E+06
           14399     540.260E+03     106.851E+03              0.    -1.24319E+06
           14400     517.594E+03     124.712E+03              0.    -1.26120E+06
           14401     493.763E+03     143.500E+03              0.    -1.27963E+06
           14402     468.724E+03     163.240E+03              0.    -1.29849E+06
           14403     442.429E+03     183.960E+03              0.    -1.31779E+06
           14404     414.831E+03     205.685E+03              0.    -1.33753E+06
           14405     385.881E+03     228.444E+03              0.    -1.35773E+06
           14406     355.528E+03     252.264E+03              0.    -1.37840E+06
           14407     323.718E+03     277.176E+03              0.    -1.39956E+06
           14408     290.397E+03     303.208E+03              0.    -1.42120E+06
           14409     255.508E+03     330.392E+03              0.    -1.44335E+06
           14410     218.993E+03     358.759E+03              0.    -1.46602E+06
           14411     180.789E+03     388.342E+03              0.    -1.48923E+06
           14412     140.836E+03     419.173E+03              0.    -1.51298E+06
           14413     99.0664E+03     451.287E+03              0.    -1.53730E+06
           14414     55.4145E+03     484.717E+03              0.    -1.56219E+06
           14415     9.81040E+03     519.501E+03              0.    -1.58768E+06
           14416    -37.8179E+03     555.673E+03              0.    -1.61378E+06
           14417    -87.5447E+03     593.272E+03              0.    -1.64051E+06
           14418    -139.447E+03     632.335E+03              0.    -1.66789E+06
           14419    -193.603E+03     672.901E+03              0.    -1.69594E+06
           14420    -250.097E+03     715.009E+03              0.    -1.72467E+06
           14421    -309.012E+03     758.699E+03              0.    -1.75412E+06
           14422    -370.436E+03     804.014E+03              0.    -1.78430E+06
           14423    -434.459E+03     850.994E+03              0.    -1.81523E+06
           14424    -501.174E+03     899.682E+03              0.    -1.84694E+06
           14425    -570.679E+03     950.122E+03              0.    -1.87946E+06
           14426    -643.072E+03     1.00236E+06              0.    -1.91280E+06
           14427    -718.457E+03     1.05643E+06              0.    -1.94701E+06
           14428    -796.938E+03     1.11239E+06              0.    -1.98209E+06
           14429    -878.625E+03     1.17028E+06              0.    -2.01809E+06
           14430    -963.632E+03     1.23015E+06              0.    -2.05504E+06
           14431    -1.05207E+06     1.29205E+06              0.    -2.09296E+06
           14432    -1.14407E+06     1.35602E+06              0.    -2.13189E+06
           14433    -1.23975E+06     1.42210E+06              0.    -2.17186E+06
           14434    -1.33923E+06     1.49036E+06              0.    -2.21291E+06
           14435    -1.44264E+06     1.56083E+06              0.    -2.25507E+06
           14436    -1.55014E+06     1.63357E+06              0.    -2.29839E+06
           14437    -1.66184E+06     1.70863E+06              0.    -2.34291E+06
           14438    -1.77790E+06     1.78605E+06              0.    -2.38866E+06
           14439    -1.89846E+06     1.86588E+06              0.    -2.43568E+06
           14440    -2.02368E+06     1.94818E+06              0.    -2.48403E+06
           14441    -2.15371E+06     2.03299E+06              0.    -2.53375E+06
           14442    -2.28871E+06     2.12036E+06              0.    -2.58489E+06
           14443    -2.42885E+06     2.21034E+06              0.    -2.63750E+06
           14444    -2.57430E+06     2.30297E+06              0.    -2.69163E+06
           14445    -2.72524E+06     2.39831E+06              0.    -2.74733E+06
           14446    -2.88185E+06     2.49640E+06              0.    -2.80466E+06
           14447    -3.04430E+06     2.59728E+06              0.    -2.86367E+06
           14448     -3.2128E+06     2.70100E+06              0.    -2.92444E+06
           14449    -3.38754E+06     2.80760E+06              0.    -2.98702E+06
           14450    -3.56871E+06     2.91713E+06              0.    -3.05147E+06
           14451    -3.75654E+06     3.02962E+06              0.    -3.11786E+06
           14452    -3.95122E+06     3.14510E+06              0.    -3.18626E+06
           14453    -4.15298E+06     3.26362E+06              0.    -3.25675E+06
           14454    -4.36204E+06     3.38520E+06              0.    -3.32940E+06
           14455    -4.57863E+06     3.50988E+06              0.    -3.40428E+06
           14456    -4.80298E+06     3.63767E+06              0.    -3.48147E+06
           14457    -5.03535E+06     3.76861E+06              0.    -3.56105E+06
           14458    -5.27596E+06     3.90271E+06              0.    -3.64312E+06
           14459    -5.52509E+06     4.03998E+06              0.    -3.72775E+06
           14460    -5.78298E+06     4.18044E+06              0.    -3.81504E+06
           14461    -6.04991E+06     4.32408E+06              0.    -3.90507E+06
           14462    -6.32614E+06     4.47091E+06              0.    -3.99795E+06
           14463    -6.61195E+06     4.62092E+06              0.    -4.09378E+06
           14464    -6.90763E+06     4.77409E+06              0.    -4.19264E+06
           14465    -7.21347E+06     4.93040E+06              0.    -4.29466E+06
           14466    -7.52977E+06     5.08982E+06              0.    -4.39992E+06
           14467    -7.85683E+06     5.25231E+06              0.    -4.50855E+06
           14468    -8.19496E+06     5.41783E+06              0.    -4.62065E+06
           14469    -8.54448E+06     5.58630E+06              0.    -4.73634E+06
           14470    -8.90571E+06     5.75767E+06              0.    -4.85573E+06
           14471    -9.27898E+06     5.93185E+06              0.    -4.97894E+06
           14472    -9.66462E+06     6.10874E+06              0.    -5.10609E+06
           14473    -10.0630E+06     6.28824E+06              0.    -5.23731E+06
           14474    -10.4744E+06     6.47022E+06              0.    -5.37272E+06
           14475    -10.8993E+06     6.65454E+06              0.    -5.51244E+06
           14476    -11.3379E+06     6.84104E+06              0.    -5.65660E+06
           14477    -11.7906E+06     7.02954E+06              0.    -5.80532E+06
           14478    -12.2579E+06     7.21984E+06              0.    -5.95874E+06
           14479    -12.7401E+06     7.41173E+06              0.    -6.11698E+06
           14480    -13.2375E+06     7.60495E+06              0.    -6.28017E+06
           14481    -13.7505E+06     7.79924E+06              0.    -6.44843E+06
           14482    -14.2796E+06     7.99430E+06              0.    -6.62189E+06
           14483    -14.8252E+06     8.18980E+06              0.    -6.80066E+06
           14484    -15.3875E+06     8.38538E+06              0.    -6.98487E+06
           14485    -15.9671E+06     8.58064E+06              0.    -7.17462E+06
           14486    -16.5642E+06     8.77516E+06              0.    -7.37002E+06
           14487    -17.1794E+06     8.96845E+06              0.    -7.57118E+06
           14488    -17.8130E+06     9.16001E+06              0.    -7.77817E+06
           14489    -18.4654E+06     9.34928E+06              0.    -7.99110E+06
           14490     -19.137E+06     9.53563E+06              0.    -8.21002E+06
           14491    -19.8282E+06     9.71841E+06              0.    -8.43500E+06
           14492    -20.5394E+06     9.89689E+06              0.    -8.66608E+06
           14493    -21.2709E+06     10.0703E+06              0.    -8.90329E+06
           14494    -22.0232E+06     10.2378E+06              0.    -9.14663E+06
           14495    -22.7966E+06     10.3984E+06              0.    -9.39610E+06
           14496    -23.5915E+06     10.5511E+06              0.    -9.65165E+06
           14497    -24.4082E+06     10.6949E+06              0.    -9.91322E+06
           14498    -25.2471E+06     10.8286E+06              0.    -10.1807E+06
           14499    -26.1084E+06     10.9509E+06              0.    -10.4540E+06
           14500    -26.9924E+06     11.0604E+06              0.    -10.7329E+06
           14501    -27.8995E+06     11.1557E+06              0.    -11.0173E+06
           14502    -28.8299E+06     11.2351E+06              0.    -11.3067E+06
           14503    -29.7837E+06     11.2969E+06              0.    -11.6011E+06
           14504    -30.7612E+06     11.3393E+06              0.    -11.8999E+06
           14505    -31.7625E+06     11.3602E+06              0.    -12.2027E+06
           14506    -32.7878E+06     11.3573E+06              0.    -12.5091E+06
           14507    -33.8370E+06     11.3285E+06              0.    -12.8184E+06
           14508    -34.9101E+06     11.2711E+06              0.    -13.1300E+06
           14509    -36.0073E+06     11.1823E+06              0.    -13.4431E+06
           14510    -37.1282E+06     11.0593E+06              0.    -13.7568E+06
           14511    -38.2727E+06     10.8988E+06              0.    -14.0702E+06
           14512    -39.4406E+06     10.6973E+06              0.    -14.3822E+06
           14513    -40.6314E+06     10.4513E+06              0.    -14.6914E+06
           14514    -41.8448E+06     10.1566E+06              0.    -14.9965E+06
           14515    -43.0802E+06     9.80897E+06              0.    -15.2959E+06
           14516    -44.3368E+06     9.40379E+06              0.    -15.5879E+06
           14517    -45.6140E+06     8.93606E+06              0.    -15.8704E+06
           14518    -46.9108E+06     8.40040E+06              0.    -16.1414E+06
           14519    -48.2260E+06     7.79105E+06              0.    -16.3984E+06
           14520    -49.5584E+06     7.10177E+06              0.    -16.6388E+06
           14521    -50.9065E+06     6.32587E+06              0.    -16.8595E+06
           14522    -52.2688E+06     5.45618E+06              0.    -17.0573E+06
           14523    -53.6433E+06     4.48496E+06              0.    -17.2285E+06
           14524    -55.0279E+06     3.40391E+06              0.    -17.3691E+06
           14525    -56.4202E+06     2.20412E+06              0.    -17.4747E+06
           14526    -57.8176E+06     875.999E+03              0.    -17.5403E+06
           14527    -59.2171E+06    -590.721E+03              0.    -17.5606E+06
           14528    -60.6153E+06    -2.20705E+06              0.    -17.5295E+06
           14529    -62.0085E+06    -3.98483E+06              0.    -17.4405E+06
           14530    -63.3927E+06    -5.93671E+06              0.    -17.2863E+06
           14531    -64.7631E+06    -8.07629E+06              0.    -17.0587E+06
           14532    -66.1148E+06    -10.4181E+06              0.    -16.7490E+06
           14533    -67.4420E+06    -12.9777E+06              0.    -16.3472E+06
           14534    -68.7384E+06    -15.7717E+06              0.    -15.8427E+06
           14535    -69.9971E+06    -18.8179E+06              0.    -15.2232E+06
           14536    -71.2104E+06    -22.1354E+06              0.    -14.4756E+06
           14537    -72.3698E+06    -25.7444E+06              0.    -13.5852E+06
           14538    -73.4653E+06    -29.6665E+06              0.    -12.5356E+06
           14539    -75.1990E+06    -34.3417E+06              0.    -12.1791E+06
           14540     691.127E+03     311.950E+03              0.    -854.708E+03
           14541     689.332E+03     294.863E+03              0.    -853.212E+03
           14542     694.935E+03     281.205E+03              0.    -844.958E+03
           14543     700.500E+03     267.666E+03              0.    -837.189E+03
           14544     706.020E+03     254.256E+03              0.    -829.896E+03
           14545     711.487E+03     240.988E+03              0.    -823.069E+03
           14546     716.895E+03     227.871E+03              0.    -816.699E+03
           14547     722.237E+03     214.915E+03              0.    -810.778E+03
           14548     727.506E+03     202.129E+03              0.    -805.298E+03
           14549     732.697E+03     189.523E+03              0.    -800.249E+03
           14550     737.804E+03     177.105E+03              0.    -795.625E+03
           14551     742.820E+03     164.883E+03              0.    -791.419E+03
           14552     747.741E+03     152.866E+03              0.    -787.622E+03
           14553     752.560E+03     141.059E+03              0.    -784.227E+03
           14554     757.272E+03     129.471E+03              0.    -781.229E+03
           14555     761.872E+03     118.108E+03              0.    -778.620E+03
           14556     766.354E+03     106.978E+03              0.    -776.394E+03
           14557     770.713E+03     96.0853E+03              0.    -774.545E+03
           14558     774.944E+03     85.4373E+03              0.    -773.067E+03
           14559     779.042E+03     75.0400E+03              0.    -771.955E+03
           14560     783.000E+03     64.8992E+03              0.    -771.203E+03
           14561     786.814E+03     55.0207E+03              0.    -770.805E+03
           14562     790.478E+03     45.4102E+03              0.    -770.758E+03
           14563     793.986E+03     36.0732E+03              0.    -771.055E+03
           14564     797.333E+03     27.0154E+03              0.    -771.693E+03
           14565     800.512E+03     18.2424E+03              0.    -772.667E+03
           14566     803.518E+03     9.75954E+03              0.    -773.973E+03
           14567     806.345E+03     1.57251E+03              0.    -775.606E+03
           14568     808.986E+03    -6.31332E+03              0.    -777.563E+03
           14569     811.434E+03    -13.8922E+03              0.    -779.840E+03
           14570     813.683E+03    -21.1586E+03              0.    -782.433E+03
           14571     815.725E+03    -28.1067E+03              0.    -785.340E+03
           14572     817.554E+03    -34.7308E+03              0.    -788.557E+03
           14573     819.161E+03    -41.0248E+03              0.    -792.081E+03
           14574     820.539E+03    -46.9828E+03              0.    -795.909E+03
           14575     821.680E+03    -52.5986E+03              0.    -800.039E+03
           14576     822.576E+03    -57.8659E+03              0.    -804.468E+03
           14577     823.216E+03    -62.7781E+03              0.    -809.194E+03
           14578     823.592E+03    -67.3285E+03              0.    -814.215E+03
           14579     823.696E+03    -71.5103E+03              0.    -819.528E+03
           14580     823.515E+03    -75.3165E+03              0.    -825.133E+03
           14581     823.041E+03    -78.7396E+03              0.    -831.026E+03
           14582     822.262E+03    -81.7721E+03              0.    -837.208E+03
           14583     821.167E+03    -84.4062E+03              0.    -843.677E+03
           14584     819.744E+03    -86.6338E+03              0.    -850.430E+03
           14585     817.981E+03    -88.4465E+03              0.    -857.469E+03
           14586     815.866E+03    -89.8358E+03              0.    -864.792E+03
           14587     813.384E+03    -90.7927E+03              0.    -872.397E+03
           14588     810.523E+03    -91.3078E+03              0.    -880.286E+03
           14589     807.267E+03    -91.3716E+03              0.    -888.458E+03
           14590     803.602E+03    -90.9741E+03              0.    -896.912E+03
           14591     799.513E+03    -90.1050E+03              0.    -905.649E+03
           14592     794.981E+03    -88.7536E+03              0.    -914.669E+03
           14593     789.992E+03    -86.9088E+03              0.    -923.973E+03
           14594     784.527E+03    -84.5591E+03              0.    -933.562E+03
           14595     778.568E+03    -81.6927E+03              0.    -943.436E+03
           14596     772.095E+03    -78.2972E+03              0.    -953.597E+03
           14597     765.089E+03    -74.3599E+03              0.    -964.046E+03
           14598     757.530E+03    -69.8675E+03              0.    -974.784E+03
           14599     749.395E+03    -64.8064E+03              0.    -985.813E+03
           14600     740.663E+03    -59.1624E+03              0.    -997.136E+03
           14601     731.309E+03    -52.9208E+03              0.    -1.00875E+06
           14602     721.311E+03    -46.0666E+03              0.    -1.02067E+06
           14603     710.643E+03    -38.5840E+03              0.    -1.03289E+06
           14604     699.279E+03    -30.4567E+03              0.    -1.04541E+06
           14605     687.192E+03    -21.6681E+03              0.    -1.05823E+06
           14606     674.353E+03    -12.2007E+03              0.    -1.07137E+06
           14607     660.734E+03    -2.03672E+03              0.    -1.08482E+06
           14608     646.304E+03     8.84236E+03              0.    -1.09859E+06
           14609     631.033E+03     20.4556E+03              0.    -1.11268E+06
           14610     614.886E+03     32.8229E+03              0.    -1.12710E+06
           14611     597.831E+03     45.9643E+03              0.    -1.14185E+06
           14612     579.832E+03     59.9011E+03              0.    -1.15694E+06
           14613     560.854E+03     74.6547E+03              0.    -1.17237E+06
           14614     540.857E+03     90.2475E+03              0.    -1.18814E+06
           14615     519.803E+03     106.703E+03              0.    -1.20427E+06
           14616     497.652E+03     124.043E+03              0.    -1.22076E+06
           14617     474.361E+03     142.295E+03              0.    -1.23762E+06
           14618     449.887E+03     161.481E+03              0.    -1.25485E+06
           14619     424.185E+03     181.629E+03              0.    -1.27247E+06
           14620     397.207E+03     202.765E+03              0.    -1.29048E+06
           14621     368.905E+03     224.915E+03              0.    -1.30888E+06
           14622     339.230E+03     248.109E+03              0.    -1.32769E+06
           14623     308.128E+03     272.376E+03              0.    -1.34692E+06
           14624     275.547E+03     297.744E+03              0.    -1.36657E+06
           14625     241.429E+03     324.244E+03              0.    -1.38667E+06
           14626     205.719E+03     351.907E+03              0.    -1.40721E+06
           14627     168.356E+03     380.767E+03              0.    -1.42820E+06
           14628     129.277E+03     410.855E+03              0.    -1.44967E+06
           14629     88.4200E+03     442.205E+03              0.    -1.47162E+06
           14630     45.7179E+03     474.851E+03              0.    -1.49407E+06
           14631     1.10242E+03     508.830E+03              0.    -1.51703E+06
           14632    -45.4972E+03     544.177E+03              0.    -1.54051E+06
           14633    -94.1542E+03     580.929E+03              0.    -1.56452E+06
           14634    -144.944E+03     619.124E+03              0.    -1.58909E+06
           14635    -197.945E+03     658.801E+03              0.    -1.61423E+06
           14636    -253.238E+03     699.999E+03              0.    -1.63996E+06
           14637    -310.907E+03     742.758E+03              0.    -1.66629E+06
           14638    -371.037E+03     787.120E+03              0.    -1.69324E+06
           14639    -433.718E+03     833.128E+03              0.    -1.72084E+06
           14640    -499.043E+03     880.822E+03              0.    -1.74909E+06
           14641    -567.105E+03     930.247E+03              0.    -1.77803E+06
           14642    -638.004E+03     981.447E+03              0.    -1.80767E+06
           14643     -711.84E+03     1.03447E+06              0.    -1.83804E+06
           14644    -788.719E+03     1.08935E+06              0.    -1.86916E+06
           14645    -868.748E+03     1.14615E+06              0.    -1.90105E+06
           14646    -952.039E+03     1.20491E+06              0.    -1.93374E+06
           14647    -1.03871E+06     1.26567E+06              0.    -1.96726E+06
           14648    -1.12887E+06     1.32849E+06              0.    -2.00164E+06
           14649    -1.22265E+06     1.39342E+06              0.    -2.03689E+06
           14650    -1.32018E+06     1.46049E+06              0.    -2.07307E+06
           14651    -1.42158E+06     1.52977E+06              0.    -2.11018E+06
           14652    -1.52699E+06     1.60130E+06              0.    -2.14828E+06
           14653    -1.63654E+06     1.67514E+06              0.    -2.18739E+06
           14654    -1.75039E+06     1.75133E+06              0.    -2.22755E+06
           14655    -1.86867E+06     1.82992E+06              0.    -2.26879E+06
           14656    -1.99154E+06     1.91097E+06              0.    -2.31116E+06
           14657    -2.11915E+06     1.99452E+06              0.    -2.35469E+06
           14658    -2.25166E+06     2.08064E+06              0.    -2.39943E+06
           14659    -2.38925E+06     2.16935E+06              0.    -2.44541E+06
           14660    -2.53207E+06     2.26073E+06              0.    -2.49269E+06
           14661    -2.68030E+06     2.35481E+06              0.    -2.54131E+06
           14662    -2.83413E+06     2.45165E+06              0.    -2.59132E+06
           14663    -2.99374E+06     2.55130E+06              0.    -2.64276E+06
           14664    -3.15932E+06     2.65379E+06              0.    -2.69570E+06
           14665    -3.33107E+06     2.75918E+06              0.    -2.75019E+06
           14666    -3.50918E+06     2.86751E+06              0.    -2.80628E+06
           14667    -3.69386E+06     2.97883E+06              0.    -2.86403E+06
           14668    -3.88533E+06     3.09318E+06              0.    -2.92351E+06
           14669    -4.08380E+06     3.21059E+06              0.    -2.98476E+06
           14670    -4.28951E+06     3.33110E+06              0.    -3.04788E+06
           14671    -4.50267E+06     3.45475E+06              0.    -3.11290E+06
           14672    -4.72353E+06     3.58157E+06              0.    -3.17992E+06
           14673    -4.95232E+06     3.71159E+06              0.    -3.24900E+06
           14674    -5.18931E+06     3.84483E+06              0.    -3.32022E+06
           14675    -5.43473E+06     3.98131E+06              0.    -3.39365E+06
           14676    -5.68886E+06     4.12105E+06              0.    -3.46937E+06
           14677    -5.95196E+06     4.26407E+06              0.    -3.54747E+06
           14678    -6.22431E+06     4.41037E+06              0.    -3.62804E+06
           14679    -6.50618E+06     4.55994E+06              0.    -3.71115E+06
           14680    -6.79787E+06     4.71279E+06              0.    -3.79690E+06
           14681    -7.09967E+06     4.86890E+06              0.    -3.88539E+06
           14682    -7.41188E+06     5.02826E+06              0.    -3.97671E+06
           14683    -7.73481E+06     5.19083E+06              0.    -4.07096E+06
           14684    -8.06878E+06     5.35658E+06              0.    -4.16823E+06
           14685    -8.41410E+06     5.52547E+06              0.    -4.26865E+06
           14686    -8.77111E+06     5.69743E+06              0.    -4.37229E+06
           14687    -9.14014E+06     5.87239E+06              0.    -4.47929E+06
           14688    -9.52153E+06     6.05029E+06              0.    -4.58975E+06
           14689    -9.91564E+06     6.23103E+06              0.    -4.70377E+06
           14690    -10.3228E+06     6.41449E+06              0.    -4.82148E+06
           14691    -10.7434E+06     6.60056E+06              0.    -4.94300E+06
           14692    -11.1778E+06     6.78909E+06              0.    -5.06843E+06
           14693    -11.6264E+06     6.97994E+06              0.    -5.19790E+06
           14694    -12.0895E+06     7.17291E+06              0.    -5.33152E+06
           14695    -12.5676E+06     7.36782E+06              0.    -5.46942E+06
           14696    -13.0610E+06     7.56444E+06              0.    -5.61173E+06
           14697    -13.5701E+06     7.76253E+06              0.    -5.75854E+06
           14698    -14.0953E+06     7.96182E+06              0.    -5.90999E+06
           14699    -14.6371E+06     8.16200E+06              0.    -6.06620E+06
           14700    -15.1958E+06     8.36275E+06              0.    -6.22726E+06
           14701    -15.7719E+06      8.5637E+06              0.    -6.39331E+06
           14702    -16.3657E+06     8.76446E+06              0.    -6.56445E+06
           14703    -16.9778E+06     8.96458E+06              0.    -6.74077E+06
           14704    -17.6084E+06     9.16359E+06              0.    -6.92237E+06
           14705    -18.2581E+06     9.36097E+06              0.    -7.10935E+06
           14706    -18.9272E+06     9.55616E+06              0.    -7.30178E+06
           14707    -19.6161E+06     9.74851E+06              0.    -7.49974E+06
           14708    -20.3254E+06     9.93736E+06              0.    -7.70329E+06
           14709    -21.0553E+06     10.1220E+06              0.    -7.91246E+06
           14710    -21.8064E+06     10.3016E+06              0.    -8.12730E+06
           14711    -22.5789E+06     10.4752E+06              0.    -8.34781E+06
           14712    -23.3733E+06     10.6421E+06              0.    -8.57399E+06
           14713    -24.1900E+06     10.8010E+06              0.    -8.80581E+06
           14714    -25.0293E+06     10.9510E+06              0.    -9.04322E+06
           14715    -25.8916E+06     11.0908E+06              0.    -9.28613E+06
           14716    -26.7772E+06     11.2191E+06              0.    -9.53443E+06
           14717    -27.6864E+06     11.3345E+06              0.    -9.78798E+06
           14718    -28.6195E+06     11.4354E+06              0.    -10.0466E+06
           14719    -29.5768E+06     11.5203E+06              0.    -10.3100E+06
           14720    -30.5586E+06     11.5874E+06              0.    -10.5780E+06
           14721    -31.5649E+06     11.6346E+06              0.    -10.8501E+06
           14722    -32.5960E+06     11.6600E+06              0.    -11.1261E+06
           14723    -33.6520E+06     11.6613E+06              0.    -11.4054E+06
           14724    -34.7329E+06     11.6360E+06              0.    -11.6876E+06
           14725    -35.8388E+06     11.5816E+06              0.    -11.9720E+06
           14726    -36.9696E+06     11.4951E+06              0.    -12.2579E+06
           14727    -38.1252E+06     11.3736E+06              0.    -12.5445E+06
           14728    -39.3053E+06     11.2137E+06              0.    -12.8309E+06
           14729    -40.5098E+06     11.0120E+06              0.    -13.1162E+06
           14730    -41.7382E+06     10.7644E+06              0.    -13.3991E+06
           14731    -42.9901E+06     10.4670E+06              0.    -13.6783E+06
           14732    -44.2649E+06     10.1152E+06              0.    -13.9525E+06
           14733    -45.5619E+06     9.70426E+06              0.    -14.2201E+06
           14734    -46.8802E+06     9.22900E+06              0.    -14.4792E+06
           14735    -48.2188E+06     8.68385E+06              0.    -14.7278E+06
           14736    -49.5766E+06     8.06281E+06              0.    -14.9637E+06
           14737    -50.9523E+06     7.35941E+06              0.    -15.1845E+06
           14738    -52.3443E+06     6.56669E+06              0.    -15.3874E+06
           14739    -53.7508E+06     5.67719E+06              0.    -15.5694E+06
           14740    -55.1698E+06     4.68285E+06              0.    -15.7272E+06
           14741    -56.5992E+06     3.57501E+06              0.    -15.8571E+06
           14742    -58.0363E+06     2.34437E+06              0.    -15.9549E+06
           14743    -59.4783E+06     980.930E+03              0.    -16.0161E+06
           14744    -60.9219E+06    -526.059E+03              0.    -16.0358E+06
           14745    -62.3637E+06    -2.18812E+06              0.    -16.0084E+06
           14746    -63.7995E+06    -4.01768E+06              0.    -15.9278E+06
           14747    -65.2249E+06      -6.028E+06              0.    -15.7874E+06
           14748    -66.6350E+06    -8.23340E+06              0.    -15.5795E+06
           14749    -68.0241E+06    -10.6492E+06              0.    -15.2961E+06
           14750    -69.3861E+06    -13.2917E+06              0.    -14.9280E+06
           14751    -70.7142E+06    -16.1787E+06              0.    -14.4651E+06
           14752    -72.0006E+06    -19.3288E+06              0.    -13.8964E+06
           14753    -73.2370E+06    -22.7625E+06              0.    -13.2095E+06
           14754    -74.4137E+06    -26.5012E+06              0.    -12.3907E+06
           14755    -75.5206E+06    -30.5683E+06              0.    -11.4249E+06
           14756    -77.3092E+06    -35.4170E+06              0.    -11.0923E+06
           14757     670.821E+03     302.830E+03              0.    -860.208E+03
           14758     669.092E+03     286.360E+03              0.    -858.704E+03
           14759     674.494E+03     273.188E+03              0.    -850.417E+03
           14760     679.860E+03     260.125E+03              0.    -842.607E+03
           14761     685.182E+03     247.183E+03              0.    -835.266E+03
           14762     690.453E+03     234.373E+03              0.    -828.384E+03
           14763     695.667E+03     221.705E+03              0.    -821.952E+03
           14764     700.815E+03     209.190E+03              0.    -815.962E+03
           14765     705.893E+03     196.837E+03              0.    -810.407E+03
           14766     710.893E+03     184.656E+03              0.    -805.278E+03
           14767     715.809E+03     172.656E+03              0.    -800.567E+03
           14768     720.635E+03     160.845E+03              0.    -796.268E+03
           14769     725.366E+03     149.230E+03              0.    -792.372E+03
           14770     729.996E+03     137.820E+03              0.    -788.874E+03
           14771     734.519E+03     126.621E+03              0.    -785.766E+03
           14772      738.93E+03     115.642E+03              0.    -783.042E+03
           14773     743.223E+03     104.888E+03              0.    -780.696E+03
           14774     747.392E+03     94.3666E+03              0.    -778.721E+03
           14775     751.433E+03     84.0840E+03              0.    -777.113E+03
           14776     755.340E+03     74.0463E+03              0.    -775.864E+03
           14777     759.106E+03     64.2599E+03              0.    -774.970E+03
           14778     762.727E+03     54.7305E+03              0.    -774.425E+03
           14779     766.197E+03     45.4642E+03              0.    -774.224E+03
           14780     769.510E+03     36.4666E+03              0.    -774.362E+03
           14781     772.660E+03     27.7436E+03              0.    -774.835E+03
           14782     775.642E+03     19.3009E+03              0.    -775.638E+03
           14783     778.448E+03     11.1441E+03              0.    -776.767E+03
           14784     781.073E+03     3.27914E+03              0.    -778.217E+03
           14785     783.510E+03    -4.28856E+03              0.    -779.983E+03
           14786     785.753E+03    -11.5531E+03              0.    -782.064E+03
           14787     787.794E+03    -18.5086E+03              0.    -784.453E+03
           14788     789.626E+03    -25.1493E+03              0.    -787.149E+03
           14789     791.241E+03    -31.4691E+03              0.    -790.148E+03
           14790     792.633E+03    -37.4619E+03              0.    -793.445E+03
           14791     793.793E+03    -43.1217E+03              0.    -797.039E+03
           14792     794.712E+03    -48.4419E+03              0.    -800.926E+03
           14793     795.382E+03    -53.4162E+03              0.    -805.103E+03
           14794     795.794E+03    -58.0378E+03              0.    -809.568E+03
           14795     795.939E+03    -62.2999E+03              0.    -814.319E+03
           14796     795.807E+03    -66.1956E+03              0.    -819.352E+03
           14797     795.387E+03    -69.7174E+03              0.    -824.666E+03
           14798     794.669E+03    -72.8579E+03              0.    -830.259E+03
           14799     793.643E+03    -75.6095E+03              0.    -836.128E+03
           14800     792.295E+03    -77.9641E+03              0.    -842.273E+03
           14801     790.616E+03    -79.9135E+03              0.    -848.691E+03
           14802     788.592E+03    -81.4491E+03              0.    -855.381E+03
           14803     786.210E+03    -82.5623E+03              0.    -862.342E+03
           14804     783.457E+03    -83.2437E+03              0.    -869.573E+03
           14805     780.319E+03    -83.4841E+03              0.    -877.072E+03
           14806     776.781E+03    -83.2735E+03              0.    -884.839E+03
           14807     772.827E+03    -82.6020E+03              0.    -892.874E+03
           14808     768.443E+03    -81.4589E+03              0.    -901.175E+03
           14809     763.611E+03    -79.8334E+03              0.    -909.743E+03
           14810     758.315E+03    -77.7143E+03              0.    -918.577E+03
           14811     752.535E+03    -75.0899E+03              0.    -927.677E+03
           14812     746.255E+03    -71.9481E+03              0.    -937.045E+03
           14813     739.454E+03    -68.2763E+03              0.    -946.679E+03
           14814     732.113E+03    -64.0618E+03              0.    -956.580E+03
           14815     724.210E+03    -59.2910E+03              0.    -966.750E+03
           14816     715.723E+03    -53.9500E+03              0.    -977.189E+03
           14817     706.630E+03    -48.0245E+03              0.    -987.899E+03
           14818     696.908E+03    -41.4996E+03              0.    -998.880E+03
           14819     686.532E+03    -34.3600E+03              0.    -1.01013E+06
           14820     675.476E+03    -26.5897E+03              0.    -1.02166E+06
           14821     663.715E+03    -18.1722E+03              0.    -1.03347E+06
           14822      651.22E+03    -9.09070E+03              0.    -1.04555E+06
           14823     637.964E+03         672.605              0.    -1.05792E+06
           14824     623.916E+03     11.1357E+03              0.    -1.07057E+06
           14825     609.046E+03     22.3174E+03              0.    -1.08351E+06
           14826     593.323E+03     34.2370E+03              0.    -1.09674E+06
           14827     576.713E+03     46.9146E+03              0.    -1.11026E+06
           14828     559.181E+03     60.3707E+03              0.    -1.12407E+06
           14829     540.693E+03     74.6268E+03              0.    -1.13819E+06
           14830     521.212E+03     89.7045E+03              0.    -1.15261E+06
           14831     500.698E+03     105.627E+03              0.    -1.16734E+06
           14832     479.113E+03     122.417E+03              0.    -1.18239E+06
           14833     456.416E+03     140.098E+03              0.    -1.19775E+06
           14834     432.562E+03     158.696E+03              0.    -1.21344E+06
           14835     407.510E+03     178.236E+03              0.    -1.22946E+06
           14836     381.212E+03     198.744E+03              0.    -1.24581E+06
           14837     353.621E+03     220.247E+03              0.    -1.26251E+06
           14838     324.688E+03     242.773E+03              0.    -1.27956E+06
           14839     294.362E+03     266.351E+03              0.    -1.29696E+06
           14840     262.591E+03     291.008E+03              0.    -1.31472E+06
           14841     229.319E+03     316.777E+03              0.    -1.33286E+06
           14842     194.491E+03     343.687E+03              0.    -1.35137E+06
           14843     158.047E+03     371.771E+03              0.    -1.37027E+06
           14844     119.927E+03     401.061E+03              0.    -1.38957E+06
           14845     80.0686E+03     431.589E+03              0.    -1.40928E+06
           14846     38.4065E+03     463.392E+03              0.    -1.42940E+06
           14847    -5.12616E+03     496.503E+03              0.    -1.44995E+06
           14848    -50.5990E+03     530.958E+03              0.    -1.47094E+06
           14849    -98.0838E+03     566.795E+03              0.    -1.49239E+06
           14850    -147.655E+03     604.050E+03              0.    -1.51429E+06
           14851    -199.389E+03     642.763E+03              0.    -1.53667E+06
           14852    -253.366E+03     682.973E+03              0.    -1.55953E+06
           14853    -309.667E+03     724.719E+03              0.    -1.58290E+06
           14854    -368.377E+03     768.044E+03              0.    -1.60679E+06
           14855    -429.585E+03     812.988E+03              0.    -1.63121E+06
           14856    -493.380E+03     859.595E+03              0.    -1.65618E+06
           14857    -559.857E+03     907.908E+03              0.    -1.68172E+06
           14858    -629.112E+03     957.971E+03              0.    -1.70783E+06
           14859    -701.245E+03     1.00983E+06              0.    -1.73456E+06
           14860    -776.358E+03     1.06353E+06              0.    -1.76190E+06
           14861    -854.559E+03     1.11912E+06              0.    -1.78988E+06
           14862    -935.958E+03     1.17664E+06              0.    -1.81853E+06
           14863    -1.02067E+06     1.23615E+06              0.    -1.84786E+06
           14864    -1.10880E+06     1.29769E+06              0.    -1.87790E+06
           14865    -1.20049E+06     1.36131E+06              0.    -1.90867E+06
           14866    -1.29585E+06     1.42706E+06              0.    -1.94020E+06
           14867    -1.39501E+06     1.49499E+06              0.    -1.97251E+06
           14868    -1.49811E+06     1.56516E+06              0.    -2.00563E+06
           14869    -1.60528E+06     1.63761E+06              0.    -2.03959E+06
           14870    -1.71666E+06     1.71239E+06              0.    -2.07442E+06
           14871    -1.83239E+06     1.78957E+06              0.    -2.11015E+06
           14872    -1.95264E+06     1.86918E+06              0.    -2.14681E+06
           14873    -2.07755E+06     1.95128E+06              0.    -2.18444E+06
           14874    -2.20727E+06     2.03593E+06              0.    -2.22306E+06
           14875    -2.34199E+06     2.12318E+06              0.    -2.26273E+06
           14876    -2.48185E+06     2.21307E+06              0.    -2.30347E+06
           14877    -2.62705E+06     2.30567E+06              0.    -2.34532E+06
           14878    -2.77775E+06     2.40102E+06              0.    -2.38833E+06
           14879    -2.93414E+06     2.49917E+06              0.    -2.43255E+06
           14880    -3.09641E+06     2.60017E+06              0.    -2.47800E+06
           14881    -3.26475E+06     2.70407E+06              0.    -2.52475E+06
           14882    -3.43937E+06     2.81093E+06              0.    -2.57284E+06
           14883    -3.62047E+06     2.92078E+06              0.    -2.62232E+06
           14884    -3.80826E+06     3.03367E+06              0.    -2.67324E+06
           14885    -4.00297E+06     3.14965E+06              0.    -2.72566E+06
           14886    -4.20481E+06     3.26875E+06              0.    -2.77963E+06
           14887    -4.41401E+06     3.39102E+06              0.    -2.83522E+06
           14888    -4.63082E+06     3.51650E+06              0.    -2.89248E+06
           14889    -4.85547E+06     3.64521E+06              0.    -2.95148E+06
           14890    -5.08821E+06     3.77719E+06              0.    -3.01228E+06
           14891    -5.32930E+06     3.91246E+06              0.    -3.07495E+06
           14892    -5.57901E+06     4.05106E+06              0.    -3.13956E+06
           14893    -5.83759E+06     4.19299E+06              0.    -3.20619E+06
           14894    -6.10533E+06     4.33828E+06              0.    -3.27491E+06
           14895    -6.38251E+06     4.48693E+06              0.    -3.34579E+06
           14896    -6.66941E+06     4.63895E+06              0.    -3.41892E+06
           14897    -6.96634E+06     4.79433E+06              0.    -3.49438E+06
           14898    -7.27360E+06     4.95307E+06              0.    -3.57225E+06
           14899    -7.59150E+06     5.11514E+06              0.    -3.65263E+06
           14900    -7.92036E+06     5.28053E+06              0.    -3.73560E+06
           14901    -8.26050E+06     5.44920E+06              0.    -3.82126E+06
           14902    -8.61226E+06     5.62110E+06              0.    -3.90970E+06
           14903    -8.97598E+06     5.79619E+06              0.    -4.00102E+06
           14904    -9.35199E+06     5.97439E+06              0.    -4.09532E+06
           14905    -9.74067E+06     6.15563E+06              0.    -4.19270E+06
           14906    -10.1424E+06     6.33982E+06              0.    -4.29327E+06
           14907    -10.5574E+06     6.52685E+06              0.    -4.39713E+06
           14908    -10.9863E+06     6.71661E+06              0.    -4.50439E+06
           14909    -11.4293E+06     6.90895E+06              0.    -4.61516E+06
           14910    -11.8868E+06     7.10373E+06              0.    -4.72954E+06
           14911    -12.3592E+06     7.30075E+06              0.    -4.84766E+06
           14912    -12.8470E+06     7.49983E+06              0.    -4.96963E+06
           14913    -13.3505E+06     7.70075E+06              0.    -5.09555E+06
           14914    -13.8702E+06     7.90325E+06              0.    -5.22553E+06
           14915    -14.4064E+06     8.10708E+06              0.    -5.35970E+06
           14916    -14.9596E+06     8.31192E+06              0.    -5.49815E+06
           14917    -15.5302E+06     8.51745E+06              0.    -5.64101E+06
           14918    -16.1187E+06     8.72331E+06              0.    -5.78836E+06
           14919    -16.7254E+06     8.92908E+06              0.    -5.94033E+06
           14920    -17.3509E+06     9.13433E+06              0.    -6.09699E+06
           14921    -17.9955E+06     9.33857E+06              0.    -6.25845E+06
           14922    -18.6597E+06     9.54128E+06              0.    -6.42480E+06
           14923    -19.3439E+06     9.74188E+06              0.     -6.5961E+06
           14924    -20.0486E+06     9.93974E+06              0.    -6.77244E+06
           14925    -20.7742E+06     10.1342E+06              0.    -6.95386E+06
           14926    -21.5212E+06     10.3244E+06              0.    -7.14043E+06
           14927    -22.2898E+06     10.5097E+06              0.    -7.33216E+06
           14928    -23.0807E+06     10.6891E+06              0.    -7.52909E+06
           14929    -23.8942E+06     10.8617E+06              0.    -7.73121E+06
           14930    -24.7306E+06     11.0263E+06              0.    -7.93850E+06
           14931    -25.5904E+06     11.1820E+06              0.    -8.15091E+06
           14932    -26.4740E+06     11.3274E+06              0.    -8.36839E+06
           14933    -27.3816E+06     11.4613E+06              0.    -8.59083E+06
           14934    -28.3137E+06     11.5822E+06              0.    -8.81811E+06
           14935    -29.2705E+06     11.6884E+06              0.    -9.05006E+06
           14936    -30.2523E+06     11.7784E+06              0.    -9.28648E+06
           14937    -31.2594E+06     11.8504E+06              0.    -9.52711E+06
           14938    -32.2919E+06     11.9022E+06              0.    -9.77167E+06
           14939    -33.3501E+06     11.9319E+06              0.    -10.0198E+06
           14940    -34.4341E+06     11.9370E+06              0.    -10.2711E+06
           14941    -35.5439E+06     11.9152E+06              0.    -10.5251E+06
           14942    -36.6795E+06     11.8636E+06              0.    -10.7812E+06
           14943    -37.8410E+06     11.7794E+06              0.    -11.0388E+06
           14944    -39.0281E+06     11.6595E+06              0.    -11.2973E+06
           14945    -40.2407E+06     11.5003E+06              0.    -11.5557E+06
           14946    -41.4786E+06     11.2984E+06              0.    -11.8132E+06
           14947    -42.7412E+06     11.0497E+06              0.    -12.0687E+06
           14948    -44.0282E+06     10.7499E+06              0.    -12.3211E+06
           14949    -45.3389E+06     10.3946E+06              0.    -12.5690E+06
           14950    -46.6726E+06     9.97860E+06              0.    -12.8111E+06
           14951    -48.0283E+06     9.49670E+06              0.    -13.0457E+06
           14952    -49.4052E+06     8.94311E+06              0.    -13.2709E+06
           14953    -50.8018E+06     8.31164E+06              0.    -13.4848E+06
           14954    -52.2169E+06     7.59558E+06              0.    -13.6852E+06
           14955    -53.6488E+06     6.78776E+06              0.    -13.8695E+06
           14956    -55.0956E+06     5.88041E+06              0.    -14.0351E+06
           14957    -56.5553E+06     4.86521E+06              0.    -14.1788E+06
           14958    -58.0255E+06     3.73316E+06              0.    -14.2973E+06
           14959    -59.5033E+06     2.47462E+06              0.    -14.3869E+06
           14960    -60.9859E+06     1.07918E+06              0.    -14.4434E+06
           14961    -62.4698E+06    -464.331E+03              0.    -14.4624E+06
           14962    -63.9512E+06    -2.16792E+06              0.    -14.4388E+06
           14963    -65.4258E+06    -4.04453E+06              0.    -14.3670E+06
           14964    -66.8887E+06    -6.10801E+06              0.    -14.2408E+06
           14965    -68.3348E+06    -8.37333E+06              0.    -14.0536E+06
           14966    -69.7579E+06    -10.8565E+06              0.    -13.7977E+06
           14967    -71.1514E+06    -13.5747E+06              0.    -13.4648E+06
           14968    -72.5080E+06    -16.5465E+06              0.    -13.0459E+06
           14969    -73.8194E+06    -19.7916E+06              0.    -12.5305E+06
           14970    -75.0764E+06    -23.3315E+06              0.    -11.9076E+06
           14971    -76.2686E+06    -27.1888E+06              0.    -11.1645E+06
           14972    -77.3844E+06    -31.3881E+06              0.    -10.2873E+06
           14973    -79.2225E+06    -36.3959E+06              0.    -9.98160E+06
           14974     650.476E+03     293.692E+03              0.    -865.507E+03
           14975     648.812E+03     277.829E+03              0.    -863.995E+03
           14976     654.016E+03     265.135E+03              0.    -855.677E+03
           14977     659.186E+03     252.541E+03              0.    -847.829E+03
           14978     664.315E+03     240.058E+03              0.    -840.441E+03
           14979     669.394E+03     227.699E+03              0.    -833.505E+03
           14980     674.416E+03     215.474E+03              0.    -827.013E+03
           14981     679.375E+03     203.394E+03              0.    -820.956E+03
           14982     684.264E+03     191.468E+03              0.    -815.327E+03
           14983     689.076E+03     179.706E+03              0.    -810.117E+03
           14984     693.805E+03     168.117E+03              0.    -805.320E+03
           14985     698.445E+03     156.710E+03              0.    -800.929E+03
           14986     702.991E+03     145.493E+03              0.    -796.936E+03
           14987     707.435E+03     134.473E+03              0.    -793.334E+03
           14988     711.773E+03     123.659E+03              0.    -790.116E+03
           14989     715.999E+03     113.057E+03              0.    -787.278E+03
           14990     720.106E+03     102.675E+03              0.    -784.811E+03
           14991     724.091E+03     92.5193E+03              0.    -782.710E+03
           14992     727.946E+03     82.5964E+03              0.    -780.970E+03
           14993     731.666E+03     72.9129E+03              0.    -779.584E+03
           14994     735.246E+03     63.4753E+03              0.    -778.547E+03
           14995     738.680E+03     54.2894E+03              0.    -777.854E+03
           14996     741.962E+03     45.3615E+03              0.    -777.499E+03
           14997     745.086E+03     36.6974E+03              0.    -777.477E+03
           14998     748.046E+03     28.3032E+03              0.    -777.784E+03
           14999     750.836E+03     20.1847E+03              0.    -778.414E+03
           15000     753.449E+03     12.3477E+03              0.    -779.364E+03
           15001     755.880E+03     4.79821E+03              0.    -780.629E+03
           15002     758.121E+03    -2.45807E+03              0.    -782.204E+03
           15003     760.166E+03    -9.41510E+03              0.    -784.085E+03
           15004     762.008E+03    -16.0669E+03              0.    -786.269E+03
           15005     763.638E+03    -22.4076E+03              0.    -788.751E+03
           15006     765.050E+03    -28.4309E+03              0.    -791.529E+03
           15007     766.236E+03    -34.1306E+03              0.    -794.597E+03
           15008     767.187E+03    -39.5003E+03              0.    -797.954E+03
           15009     767.896E+03    -44.5337E+03              0.    -801.595E+03
           15010     768.352E+03    -49.2240E+03              0.    -805.518E+03
           15011     768.548E+03    -53.5644E+03              0.    -809.719E+03
           15012     768.474E+03    -57.5479E+03              0.    -814.196E+03
           15013     768.119E+03    -61.1674E+03              0.    -818.946E+03
           15014     767.473E+03    -64.4154E+03              0.    -823.966E+03
           15015     766.526E+03    -67.2844E+03              0.    -829.254E+03
           15016     765.267E+03    -69.7665E+03              0.    -834.807E+03
           15017     763.684E+03    -71.8535E+03              0.    -840.624E+03
           15018     761.764E+03    -73.5370E+03              0.    -846.702E+03
           15019     759.496E+03    -74.8085E+03              0.    -853.039E+03
           15020     756.865E+03    -75.6589E+03              0.    -859.634E+03
           15021     753.859E+03    -76.0790E+03              0.    -866.484E+03
           15022     750.463E+03    -76.0592E+03              0.    -873.589E+03
           15023     746.663E+03    -75.5895E+03              0.    -880.946E+03
           15024     742.443E+03    -74.6597E+03              0.    -888.556E+03
           15025     737.786E+03    -73.2591E+03              0.    -896.415E+03
           15026     732.676E+03    -71.3768E+03              0.    -904.525E+03
           15027     727.097E+03    -69.0012E+03              0.    -912.883E+03
           15028     721.029E+03    -66.1206E+03              0.    -921.489E+03
           15029     714.454E+03    -62.7227E+03              0.    -930.343E+03
           15030     707.352E+03    -58.7948E+03              0.    -939.443E+03
           15031     699.703E+03    -54.3239E+03              0.    -948.791E+03
           15032     691.486E+03    -49.2963E+03              0.    -958.385E+03
           15033     682.678E+03    -43.6981E+03              0.    -968.227E+03
           15034     673.258E+03    -37.5146E+03              0.    -978.315E+03
           15035     663.200E+03    -30.7307E+03              0.    -988.651E+03
           15036     652.481E+03    -23.3311E+03              0.    -999.235E+03
           15037     641.074E+03    -15.2994E+03              0.    -1.01007E+06
           15038     628.953E+03    -6.61922E+03              0.    -1.02115E+06
           15039     616.091E+03     2.72680E+03              0.    -1.03248E+06
           15040     602.457E+03     12.7565E+03              0.    -1.04407E+06
           15041     588.024E+03     23.4880E+03              0.    -1.05591E+06
           15042     572.759E+03     34.9405E+03              0.    -1.06800E+06
           15043     556.630E+03     47.1335E+03              0.    -1.08036E+06
           15044     539.604E+03     60.0872E+03              0.    -1.09297E+06
           15045     521.646E+03     73.8225E+03              0.    -1.10584E+06
           15046     502.721E+03     88.3609E+03              0.    -1.11898E+06
           15047     482.791E+03     103.724E+03              0.    -1.13238E+06
           15048     461.817E+03     119.936E+03              0.    -1.14605E+06
           15049     439.758E+03     137.020E+03              0.    -1.16000E+06
           15050     416.575E+03     154.999E+03              0.    -1.17422E+06
           15051     392.223E+03     173.900E+03              0.    -1.18873E+06
           15052     366.657E+03     193.748E+03              0.    -1.20352E+06
           15053     339.832E+03     214.568E+03              0.    -1.21859E+06
           15054     311.699E+03     236.390E+03              0.    -1.23396E+06
           15055     282.209E+03     259.240E+03              0.    -1.24963E+06
           15056     251.310E+03     283.148E+03              0.    -1.26560E+06
           15057     218.948E+03     308.143E+03              0.    -1.28189E+06
           15058     185.069E+03     334.256E+03              0.    -1.29848E+06
           15059     149.615E+03     361.517E+03              0.    -1.31540E+06
           15060     112.527E+03     389.960E+03              0.    -1.33265E+06
           15061     73.7435E+03     419.617E+03              0.    -1.35023E+06
           15062     33.2011E+03     450.522E+03              0.    -1.36815E+06
           15063    -9.16579E+03     482.709E+03              0.    -1.38642E+06
           15064    -53.4252E+03     516.215E+03              0.    -1.40505E+06
           15065    -99.6476E+03     551.075E+03              0.    -1.42405E+06
           15066    -147.906E+03     587.327E+03              0.    -1.44343E+06
           15067    -198.275E+03     625.009E+03              0.    -1.46319E+06
           15068    -250.832E+03     664.160E+03              0.    -1.48335E+06
           15069    -305.659E+03     704.820E+03              0.    -1.50391E+06
           15070    -362.838E+03     747.029E+03              0.    -1.52489E+06
           15071    -422.456E+03     790.831E+03              0.    -1.54630E+06
           15072    -484.601E+03     836.266E+03              0.    -1.56816E+06
           15073    -549.365E+03     883.378E+03              0.    -1.59047E+06
           15074    -616.843E+03     932.212E+03              0.    -1.61325E+06
           15075    -687.134E+03     982.812E+03              0.    -1.63651E+06
           15076    -760.337E+03     1.03523E+06              0.    -1.66028E+06
           15077    -836.559E+03     1.08950E+06              0.    -1.68455E+06
           15078    -915.908E+03     1.14568E+06              0.    -1.70936E+06
           15079    -998.494E+03     1.20381E+06              0.    -1.73472E+06
           15080    -1.08443E+06     1.26395E+06              0.    -1.76065E+06
           15081    -1.17384E+06     1.32614E+06              0.    -1.78716E+06
           15082    -1.26685E+06     1.39043E+06              0.    -1.81427E+06
           15083    -1.36358E+06     1.45688E+06              0.    -1.84202E+06
           15084    -1.46416E+06     1.52554E+06              0.    -1.87041E+06
           15085    -1.56872E+06     1.59645E+06              0.    -1.89948E+06
           15086    -1.67741E+06     1.66968E+06              0.    -1.92924E+06
           15087    -1.79037E+06     1.74527E+06              0.    -1.95973E+06
           15088    -1.90775E+06     1.82327E+06              0.    -1.99096E+06
           15089    -2.02970E+06     1.90375E+06              0.    -2.02297E+06
           15090    -2.15637E+06     1.98675E+06              0.    -2.05579E+06
           15091    -2.28794E+06     2.07233E+06              0.    -2.08943E+06
           15092    -2.42455E+06     2.16053E+06              0.    -2.12395E+06
           15093    -2.56640E+06     2.25143E+06              0.    -2.15936E+06
           15094    -2.71365E+06     2.34506E+06              0.    -2.19571E+06
           15095    -2.86649E+06     2.44148E+06              0.    -2.23303E+06
           15096    -3.02510E+06     2.54075E+06              0.    -2.27135E+06
           15097    -3.18968E+06     2.64291E+06              0.    -2.31072E+06
           15098    -3.36042E+06     2.74802E+06              0.    -2.35118E+06
           15099    -3.53754E+06     2.85613E+06              0.    -2.39277E+06
           15100    -3.72124E+06     2.96728E+06              0.    -2.43552E+06
           15101    -3.91174E+06     3.08152E+06              0.    -2.47950E+06
           15102    -4.10925E+06     3.19890E+06              0.    -2.52475E+06
           15103    -4.31402E+06     3.31946E+06              0.    -2.57131E+06
           15104    -4.52627E+06     3.44324E+06              0.    -2.61924E+06
           15105    -4.74625E+06     3.57029E+06              0.    -2.66860E+06
           15106    -4.97421E+06     3.70064E+06              0.    -2.71943E+06
           15107    -5.21040E+06     3.83431E+06              0.    -2.77181E+06
           15108    -5.45507E+06     3.97135E+06              0.    -2.82578E+06
           15109    -5.70851E+06     4.11178E+06              0.    -2.88141E+06
           15110    -5.97099E+06     4.25562E+06              0.    -2.93877E+06
           15111    -6.24278E+06     4.40288E+06              0.    -2.99792E+06
           15112    -6.52419E+06     4.55358E+06              0.    -3.05894E+06
           15113    -6.81550E+06     4.70773E+06              0.    -3.12189E+06
           15114    -7.11702E+06     4.86532E+06              0.    -3.18685E+06
           15115    -7.42907E+06     5.02636E+06              0.    -3.25390E+06
           15116    -7.75196E+06     5.19081E+06              0.    -3.32312E+06
           15117    -8.08602E+06     5.35867E+06              0.    -3.39458E+06
           15118    -8.43159E+06     5.52990E+06              0.    -3.46838E+06
           15119    -8.78901E+06     5.70446E+06              0.    -3.54460E+06
           15120    -9.15862E+06     5.88230E+06              0.    -3.62333E+06
           15121    -9.54079E+06     6.06336E+06              0.    -3.70465E+06
           15122    -9.93588E+06     6.24756E+06              0.    -3.78867E+06
           15123    -10.3443E+06     6.43480E+06              0.    -3.87548E+06
           15124    -10.7663E+06     6.62500E+06              0.    -3.96518E+06
           15125    -11.2024E+06     6.81804E+06              0.    -4.05786E+06
           15126    -11.6530E+06     7.01376E+06              0.    -4.15363E+06
           15127    -12.1184E+06     7.21203E+06              0.    -4.25258E+06
           15128    -12.5991E+06     7.41266E+06              0.    -4.35483E+06
           15129    -13.0955E+06     7.61546E+06              0.    -4.46047E+06
           15130    -13.6079E+06     7.82022E+06              0.    -4.56961E+06
           15131    -14.1369E+06     8.02668E+06              0.    -4.68235E+06
           15132    -14.6829E+06     8.23457E+06              0.    -4.79880E+06
           15133    -15.2462E+06     8.44360E+06              0.    -4.91906E+06
           15134    -15.8274E+06     8.65342E+06              0.    -5.04323E+06
           15135    -16.4269E+06     8.86368E+06              0.    -5.17141E+06
           15136    -17.0451E+06     9.07396E+06              0.    -5.30370E+06
           15137    -17.6825E+06     9.28383E+06              0.    -5.44019E+06
           15138    -18.3396E+06     9.49279E+06              0.    -5.58096E+06
           15139    -19.0167E+06     9.70031E+06              0.    -5.72611E+06
           15140    -19.7145E+06     9.90582E+06              0.    -5.87571E+06
           15141    -20.4332E+06     10.1087E+06              0.    -6.02982E+06
           15142    -21.1734E+06     10.3082E+06              0.    -6.18850E+06
           15143    -21.9355E+06     10.5035E+06              0.    -6.35181E+06
           15144    -22.7199E+06     10.6940E+06              0.    -6.51978E+06
           15145    -23.5272E+06     10.8786E+06              0.    -6.69244E+06
           15146    -24.3577E+06     11.0564E+06              0.    -6.86979E+06
           15147    -25.2118E+06     11.2263E+06              0.    -7.05182E+06
           15148    -26.0900E+06     11.3872E+06              0.    -7.23849E+06
           15149    -26.9925E+06     11.5378E+06              0.    -7.42977E+06
           15150    -27.9199E+06     11.6767E+06              0.    -7.62556E+06
           15151    -28.8725E+06     11.8026E+06              0.    -7.82576E+06
           15152    -29.8505E+06     11.9138E+06              0.    -8.03022E+06
           15153    -30.8543E+06     12.0085E+06              0.    -8.23878E+06
           15154    -31.8841E+06     12.0849E+06              0.    -8.45122E+06
           15155    -32.9401E+06     12.1411E+06              0.    -8.66728E+06
           15156    -34.0226E+06     12.1747E+06              0.    -8.88666E+06
           15157    -35.1317E+06     12.1835E+06              0.    -9.10898E+06
           15158    -36.2674E+06     12.1648E+06              0.    -9.33385E+06
           15159    -37.4297E+06     12.1160E+06              0.    -9.56077E+06
           15160    -38.6187E+06     12.0340E+06              0.    -9.78918E+06
           15161    -39.8342E+06     11.9157E+06              0.    -10.0185E+06
           15162    -41.0760E+06     11.7574E+06              0.    -10.2479E+06
           15163    -42.3437E+06     11.5555E+06              0.    -10.4766E+06
           15164    -43.6371E+06     11.3060E+06              0.    -10.7038E+06
           15165    -44.9556E+06     11.0043E+06              0.    -10.9283E+06
           15166    -46.2986E+06     10.6459E+06              0.    -11.1491E+06
           15167    -47.6653E+06     10.2256E+06              0.    -11.3647E+06
           15168    -49.0548E+06     9.73799E+06              0.    -11.5739E+06
           15169    -50.4659E+06     9.17702E+06              0.    -11.7749E+06
           15170    -51.8975E+06     8.53638E+06              0.    -11.9659E+06
           15171    -53.3480E+06     7.80917E+06              0.    -12.1451E+06
           15172    -54.8158E+06     6.98797E+06              0.    -12.3100E+06
           15173    -56.2990E+06     6.06480E+06              0.    -12.4584E+06
           15174    -57.7952E+06     5.03105E+06              0.    -12.5874E+06
           15175    -59.3020E+06     3.87744E+06              0.    -12.6941E+06
           15176    -60.8166E+06     2.59401E+06              0.    -12.7751E+06
           15177    -62.3357E+06     1.16998E+06              0.    -12.8267E+06
           15178    -63.8557E+06    -406.201E+03              0.    -12.8449E+06
           15179    -65.3727E+06    -2.14697E+06              0.    -12.8251E+06
           15180    -66.8821E+06    -4.06575E+06              0.    -12.7623E+06
           15181    -68.3787E+06    -6.17694E+06              0.    -12.6510E+06
           15182    -69.8570E+06    -8.49607E+06              0.    -12.4852E+06
           15183    -71.3106E+06    -11.0398E+06              0.    -12.2580E+06
           15184    -72.7323E+06    -13.8261E+06              0.    -11.9619E+06
           15185    -74.1144E+06    -16.8742E+06              0.    -11.5888E+06
           15186    -75.4479E+06    -20.2049E+06              0.    -11.1293E+06
           15187    -76.7231E+06    -23.8405E+06              0.    -10.5733E+06
           15188    -77.9290E+06    -27.8050E+06              0.    -9.90955E+06
           15189    -79.0534E+06    -32.1242E+06              0.    -9.12539E+06
           15190    -80.9372E+06    -37.2764E+06              0.    -8.84889E+06
           15191     630.099E+03     284.539E+03              0.    -870.608E+03
           15192     628.498E+03     269.272E+03              0.    -869.089E+03
           15193     633.508E+03     257.048E+03              0.    -860.742E+03
           15194     638.486E+03     244.914E+03              0.    -852.857E+03
           15195     643.424E+03     232.884E+03              0.    -845.424E+03
           15196     648.313E+03     220.969E+03              0.    -838.436E+03
           15197     653.148E+03     209.179E+03              0.    -831.885E+03
           15198     657.921E+03     197.527E+03              0.    -825.762E+03
           15199     662.624E+03     186.022E+03              0.    -820.060E+03
           15200     667.252E+03     174.673E+03              0.    -814.771E+03
           15201     671.798E+03     163.489E+03              0.    -809.889E+03
           15202     676.256E+03     152.481E+03              0.    -805.406E+03
           15203     680.619E+03     141.655E+03              0.    -801.315E+03
           15204     684.882E+03     131.021E+03              0.    -797.610E+03
           15205     689.039E+03     120.585E+03              0.    -794.284E+03
           15206     693.084E+03     110.355E+03              0.    -791.330E+03
           15207     697.011E+03     100.339E+03              0.    -788.743E+03
           15208     700.815E+03     90.5429E+03              0.    -786.516E+03
           15209     704.489E+03     80.9742E+03              0.    -784.644E+03
           15210     708.029E+03     71.6393E+03              0.    -783.120E+03
           15211     711.427E+03     62.5447E+03              0.    -781.940E+03
           15212     714.679E+03     53.6965E+03              0.    -781.098E+03
           15213     717.779E+03     45.1011E+03              0.    -780.588E+03
           15214     720.720E+03     36.7646E+03              0.    -780.405E+03
           15215     723.496E+03     28.6929E+03              0.    -780.544E+03
           15216     726.101E+03     20.8924E+03              0.    -781.002E+03
           15217     728.529E+03     13.3687E+03              0.    -781.771E+03
           15218     730.773E+03     6.12810E+03              0.    -782.850E+03
           15219     732.826E+03        -823.620              0.    -784.231E+03
           15220     734.682E+03    -7.48025E+03              0.    -785.912E+03
           15221     736.332E+03    -13.8357E+03              0.    -787.889E+03
           15222      737.77E+03    -19.8839E+03              0.    -790.156E+03
           15223     738.988E+03    -25.6185E+03              0.    -792.710E+03
           15224     739.978E+03    -31.0332E+03              0.    -795.548E+03
           15225     740.731E+03    -36.1214E+03              0.    -798.665E+03
           15226     741.240E+03    -40.8766E+03              0.    -802.058E+03
           15227     741.494E+03    -45.2921E+03              0.    -805.724E+03
           15228     741.486E+03    -49.3607E+03              0.    -809.659E+03
           15229     741.205E+03    -53.0755E+03              0.    -813.859E+03
           15230     740.640E+03    -56.4292E+03              0.    -818.323E+03
           15231     739.783E+03    -59.4141E+03              0.    -823.046E+03
           15232     738.621E+03    -62.0227E+03              0.    -828.026E+03
           15233     737.145E+03    -64.2468E+03              0.    -833.260E+03
           15234     735.341E+03    -66.0783E+03              0.    -838.745E+03
           15235     733.197E+03    -67.5086E+03              0.    -844.479E+03
           15236     730.702E+03    -68.5289E+03              0.    -850.460E+03
           15237     727.841E+03    -69.1303E+03              0.    -856.684E+03
           15238     724.601E+03    -69.3032E+03              0.    -863.150E+03
           15239     720.967E+03    -69.0379E+03              0.    -869.856E+03
           15240     716.925E+03    -68.3245E+03              0.      -876.8E+03
           15241     712.459E+03    -67.1525E+03              0.    -883.980E+03
           15242     707.553E+03    -65.5111E+03              0.    -891.393E+03
           15243     702.189E+03    -63.3891E+03              0.    -899.039E+03
           15244     696.351E+03    -60.7751E+03              0.    -906.916E+03
           15245     690.019E+03    -57.6571E+03              0.    -915.023E+03
           15246     683.176E+03    -54.0226E+03              0.    -923.357E+03
           15247     675.800E+03    -49.8589E+03              0.    -931.919E+03
           15248     667.873E+03    -45.1528E+03              0.    -940.707E+03
           15249     659.372E+03    -39.8905E+03              0.    -949.719E+03
           15250     650.275E+03    -34.0578E+03              0.    -958.957E+03
           15251     640.558E+03    -27.6400E+03              0.    -968.417E+03
           15252     630.199E+03    -20.6219E+03              0.    -978.101E+03
           15253     619.172E+03    -12.9878E+03              0.    -988.008E+03
           15254     607.451E+03    -4.72153E+03              0.    -998.137E+03
           15255     595.009E+03     4.19384E+03              0.    -1.00849E+06
           15256     581.819E+03     13.7756E+03              0.    -1.01906E+06
           15257     567.850E+03     24.0418E+03              0.    -1.02986E+06
           15258     553.074E+03     35.0109E+03              0.    -1.04088E+06
           15259     537.458E+03     46.7020E+03              0.    -1.05212E+06
           15260     520.971E+03     59.1349E+03              0.    -1.06359E+06
           15261     503.578E+03     72.3301E+03              0.    -1.07528E+06
           15262     485.244E+03     86.3086E+03              0.    -1.08720E+06
           15263     465.934E+03     101.092E+03              0.    -1.09935E+06
           15264     445.610E+03     116.703E+03              0.    -1.11172E+06
           15265     424.232E+03     133.164E+03              0.    -1.12433E+06
           15266     401.760E+03     150.500E+03              0.    -1.13716E+06
           15267     378.152E+03     168.734E+03              0.    -1.15024E+06
           15268     353.365E+03     187.893E+03              0.    -1.16354E+06
           15269     327.353E+03     208.002E+03              0.    -1.17709E+06
           15270     300.070E+03     229.087E+03              0.    -1.19087E+06
           15271     271.466E+03     251.178E+03              0.    -1.20491E+06
           15272     241.493E+03     274.300E+03              0.    -1.21918E+06
           15273     210.098E+03     298.485E+03              0.    -1.23371E+06
           15274     177.227E+03     323.762E+03              0.    -1.24850E+06
           15275     142.824E+03     350.161E+03              0.    -1.26354E+06
           15276     106.831E+03     377.715E+03              0.    -1.27884E+06
           15277     69.1893E+03     406.456E+03              0.    -1.29441E+06
           15278     29.8360E+03     436.416E+03              0.    -1.31026E+06
           15279    -11.2927E+03     467.631E+03              0.    -1.32638E+06
           15280    -54.2633E+03     500.136E+03              0.    -1.34278E+06
           15281    -99.1445E+03     533.965E+03              0.    -1.35947E+06
           15282    -146.007E+03     569.157E+03              0.    -1.37646E+06
           15283    -194.925E+03     605.749E+03              0.    -1.39375E+06
           15284    -245.974E+03     643.779E+03              0.    -1.41134E+06
           15285    -299.233E+03     683.287E+03              0.    -1.42926E+06
           15286    -354.783E+03     724.314E+03              0.    -1.44749E+06
           15287    -412.709E+03     766.900E+03              0.    -1.46606E+06
           15288    -473.097E+03     811.089E+03              0.    -1.48497E+06
           15289    -536.037E+03     856.922E+03              0.    -1.50423E+06
           15290    -601.622E+03     904.445E+03              0.    -1.52386E+06
           15291    -669.949E+03     953.701E+03              0.    -1.54385E+06
           15292    -741.116E+03     1.00474E+06              0.    -1.56423E+06
           15293    -815.227E+03     1.05760E+06              0.    -1.58500E+06
           15294    -892.386E+03     1.11233E+06              0.    -1.60618E+06
           15295    -972.704E+03     1.16899E+06              0.    -1.62777E+06
           15296    -1.05629E+06     1.22762E+06              0.    -1.64980E+06
           15297    -1.14327E+06     1.28827E+06              0.    -1.67228E+06
           15298    -1.23376E+06     1.35099E+06              0.    -1.69523E+06
           15299    -1.32788E+06     1.41583E+06              0.    -1.71865E+06
           15300    -1.42576E+06     1.48285E+06              0.    -1.74256E+06
           15301    -1.52753E+06     1.55209E+06              0.    -1.76700E+06
           15302    -1.63334E+06     1.62361E+06              0.    -1.79196E+06
           15303    -1.74331E+06     1.69746E+06              0.    -1.81748E+06
           15304    -1.85761E+06     1.77370E+06              0.    -1.84356E+06
           15305    -1.97637E+06     1.85239E+06              0.    -1.87025E+06
           15306    -2.09975E+06     1.93357E+06              0.    -1.89755E+06
           15307    -2.22792E+06     2.01730E+06              0.    -1.92549E+06
           15308    -2.36103E+06     2.10363E+06              0.    -1.95410E+06
           15309    -2.49925E+06     2.19263E+06              0.    -1.98340E+06
           15310    -2.64277E+06     2.28434E+06              0.    -2.01342E+06
           15311    -2.79175E+06     2.37882E+06              0.    -2.04418E+06
           15312    -2.94640E+06     2.47613E+06              0.    -2.07573E+06
           15313    -3.10688E+06     2.57632E+06              0.    -2.10809E+06
           15314    -3.27342E+06     2.67943E+06              0.    -2.14129E+06
           15315    -3.44619E+06     2.78554E+06              0.    -2.17536E+06
           15316    -3.62542E+06     2.89468E+06              0.    -2.21036E+06
           15317    -3.81132E+06     3.00691E+06              0.    -2.24630E+06
           15318    -4.00411E+06     3.12227E+06              0.    -2.28324E+06
           15319    -4.20401E+06     3.24081E+06              0.    -2.32120E+06
           15320    -4.41126E+06     3.36259E+06              0.    -2.36025E+06
           15321    -4.62610E+06     3.48764E+06              0.    -2.40041E+06
           15322    -4.84878E+06     3.61600E+06              0.    -2.44174E+06
           15323    -5.07954E+06     3.74772E+06              0.    -2.48429E+06
           15324    -5.31865E+06     3.88282E+06              0.    -2.52810E+06
           15325    -5.56639E+06     4.02134E+06              0.    -2.57324E+06
           15326    -5.82301E+06     4.16331E+06              0.    -2.61975E+06
           15327    -6.08880E+06     4.30876E+06              0.    -2.66769E+06
           15328    -6.36406E+06     4.45769E+06              0.    -2.71712E+06
           15329    -6.64907E+06     4.61014E+06              0.    -2.76810E+06
           15330    -6.94415E+06     4.76610E+06              0.    -2.82071E+06
           15331     -7.2496E+06     4.92557E+06              0.    -2.87499E+06
           15332    -7.56575E+06     5.08856E+06              0.    -2.93103E+06
           15333    -7.89292E+06     5.25506E+06              0.    -2.98889E+06
           15334    -8.23144E+06     5.42503E+06              0.    -3.04864E+06
           15335    -8.58167E+06     5.59846E+06              0.    -3.11037E+06
           15336    -8.94395E+06     5.77531E+06              0.    -3.17414E+06
           15337    -9.31864E+06     5.95552E+06              0.    -3.24004E+06
           15338     -9.7061E+06     6.13904E+06              0.    -3.30815E+06
           15339    -10.1067E+06     6.32579E+06              0.    -3.37856E+06
           15340    -10.5209E+06     6.51569E+06              0.    -3.45134E+06
           15341    -10.9489E+06     6.70864E+06              0.    -3.52660E+06
           15342    -11.3913E+06     6.90451E+06              0.    -3.60441E+06
           15343    -11.8485E+06     7.10319E+06              0.    -3.68488E+06
           15344    -12.3207E+06     7.30450E+06              0.    -3.76808E+06
           15345    -12.8086E+06     7.50829E+06              0.    -3.85413E+06
           15346    -13.3124E+06     7.71435E+06              0.    -3.94311E+06
           15347    -13.8326E+06     7.92247E+06              0.    -4.03511E+06
           15348    -14.3698E+06     8.13240E+06              0.    -4.13024E+06
           15349    -14.9242E+06     8.34386E+06              0.    -4.22858E+06
           15350    -15.4964E+06     8.55657E+06              0.    -4.33025E+06
           15351    -16.0867E+06     8.77018E+06              0.    -4.43532E+06
           15352    -16.6958E+06     8.98434E+06              0.    -4.54389E+06
           15353    -17.3241E+06     9.19862E+06              0.    -4.65605E+06
           15354    -17.9719E+06     9.41257E+06              0.    -4.77190E+06
           15355    -18.6398E+06     9.62573E+06              0.    -4.89150E+06
           15356    -19.3283E+06     9.83753E+06              0.    -5.01495E+06
           15357    -20.0378E+06     10.0474E+06              0.    -5.14231E+06
           15358    -20.7688E+06     10.2547E+06              0.    -5.27366E+06
           15359    -21.5217E+06     10.4587E+06              0.    -5.40905E+06
           15360    -22.2971E+06     10.6587E+06              0.    -5.54852E+06
           15361    -23.0954E+06     10.8537E+06              0.    -5.69213E+06
           15362    -23.9171E+06     11.0430E+06              0.    -5.83990E+06
           15363    -24.7625E+06     11.2255E+06              0.    -5.99185E+06
           15364    -25.6321E+06     11.4001E+06              0.    -6.14796E+06
           15365    -26.5264E+06     11.5657E+06              0.    -6.30822E+06
           15366    -27.4457E+06     11.7210E+06              0.    -6.47260E+06
           15367    -28.3905E+06     11.8645E+06              0.    -6.64102E+06
           15368    -29.3611E+06     11.9950E+06              0.    -6.81341E+06
           15369    -30.3577E+06     12.1106E+06              0.    -6.98964E+06
           15370    -31.3809E+06     12.2096E+06              0.    -7.16958E+06
           15371    -32.4307E+06     12.2902E+06              0.    -7.35304E+06
           15372    -33.5075E+06     12.3502E+06              0.    -7.53980E+06
           15373    -34.6114E+06     12.3876E+06              0.    -7.72960E+06
           15374    -35.7425E+06     12.3997E+06              0.    -7.92213E+06
           15375    -36.9011E+06     12.3841E+06              0.    -8.11703E+06
           15376    -38.0870E+06     12.3379E+06              0.    -8.31389E+06
           15377    -39.3003E+06     12.2580E+06              0.    -8.51222E+06
           15378    -40.5408E+06     12.1412E+06              0.    -8.71148E+06
           15379    -41.8083E+06     11.9839E+06              0.    -8.91103E+06
           15380    -43.1026E+06     11.7823E+06              0.    -9.11017E+06
           15381    -44.4232E+06     11.5322E+06              0.     -9.3081E+06
           15382    -45.7695E+06     11.2291E+06              0.    -9.50391E+06
           15383    -47.1410E+06     10.8682E+06              0.    -9.69660E+06
           15384    -48.5369E+06     10.4443E+06              0.    -9.88502E+06
           15385    -49.9561E+06     9.95178E+06              0.    -10.0679E+06
           15386    -51.3977E+06     9.38452E+06              0.    -10.2439E+06
           15387    -52.8601E+06     8.73599E+06              0.    -10.4113E+06
           15388    -54.3420E+06     7.99913E+06              0.    -10.5684E+06
           15389    -55.8416E+06     7.16633E+06              0.    -10.7134E+06
           15390    -57.3568E+06     6.22938E+06              0.    -10.8439E+06
           15391    -58.8853E+06     5.17944E+06              0.    -10.9578E+06
           15392    -60.4246E+06     4.00697E+06              0.    -11.0521E+06
           15393    -61.9716E+06     2.70172E+06              0.    -11.1242E+06
           15394    -63.5230E+06     1.25261E+06              0.    -11.1706E+06
           15395    -65.0750E+06    -352.287E+03              0.    -11.1879E+06
           15396    -66.6235E+06    -2.12578E+06              0.    -11.1719E+06
           15397    -68.1636E+06    -4.08172E+06              0.    -11.1185E+06
           15398    -69.6900E+06    -6.23497E+06              0.    -11.0226E+06
           15399    -71.1967E+06    -8.60160E+06              0.    -10.8788E+06
           15400    -72.6771E+06    -11.1989E+06              0.    -10.6813E+06
           15401    -74.1237E+06    -14.0453E+06              0.    -10.4235E+06
           15402    -75.5281E+06    -17.1610E+06              0.    -10.0979E+06
           15403    -76.8810E+06    -20.5675E+06              0.    -9.69647E+06
           15404    -78.1719E+06    -24.2879E+06              0.    -9.21023E+06
           15405    -79.3892E+06    -28.3474E+06              0.    -8.62912E+06
           15406    -80.5195E+06    -32.7726E+06              0.    -7.94204E+06
           15407    -82.4421E+06    -38.0521E+06              0.    -7.69698E+06
           15408     609.694E+03     275.373E+03              0.    -875.516E+03
           15409     608.156E+03     260.691E+03              0.    -873.989E+03
           15410     612.975E+03     248.928E+03              0.    -865.615E+03
           15411     617.764E+03     237.247E+03              0.    -857.695E+03
           15412     622.514E+03     225.662E+03              0.    -850.219E+03
           15413     627.218E+03     214.183E+03              0.    -843.181E+03
           15414     631.869E+03     202.823E+03              0.    -836.571E+03
           15415     636.458E+03     191.591E+03              0.    -830.383E+03
           15416     640.980E+03     180.500E+03              0.    -824.610E+03
           15417     645.427E+03     169.557E+03              0.    -819.243E+03
           15418     649.794E+03     158.773E+03              0.    -814.276E+03
           15419     654.072E+03     148.157E+03              0.    -809.703E+03
           15420     658.258E+03     137.717E+03              0.    -805.515E+03
           15421     662.343E+03     127.462E+03              0.    -801.707E+03
           15422     666.323E+03     117.398E+03              0.    -798.272E+03
           15423     670.192E+03     107.535E+03              0.    -795.204E+03
           15424     673.943E+03      97.879E+03              0.    -792.497E+03
           15425     677.570E+03     88.4375E+03              0.    -790.144E+03
           15426     681.069E+03     79.2172E+03              0.    -788.140E+03
           15427     684.432E+03     70.2250E+03              0.    -786.478E+03
           15428     687.655E+03     61.4677E+03              0.    -785.155E+03
           15429     690.731E+03     52.9513E+03              0.    -784.163E+03
           15430     693.654E+03     44.6825E+03              0.    -783.497E+03
           15431     696.418E+03     36.6673E+03              0.    -783.153E+03
           15432     699.017E+03     28.9121E+03              0.    -783.125E+03
           15433     701.445E+03     21.4231E+03              0.    -783.407E+03
           15434     703.694E+03     14.2061E+03              0.    -783.997E+03
           15435     705.759E+03     7.26764E+03              0.    -784.887E+03
           15436     707.631E+03         613.530              0.    -786.074E+03
           15437     709.306E+03    -5.74989E+03              0.    -787.554E+03
           15438     710.774E+03    -11.8164E+03              0.    -789.321E+03
           15439     712.029E+03    -17.5799E+03              0.    -791.372E+03
           15440     713.062E+03    -23.0337E+03              0.    -793.702E+03
           15441     713.866E+03    -28.1716E+03              0.    -796.307E+03
           15442     714.432E+03    -32.9869E+03              0.    -799.183E+03
           15443     714.752E+03    -37.4728E+03              0.    -802.326E+03
           15444     714.816E+03    -41.6226E+03              0.    -805.733E+03
           15445     714.615E+03    -45.4291E+03              0.    -809.399E+03
           15446     714.140E+03    -48.8852E+03              0.    -813.321E+03
           15447     713.380E+03    -51.9834E+03              0.    -817.496E+03
           15448     712.324E+03    -54.7161E+03              0.    -821.920E+03
           15449     710.963E+03    -57.0754E+03              0.    -826.589E+03
           15450     709.284E+03    -59.0533E+03              0.    -831.501E+03
           15451     707.275E+03    -60.6415E+03              0.    -836.653E+03
           15452     704.925E+03    -61.8312E+03              0.     -842.04E+03
           15453     702.220E+03    -62.6137E+03              0.    -847.661E+03
           15454     699.146E+03    -62.9797E+03              0.    -853.512E+03
           15455     695.691E+03    -62.9198E+03              0.    -859.591E+03
           15456     691.840E+03    -62.4240E+03              0.    -865.895E+03
           15457     687.577E+03    -61.4824E+03              0.    -872.421E+03
           15458     682.887E+03    -60.0843E+03              0.    -879.168E+03
           15459     677.753E+03    -58.2189E+03              0.    -886.131E+03
           15460     672.158E+03    -55.8749E+03              0.    -893.310E+03
           15461     666.086E+03    -53.0406E+03              0.    -900.702E+03
           15462     659.517E+03    -49.7041E+03              0.    -908.304E+03
           15463     652.432E+03    -45.8528E+03              0.    -916.116E+03
           15464     644.811E+03    -41.4738E+03              0.    -924.134E+03
           15465     636.634E+03    -36.5538E+03              0.    -932.357E+03
           15466     627.879E+03    -31.0789E+03              0.    -940.783E+03
           15467     618.524E+03    -25.0348E+03              0.    -949.411E+03
           15468     608.545E+03    -18.4067E+03              0.    -958.239E+03
           15469     597.918E+03    -11.1792E+03              0.    -967.266E+03
           15470     586.619E+03    -3.33663E+03              0.    -976.490E+03
           15471     574.621E+03     5.13751E+03              0.    -985.909E+03
           15472     561.897E+03     14.2601E+03              0.    -995.524E+03
           15473     548.418E+03     24.0487E+03              0.    -1.00533E+06
           15474     534.156E+03     34.5213E+03              0.    -1.01533E+06
           15475     519.081E+03     45.6966E+03              0.    -1.02553E+06
           15476     503.160E+03     57.5939E+03              0.    -1.03591E+06
           15477     486.361E+03     70.2332E+03              0.    -1.04649E+06
           15478     468.650E+03     83.6349E+03              0.    -1.05726E+06
           15479     449.992E+03     97.8203E+03              0.    -1.06821E+06
           15480      430.35E+03     112.811E+03              0.    -1.07936E+06
           15481     409.687E+03     128.630E+03              0.    -1.09070E+06
           15482     387.962E+03     145.301E+03              0.    -1.10222E+06
           15483     365.136E+03     162.847E+03              0.    -1.11394E+06
           15484     341.166E+03     181.292E+03              0.    -1.12585E+06
           15485     316.008E+03     200.664E+03              0.    -1.13795E+06
           15486     289.617E+03     220.987E+03              0.    -1.15025E+06
           15487     261.945E+03     242.289E+03              0.    -1.16273E+06
           15488     232.944E+03     264.597E+03              0.    -1.17541E+06
           15489     202.563E+03     287.941E+03              0.    -1.18829E+06
           15490     170.750E+03     312.349E+03              0.    -1.20136E+06
           15491     137.450E+03     337.851E+03              0.    -1.21464E+06
           15492     102.608E+03     364.480E+03              0.    -1.22811E+06
           15493     66.1646E+03     392.266E+03              0.    -1.24179E+06
           15494     28.0599E+03     421.242E+03              0.    -1.25567E+06
           15495    -11.7685E+03     451.442E+03              0.    -1.26976E+06
           15496    -53.3853E+03     482.901E+03              0.    -1.28407E+06
           15497    -96.8574E+03     515.653E+03              0.    -1.29858E+06
           15498    -142.254E+03     549.736E+03              0.    -1.31332E+06
           15499    -189.647E+03     585.185E+03              0.    -1.32828E+06
           15500    -239.110E+03     622.041E+03              0.    -1.34346E+06
           15501    -290.721E+03     660.340E+03              0.    -1.35887E+06
           15502    -344.557E+03     700.124E+03              0.    -1.37452E+06
           15503    -400.703E+03     741.433E+03              0.    -1.39041E+06
           15504    -459.241E+03     784.308E+03              0.    -1.40655E+06
           15505    -520.261E+03     828.794E+03              0.    -1.42294E+06
           15506    -583.853E+03     874.932E+03              0.    -1.43958E+06
           15507    -650.111E+03     922.768E+03              0.    -1.45649E+06
           15508    -719.131E+03     972.346E+03              0.    -1.47368E+06
           15509    -791.015E+03     1.02371E+06              0.    -1.49114E+06
           15510    -865.865E+03     1.07692E+06              0.    -1.50889E+06
           15511    -943.788E+03     1.13201E+06              0.    -1.52694E+06
           15512    -1.02490E+06     1.18903E+06              0.    -1.54530E+06
           15513    -1.10930E+06     1.24803E+06              0.    -1.56397E+06
           15514    -1.19712E+06     1.30907E+06              0.    -1.58297E+06
           15515    -1.28848E+06     1.37219E+06              0.    -1.60231E+06
           15516    -1.38351E+06     1.43745E+06              0.    -1.62200E+06
           15517    -1.48233E+06     1.50490E+06              0.    -1.64206E+06
           15518    -1.58507E+06     1.57459E+06              0.    -1.66249E+06
           15519    -1.69188E+06     1.64658E+06              0.    -1.68331E+06
           15520    -1.80290E+06     1.72091E+06              0.    -1.70453E+06
           15521    -1.91828E+06     1.79766E+06              0.    -1.72618E+06
           15522    -2.03816E+06     1.87686E+06              0.    -1.74827E+06
           15523    -2.16271E+06     1.95858E+06              0.    -1.77081E+06
           15524    -2.29209E+06     2.04287E+06              0.    -1.79383E+06
           15525    -2.42645E+06     2.12979E+06              0.    -1.81734E+06
           15526    -2.56599E+06     2.21940E+06              0.    -1.84137E+06
           15527    -2.71086E+06     2.31175E+06              0.    -1.86594E+06
           15528    -2.86126E+06     2.40689E+06              0.    -1.89107E+06
           15529    -3.01737E+06     2.50489E+06              0.    -1.91678E+06
           15530    -3.17938E+06     2.60579E+06              0.    -1.94310E+06
           15531    -3.34750E+06     2.70966E+06              0.    -1.97006E+06
           15532    -3.52193E+06     2.81654E+06              0.    -1.99769E+06
           15533    -3.70289E+06     2.92650E+06              0.    -2.02601E+06
           15534    -3.89058E+06     3.03958E+06              0.    -2.05506E+06
           15535    -4.08524E+06     3.15583E+06              0.    -2.08486E+06
           15536    -4.28709E+06     3.27530E+06              0.    -2.11546E+06
           15537    -4.49637E+06     3.39804E+06              0.    -2.14689E+06
           15538    -4.71333E+06     3.52410E+06              0.    -2.17919E+06
           15539    -4.93821E+06     3.65352E+06              0.    -2.21240E+06
           15540    -5.17128E+06     3.78633E+06              0.    -2.24655E+06
           15541    -5.41280E+06     3.92258E+06              0.    -2.28169E+06
           15542    -5.66304E+06     4.06230E+06              0.    -2.31787E+06
           15543    -5.92228E+06     4.20553E+06              0.    -2.35514E+06
           15544    -6.19081E+06     4.35228E+06              0.    -2.39353E+06
           15545    -6.46892E+06     4.50258E+06              0.    -2.43311E+06
           15546    -6.75691E+06     4.65644E+06              0.    -2.47392E+06
           15547    -7.05511E+06     4.81388E+06              0.    -2.51603E+06
           15548    -7.36381E+06     4.97491E+06              0.    -2.55948E+06
           15549    -7.68336E+06     5.13951E+06              0.    -2.60434E+06
           15550    -8.01408E+06     5.30769E+06              0.    -2.65068E+06
           15551    -8.35631E+06     5.47941E+06              0.    -2.69854E+06
           15552    -8.71041E+06     5.65467E+06              0.    -2.74801E+06
           15553    -9.07674E+06     5.83342E+06              0.    -2.79914E+06
           15554    -9.45566E+06     6.01561E+06              0.    -2.85201E+06
           15555    -9.84755E+06     6.20119E+06              0.    -2.90670E+06
           15556    -10.2528E+06     6.39009E+06              0.    -2.96327E+06
           15557    -10.6718E+06     6.58222E+06              0.    -3.02180E+06
           15558    -11.1049E+06     6.77748E+06              0.    -3.08237E+06
           15559    -11.5526E+06     6.97577E+06              0.    -3.14507E+06
           15560    -12.0152E+06     7.17694E+06              0.    -3.20996E+06
           15561    -12.4932E+06     7.38084E+06              0.    -3.27715E+06
           15562    -12.9871E+06     7.58731E+06              0.    -3.34670E+06
           15563    -13.4972E+06     7.79615E+06              0.    -3.41871E+06
           15564    -14.0240E+06     8.00715E+06              0.    -3.49327E+06
           15565    -14.5680E+06     8.22005E+06              0.    -3.57046E+06
           15566    -15.1296E+06     8.43459E+06              0.    -3.65036E+06
           15567    -15.7092E+06     8.65047E+06              0.    -3.73307E+06
           15568    -16.3074E+06     8.86735E+06              0.    -3.81868E+06
           15569    -16.9247E+06     9.08486E+06              0.    -3.90726E+06
           15570    -17.5614E+06     9.30260E+06              0.    -3.99890E+06
           15571    -18.2181E+06     9.52011E+06              0.    -4.09369E+06
           15572    -18.8953E+06     9.73691E+06              0.    -4.19170E+06
           15573    -19.5934E+06     9.95244E+06              0.    -4.29300E+06
           15574    -20.3129E+06     10.1661E+06              0.    -4.39768E+06
           15575    -21.0544E+06     10.3773E+06              0.    -4.50578E+06
           15576    -21.8183E+06     10.5853E+06              0.    -4.61738E+06
           15577    -22.6050E+06     10.7892E+06              0.    -4.73251E+06
           15578    -23.4152E+06     10.9884E+06              0.    -4.85124E+06
           15579    -24.2491E+06     11.1818E+06              0.    -4.97357E+06
           15580    -25.1074E+06     11.3684E+06              0.    -5.09955E+06
           15581    -25.9903E+06     11.5472E+06              0.    -5.22917E+06
           15582    -26.8984E+06     11.7169E+06              0.    -5.36242E+06
           15583    -27.8322E+06     11.8763E+06              0.    -5.49928E+06
           15584    -28.7919E+06     12.0240E+06              0.    -5.63971E+06
           15585    -29.7779E+06     12.1585E+06              0.    -5.78364E+06
           15586    -30.7907E+06     12.2781E+06              0.    -5.93098E+06
           15587    -31.8304E+06     12.3810E+06              0.    -6.08162E+06
           15588    -32.8975E+06     12.4653E+06              0.     -6.2354E+06
           15589    -33.9921E+06     12.5289E+06              0.    -6.39215E+06
           15590    -35.1145E+06     12.5696E+06              0.    -6.55166E+06
           15591    -36.2648E+06     12.5848E+06              0.    -6.71366E+06
           15592    -37.4430E+06     12.5720E+06              0.    -6.87786E+06
           15593    -38.6493E+06     12.5282E+06              0.    -7.04390E+06
           15594    -39.8836E+06     12.4504E+06              0.    -7.21139E+06
           15595    -41.1457E+06     12.3352E+06              0.    -7.37985E+06
           15596    -42.4355E+06     12.1789E+06              0.    -7.54877E+06
           15597    -43.7527E+06     11.9777E+06              0.    -7.71753E+06
           15598    -45.0967E+06     11.7274E+06              0.    -7.88545E+06
           15599    -46.4672E+06     11.4233E+06              0.    -8.05177E+06
           15600    -47.8634E+06     11.0605E+06              0.    -8.21563E+06
           15601    -49.2845E+06     10.6337E+06              0.    -8.37605E+06
           15602    -50.7295E+06     10.1371E+06              0.    -8.53196E+06
           15603    -52.1973E+06     9.56466E+06              0.    -8.68215E+06
           15604    -53.6865E+06     8.90954E+06              0.    -8.82526E+06
           15605    -55.1956E+06     8.16456E+06              0.    -8.95981E+06
           15606    -56.7226E+06     7.32194E+06              0.    -9.08412E+06
           15607    -58.2656E+06     6.37329E+06              0.    -9.19635E+06
           15608    -59.8221E+06     5.30956E+06              0.    -9.29444E+06
           15609    -61.3894E+06     4.12098E+06              0.    -9.37612E+06
           15610    -62.9645E+06     2.79706E+06              0.    -9.43888E+06
           15611    -64.5439E+06     1.32642E+06              0.    -9.47993E+06
           15612    -66.1236E+06    -303.146E+03              0.    -9.49617E+06
           15613    -67.6993E+06    -2.10479E+06              0.    -9.48420E+06
           15614    -69.2660E+06    -4.09275E+06              0.    -9.44025E+06
           15615    -70.8181E+06    -6.28229E+06              0.    -9.36011E+06
           15616    -72.3494E+06    -8.68994E+06              0.    -9.23916E+06
           15617    -73.8530E+06    -11.3335E+06              0.    -9.07228E+06
           15618    -75.3210E+06    -14.2320E+06              0.    -8.85377E+06
           15619    -76.7446E+06    -17.4062E+06              0.    -8.57734E+06
           15620    -78.1141E+06    -20.8783E+06              0.    -8.23598E+06
           15621    -79.4185E+06    -24.6724E+06              0.    -7.82194E+06
           15622    -80.6454E+06    -28.8142E+06              0.    -7.32660E+06
           15623    -81.7808E+06    -33.3317E+06              0.    -6.74034E+06
           15624    -83.7375E+06    -38.7220E+06              0.    -6.52946E+06
           15625     589.266E+03     266.197E+03              0.    -880.232E+03
           15626     587.789E+03     252.087E+03              0.    -878.699E+03
           15627     592.421E+03     240.778E+03              0.    -870.300E+03
           15628     597.024E+03     229.542E+03              0.    -862.346E+03
           15629     601.591E+03     218.393E+03              0.    -854.829E+03
           15630     606.113E+03     207.344E+03              0.    -847.742E+03
           15631     610.583E+03     196.405E+03              0.    -841.076E+03
           15632     614.993E+03     185.588E+03              0.    -834.824E+03
           15633     619.337E+03     174.903E+03              0.    -828.980E+03
           15634     623.607E+03     164.360E+03              0.    -823.537E+03
           15635     627.797E+03     153.970E+03              0.    -818.486E+03
           15636     631.901E+03     143.740E+03              0.    -813.823E+03
           15637     635.912E+03     133.679E+03              0.    -809.539E+03
           15638     639.824E+03     123.797E+03              0.    -805.629E+03
           15639     643.631E+03     114.100E+03              0.    -802.086E+03
           15640     647.328E+03     104.598E+03              0.    -798.904E+03
           15641     650.907E+03     95.2961E+03              0.    -796.076E+03
           15642     654.363E+03     86.2031E+03              0.    -793.598E+03
           15643     657.691E+03     77.3254E+03              0.    -791.462E+03
           15644     660.884E+03     68.6701E+03              0.    -789.663E+03
           15645     663.936E+03     60.2440E+03              0.    -788.196E+03
           15646     666.841E+03     52.0535E+03              0.    -787.054E+03
           15647     669.594E+03     44.1051E+03              0.    -786.233E+03
           15648     672.187E+03     36.4052E+03              0.    -785.727E+03
           15649     674.616E+03     28.9600E+03              0.    -785.531E+03
           15650     676.872E+03     21.7760E+03              0.    -785.639E+03
           15651     678.950E+03     14.8591E+03              0.    -786.047E+03
           15652     680.843E+03     8.21592E+03              0.    -786.749E+03
           15653     682.544E+03     1.85237E+03              0.    -787.741E+03
           15654     684.045E+03    -4.22511E+03              0.    -789.018E+03
           15655     685.340E+03    -10.0102E+03              0.    -790.576E+03
           15656     686.421E+03    -15.4967E+03              0.    -792.409E+03
           15657     687.279E+03    -20.6779E+03              0.    -794.513E+03
           15658     687.907E+03    -25.5473E+03              0.    -796.885E+03
           15659     688.297E+03    -30.0983E+03              0.    -799.519E+03
           15660     688.439E+03    -34.3239E+03              0.    -802.411E+03
           15661     688.324E+03    -38.2174E+03              0.    -805.557E+03
           15662     687.943E+03    -41.7715E+03              0.    -808.953E+03
           15663     687.287E+03    -44.9789E+03              0.    -812.595E+03
           15664     686.344E+03    -47.8321E+03              0.    -816.480E+03
           15665     685.105E+03    -50.3235E+03              0.    -820.603E+03
           15666     683.558E+03    -52.4450E+03              0.    -824.960E+03
           15667     681.692E+03    -54.1885E+03              0.    -829.548E+03
           15668     679.495E+03    -55.5456E+03              0.    -834.363E+03
           15669     676.954E+03    -56.5076E+03              0.    -839.402E+03
           15670     674.057E+03    -57.0655E+03              0.    -844.661E+03
           15671     670.789E+03    -57.2101E+03              0.    -850.137E+03
           15672     667.139E+03    -56.9317E+03              0.    -855.826E+03
           15673     663.089E+03    -56.2206E+03              0.    -861.725E+03
           15674     658.626E+03    -55.0663E+03              0.    -867.832E+03
           15675     653.734E+03    -53.4585E+03              0.    -874.142E+03
           15676     648.395E+03    -51.3859E+03              0.    -880.653E+03
           15677     642.594E+03    -48.8375E+03              0.    -887.361E+03
           15678     636.312E+03    -45.8014E+03              0.    -894.265E+03
           15679     629.531E+03    -42.2655E+03              0.    -901.361E+03
           15680     622.231E+03    -38.2173E+03              0.    -908.645E+03
           15681     614.393E+03    -33.6436E+03              0.    -916.116E+03
           15682     605.995E+03    -28.5312E+03              0.    -923.771E+03
           15683     597.017E+03    -22.8660E+03              0.    -931.608E+03
           15684     587.436E+03    -16.6337E+03              0.    -939.623E+03
           15685     577.227E+03    -9.81936E+03              0.    -947.814E+03
           15686     566.368E+03    -2.40756E+03              0.    -956.179E+03
           15687     554.832E+03     5.61752E+03              0.    -964.716E+03
           15688     542.594E+03     14.2724E+03              0.    -973.422E+03
           15689     529.626E+03     23.5742E+03              0.    -982.295E+03
           15690     515.900E+03     33.5403E+03              0.    -991.333E+03
           15691     501.387E+03     44.1891E+03              0.    -1.00053E+06
           15692     486.056E+03     55.5392E+03              0.    -1.00990E+06
           15693     469.875E+03     67.6101E+03              0.    -1.01942E+06
           15694     452.812E+03     80.4217E+03              0.    -1.02910E+06
           15695     434.833E+03     93.9948E+03              0.    -1.03893E+06
           15696     415.901E+03     108.351E+03              0.    -1.04892E+06
           15697     395.981E+03     123.511E+03              0.    -1.05907E+06
           15698     375.034E+03     139.499E+03              0.    -1.06936E+06
           15699     353.021E+03     156.338E+03              0.    -1.07980E+06
           15700     329.901E+03     174.052E+03              0.    -1.09039E+06
           15701     305.631E+03     192.665E+03              0.    -1.10114E+06
           15702     280.167E+03     212.204E+03              0.    -1.11202E+06
           15703     253.464E+03     232.694E+03              0.    -1.12306E+06
           15704     225.474E+03     254.164E+03              0.    -1.13423E+06
           15705     196.148E+03     276.640E+03              0.    -1.14556E+06
           15706     165.435E+03     300.152E+03              0.    -1.15702E+06
           15707     133.283E+03     324.729E+03              0.    -1.16863E+06
           15708     99.6371E+03     350.401E+03              0.    -1.18039E+06
           15709     64.4404E+03     377.200E+03              0.    -1.19228E+06
           15710     27.6346E+03     405.157E+03              0.    -1.20432E+06
           15711    -10.8410E+03     434.307E+03              0.    -1.21651E+06
           15712    -51.0491E+03     464.681E+03              0.    -1.22884E+06
           15713    -93.0548E+03     496.317E+03              0.    -1.24131E+06
           15714    -136.925E+03     529.248E+03              0.    -1.25393E+06
           15715    -182.731E+03     563.511E+03              0.    -1.26670E+06
           15716    -230.543E+03     599.145E+03              0.    -1.27962E+06
           15717    -280.436E+03     636.186E+03              0.    -1.29268E+06
           15718    -332.488E+03     674.676E+03              0.    -1.30590E+06
           15719    -386.778E+03     714.652E+03              0.    -1.31927E+06
           15720    -443.389E+03     756.158E+03              0.    -1.33280E+06
           15721    -502.407E+03     799.235E+03              0.    -1.34648E+06
           15722    -563.919E+03     843.926E+03              0.    -1.36033E+06
           15723    -628.018E+03     890.275E+03              0.    -1.37435E+06
           15724    -694.798E+03     938.326E+03              0.    -1.38853E+06
           15725    -764.356E+03     988.127E+03              0.    -1.40288E+06
           15726    -836.793E+03     1.03972E+06              0.    -1.41741E+06
           15727    -912.215E+03     1.09316E+06              0.    -1.43213E+06
           15728    -990.728E+03     1.14849E+06              0.    -1.44703E+06
           15729    -1.07244E+06     1.20576E+06              0.    -1.46212E+06
           15730    -1.15748E+06     1.26502E+06              0.    -1.47741E+06
           15731    -1.24595E+06     1.32633E+06              0.    -1.49291E+06
           15732    -1.33798E+06     1.38973E+06              0.    -1.50862E+06
           15733    -1.43370E+06     1.45527E+06              0.    -1.52455E+06
           15734    -1.53324E+06     1.52302E+06              0.    -1.54071E+06
           15735    -1.63673E+06     1.59301E+06              0.    -1.55711E+06
           15736    -1.74431E+06     1.66532E+06              0.    -1.57376E+06
           15737    -1.85613E+06     1.73999E+06              0.    -1.59066E+06
           15738    -1.97233E+06     1.81708E+06              0.    -1.60784E+06
           15739    -2.09308E+06     1.89664E+06              0.    -1.62529E+06
           15740    -2.21852E+06     1.97874E+06              0.    -1.64304E+06
           15741    -2.34882E+06     2.06343E+06              0.    -1.66109E+06
           15742    -2.48415E+06     2.15076E+06              0.    -1.67947E+06
           15743    -2.62468E+06     2.24079E+06              0.    -1.69819E+06
           15744    -2.77060E+06     2.33359E+06              0.    -1.71725E+06
           15745    -2.92208E+06     2.42920E+06              0.    -1.73669E+06
           15746    -3.07931E+06     2.52769E+06              0.    -1.75652E+06
           15747    -3.24250E+06     2.62911E+06              0.    -1.77675E+06
           15748    -3.41184E+06     2.73352E+06              0.    -1.79741E+06
           15749    -3.58755E+06     2.84097E+06              0.    -1.81853E+06
           15750    -3.76983E+06     2.95151E+06              0.    -1.84012E+06
           15751    -3.95891E+06     3.06521E+06              0.    -1.86220E+06
           15752    -4.15501E+06     3.18211E+06              0.    -1.88482E+06
           15753    -4.35837E+06     3.30227E+06              0.    -1.90798E+06
           15754    -4.56922E+06     3.42573E+06              0.    -1.93172E+06
           15755    -4.78782E+06     3.55253E+06              0.    -1.95607E+06
           15756    -5.01442E+06     3.68274E+06              0.    -1.98107E+06
           15757    -5.24928E+06     3.81638E+06              0.    -2.00674E+06
           15758    -5.49267E+06     3.95349E+06              0.    -2.03312E+06
           15759    -5.74487E+06     4.09413E+06              0.    -2.06025E+06
           15760    -6.00616E+06     4.23830E+06              0.    -2.08816E+06
           15761    -6.27683E+06     4.38605E+06              0.    -2.11691E+06
           15762    -6.55718E+06     4.53740E+06              0.    -2.14652E+06
           15763    -6.84752E+06     4.69236E+06              0.    -2.17704E+06
           15764    -7.14816E+06     4.85095E+06              0.    -2.20853E+06
           15765    -7.45943E+06     5.01318E+06              0.    -2.24102E+06
           15766    -7.78166E+06     5.17905E+06              0.    -2.27457E+06
           15767    -8.11519E+06     5.34854E+06              0.    -2.30923E+06
           15768    -8.46037E+06     5.52165E+06              0.    -2.34506E+06
           15769    -8.81755E+06     5.69835E+06              0.    -2.38211E+06
           15770    -9.18710E+06     5.87862E+06              0.    -2.42044E+06
           15771    -9.56940E+06     6.06239E+06              0.    -2.46011E+06
           15772    -9.96482E+06     6.24962E+06              0.    -2.50119E+06
           15773    -10.3738E+06     6.44024E+06              0.    -2.54373E+06
           15774    -10.7966E+06     6.63417E+06              0.    -2.58781E+06
           15775    -11.2338E+06     6.83131E+06              0.    -2.63350E+06
           15776    -11.6857E+06     7.03155E+06              0.    -2.68086E+06
           15777    -12.1528E+06     7.23476E+06              0.    -2.72996E+06
           15778    -12.6355E+06     7.44078E+06              0.    -2.78089E+06
           15779    -13.1342E+06     7.64946E+06              0.    -2.83371E+06
           15780    -13.6494E+06     7.86059E+06              0.    -2.88850E+06
           15781    -14.1816E+06     8.07396E+06              0.    -2.94534E+06
           15782    -14.7311E+06     8.28933E+06              0.    -3.00431E+06
           15783    -15.2985E+06     8.50642E+06              0.    -3.06548E+06
           15784    -15.8843E+06     8.72494E+06              0.    -3.12894E+06
           15785    -16.4889E+06     8.94456E+06              0.    -3.19476E+06
           15786    -17.1128E+06     9.16489E+06              0.    -3.26302E+06
           15787    -17.7565E+06     9.38554E+06              0.    -3.33381E+06
           15788    -18.4205E+06     9.60604E+06              0.    -3.40718E+06
           15789    -19.1052E+06     9.82591E+06              0.    -3.48322E+06
           15790    -19.8113E+06     10.0446E+06              0.    -3.56200E+06
           15791    -20.5391E+06     10.2615E+06              0.    -3.64359E+06
           15792    -21.2893E+06     10.4760E+06              0.    -3.72804E+06
           15793    -22.0622E+06     10.6874E+06              0.    -3.81542E+06
           15794    -22.8583E+06     10.8948E+06              0.    -3.90578E+06
           15795    -23.6783E+06     11.0974E+06              0.    -3.99916E+06
           15796    -24.5224E+06     11.2943E+06              0.    -4.09559E+06
           15797    -25.3913E+06     11.4845E+06              0.    -4.19512E+06
           15798    -26.2853E+06     11.6669E+06              0.    -4.29774E+06
           15799    -27.2049E+06     11.8403E+06              0.    -4.40347E+06
           15800    -28.1506E+06     12.0033E+06              0.    -4.51229E+06
           15801    -29.1228E+06     12.1546E+06              0.    -4.62418E+06
           15802    -30.1217E+06     12.2926E+06              0.    -4.73909E+06
           15803    -31.1479E+06     12.4157E+06              0.    -4.85697E+06
           15804    -32.2016E+06     12.5220E+06              0.    -4.97772E+06
           15805    -33.2831E+06     12.6097E+06              0.    -5.10123E+06
           15806    -34.3926E+06     12.6764E+06              0.    -5.22736E+06
           15807    -35.5304E+06     12.7201E+06              0.    -5.35594E+06
           15808    -36.6967E+06     12.7381E+06              0.    -5.48678E+06
           15809    -37.8915E+06     12.7279E+06              0.    -5.61963E+06
           15810    -39.1148E+06     12.6864E+06              0.    -5.75421E+06
           15811    -40.3667E+06     12.6105E+06              0.    -5.89019E+06
           15812     -41.647E+06     12.4968E+06              0.    -6.02720E+06
           15813    -42.9555E+06     12.3417E+06              0.    -6.16481E+06
           15814    -44.2918E+06     12.1411E+06              0.    -6.30251E+06
           15815    -45.6556E+06     11.8907E+06              0.    -6.43977E+06
           15816    -47.0463E+06     11.5860E+06              0.    -6.57593E+06
           15817    -48.4632E+06     11.2218E+06              0.    -6.71031E+06
           15818    -49.9056E+06     10.7929E+06              0.    -6.84209E+06
           15819    -51.3723E+06     10.2932E+06              0.    -6.97039E+06
           15820    -52.8622E+06     9.71662E+06              0.    -7.09420E+06
           15821    -54.3739E+06     9.05620E+06              0.    -7.21241E+06
           15822    -55.9057E+06     8.30465E+06              0.    -7.32379E+06
           15823    -57.4559E+06     7.45402E+06              0.    -7.42695E+06
           15824    -59.0223E+06     6.49577E+06              0.    -7.52037E+06
           15825    -60.6024E+06     5.42068E+06              0.    -7.60233E+06
           15826    -62.1934E+06     4.21879E+06              0.    -7.67096E+06
           15827    -63.7921E+06     2.87937E+06              0.    -7.72417E+06
           15828    -65.3950E+06     1.39084E+06              0.    -7.75963E+06
           15829    -66.9980E+06    -259.274E+03              0.     -7.7748E+06
           15830    -68.5966E+06    -2.08442E+06              0.    -7.76683E+06
           15831    -70.1856E+06    -4.09914E+06              0.    -7.73258E+06
           15832    -71.7594E+06    -6.31905E+06              0.    -7.66857E+06
           15833    -73.3114E+06    -8.76108E+06              0.    -7.57096E+06
           15834    -74.8344E+06    -11.4434E+06              0.    -7.43548E+06
           15835    -76.3203E+06    -14.3857E+06              0.    -7.25739E+06
           15836    -77.7601E+06    -17.6091E+06              0.    -7.03145E+06
           15837    -79.1434E+06    -21.1364E+06              0.    -6.75185E+06
           15838    -80.4590E+06    -24.9925E+06              0.    -6.41212E+06
           15839    -81.6941E+06    -29.2039E+06              0.    -6.00507E+06
           15840    -82.8344E+06    -33.7994E+06              0.    -5.52271E+06
           15841    -84.8205E+06    -39.2838E+06              0.    -5.34745E+06
           15842     568.819E+03     257.011E+03              0.    -884.763E+03
           15843     567.402E+03     243.464E+03              0.    -883.222E+03
           15844     571.851E+03     232.599E+03              0.    -874.801E+03
           15845     576.272E+03     221.799E+03              0.    -866.815E+03
           15846     580.659E+03     211.080E+03              0.    -859.258E+03
           15847     585.002E+03     200.452E+03              0.    -852.123E+03
           15848     589.295E+03     189.927E+03              0.    -845.402E+03
           15849     593.529E+03     179.518E+03              0.    -839.088E+03
           15850     597.698E+03     169.233E+03              0.    -833.175E+03
           15851     601.795E+03     159.084E+03              0.    -827.655E+03
           15852     605.813E+03     149.080E+03              0.    -822.523E+03
           15853     609.746E+03     139.230E+03              0.    -817.770E+03
           15854     613.587E+03     129.543E+03              0.    -813.391E+03
           15855     617.329E+03     120.027E+03              0.    -809.380E+03
           15856     620.968E+03     110.692E+03              0.    -805.729E+03
           15857     624.496E+03     101.544E+03              0.    -802.434E+03
           15858     627.909E+03     92.5905E+03              0.    -799.487E+03
           15859     631.199E+03     83.8400E+03              0.    -796.883E+03
           15860     634.360E+03     75.2991E+03              0.    -794.616E+03
           15861     637.388E+03     66.9747E+03              0.    -792.680E+03
           15862     640.275E+03     58.8739E+03              0.    -791.069E+03
           15863     643.015E+03     51.0031E+03              0.    -789.779E+03
           15864     645.603E+03     43.3690E+03              0.    -788.802E+03
           15865     648.033E+03     35.9780E+03              0.    -788.134E+03
           15866     650.297E+03     28.8365E+03              0.    -787.769E+03
           15867     652.389E+03     21.9509E+03              0.    -787.702E+03
           15868     654.303E+03     15.3274E+03              0.    -787.929E+03
           15869     656.032E+03     8.97253E+03              0.    -788.443E+03
           15870     657.568E+03     2.89241E+03              0.    -789.240E+03
           15871     658.905E+03    -2.90648E+03              0.    -790.314E+03
           15872     660.036E+03    -8.41778E+03              0.    -791.661E+03
           15873     660.952E+03    -13.6351E+03              0.    -793.277E+03
           15874     661.645E+03    -18.5517E+03              0.    -795.155E+03
           15875     662.107E+03    -23.1611E+03              0.    -797.292E+03
           15876     662.331E+03    -27.4565E+03              0.    -799.683E+03
           15877     662.306E+03    -31.4310E+03              0.    -802.323E+03
           15878     662.025E+03    -35.0776E+03              0.    -805.208E+03
           15879     661.476E+03    -38.3890E+03              0.    -808.333E+03
           15880     660.651E+03    -41.3579E+03              0.    -811.694E+03
           15881     659.540E+03    -43.9767E+03              0.    -815.288E+03
           15882     658.130E+03    -46.2377E+03              0.    -819.108E+03
           15883     656.413E+03    -48.1328E+03              0.    -823.152E+03
           15884     654.375E+03    -49.6538E+03              0.    -827.415E+03
           15885     652.006E+03    -50.7923E+03              0.    -831.893E+03
           15886     649.292E+03    -51.5394E+03              0.    -836.582E+03
           15887     646.220E+03    -51.8862E+03              0.    -841.477E+03
           15888     642.777E+03    -51.8233E+03              0.    -846.576E+03
           15889     638.950E+03    -51.3410E+03              0.    -851.874E+03
           15890     634.722E+03    -50.4295E+03              0.    -857.367E+03
           15891     630.080E+03    -49.0784E+03              0.    -863.052E+03
           15892     625.007E+03    -47.2771E+03              0.    -868.924E+03
           15893     619.487E+03    -45.0146E+03              0.    -874.981E+03
           15894     613.503E+03    -42.2795E+03              0.    -881.217E+03
           15895     607.036E+03    -39.0600E+03              0.    -887.631E+03
           15896     600.069E+03    -35.3439E+03              0.    -894.217E+03
           15897     592.582E+03    -31.1186E+03              0.    -900.973E+03
           15898     584.554E+03    -26.3710E+03              0.    -907.896E+03
           15899     575.966E+03    -21.0877E+03              0.    -914.980E+03
           15900     566.795E+03    -15.2547E+03              0.    -922.224E+03
           15901     557.019E+03    -8.85746E+03              0.    -929.624E+03
           15902     546.614E+03    -1.88116E+03              0.    -937.176E+03
           15903     535.556E+03     5.68978E+03              0.    -944.877E+03
           15904      523.82E+03     13.8712E+03              0.    -952.724E+03
           15905     511.379E+03     22.6797E+03              0.    -960.713E+03
           15906     498.207E+03     32.1323E+03              0.    -968.842E+03
           15907     484.274E+03     42.2467E+03              0.    -977.107E+03
           15908     469.552E+03     53.0413E+03              0.    -985.505E+03
           15909     454.010E+03     64.5345E+03              0.    -994.033E+03
           15910     437.615E+03     76.7461E+03              0.    -1.00269E+06
           15911     420.336E+03     89.6961E+03              0.    -1.01147E+06
           15912     402.137E+03     103.405E+03              0.    -1.02037E+06
           15913     382.984E+03     117.895E+03              0.    -1.02939E+06
           15914     362.839E+03     133.187E+03              0.    -1.03852E+06
           15915     341.664E+03     149.304E+03              0.    -1.04777E+06
           15916     319.421E+03     166.270E+03              0.    -1.05712E+06
           15917     296.067E+03     184.110E+03              0.    -1.06658E+06
           15918     271.560E+03     202.847E+03              0.    -1.07615E+06
           15919     245.855E+03     222.507E+03              0.    -1.08582E+06
           15920     218.908E+03     243.118E+03              0.    -1.09559E+06
           15921     190.670E+03     264.705E+03              0.    -1.10545E+06
           15922     161.092E+03     287.299E+03              0.    -1.11541E+06
           15923     130.124E+03     310.926E+03              0.    -1.12546E+06
           15924     97.7121E+03     335.617E+03              0.    -1.13560E+06
           15925     63.8017E+03     361.402E+03              0.    -1.14583E+06
           15926     28.3362E+03     388.313E+03              0.    -1.15615E+06
           15927    -8.74314E+03     416.381E+03              0.    -1.16654E+06
           15928    -47.4973E+03     445.641E+03              0.    -1.17702E+06
           15929    -87.9892E+03     476.126E+03              0.    -1.18758E+06
           15930    -130.284E+03     507.870E+03              0.    -1.19822E+06
           15931    -174.450E+03     540.910E+03              0.    -1.20894E+06
           15932    -220.556E+03     575.282E+03              0.    -1.21973E+06
           15933    -268.675E+03     611.024E+03              0.    -1.23060E+06
           15934    -318.882E+03     648.175E+03              0.    -1.24153E+06
           15935    -371.255E+03     686.773E+03              0.    -1.25255E+06
           15936    -425.873E+03     726.861E+03              0.    -1.26363E+06
           15937    -482.820E+03     768.478E+03              0.    -1.27478E+06
           15938    -542.182E+03     811.667E+03              0.    -1.28601E+06
           15939    -604.047E+03     856.471E+03              0.    -1.29731E+06
           15940    -668.507E+03     902.936E+03              0.    -1.30868E+06
           15941    -735.657E+03     951.105E+03              0.    -1.32012E+06
           15942    -805.596E+03     1.00103E+06              0.    -1.33163E+06
           15943    -878.424E+03     1.05274E+06              0.    -1.34321E+06
           15944    -954.248E+03     1.10631E+06              0.    -1.35487E+06
           15945    -1.03317E+06     1.16177E+06              0.    -1.36661E+06
           15946    -1.11532E+06     1.21917E+06              0.    -1.37842E+06
           15947    -1.20079E+06     1.27857E+06              0.    -1.39032E+06
           15948    -1.28971E+06     1.34002E+06              0.    -1.40230E+06
           15949    -1.38221E+06     1.40356E+06              0.    -1.41436E+06
           15950    -1.47841E+06     1.46926E+06              0.    -1.42651E+06
           15951    -1.57845E+06     1.53717E+06              0.    -1.43876E+06
           15952    -1.68246E+06     1.60733E+06              0.    -1.45111E+06
           15953    -1.79057E+06     1.67981E+06              0.    -1.46356E+06
           15954    -1.90294E+06     1.75466E+06              0.    -1.47611E+06
           15955    -2.01972E+06     1.83195E+06              0.    -1.48879E+06
           15956    -2.14106E+06     1.91171E+06              0.    -1.50158E+06
           15957    -2.26712E+06     1.99402E+06              0.    -1.51451E+06
           15958    -2.39806E+06     2.07893E+06              0.    -1.52757E+06
           15959    -2.53405E+06     2.16649E+06              0.    -1.54078E+06
           15960    -2.67528E+06     2.25678E+06              0.    -1.55415E+06
           15961    -2.82191E+06     2.34983E+06              0.    -1.56768E+06
           15962    -2.97415E+06     2.44572E+06              0.    -1.58139E+06
           15963    -3.13216E+06     2.54450E+06              0.    -1.59529E+06
           15964    -3.29617E+06     2.64623E+06              0.    -1.60940E+06
           15965    -3.46636E+06     2.75096E+06              0.    -1.62373E+06
           15966    -3.64295E+06     2.85876E+06              0.    -1.63828E+06
           15967    -3.82616E+06     2.96967E+06              0.    -1.65309E+06
           15968    -4.01621E+06     3.08376E+06              0.    -1.66817E+06
           15969    -4.21332E+06     3.20107E+06              0.    -1.68353E+06
           15970    -4.41774E+06     3.32166E+06              0.    -1.69920E+06
           15971    -4.62971E+06     3.44558E+06              0.    -1.71519E+06
           15972    -4.84947E+06     3.57287E+06              0.    -1.73154E+06
           15973    -5.07729E+06     3.70359E+06              0.    -1.74826E+06
           15974    -5.31342E+06     3.83778E+06              0.    -1.76538E+06
           15975    -5.55815E+06     3.97548E+06              0.    -1.78292E+06
           15976    -5.81175E+06     4.11672E+06              0.    -1.80092E+06
           15977    -6.07450E+06     4.26154E+06              0.    -1.81941E+06
           15978    -6.34671E+06     4.40998E+06              0.    -1.83842E+06
           15979    -6.62868E+06     4.56205E+06              0.    -1.85797E+06
           15980    -6.92071E+06     4.71778E+06              0.    -1.87811E+06
           15981    -7.22314E+06     4.87719E+06              0.    -1.89888E+06
           15982    -7.53627E+06     5.04027E+06              0.    -1.92031E+06
           15983    -7.86047E+06     5.20704E+06              0.    -1.94244E+06
           15984    -8.19606E+06     5.37749E+06              0.    -1.96532E+06
           15985    -8.54340E+06     5.55161E+06              0.    -1.98899E+06
           15986    -8.90285E+06     5.72937E+06              0.    -2.01349E+06
           15987    -9.27479E+06     5.91074E+06              0.    -2.03889E+06
           15988    -9.65960E+06     6.09569E+06              0.    -2.06522E+06
           15989    -10.0577E+06     6.28416E+06              0.    -2.09254E+06
           15990    -10.4694E+06     6.47608E+06              0.    -2.12091E+06
           15991    -10.8951E+06     6.67137E+06              0.    -2.15037E+06
           15992    -11.3354E+06     6.86993E+06              0.    -2.18100E+06
           15993    -11.7905E+06     7.07167E+06              0.    -2.21285E+06
           15994    -12.2609E+06     7.27644E+06              0.    -2.24597E+06
           15995    -12.7471E+06     7.48411E+06              0.    -2.28045E+06
           15996    -13.2496E+06     7.69450E+06              0.    -2.31633E+06
           15997    -13.7687E+06     7.90742E+06              0.    -2.35369E+06
           15998    -14.3049E+06     8.12266E+06              0.    -2.39259E+06
           15999    -14.8587E+06     8.33997E+06              0.    -2.43311E+06
           16000    -15.4306E+06     8.55909E+06              0.    -2.47531E+06
           16001    -16.0211E+06     8.77971E+06              0.    -2.51926E+06
           16002    -16.6306E+06     9.00151E+06              0.    -2.56504E+06
           16003    -17.2597E+06     9.22411E+06              0.    -2.61271E+06
           16004    -17.9088E+06     9.44710E+06              0.    -2.66235E+06
           16005    -18.5784E+06     9.67003E+06              0.    -2.71402E+06
           16006    -19.2691E+06     9.89240E+06              0.    -2.76778E+06
           16007    -19.9814E+06     10.1137E+06              0.    -2.82372E+06
           16008    -20.7157E+06     10.3332E+06              0.    -2.88189E+06
           16009    -21.4726E+06     10.5505E+06              0.    -2.94235E+06
           16010    -22.2526E+06     10.7646E+06              0.    -3.00515E+06
           16011    -23.0562E+06     10.9748E+06              0.    -3.07036E+06
           16012    -23.8838E+06     11.1804E+06              0.    -3.13801E+06
           16013    -24.7361E+06     11.3803E+06              0.    -3.20815E+06
           16014    -25.6134E+06     11.5735E+06              0.    -3.28082E+06
           16015    -26.5162E+06     11.7589E+06              0.    -3.35603E+06
           16016    -27.4449E+06     11.9353E+06              0.    -3.43380E+06
           16017    -28.4001E+06     12.1014E+06              0.    -3.51414E+06
           16018    -29.3822E+06     12.2557E+06              0.    -3.59703E+06
           16019    -30.3914E+06     12.3968E+06              0.    -3.68246E+06
           16020    -31.4283E+06     12.5229E+06              0.    -3.77039E+06
           16021    -32.4931E+06     12.6321E+06              0.    -3.86075E+06
           16022    -33.5861E+06     12.7226E+06              0.    -3.95349E+06
           16023    -34.7076E+06     12.7922E+06              0.    -4.04849E+06
           16024    -35.8578E+06     12.8385E+06              0.    -4.14563E+06
           16025    -37.0369E+06     12.8590E+06              0.    -4.24477E+06
           16026    -38.2450E+06     12.8510E+06              0.    -4.34573E+06
           16027    -39.4820E+06     12.8116E+06              0.    -4.44830E+06
           16028    -40.7480E+06     12.7375E+06              0.    -4.55223E+06
           16029    -42.0429E+06     12.6254E+06              0.    -4.65722E+06
           16030    -43.3664E+06     12.4714E+06              0.    -4.76296E+06
           16031    -44.7182E+06     12.2716E+06              0.    -4.86905E+06
           16032    -46.0979E+06     12.0215E+06              0.    -4.97507E+06
           16033    -47.5049E+06     11.7166E+06              0.    -5.08053E+06
           16034    -48.9386E+06     11.3516E+06              0.    -5.18486E+06
           16035    -50.3980E+06     10.9212E+06              0.    -5.28746E+06
           16036    -51.8822E+06     10.4194E+06              0.    -5.38762E+06
           16037    -53.3900E+06     9.83968E+06              0.    -5.48454E+06
           16038    -54.9198E+06     9.17529E+06              0.    -5.57737E+06
           16039    -56.4702E+06     8.41871E+06              0.    -5.66512E+06
           16040    -58.0391E+06     7.56190E+06              0.    -5.74670E+06
           16041    -59.6243E+06     6.59618E+06              0.    -5.82090E+06
           16042    -61.2234E+06     5.51219E+06              0.    -5.88639E+06
           16043    -62.8335E+06      4.2998E+06              0.    -5.94167E+06
           16044    -64.4513E+06     2.94813E+06              0.    -5.98509E+06
           16045    -66.0733E+06     1.44540E+06              0.    -6.01483E+06
           16046    -67.6951E+06    -221.089E+03              0.    -6.02885E+06
           16047    -69.3122E+06    -2.06500E+06              0.    -6.02491E+06
           16048    -70.9193E+06    -4.10114E+06              0.    -6.00053E+06
           16049    -72.5105E+06    -6.34541E+06              0.    -5.95296E+06
           16050    -74.0792E+06    -8.81505E+06              0.    -5.87914E+06
           16051    -75.6179E+06    -11.5286E+06              0.    -5.77571E+06
           16052    -77.1183E+06    -14.5061E+06              0.    -5.63891E+06
           16053    -78.5710E+06    -17.7692E+06              0.    -5.46461E+06
           16054    -79.9656E+06    -21.3411E+06              0.    -5.24818E+06
           16055    -81.2901E+06    -25.2473E+06              0.    -4.98451E+06
           16056    -82.5314E+06    -29.5148E+06              0.    -4.66789E+06
           16057    -83.6744E+06    -34.1729E+06              0.    -4.29199E+06
           16058    -85.6832E+06    -39.7329E+06              0.    -4.15392E+06
           16059     548.358E+03     247.818E+03              0.    -889.110E+03
           16060        547.E+03     234.822E+03              0.    -887.564E+03
           16061     551.269E+03     224.392E+03              0.    -879.120E+03
           16062     555.512E+03     214.021E+03              0.    -871.105E+03
           16063     559.722E+03     203.723E+03              0.    -863.510E+03
           16064     563.890E+03     193.509E+03              0.    -856.328E+03
           16065     568.009E+03     183.391E+03              0.    -849.554E+03
           16066     572.071E+03     173.382E+03              0.    -843.179E+03
           16067     576.069E+03     163.491E+03              0.    -837.198E+03
           16068     579.997E+03     153.728E+03              0.    -831.603E+03
           16069     583.846E+03     144.104E+03              0.    -826.389E+03
           16070     587.612E+03     134.628E+03              0.    -821.549E+03
           16071     591.286E+03     125.308E+03              0.    -817.076E+03
           16072     594.864E+03     116.154E+03              0.    -812.964E+03
           16073     598.338E+03     107.173E+03              0.    -809.207E+03
           16074     601.703E+03     98.3733E+03              0.    -805.799E+03
           16075     604.953E+03     89.7628E+03              0.    -802.734E+03
           16076     608.081E+03     81.3489E+03              0.    -800.005E+03
           16077     611.082E+03     73.1387E+03              0.    -797.607E+03
           16078     613.949E+03     65.1393E+03              0.    -795.534E+03
           16079     616.676E+03     57.3577E+03              0.    -793.781E+03
           16080     619.258E+03     49.8004E+03              0.    -792.341E+03
           16081     621.688E+03     42.4744E+03              0.    -791.209E+03
           16082     623.959E+03     35.3859E+03              0.    -790.380E+03
           16083     626.065E+03     28.5415E+03              0.    -789.847E+03
           16084     628.001E+03     21.9478E+03              0.    -789.606E+03
           16085     629.758E+03     15.6109E+03              0.    -789.651E+03
           16086     631.330E+03     9.53737E+03              0.    -789.977E+03
           16087     632.711E+03     3.73349E+03              0.    -790.578E+03
           16088     633.892E+03    -1.79422E+03              0.    -791.450E+03
           16089     634.866E+03    -7.03934E+03              0.    -792.587E+03
           16090     635.627E+03    -11.9954E+03              0.    -793.984E+03
           16091     636.165E+03    -16.6556E+03              0.    -795.636E+03
           16092     636.472E+03    -21.0135E+03              0.    -797.539E+03
           16093     636.540E+03    -25.0621E+03              0.    -799.686E+03
           16094     636.360E+03    -28.7945E+03              0.    -802.074E+03
           16095     635.923E+03    -32.2036E+03              0.    -804.697E+03
           16096     635.219E+03    -35.2822E+03              0.    -807.552E+03
           16097     634.239E+03    -38.0228E+03              0.    -810.632E+03
           16098     632.972E+03    -40.4179E+03              0.    -813.933E+03
           16099     631.407E+03    -42.4595E+03              0.    -817.451E+03
           16100     629.534E+03    -44.1397E+03              0.    -821.181E+03
           16101      627.34E+03    -45.4502E+03              0.    -825.118E+03
           16102     624.814E+03    -46.3824E+03              0.    -829.258E+03
           16103     621.943E+03    -46.9276E+03              0.    -833.596E+03
           16104     618.715E+03    -47.0767E+03              0.    -838.128E+03
           16105     615.115E+03    -46.8203E+03              0.    -842.850E+03
           16106     611.130E+03    -46.1488E+03              0.    -847.755E+03
           16107     606.745E+03    -45.0521E+03              0.    -852.842E+03
           16108     601.945E+03    -43.5200E+03              0.    -858.104E+03
           16109     596.714E+03    -41.5417E+03              0.    -863.538E+03
           16110     591.035E+03    -39.1062E+03              0.    -869.139E+03
           16111     584.891E+03    -36.2022E+03              0.    -874.902E+03
           16112     578.265E+03    -32.8178E+03              0.    -880.825E+03
           16113     571.137E+03    -28.9407E+03              0.    -886.901E+03
           16114     563.489E+03    -24.5584E+03              0.    -893.128E+03
           16115     555.301E+03    -19.6577E+03              0.    -899.500E+03
           16116     546.551E+03    -14.2251E+03              0.    -906.013E+03
           16117     537.218E+03    -8.24673E+03              0.    -912.663E+03
           16118     527.279E+03    -1.70801E+03              0.    -919.446E+03
           16119     516.711E+03     5.40599E+03              0.    -926.358E+03
           16120     505.490E+03     13.1108E+03              0.    -933.394E+03
           16121     493.589E+03     21.4224E+03              0.    -940.550E+03
           16122     480.984E+03     30.3572E+03              0.    -947.821E+03
           16123     467.646E+03     39.9324E+03              0.    -955.204E+03
           16124     453.548E+03     50.1658E+03              0.    -962.695E+03
           16125     438.659E+03     61.0754E+03              0.    -970.288E+03
           16126     422.949E+03     72.6802E+03              0.    -977.981E+03
           16127     406.386E+03     84.9997E+03              0.    -985.768E+03
           16128     388.938E+03     98.0538E+03              0.    -993.645E+03
           16129     370.570E+03     111.863E+03              0.    -1.00161E+06
           16130     351.247E+03     126.450E+03              0.    -1.00965E+06
           16131     330.931E+03     141.836E+03              0.    -1.01778E+06
           16132     309.585E+03     158.043E+03              0.    -1.02597E+06
           16133     287.169E+03     175.095E+03              0.    -1.03424E+06
           16134     263.641E+03     193.017E+03              0.    -1.04257E+06
           16135     238.960E+03     211.834E+03              0.    -1.05096E+06
           16136     213.080E+03     231.570E+03              0.    -1.05941E+06
           16137     185.957E+03     252.253E+03              0.    -1.06791E+06
           16138     157.542E+03     273.910E+03              0.    -1.07646E+06
           16139     127.786E+03     296.569E+03              0.    -1.08505E+06
           16140     96.6385E+03     320.259E+03              0.    -1.09369E+06
           16141     64.0460E+03     345.009E+03              0.    -1.10235E+06
           16142     29.9539E+03     370.851E+03              0.    -1.11106E+06
           16143    -5.69461E+03     397.815E+03              0.    -1.11978E+06
           16144    -42.9584E+03     425.933E+03              0.    -1.12854E+06
           16145    -81.8986E+03     455.240E+03              0.    -1.13731E+06
           16146    -122.578E+03     485.769E+03              0.    -1.14609E+06
           16147    -165.062E+03     517.555E+03              0.    -1.15489E+06
           16148    -209.419E+03     550.634E+03              0.    -1.16370E+06
           16149    -255.718E+03     585.042E+03              0.    -1.17251E+06
           16150    -304.033E+03     620.818E+03              0.    -1.18132E+06
           16151    -354.437E+03     658.000E+03              0.    -1.19013E+06
           16152    -407.010E+03     696.627E+03              0.    -1.19893E+06
           16153    -461.830E+03     736.741E+03              0.    -1.20772E+06
           16154    -518.982E+03     778.383E+03              0.    -1.21650E+06
           16155    -578.552E+03     821.595E+03              0.    -1.22526E+06
           16156    -640.628E+03     866.422E+03              0.    -1.23400E+06
           16157    -705.303E+03     912.906E+03              0.    -1.24272E+06
           16158    -772.672E+03     961.094E+03              0.    -1.25141E+06
           16159    -842.834E+03     1.01103E+06              0.    -1.26008E+06
           16160    -915.890E+03     1.06277E+06              0.    -1.26871E+06
           16161    -991.945E+03     1.11635E+06              0.    -1.27731E+06
           16162    -1.07111E+06     1.17183E+06              0.    -1.28587E+06
           16163    -1.15349E+06     1.22925E+06              0.    -1.29440E+06
           16164    -1.23922E+06     1.28866E+06              0.    -1.30288E+06
           16165    -1.32839E+06     1.35013E+06              0.    -1.31133E+06
           16166    -1.42115E+06     1.41369E+06              0.    -1.31974E+06
           16167    -1.51762E+06     1.47941E+06              0.    -1.32810E+06
           16168    -1.61794E+06     1.54734E+06              0.    -1.33642E+06
           16169    -1.72223E+06     1.61753E+06              0.    -1.34470E+06
           16170    -1.83064E+06     1.69003E+06              0.    -1.35294E+06
           16171    -1.94332E+06     1.76492E+06              0.    -1.36114E+06
           16172    -2.06041E+06     1.84223E+06              0.    -1.36930E+06
           16173    -2.18207E+06     1.92204E+06              0.    -1.37742E+06
           16174    -2.30847E+06     2.00439E+06              0.    -1.38550E+06
           16175    -2.43976E+06     2.08935E+06              0.    -1.39355E+06
           16176    -2.57613E+06     2.17697E+06              0.    -1.40158E+06
           16177    -2.71774E+06     2.26732E+06              0.    -1.40957E+06
           16178    -2.86477E+06     2.36044E+06              0.    -1.41755E+06
           16179    -3.01742E+06     2.45641E+06              0.    -1.42551E+06
           16180    -3.17587E+06     2.55528E+06              0.    -1.43346E+06
           16181    -3.34033E+06     2.65711E+06              0.    -1.44142E+06
           16182    -3.51100E+06     2.76196E+06              0.    -1.44937E+06
           16183    -3.68809E+06     2.86988E+06              0.    -1.45734E+06
           16184    -3.87182E+06     2.98093E+06              0.    -1.46534E+06
           16185    -4.06242E+06     3.09516E+06              0.    -1.47337E+06
           16186    -4.26012E+06     3.21264E+06              0.    -1.48144E+06
           16187    -4.46514E+06     3.33342E+06              0.    -1.48958E+06
           16188    -4.67775E+06     3.45754E+06              0.    -1.49778E+06
           16189    -4.89819E+06     3.58506E+06              0.    -1.50608E+06
           16190    -5.12672E+06     3.71602E+06              0.    -1.51448E+06
           16191    -5.36361E+06     3.85047E+06              0.    -1.52299E+06
           16192    -5.60913E+06     3.98846E+06              0.    -1.53165E+06
           16193    -5.86356E+06     4.13002E+06              0.    -1.54047E+06
           16194    -6.12720E+06     4.27519E+06              0.    -1.54947E+06
           16195    -6.40035E+06     4.42399E+06              0.    -1.55868E+06
           16196    -6.68330E+06     4.57647E+06              0.    -1.56811E+06
           16197    -6.97638E+06     4.73263E+06              0.    -1.57780E+06
           16198    -7.27990E+06      4.8925E+06              0.    -1.58777E+06
           16199    -7.59421E+06     5.05609E+06              0.    -1.59806E+06
           16200    -7.91963E+06     5.22340E+06              0.    -1.60869E+06
           16201    -8.25652E+06     5.39443E+06              0.    -1.61970E+06
           16202    -8.60524E+06     5.56917E+06              0.    -1.63112E+06
           16203    -8.96615E+06     5.74760E+06              0.    -1.64298E+06
           16204    -9.33963E+06     5.92968E+06              0.    -1.65534E+06
           16205    -9.72606E+06     6.11539E+06              0.    -1.66822E+06
           16206    -10.1258E+06     6.30467E+06              0.    -1.68168E+06
           16207    -10.5394E+06     6.49745E+06              0.    -1.69575E+06
           16208    -10.9670E+06     6.69365E+06              0.    -1.71047E+06
           16209    -11.4093E+06     6.89319E+06              0.    -1.72591E+06
           16210    -11.8666E+06     7.09596E+06              0.    -1.74211E+06
           16211    -12.3393E+06     7.30182E+06              0.    -1.75911E+06
           16212    -12.8279E+06     7.51064E+06              0.    -1.77698E+06
           16213    -13.3328E+06     7.72224E+06              0.    -1.79577E+06
           16214    -13.8546E+06     7.93644E+06              0.    -1.81553E+06
           16215    -14.3936E+06     8.15303E+06              0.    -1.83632E+06
           16216    -14.9504E+06     8.37176E+06              0.    -1.85820E+06
           16217    -15.5254E+06     8.59237E+06              0.    -1.88124E+06
           16218    -16.1192E+06     8.81455E+06              0.    -1.90549E+06
           16219    -16.7322E+06     9.03797E+06              0.    -1.93101E+06
           16220    -17.3649E+06     9.26227E+06              0.    -1.95787E+06
           16221    -18.0178E+06     9.48703E+06              0.    -1.98614E+06
           16222    -18.6915E+06     9.71180E+06              0.    -2.01586E+06
           16223    -19.3864E+06     9.93609E+06              0.    -2.04711E+06
           16224    -20.1031E+06     10.1593E+06              0.    -2.07995E+06
           16225    -20.8421E+06     10.3810E+06              0.    -2.11443E+06
           16226    -21.6039E+06     10.6003E+06              0.    -2.15062E+06
           16227    -22.3891E+06     10.8166E+06              0.    -2.18856E+06
           16228    -23.1980E+06     11.0291E+06              0.    -2.22832E+06
           16229    -24.0313E+06     11.2370E+06              0.    -2.26995E+06
           16230    -24.8894E+06     11.4392E+06              0.    -2.31348E+06
           16231    -25.7729E+06     11.6348E+06              0.    -2.35895E+06
           16232    -26.6821E+06     11.8226E+06              0.    -2.40641E+06
           16233    -27.6176E+06     12.0015E+06              0.    -2.45588E+06
           16234    -28.5798E+06     12.1701E+06              0.    -2.50737E+06
           16235    -29.5692E+06     12.3269E+06              0.    -2.56090E+06
           16236    -30.5861E+06     12.4705E+06              0.    -2.61647E+06
           16237    -31.6309E+06     12.5991E+06              0.    -2.67406E+06
           16238    -32.7040E+06     12.7108E+06              0.    -2.73365E+06
           16239    -33.8056E+06     12.8037E+06              0.    -2.79520E+06
           16240    -34.9360E+06     12.8756E+06              0.    -2.85866E+06
           16241    -36.0955E+06     12.9242E+06              0.    -2.92394E+06
           16242    -37.2842E+06     12.9469E+06              0.    -2.99096E+06
           16243    -38.5022E+06     12.9410E+06              0.    -3.05960E+06
           16244    -39.7496E+06     12.9034E+06              0.    -3.12971E+06
           16245    -41.0262E+06     12.8310E+06              0.    -3.20114E+06
           16246    -42.3321E+06     12.7204E+06              0.    -3.27367E+06
           16247    -43.6669E+06     12.5676E+06              0.    -3.34709E+06
           16248    -45.0304E+06     12.3687E+06              0.    -3.42112E+06
           16249    -46.4221E+06     12.1192E+06              0.    -3.49546E+06
           16250    -47.8415E+06     11.8145E+06              0.    -3.56976E+06
           16251    -49.2878E+06     11.4493E+06              0.    -3.64362E+06
           16252    -50.7602E+06     11.0181E+06              0.    -3.71660E+06
           16253    -52.2576E+06     10.5149E+06              0.    -3.78819E+06
           16254    -53.7789E+06     9.93328E+06              0.    -3.85782E+06
           16255    -55.3225E+06     9.26622E+06              0.    -3.92486E+06
           16256    -56.8869E+06     8.50618E+06              0.    -3.98861E+06
           16257    -58.4699E+06     7.64503E+06              0.    -4.04826E+06
           16258    -60.0695E+06     6.67398E+06              0.    -4.10294E+06
           16259    -61.6831E+06     5.58357E+06              0.    -4.15167E+06
           16260    -63.3077E+06     4.36355E+06              0.    -4.19337E+06
           16261    -64.9400E+06     3.00289E+06              0.    -4.22683E+06
           16262    -66.5764E+06     1.48968E+06              0.    -4.25071E+06
           16263    -68.2125E+06    -188.939E+03              0.    -4.26353E+06
           16264    -69.8437E+06    -2.04682E+06              0.    -4.26366E+06
           16265    -71.4645E+06    -4.09896E+06              0.    -4.24928E+06
           16266    -73.0690E+06    -6.36148E+06              0.    -4.21837E+06
           16267    -74.6504E+06    -8.85187E+06              0.    -4.16872E+06
           16268    -76.2010E+06    -11.5889E+06              0.    -4.09786E+06
           16269    -77.7124E+06    -14.5930E+06              0.    -4.00305E+06
           16270    -79.1749E+06    -17.8860E+06              0.    -3.88127E+06
           16271    -80.5778E+06    -21.4917E+06              0.    -3.72915E+06
           16272    -81.9091E+06    -25.4358E+06              0.    -3.54294E+06
           16273    -83.1552E+06    -29.7459E+06              0.    -3.31851E+06
           16274    -84.3009E+06    -34.4521E+06              0.    -3.05121E+06
           16275    -86.3276E+06    -40.0697E+06              0.    -2.95170E+06
           16276     527.887E+03     238.620E+03              0.    -893.278E+03
           16277     526.586E+03     226.164E+03              0.    -891.726E+03
           16278     530.679E+03     216.161E+03              0.    -883.263E+03
           16279     534.748E+03     206.210E+03              0.    -875.218E+03
           16280     538.784E+03     196.324E+03              0.    -867.587E+03
           16281     542.781E+03     186.516E+03              0.    -860.361E+03
           16282     546.730E+03     176.799E+03              0.    -853.534E+03
           16283     550.624E+03     167.182E+03              0.    -847.100E+03
           16284     554.455E+03     157.678E+03              0.    -841.052E+03
           16285     558.216E+03     148.295E+03              0.    -835.384E+03
           16286     561.901E+03     139.045E+03              0.    -830.090E+03
           16287     565.503E+03     129.935E+03              0.    -825.163E+03
           16288     569.015E+03     120.977E+03              0.    -820.596E+03
           16289     572.431E+03     112.177E+03              0.    -816.385E+03
           16290     575.746E+03     103.545E+03              0.    -812.523E+03
           16291     578.952E+03     95.0877E+03              0.    -809.003E+03
           16292     582.044E+03     86.8137E+03              0.     -805.82E+03
           16293     585.015E+03     78.7304E+03              0.    -802.968E+03
           16294     587.860E+03     70.8448E+03              0.    -800.440E+03
           16295     590.572E+03     63.1643E+03              0.    -798.231E+03
           16296     593.145E+03     55.6958E+03              0.    -796.336E+03
           16297     595.574E+03      48.446E+03              0.    -794.748E+03
           16298     597.851E+03     41.4217E+03              0.    -793.461E+03
           16299     599.971E+03     34.6294E+03              0.    -792.471E+03
           16300     601.926E+03     28.0757E+03              0.    -791.771E+03
           16301     603.712E+03     21.7670E+03              0.    -791.356E+03
           16302     605.319E+03     15.7099E+03              0.    -791.220E+03
           16303     606.743E+03     9.91070E+03              0.    -791.358E+03
           16304     607.975E+03     4.37583E+03              0.    -791.765E+03
           16305     609.009E+03        -888.147              0.    -792.434E+03
           16306     609.837E+03    -5.87477E+03              0.    -793.361E+03
           16307     610.451E+03    -10.5775E+03              0.    -794.541E+03
           16308     610.843E+03    -14.9896E+03              0.    -795.967E+03
           16309     611.005E+03    -19.1044E+03              0.    -797.635E+03
           16310     610.929E+03    -22.9150E+03              0.    -799.540E+03
           16311     610.605E+03    -26.4145E+03              0.    -801.676E+03
           16312     610.024E+03    -29.5957E+03              0.    -804.038E+03
           16313     609.178E+03    -32.4513E+03              0.    -806.621E+03
           16314     608.055E+03    -34.9739E+03              0.    -809.420E+03
           16315     606.646E+03    -37.1558E+03              0.    -812.430E+03
           16316     604.939E+03    -38.9892E+03              0.    -815.646E+03
           16317     602.925E+03    -40.4660E+03              0.    -819.062E+03
           16318     600.591E+03    -41.5779E+03              0.    -822.674E+03
           16319     597.925E+03    -42.3164E+03              0.    -826.476E+03
           16320     594.914E+03    -42.6726E+03              0.    -830.464E+03
           16321     591.547E+03    -42.6375E+03              0.    -834.632E+03
           16322     587.808E+03    -42.2016E+03              0.    -838.976E+03
           16323     583.685E+03    -41.3554E+03              0.    -843.489E+03
           16324     579.163E+03    -40.0887E+03              0.    -848.169E+03
           16325     574.226E+03    -38.3913E+03              0.    -853.009E+03
           16326     568.858E+03    -36.2525E+03              0.    -858.004E+03
           16327     563.043E+03    -33.6612E+03              0.    -863.150E+03
           16328     556.764E+03    -30.6061E+03              0.    -868.441E+03
           16329     550.003E+03    -27.0752E+03              0.    -873.872E+03
           16330     542.741E+03    -23.0564E+03              0.    -879.439E+03
           16331     534.959E+03    -18.5371E+03              0.    -885.136E+03
           16332     526.638E+03    -13.5041E+03              0.    -890.958E+03
           16333     517.756E+03    -7.94394E+03              0.    -896.900E+03
           16334     508.291E+03    -1.84269E+03              0.    -902.957E+03
           16335     498.222E+03     4.81417E+03              0.    -909.123E+03
           16336     487.524E+03     12.0416E+03              0.    -915.395E+03
           16337     476.174E+03     19.8550E+03              0.    -921.765E+03
           16338     464.145E+03     28.2704E+03              0.    -928.231E+03
           16339     451.413E+03     37.3044E+03              0.    -934.784E+03
           16340     437.948E+03     46.9739E+03              0.    -941.422E+03
           16341     423.724E+03     57.2967E+03              0.    -948.138E+03
           16342     408.711E+03     68.2911E+03              0.    -954.927E+03
           16343     392.878E+03     79.9756E+03              0.    -961.784E+03
           16344     376.193E+03     92.3700E+03              0.    -968.703E+03
           16345     358.624E+03     105.494E+03              0.    -975.679E+03
           16346     340.137E+03     119.369E+03              0.    -982.706E+03
           16347     320.695E+03     134.016E+03              0.    -989.779E+03
           16348     300.262E+03     149.456E+03              0.    -996.891E+03
           16349     278.800E+03     165.714E+03              0.    -1.00404E+06
           16350     256.270E+03     182.812E+03              0.    -1.01122E+06
           16351     232.629E+03     200.774E+03              0.    -1.01841E+06
           16352     207.837E+03     219.625E+03              0.    -1.02563E+06
           16353     181.848E+03     239.392E+03              0.    -1.03286E+06
           16354     154.616E+03     260.100E+03              0.    -1.04009E+06
           16355     126.095E+03     281.777E+03              0.    -1.04733E+06
           16356     96.2343E+03     304.451E+03              0.    -1.05456E+06
           16357     64.9838E+03     328.150E+03              0.    -1.06177E+06
           16358     32.2904E+03     352.905E+03              0.    -1.06897E+06
           16359    -1.90086E+03     378.746E+03              0.    -1.07614E+06
           16360    -37.6466E+03     405.704E+03              0.    -1.08328E+06
           16361    -75.0057E+03     433.812E+03              0.    -1.09039E+06
           16362    -114.039E+03     463.103E+03              0.    -1.09745E+06
           16363    -154.810E+03     493.610E+03              0.    -1.10447E+06
           16364    -197.383E+03     525.370E+03              0.    -1.11143E+06
           16365    -241.827E+03     558.417E+03              0.    -1.11833E+06
           16366    -288.211E+03     592.789E+03              0.    -1.12516E+06
           16367    -336.608E+03     628.523E+03              0.    -1.13192E+06
           16368    -387.093E+03     665.658E+03              0.    -1.13860E+06
           16369    -439.744E+03     704.234E+03              0.    -1.14519E+06
           16370    -494.641E+03     744.291E+03              0.    -1.15168E+06
           16371    -551.868E+03     785.872E+03              0.    -1.15808E+06
           16372    -611.510E+03     829.018E+03              0.    -1.16438E+06
           16373    -673.656E+03     873.773E+03              0.    -1.17056E+06
           16374    -738.400E+03     920.182E+03              0.    -1.17663E+06
           16375    -805.835E+03      968.29E+03              0.    -1.18257E+06
           16376    -876.061E+03     1.01814E+06              0.    -1.18838E+06
           16377    -949.180E+03     1.06979E+06              0.    -1.19406E+06
           16378    -1.02530E+06     1.12328E+06              0.    -1.19960E+06
           16379    -1.10452E+06     1.17866E+06              0.    -1.20499E+06
           16380    -1.18696E+06     1.23598E+06              0.    -1.21022E+06
           16381    -1.27274E+06     1.29529E+06              0.    -1.21530E+06
           16382    -1.36198E+06     1.35665E+06              0.    -1.22022E+06
           16383    -1.45479E+06     1.42010E+06              0.    -1.22496E+06
           16384    -1.55132E+06     1.48571E+06              0.    -1.22953E+06
           16385    -1.65168E+06     1.55352E+06              0.    -1.23393E+06
           16386    -1.75603E+06     1.62359E+06              0.    -1.23814E+06
           16387    -1.86450E+06     1.69598E+06              0.    -1.24216E+06
           16388    -1.97723E+06     1.77074E+06              0.    -1.24599E+06
           16389    -2.09438E+06     1.84793E+06              0.    -1.24963E+06
           16390    -2.21610E+06     1.92761E+06              0.    -1.25307E+06
           16391    -2.34256E+06     2.00984E+06              0.    -1.25630E+06
           16392    -2.47392E+06     2.09467E+06              0.    -1.25933E+06
           16393    -2.61035E+06     2.18217E+06              0.    -1.26216E+06
           16394    -2.75203E+06     2.27240E+06              0.    -1.26478E+06
           16395    -2.89914E+06     2.36541E+06              0.    -1.26719E+06
           16396    -3.05186E+06     2.46126E+06              0.    -1.26939E+06
           16397    -3.21040E+06     2.56002E+06              0.    -1.27138E+06
           16398    -3.37496E+06     2.66174E+06              0.    -1.27316E+06
           16399    -3.54573E+06     2.76648E+06              0.    -1.27474E+06
           16400    -3.72293E+06     2.87430E+06              0.    -1.27610E+06
           16401    -3.90678E+06     2.98525E+06              0.    -1.27727E+06
           16402    -4.09751E+06     3.09941E+06              0.    -1.27823E+06
           16403    -4.29535E+06     3.21681E+06              0.    -1.27900E+06
           16404    -4.50053E+06     3.33752E+06              0.    -1.27958E+06
           16405    -4.71331E+06     3.46158E+06              0.    -1.27997E+06
           16406    -4.93394E+06     3.58905E+06              0.    -1.28019E+06
           16407    -5.16267E+06     3.71999E+06              0.    -1.28024E+06
           16408    -5.39979E+06     3.85442E+06              0.    -1.28013E+06
           16409    -5.64555E+06     3.99240E+06              0.    -1.27987E+06
           16410    -5.90026E+06     4.13398E+06              0.    -1.27947E+06
           16411    -6.16419E+06     4.27918E+06              0.    -1.27894E+06
           16412    -6.43766E+06     4.42803E+06              0.    -1.27831E+06
           16413    -6.72096E+06     4.58058E+06              0.    -1.27758E+06
           16414    -7.01442E+06     4.73684E+06              0.    -1.27677E+06
           16415    -7.31837E+06     4.89683E+06              0.    -1.27590E+06
           16416    -7.63313E+06     5.06057E+06              0.    -1.27499E+06
           16417    -7.95905E+06     5.22805E+06              0.    -1.27407E+06
           16418    -8.29648E+06     5.39928E+06              0.    -1.27314E+06
           16419    -8.64578E+06     5.57426E+06              0.    -1.27225E+06
           16420    -9.00733E+06     5.75295E+06              0.    -1.27142E+06
           16421    -9.38149E+06     5.93535E+06              0.    -1.27066E+06
           16422    -9.76866E+06     6.12140E+06              0.    -1.27003E+06
           16423    -10.1692E+06     6.31105E+06              0.    -1.26953E+06
           16424    -10.5836E+06     6.50425E+06              0.    -1.26922E+06
           16425    -11.0122E+06     6.70092E+06              0.    -1.26912E+06
           16426    -11.4555E+06     6.90097E+06              0.    -1.26928E+06
           16427    -11.9139E+06     7.10430E+06              0.    -1.26972E+06
           16428    -12.3877E+06     7.31076E+06              0.    -1.27050E+06
           16429    -12.8776E+06     7.52024E+06              0.    -1.27166E+06
           16430    -13.3839E+06     7.73255E+06              0.    -1.27323E+06
           16431    -13.9070E+06     7.94752E+06              0.    -1.27527E+06
           16432    -14.4476E+06     8.16493E+06              0.    -1.27783E+06
           16433    -15.0060E+06     8.38453E+06              0.    -1.28094E+06
           16434    -15.5828E+06     8.60608E+06              0.    -1.28467E+06
           16435    -16.1784E+06     8.82926E+06              0.    -1.28907E+06
           16436    -16.7933E+06     9.05375E+06              0.    -1.29419E+06
           16437    -17.4281E+06     9.27917E+06              0.    -1.30008E+06
           16438    -18.0833E+06     9.50512E+06              0.    -1.30680E+06
           16439    -18.7593E+06     9.73114E+06              0.    -1.31441E+06
           16440    -19.4568E+06     9.95675E+06              0.    -1.32295E+06
           16441    -20.1762E+06     10.1814E+06              0.    -1.33250E+06
           16442    -20.9180E+06     10.4045E+06              0.    -1.34310E+06
           16443    -21.6828E+06     10.6253E+06              0.    -1.35481E+06
           16444    -22.4711E+06     10.8432E+06              0.    -1.36768E+06
           16445    -23.2833E+06     11.0573E+06              0.    -1.38177E+06
           16446    -24.1201E+06     11.2668E+06              0.    -1.39713E+06
           16447    -24.9820E+06     11.4708E+06              0.    -1.41381E+06
           16448    -25.8693E+06     11.6682E+06              0.    -1.43186E+06
           16449    -26.7826E+06     11.8579E+06              0.    -1.45131E+06
           16450    -27.7224E+06     12.0386E+06              0.    -1.47221E+06
           16451    -28.6892E+06     12.2091E+06              0.    -1.49459E+06
           16452    -29.6832E+06     12.3679E+06              0.    -1.51848E+06
           16453    -30.7051E+06     12.5135E+06              0.    -1.54390E+06
           16454    -31.7550E+06     12.6440E+06              0.    -1.57087E+06
           16455    -32.8335E+06     12.7577E+06              0.    -1.59938E+06
           16456    -33.9408E+06     12.8526E+06              0.    -1.62944E+06
           16457    -35.0771E+06     12.9264E+06              0.    -1.66104E+06
           16458    -36.2427E+06     12.9769E+06              0.    -1.69414E+06
           16459    -37.4377E+06     13.0014E+06              0.    -1.72872E+06
           16460    -38.6623E+06     12.9972E+06              0.    -1.76470E+06
           16461    -39.9165E+06     12.9614E+06              0.    -1.80204E+06
           16462    -41.2003E+06     12.8906E+06              0.    -1.84063E+06
           16463    -42.5135E+06     12.7813E+06              0.    -1.88036E+06
           16464    -43.8559E+06     12.6298E+06              0.    -1.92113E+06
           16465    -45.2273E+06     12.4320E+06              0.    -1.96276E+06
           16466    -46.6270E+06     12.1834E+06              0.    -2.00508E+06
           16467    -48.0547E+06     11.8792E+06              0.    -2.04789E+06
           16468    -49.5096E+06     11.5143E+06              0.    -2.09095E+06
           16469    -50.9907E+06     11.0830E+06              0.    -2.13399E+06
           16470    -52.4971E+06     10.5794E+06              0.    -2.17670E+06
           16471    -54.0275E+06     9.99696E+06              0.    -2.21873E+06
           16472    -55.5805E+06     9.32856E+06              0.    -2.25970E+06
           16473    -57.1543E+06     8.56664E+06              0.    -2.29916E+06
           16474    -58.7470E+06     7.70300E+06              0.    -2.33663E+06
           16475    -60.3563E+06     6.72878E+06              0.    -2.37156E+06
           16476    -61.9797E+06     5.63444E+06              0.    -2.40333E+06
           16477    -63.6141E+06     4.40967E+06              0.    -2.43127E+06
           16478    -65.2563E+06     3.04332E+06              0.    -2.45463E+06
           16479    -66.9025E+06     1.52339E+06              0.    -2.47256E+06
           16480    -68.5484E+06    -163.086E+03              0.    -2.48415E+06
           16481    -70.1891E+06    -2.03009E+06              0.    -2.48837E+06
           16482    -71.8193E+06    -4.09275E+06              0.    -2.48407E+06
           16483    -73.4328E+06    -6.36735E+06              0.    -2.47001E+06
           16484    -75.0228E+06    -8.87152E+06              0.    -2.44480E+06
           16485    -76.5815E+06    -11.6243E+06              0.    -2.40689E+06
           16486    -78.1003E+06    -14.6461E+06              0.    -2.35458E+06
           16487    -79.5695E+06    -17.9593E+06              0.    -2.28598E+06
           16488    -80.9782E+06    -21.5877E+06              0.    -2.19899E+06
           16489    -82.3141E+06    -25.5573E+06              0.    -2.09129E+06
           16490    -83.5633E+06    -29.8962E+06              0.    -1.96031E+06
           16491    -84.7102E+06    -34.6345E+06              0.    -1.80317E+06
           16492    -86.7484E+06     -40.291E+06              0.    -1.74315E+06
           16493     507.409E+03     229.418E+03              0.    -897.271E+03
           16494     506.164E+03     217.490E+03              0.    -895.713E+03
           16495     510.084E+03     207.905E+03              0.    -887.231E+03
           16496     513.983E+03     198.366E+03              0.    -879.160E+03
           16497     517.850E+03     188.885E+03              0.    -871.493E+03
           16498     521.679E+03     179.476E+03              0.    -864.224E+03
           16499     525.462E+03     170.150E+03              0.    -857.346E+03
           16500     529.190E+03     160.920E+03              0.    -850.854E+03
           16501     532.857E+03     151.795E+03              0.    -844.741E+03
           16502     536.456E+03     142.785E+03              0.    -839.001E+03
           16503     539.981E+03     133.902E+03              0.    -833.628E+03
           16504     543.423E+03     125.154E+03              0.    -828.615E+03
           16505     546.777E+03     116.550E+03              0.    -823.957E+03
           16506     550.036E+03     108.098E+03              0.    -819.648E+03
           16507     553.195E+03     99.8084E+03              0.    -815.681E+03
           16508     556.247E+03     91.6879E+03              0.    -812.051E+03
           16509     559.185E+03     83.7443E+03              0.    -808.752E+03
           16510     562.005E+03     75.9855E+03              0.    -805.776E+03
           16511     564.699E+03     68.4186E+03              0.    -803.120E+03
           16512     567.261E+03     61.0509E+03              0.    -800.777E+03
           16513     569.686E+03     53.8893E+03              0.    -798.740E+03
           16514     571.967E+03     46.9407E+03              0.    -797.005E+03
           16515     574.098E+03     40.2118E+03              0.    -795.565E+03
           16516     576.072E+03     33.7093E+03              0.    -794.415E+03
           16517     577.883E+03     27.4396E+03              0.    -793.548E+03
           16518     579.525E+03     21.4094E+03              0.    -792.960E+03
           16519     580.991E+03     15.6251E+03              0.    -792.644E+03
           16520     582.274E+03     10.0932E+03              0.    -792.596E+03
           16521     583.366E+03     4.82015E+03              0.    -792.808E+03
           16522     584.261E+03        -187.572              0.    -793.276E+03
           16523     584.951E+03    -4.92341E+03              0.    -793.994E+03
           16524     585.428E+03    -9.38079E+03              0.    -794.957E+03
           16525     585.684E+03    -13.5530E+03              0.    -796.158E+03
           16526     585.712E+03    -17.4333E+03              0.    -797.593E+03
           16527     585.501E+03    -21.0147E+03              0.    -799.255E+03
           16528     585.045E+03    -24.2904E+03              0.    -801.140E+03
           16529     584.332E+03    -27.2532E+03              0.    -803.242E+03
           16530     583.355E+03    -29.8957E+03              0.    -805.555E+03
           16531     582.102E+03    -32.2105E+03              0.    -808.074E+03
           16532     580.565E+03    -34.1899E+03              0.    -810.793E+03
           16533     578.731E+03    -35.8261E+03              0.    -813.707E+03
           16534     576.590E+03    -37.1110E+03              0.    -816.810E+03
           16535     574.131E+03    -38.0363E+03              0.    -820.097E+03
           16536     571.341E+03    -38.5935E+03              0.    -823.563E+03
           16537     568.208E+03    -38.7737E+03              0.    -827.201E+03
           16538     564.719E+03    -38.5678E+03              0.    -831.006E+03
           16539     560.861E+03    -37.9665E+03              0.    -834.973E+03
           16540     556.619E+03    -36.9602E+03              0.    -839.096E+03
           16541     551.979E+03    -35.5387E+03              0.    -843.370E+03
           16542     546.925E+03    -33.6919E+03              0.    -847.788E+03
           16543     541.443E+03    -31.4090E+03              0.    -852.346E+03
           16544     535.515E+03    -28.6789E+03              0.    -857.038E+03
           16545     529.124E+03    -25.4904E+03              0.    -861.857E+03
           16546     522.253E+03    -21.8316E+03              0.    -866.799E+03
           16547     514.883E+03    -17.6903E+03              0.    -871.856E+03
           16548     506.995E+03    -13.0540E+03              0.    -877.025E+03
           16549     498.569E+03    -7.90942E+03              0.    -882.298E+03
           16550     489.584E+03    -2.24332E+03              0.    -887.670E+03
           16551     480.019E+03     3.95834E+03              0.    -893.135E+03
           16552     469.851E+03     10.7100E+03              0.    -898.687E+03
           16553     459.056E+03     18.0265E+03              0.    -904.320E+03
           16554     447.611E+03     25.9234E+03              0.    -910.027E+03
           16555     435.490E+03     34.4165E+03              0.    -915.803E+03
           16556     422.668E+03     43.5223E+03              0.    -921.641E+03
           16557     409.117E+03     53.2579E+03              0.    -927.535E+03
           16558     394.808E+03     63.6408E+03              0.    -933.479E+03
           16559     379.713E+03     74.6893E+03              0.    -939.465E+03
           16560     363.800E+03     86.4220E+03              0.    -945.489E+03
           16561     347.039E+03     98.8585E+03              0.    -951.542E+03
           16562     329.397E+03     112.019E+03              0.    -957.618E+03
           16563     310.839E+03     125.923E+03              0.    -963.711E+03
           16564     291.330E+03     140.593E+03              0.    -969.814E+03
           16565     270.834E+03     156.051E+03              0.    -975.919E+03
           16566     249.313E+03     172.319E+03              0.    -982.020E+03
           16567     226.726E+03     189.421E+03              0.    -988.110E+03
           16568     203.033E+03     207.381E+03              0.    -994.180E+03
           16569     178.192E+03     226.224E+03              0.    -1.00022E+06
           16570     152.159E+03     245.975E+03              0.    -1.00624E+06
           16571     124.887E+03     266.660E+03              0.    -1.01221E+06
           16572     96.3301E+03     288.308E+03              0.    -1.01813E+06
           16573     66.4385E+03     310.946E+03              0.    -1.02399E+06
           16574     35.1615E+03     334.602E+03              0.    -1.02980E+06
           16575     2.44639E+03     359.307E+03              0.    -1.03552E+06
           16576    -31.7614E+03     385.090E+03              0.    -1.04117E+06
           16577    -67.5186E+03     411.983E+03              0.    -1.04674E+06
           16578    -104.884E+03     440.019E+03              0.    -1.05220E+06
           16579    -143.918E+03     469.231E+03              0.    -1.05756E+06
           16580    -184.683E+03     499.652E+03              0.    -1.06281E+06
           16581    -227.246E+03     531.317E+03              0.    -1.06793E+06
           16582    -271.673E+03     564.263E+03              0.    -1.07293E+06
           16583    -318.034E+03     598.525E+03              0.    -1.07778E+06
           16584    -366.401E+03     634.142E+03              0.    -1.08249E+06
           16585    -416.851E+03     671.153E+03              0.    -1.08704E+06
           16586    -469.459E+03     709.596E+03              0.    -1.09143E+06
           16587    -524.306E+03     749.514E+03              0.    -1.09564E+06
           16588    -581.476E+03     790.946E+03              0.    -1.09967E+06
           16589    -641.055E+03     833.936E+03              0.    -1.10350E+06
           16590    -703.130E+03     878.528E+03              0.    -1.10713E+06
           16591    -767.795E+03     924.766E+03              0.    -1.11055E+06
           16592    -835.145E+03     972.694E+03              0.    -1.11375E+06
           16593    -905.277E+03     1.02236E+06              0.    -1.11672E+06
           16594    -978.294E+03     1.07381E+06              0.    -1.11944E+06
           16595    -1.05430E+06     1.12710E+06              0.    -1.12192E+06
           16596    -1.13341E+06     1.18227E+06              0.    -1.12414E+06
           16597    -1.21572E+06     1.23937E+06              0.    -1.12609E+06
           16598    -1.30137E+06     1.29846E+06              0.    -1.12777E+06
           16599    -1.39046E+06     1.35958E+06              0.    -1.12915E+06
           16600    -1.48313E+06     1.42279E+06              0.    -1.13024E+06
           16601    -1.57949E+06     1.48815E+06              0.    -1.13103E+06
           16602    -1.67969E+06     1.55571E+06              0.    -1.13150E+06
           16603    -1.78386E+06     1.62552E+06              0.    -1.13164E+06
           16604    -1.89214E+06     1.69764E+06              0.    -1.13145E+06
           16605    -2.00468E+06     1.77212E+06              0.    -1.13092E+06
           16606    -2.12163E+06     1.84904E+06              0.    -1.13004E+06
           16607    -2.24314E+06     1.92843E+06              0.    -1.12880E+06
           16608    -2.36938E+06     2.01037E+06              0.    -1.12719E+06
           16609    -2.50052E+06     2.09490E+06              0.    -1.12521E+06
           16610    -2.63671E+06     2.18210E+06              0.    -1.12284E+06
           16611    -2.77815E+06     2.27202E+06              0.    -1.12008E+06
           16612    -2.92501E+06     2.36472E+06              0.    -1.11693E+06
           16613    -3.07748E+06     2.46026E+06              0.    -1.11337E+06
           16614    -3.23575E+06     2.55870E+06              0.    -1.10940E+06
           16615    -3.40004E+06     2.66009E+06              0.    -1.10501E+06
           16616    -3.57053E+06     2.76451E+06              0.     -1.1002E+06
           16617    -3.74745E+06     2.87201E+06              0.    -1.09496E+06
           16618    -3.93102E+06     2.98264E+06              0.    -1.08929E+06
           16619    -4.12146E+06     3.09647E+06              0.    -1.08319E+06
           16620    -4.31900E+06     3.21355E+06              0.    -1.07665E+06
           16621    -4.52388E+06     3.33394E+06              0.    -1.06967E+06
           16622    -4.73636E+06     3.45769E+06              0.    -1.06224E+06
           16623    -4.95668E+06     3.58485E+06              0.    -1.05437E+06
           16624    -5.18512E+06     3.71547E+06              0.    -1.04606E+06
           16625    -5.42193E+06     3.84960E+06              0.    -1.03731E+06
           16626    -5.66739E+06     3.98729E+06              0.    -1.02812E+06
           16627    -5.92180E+06     4.12857E+06              0.    -1.01849E+06
           16628    -6.18543E+06     4.27349E+06              0.    -1.00843E+06
           16629    -6.45861E+06     4.42208E+06              0.    -997.935E+03
           16630    -6.74163E+06     4.57437E+06              0.    -987.023E+03
           16631    -7.03481E+06     4.73038E+06              0.    -975.696E+03
           16632    -7.33849E+06     4.89014E+06              0.    -963.964E+03
           16633    -7.65299E+06     5.05366E+06              0.    -951.837E+03
           16634    -7.97867E+06     5.22095E+06              0.    -939.327E+03
           16635    -8.31587E+06     5.39201E+06              0.    -926.446E+03
           16636    -8.66495E+06     5.56683E+06              0.    -913.209E+03
           16637    -9.02630E+06     5.74539E+06              0.    -899.633E+03
           16638    -9.40029E+06     5.92768E+06              0.    -885.734E+03
           16639    -9.78731E+06     6.11364E+06              0.    -871.533E+03
           16640    -10.1878E+06     6.30324E+06              0.    -857.051E+03
           16641    -10.6021E+06     6.49642E+06              0.    -842.310E+03
           16642    -11.0306E+06     6.69310E+06              0.    -827.336E+03
           16643    -11.4738E+06     6.89320E+06              0.    -812.154E+03
           16644    -11.9322E+06     7.09660E+06              0.    -796.793E+03
           16645    -12.4061E+06     7.30319E+06              0.    -781.284E+03
           16646    -12.8960E+06     7.51282E+06              0.    -765.658E+03
           16647    -13.4024E+06     7.72533E+06              0.    -749.949E+03
           16648    -13.9258E+06     7.94054E+06              0.    -734.194E+03
           16649    -14.4666E+06     8.15824E+06              0.    -718.429E+03
           16650    -15.0253E+06     8.37818E+06              0.    -702.695E+03
           16651    -15.6024E+06     8.60011E+06              0.    -687.033E+03
           16652    -16.1984E+06     8.82373E+06              0.    -671.484E+03
           16653    -16.8138E+06     9.04871E+06              0.    -656.095E+03
           16654    -17.4492E+06     9.27468E+06              0.    -640.912E+03
           16655    -18.1050E+06     9.50122E+06              0.    -625.982E+03
           16656    -18.7817E+06     9.72791E+06              0.    -611.354E+03
           16657    -19.4800E+06     9.95423E+06              0.    -597.079E+03
           16658    -20.2002E+06     10.1796E+06              0.    -583.208E+03
           16659    -20.9430E+06     10.4035E+06              0.    -569.793E+03
           16660    -21.7088E+06     10.6253E+06              0.    -556.889E+03
           16661    -22.4983E+06     10.8441E+06              0.    -544.547E+03
           16662    -23.3118E+06     11.0592E+06              0.    -532.822E+03
           16663    -24.1500E+06     11.2698E+06              0.    -521.768E+03
           16664    -25.0133E+06     11.4749E+06              0.    -511.439E+03
           16665    -25.9022E+06     11.6735E+06              0.    -501.887E+03
           16666    -26.8173E+06     11.8644E+06              0.    -493.164E+03
           16667    -27.7589E+06     12.0464E+06              0.    -485.321E+03
           16668    -28.7276E+06     12.2183E+06              0.    -478.407E+03
           16669    -29.7238E+06     12.3784E+06              0.    -472.469E+03
           16670    -30.7479E+06     12.5254E+06              0.    -467.550E+03
           16671    -31.8002E+06     12.6574E+06              0.    -463.692E+03
           16672    -32.8812E+06     12.7725E+06              0.    -460.933E+03
           16673    -33.9911E+06     12.8689E+06              0.    -459.304E+03
           16674    -35.1302E+06     12.9443E+06              0.    -458.834E+03
           16675    -36.2987E+06     12.9962E+06              0.    -459.546E+03
           16676    -37.4968E+06     13.0223E+06              0.    -461.457E+03
           16677    -38.7247E+06     13.0196E+06              0.    -464.575E+03
           16678    -39.9823E+06     12.9852E+06              0.    -468.904E+03
           16679    -41.2696E+06     12.9158E+06              0.    -474.437E+03
           16680    -42.5865E+06     12.8080E+06              0.    -481.157E+03
           16681    -43.9327E+06     12.6578E+06              0.    -489.040E+03
           16682    -45.3080E+06     12.4611E+06              0.    -498.049E+03
           16683    -46.7119E+06     12.2136E+06              0.    -508.134E+03
           16684    -48.1438E+06     11.9105E+06              0.    -519.234E+03
           16685    -49.6030E+06     11.5464E+06              0.    -531.273E+03
           16686    -51.0887E+06     11.1158E+06              0.    -544.159E+03
           16687    -52.5997E+06     10.6127E+06              0.    -557.784E+03
           16688    -54.1349E+06     10.0304E+06              0.    -572.022E+03
           16689    -55.6927E+06     9.36201E+06              0.    -586.728E+03
           16690    -57.2714E+06     8.59978E+06              0.    -601.735E+03
           16691    -58.8692E+06     7.73551E+06              0.    -616.856E+03
           16692    -60.4836E+06     6.76029E+06              0.    -631.876E+03
           16693    -62.1121E+06     5.66455E+06              0.    -646.558E+03
           16694    -63.7517E+06     4.43790E+06              0.    -660.633E+03
           16695    -65.3991E+06     3.06919E+06              0.    -673.803E+03
           16696    -67.0504E+06     1.54633E+06              0.    -685.737E+03
           16697    -68.7014E+06    -143.705E+03              0.    -696.067E+03
           16698    -70.3471E+06    -2.01495E+06              0.    -704.385E+03
           16699    -71.9822E+06    -4.08262E+06              0.    -710.243E+03
           16700    -73.6005E+06    -6.36307E+06              0.    -713.142E+03
           16701    -75.1950E+06    -8.87403E+06              0.    -712.536E+03
           16702    -76.7580E+06    -11.6346E+06              0.    -707.818E+03
           16703    -78.2808E+06    -14.6654E+06              0.    -698.321E+03
           16704    -79.7535E+06    -17.9888E+06              0.    -683.310E+03
           16705    -81.1652E+06    -21.6288E+06              0.    -661.971E+03
           16706    -82.5036E+06    -25.6116E+06              0.    -633.410E+03
           16707    -83.7547E+06    -29.9653E+06              0.    -596.645E+03
           16708    -84.9030E+06    -34.7206E+06              0.    -550.564E+03
           16709    -86.9479E+06    -40.3977E+06              0.    -530.593E+03
           16710     486.927E+03     220.215E+03              0.    -901.093E+03
           16711     485.738E+03     208.803E+03              0.    -899.529E+03
           16712     489.489E+03     199.627E+03              0.    -891.031E+03
           16713     493.220E+03     190.491E+03              0.    -882.934E+03
           16714     496.922E+03     181.407E+03              0.    -875.233E+03
           16715     500.587E+03     172.389E+03              0.    -867.922E+03
           16716     504.207E+03     163.448E+03              0.    -860.995E+03
           16717     507.774E+03     154.596E+03              0.    -854.446E+03
           16718     511.281E+03     145.843E+03              0.    -848.269E+03
           16719     514.722E+03     137.201E+03              0.    -842.458E+03
           16720     518.089E+03     128.678E+03              0.    -837.008E+03
           16721     521.376E+03     120.284E+03              0.    -831.911E+03
           16722     524.576E+03     112.028E+03              0.    -827.163E+03
           16723     527.682E+03     103.919E+03              0.    -822.757E+03
           16724     530.689E+03     95.9652E+03              0.    -818.687E+03
           16725     533.591E+03     88.1750E+03              0.    -814.948E+03
           16726     536.381E+03     80.5558E+03              0.    -811.533E+03
           16727     539.053E+03     73.1155E+03              0.    -808.436E+03
           16728     541.601E+03     65.8611E+03              0.    -805.653E+03
           16729     544.019E+03     58.8000E+03              0.    -803.176E+03
           16730     546.301E+03     51.9393E+03              0.    -800.999E+03
           16731     548.440E+03     45.2856E+03              0.    -799.118E+03
           16732     550.431E+03     38.8458E+03              0.    -797.526E+03
           16733     552.266E+03     32.6265E+03              0.    -796.217E+03
           16734     553.940E+03     26.6344E+03              0.    -795.185E+03
           16735     555.446E+03     20.8760E+03              0.    -794.425E+03
           16736     556.777E+03     15.3576E+03              0.    -793.931E+03
           16737     557.926E+03     10.0860E+03              0.    -793.697E+03
           16738     558.887E+03     5.06740E+03              0.    -793.716E+03
           16739     559.651E+03         308.477              0.    -793.984E+03
           16740     560.212E+03    -4.18427E+03              0.    -794.494E+03
           16741     560.561E+03    -8.40427E+03              0.    -795.241E+03
           16742     560.691E+03    -12.3448E+03              0.    -796.219E+03
           16743     560.594E+03    -15.9991E+03              0.    -797.421E+03
           16744     560.260E+03    -19.3602E+03              0.    -798.843E+03
           16745     559.682E+03    -22.4213E+03              0.    -800.478E+03
           16746      558.85E+03    -25.1751E+03              0.    -802.321E+03
           16747     557.754E+03    -27.6143E+03              0.    -804.365E+03
           16748     556.385E+03    -29.7315E+03              0.    -806.605E+03
           16749     554.732E+03    -31.5191E+03              0.    -809.035E+03
           16750     552.785E+03    -32.9692E+03              0.    -811.649E+03
           16751     550.533E+03    -34.0737E+03              0.    -814.440E+03
           16752     547.964E+03    -34.8243E+03              0.    -817.404E+03
           16753     545.066E+03    -35.2126E+03              0.    -820.534E+03
           16754     541.827E+03    -35.2297E+03              0.    -823.824E+03
           16755     538.235E+03    -34.8665E+03              0.    -827.269E+03
           16756     534.274E+03    -34.1138E+03              0.    -830.861E+03
           16757     529.933E+03    -32.9619E+03              0.    -834.595E+03
           16758     525.195E+03    -31.4007E+03              0.    -838.464E+03
           16759     520.046E+03    -29.4202E+03              0.    -842.463E+03
           16760     514.471E+03    -27.0095E+03              0.    -846.586E+03
           16761     508.453E+03    -24.1578E+03              0.    -850.825E+03
           16762     501.974E+03    -20.8536E+03              0.    -855.175E+03
           16763     495.018E+03    -17.0853E+03              0.    -859.629E+03
           16764     487.566E+03    -12.8407E+03              0.    -864.181E+03
           16765     479.598E+03    -8.10722E+03              0.    -868.823E+03
           16766     471.095E+03    -2.87188E+03              0.    -873.550E+03
           16767     462.037E+03     2.87866E+03              0.    -878.355E+03
           16768     452.401E+03     9.15834E+03              0.    -883.231E+03
           16769     442.166E+03     15.9815E+03              0.    -888.170E+03
           16770     431.308E+03     23.3630E+03              0.    -893.167E+03
           16771     419.803E+03     31.3182E+03              0.    -898.214E+03
           16772     407.626E+03     39.8629E+03              0.    -903.304E+03
           16773     394.751E+03     49.0134E+03              0.    -908.429E+03
           16774     381.151E+03     58.7869E+03              0.    -913.583E+03
           16775     366.798E+03     69.2007E+03              0.    -918.757E+03
           16776     351.663E+03     80.2730E+03              0.    -923.945E+03
           16777     335.715E+03     92.0223E+03              0.    -929.139E+03
           16778     318.924E+03     104.468E+03              0.    -934.330E+03
           16779     301.256E+03     117.630E+03              0.    -939.511E+03
           16780     282.677E+03     131.529E+03              0.    -944.675E+03
           16781     263.153E+03     146.186E+03              0.    -949.812E+03
           16782     242.647E+03     161.623E+03              0.    -954.914E+03
           16783     221.121E+03     177.862E+03              0.    -959.973E+03
           16784     198.536E+03     194.928E+03              0.    -964.981E+03
           16785     174.851E+03     212.843E+03              0.    -969.928E+03
           16786     150.024E+03     231.632E+03              0.    -974.806E+03
           16787     124.012E+03     251.322E+03              0.    -979.606E+03
           16788     96.7677E+03     271.938E+03              0.    -984.318E+03
           16789     68.2453E+03     293.507E+03              0.    -988.934E+03
           16790     38.3958E+03     316.058E+03              0.    -993.443E+03
           16791     7.16839E+03     339.618E+03              0.    -997.837E+03
           16792    -25.4892E+03     364.218E+03              0.    -1.00210E+06
           16793    -59.6314E+03     389.887E+03              0.    -1.00624E+06
           16794    -95.3145E+03     416.658E+03              0.    -1.01022E+06
           16795    -132.597E+03     444.561E+03              0.    -1.01405E+06
           16796    -171.539E+03     473.630E+03              0.    -1.01772E+06
           16797    -212.204E+03     503.899E+03              0.    -1.02120E+06
           16798    -254.655E+03     535.403E+03              0.    -1.02450E+06
           16799    -298.962E+03     568.177E+03              0.    -1.02760E+06
           16800    -345.192E+03     602.257E+03              0.    -1.03049E+06
           16801    -393.418E+03     637.682E+03              0.    -1.03316E+06
           16802    -443.715E+03     674.491E+03              0.    -1.03559E+06
           16803    -496.160E+03     712.721E+03              0.    -1.03778E+06
           16804    -550.832E+03     752.415E+03              0.    -1.03971E+06
           16805    -607.815E+03     793.614E+03              0.    -1.04138E+06
           16806    -667.194E+03     836.359E+03              0.    -1.04276E+06
           16807    -729.058E+03     880.694E+03              0.    -1.04385E+06
           16808    -793.498E+03     926.665E+03              0.    -1.04463E+06
           16809    -860.610E+03     974.315E+03              0.    -1.04510E+06
           16810    -930.490E+03     1.02369E+06              0.    -1.04523E+06
           16811    -1.00324E+06     1.07484E+06              0.    -1.04502E+06
           16812    -1.07897E+06     1.12782E+06              0.    -1.04445E+06
           16813    -1.15778E+06     1.18266E+06              0.    -1.04352E+06
           16814    -1.23979E+06     1.23943E+06              0.    -1.04219E+06
           16815    -1.32511E+06     1.29817E+06              0.    -1.04048E+06
           16816    -1.41386E+06     1.35893E+06              0.    -1.03835E+06
           16817    -1.50617E+06     1.42178E+06              0.    -1.03579E+06
           16818    -1.60216E+06     1.48675E+06              0.    -1.03280E+06
           16819    -1.70197E+06     1.55392E+06              0.    -1.02936E+06
           16820    -1.80573E+06     1.62332E+06              0.    -1.02545E+06
           16821    -1.91359E+06     1.69503E+06              0.    -1.02107E+06
           16822    -2.02568E+06     1.76909E+06              0.    -1.01619E+06
           16823    -2.14217E+06     1.84556E+06              0.    -1.01080E+06
           16824    -2.26321E+06     1.92450E+06              0.    -1.00490E+06
           16825    -2.38895E+06     2.00598E+06              0.    -998.457E+03
           16826    -2.51957E+06     2.09005E+06              0.    -991.471E+03
           16827    -2.65523E+06     2.17676E+06              0.    -983.925E+03
           16828    -2.79611E+06     2.26619E+06              0.    -975.805E+03
           16829    -2.94239E+06     2.35838E+06              0.    -967.098E+03
           16830    -3.09427E+06     2.45341E+06              0.    -957.791E+03
           16831    -3.25193E+06     2.55133E+06              0.    -947.872E+03
           16832    -3.41558E+06     2.65219E+06              0.    -937.329E+03
           16833    -3.58543E+06     2.75607E+06              0.    -926.149E+03
           16834    -3.76167E+06     2.86302E+06              0.    -914.320E+03
           16835    -3.94455E+06     2.97310E+06              0.    -901.831E+03
           16836    -4.13427E+06     3.08637E+06              0.    -888.672E+03
           16837    -4.33108E+06     3.20288E+06              0.    -874.832E+03
           16838    -4.53521E+06     3.32269E+06              0.    -860.300E+03
           16839    -4.74691E+06     3.44586E+06              0.    -845.068E+03
           16840    -4.96644E+06     3.57243E+06              0.    -829.127E+03
           16841    -5.19406E+06     3.70247E+06              0.    -812.468E+03
           16842    -5.43004E+06     3.83601E+06              0.    -795.085E+03
           16843    -5.67465E+06     3.97310E+06              0.    -776.970E+03
           16844    -5.92818E+06     4.11379E+06              0.    -758.118E+03
           16845    -6.19093E+06     4.25812E+06              0.    -738.524E+03
           16846    -6.46320E+06     4.40611E+06              0.    -718.184E+03
           16847    -6.74530E+06     4.55781E+06              0.    -697.095E+03
           16848    -7.03754E+06     4.71324E+06              0.    -675.255E+03
           16849    -7.34026E+06     4.87242E+06              0.    -652.662E+03
           16850    -7.65378E+06     5.03537E+06              0.    -629.318E+03
           16851    -7.97847E+06     5.20209E+06              0.    -605.225E+03
           16852    -8.31467E+06     5.37259E+06              0.    -580.384E+03
           16853    -8.66275E+06     5.54686E+06              0.    -554.801E+03
           16854    -9.02307E+06     5.72489E+06              0.    -528.481E+03
           16855    -9.39602E+06     5.90665E+06              0.    -501.430E+03
           16856    -9.78199E+06     6.09211E+06              0.    -473.659E+03
           16857    -10.1814E+06     6.28122E+06              0.    -445.177E+03
           16858    -10.5946E+06     6.47393E+06              0.    -415.997E+03
           16859    -11.0221E+06     6.67016E+06              0.    -386.132E+03
           16860    -11.4642E+06     6.86983E+06              0.    -355.598E+03
           16861    -11.9215E+06     7.07283E+06              0.    -324.412E+03
           16862    -12.3944E+06     7.27904E+06              0.    -292.594E+03
           16863    -12.8832E+06     7.48833E+06              0.    -260.165E+03
           16864    -13.3885E+06     7.70053E+06              0.    -227.149E+03
           16865    -13.9108E+06     7.91545E+06              0.    -193.570E+03
           16866    -14.4505E+06     8.13291E+06              0.    -159.455E+03
           16867    -15.0082E+06     8.35264E+06              0.    -124.836E+03
           16868    -15.5842E+06     8.57440E+06              0.    -89.7427E+03
           16869    -16.1792E+06     8.79789E+06              0.    -54.2093E+03
           16870    -16.7936E+06     9.02278E+06              0.    -18.2715E+03
           16871    -17.4280E+06     9.24871E+06              0.     18.0327E+03
           16872    -18.0828E+06     9.47526E+06              0.     54.6629E+03
           16873    -18.7585E+06     9.70200E+06              0.     91.5771E+03
           16874    -19.4558E+06     9.92843E+06              0.     128.731E+03
           16875    -20.1751E+06     10.1540E+06              0.     166.077E+03
           16876    -20.9170E+06     10.3781E+06              0.     203.569E+03
           16877     -21.682E+06     10.6001E+06              0.     241.154E+03
           16878    -22.4706E+06     10.8193E+06              0.     278.781E+03
           16879    -23.2833E+06     11.0348E+06              0.     316.395E+03
           16880    -24.1207E+06     11.2458E+06              0.     353.940E+03
           16881    -24.9833E+06     11.4514E+06              0.     391.359E+03
           16882    -25.8715E+06     11.6505E+06              0.     428.591E+03
           16883    -26.7859E+06     11.8421E+06              0.     465.575E+03
           16884    -27.7269E+06     12.0248E+06              0.     502.249E+03
           16885    -28.6950E+06     12.1974E+06              0.     538.549E+03
           16886    -29.6907E+06     12.3583E+06              0.     574.410E+03
           16887    -30.7142E+06     12.5061E+06              0.     609.764E+03
           16888    -31.7661E+06     12.6390E+06              0.     644.544E+03
           16889    -32.8467E+06     12.7552E+06              0.     678.681E+03
           16890    -33.9562E+06     12.8526E+06              0.     712.105E+03
           16891    -35.0950E+06     12.9290E+06              0.     744.746E+03
           16892    -36.2633E+06     12.9821E+06              0.     776.533E+03
           16893    -37.4612E+06     13.0093E+06              0.     807.391E+03
           16894    -38.6889E+06     13.0079E+06              0.     837.250E+03
           16895    -39.9464E+06     12.9747E+06              0.     866.033E+03
           16896    -41.2336E+06     12.9066E+06              0.     893.667E+03
           16897    -42.5505E+06     12.8001E+06              0.     920.074E+03
           16898    -43.8968E+06     12.6512E+06              0.     945.177E+03
           16899    -45.2722E+06     12.4560E+06              0.     968.899E+03
           16900    -46.6762E+06     12.2098E+06              0.     991.157E+03
           16901    -48.1083E+06     11.9080E+06              0.     1.01187E+06
           16902    -49.5677E+06     11.5454E+06              0.     1.03095E+06
           16903    -51.0536E+06     11.1162E+06              0.     1.04832E+06
           16904    -52.5649E+06     10.6144E+06              0.     1.06387E+06
           16905    -54.1004E+06     10.0335E+06              0.     1.07752E+06
           16906    -55.6586E+06     9.36639E+06              0.     1.08916E+06
           16907    -57.2377E+06     8.60545E+06              0.     1.09869E+06
           16908    -58.8358E+06     7.74240E+06              0.     1.10599E+06
           16909    -60.4507E+06     6.76837E+06              0.     1.11094E+06
           16910    -62.0796E+06     5.67374E+06              0.     1.11340E+06
           16911    -63.7197E+06     4.44813E+06              0.     1.11324E+06
           16912    -65.3675E+06     3.08038E+06              0.     1.11029E+06
           16913    -67.0193E+06     1.55838E+06              0.     1.10438E+06
           16914    -68.6708E+06    -130.888E+03              0.     1.09532E+06
           16915    -70.3171E+06    -2.00148E+06              0.     1.08289E+06
           16916    -71.9526E+06    -4.06862E+06              0.     1.06685E+06
           16917    -73.5713E+06    -6.34867E+06              0.     1.04695E+06
           16918    -75.1663E+06    -8.85938E+06              0.     1.02287E+06
           16919    -76.7298E+06    -11.6198E+06              0.     994.301E+03
           16920    -78.2529E+06    -14.6507E+06              0.     960.853E+03
           16921    -79.7261E+06    -17.9743E+06              0.     922.110E+03
           16922    -81.1381E+06    -21.6147E+06              0.     877.596E+03
           16923    -82.4767E+06    -25.5981E+06              0.     826.779E+03
           16924    -83.7280E+06    -29.9527E+06              0.     769.070E+03
           16925    -84.8763E+06    -34.7089E+06              0.     703.775E+03
           16926    -86.9214E+06    -40.3873E+06              0.     683.708E+03
           16927     466.446E+03     211.011E+03              0.    -904.746E+03
           16928     465.310E+03     200.104E+03              0.    -903.177E+03
           16929     468.897E+03     191.329E+03              0.    -894.664E+03
           16930     472.465E+03     182.587E+03              0.    -886.543E+03
           16931     476.004E+03     173.892E+03              0.    -878.809E+03
           16932     479.509E+03     165.257E+03              0.    -871.458E+03
           16933     482.969E+03     156.693E+03              0.    -864.483E+03
           16934     486.379E+03     148.212E+03              0.    -857.879E+03
           16935     489.730E+03     139.825E+03              0.     -851.64E+03
           16936     493.015E+03     131.542E+03              0.    -845.760E+03
           16937     496.229E+03     123.373E+03              0.    -840.233E+03
           16938     499.364E+03     115.327E+03              0.    -835.054E+03
           16939     502.414E+03     107.413E+03              0.    -830.217E+03
           16940     505.372E+03     99.6401E+03              0.    -825.715E+03
           16941     508.232E+03     92.0165E+03              0.    -821.544E+03
           16942     510.988E+03     84.5505E+03              0.    -817.697E+03
           16943     513.634E+03     77.2496E+03              0.    -814.168E+03
           16944     516.164E+03     70.1216E+03              0.    -810.952E+03
           16945     518.571E+03     63.1737E+03              0.    -808.042E+03
           16946      520.85E+03     56.4132E+03              0.    -805.433E+03
           16947     522.994E+03     49.8470E+03              0.    -803.119E+03
           16948     524.997E+03     43.4820E+03              0.    -801.093E+03
           16949     526.854E+03     37.3251E+03              0.    -799.350E+03
           16950     528.557E+03     31.3827E+03              0.    -797.884E+03
           16951     530.100E+03     25.6615E+03              0.    -796.689E+03
           16952     531.476E+03     20.1681E+03              0.    -795.759E+03
           16953     532.680E+03     14.9089E+03              0.    -795.087E+03
           16954     533.703E+03     9.89042E+03              0.    -794.669E+03
           16955     534.540E+03     5.11910E+03              0.    -794.497E+03
           16956     535.182E+03         601.512              0.    -794.566E+03
           16957     535.622E+03    -3.65585E+03              0.    -794.870E+03
           16958     535.853E+03    -7.64640E+03              0.    -795.404E+03
           16959     535.867E+03    -11.3634E+03              0.    -796.159E+03
           16960     535.655E+03    -14.8002E+03              0.    -797.131E+03
           16961     535.209E+03    -17.9498E+03              0.    -798.314E+03
           16962     534.520E+03    -20.8054E+03              0.    -799.701E+03
           16963     533.580E+03    -23.3597E+03              0.    -801.287E+03
           16964     532.378E+03    -25.6055E+03              0.    -803.064E+03
           16965     530.905E+03    -27.5353E+03              0.    -805.027E+03
           16966     529.150E+03    -29.1416E+03              0.    -807.170E+03
           16967     527.104E+03    -30.4166E+03              0.    -809.485E+03
           16968     524.755E+03    -31.3521E+03              0.    -811.968E+03
           16969     522.091E+03    -31.9400E+03              0.    -814.611E+03
           16970     519.102E+03    -32.1717E+03              0.    -817.408E+03
           16971     515.774E+03    -32.0385E+03              0.    -820.352E+03
           16972     512.095E+03    -31.5315E+03              0.    -823.438E+03
           16973     508.051E+03    -30.6412E+03              0.    -826.657E+03
           16974     503.628E+03    -29.3582E+03              0.    -830.005E+03
           16975     498.813E+03    -27.6724E+03              0.    -833.473E+03
           16976     493.590E+03    -25.5738E+03              0.    -837.056E+03
           16977     487.944E+03    -23.0517E+03              0.    -840.746E+03
           16978     481.858E+03    -20.0952E+03              0.    -844.536E+03
           16979     475.315E+03    -16.6930E+03              0.    -848.419E+03
           16980     468.298E+03    -12.8335E+03              0.    -852.389E+03
           16981     460.789E+03    -8.50457E+03              0.    -856.437E+03
           16982     452.769E+03    -3.69383E+03              0.    -860.557E+03
           16983     444.217E+03     1.61172E+03              0.    -864.742E+03
           16984     435.114E+03     7.42530E+03              0.    -868.983E+03
           16985     425.438E+03     13.7607E+03              0.    -873.273E+03
           16986     415.167E+03     20.6323E+03              0.    -877.605E+03
           16987     404.279E+03     28.0547E+03              0.    -881.970E+03
           16988     392.748E+03     36.0432E+03              0.    -886.361E+03
           16989     380.550E+03     44.6135E+03              0.    -890.769E+03
           16990     367.660E+03     53.7819E+03              0.    -895.187E+03
           16991     354.051E+03     63.5652E+03              0.    -899.605E+03
           16992     339.694E+03     73.9808E+03              0.    -904.016E+03
           16993     324.560E+03     85.0467E+03              0.    -908.410E+03
           16994     308.621E+03     96.7813E+03              0.    -912.780E+03
           16995     291.844E+03     109.204E+03              0.    -917.115E+03
           16996     274.198E+03     122.334E+03              0.    -921.407E+03
           16997     255.648E+03     136.192E+03              0.    -925.646E+03
           16998     236.159E+03     150.800E+03              0.    -929.824E+03
           16999     215.697E+03     166.178E+03              0.    -933.930E+03
           17000     194.222E+03     182.350E+03              0.    -937.954E+03
           17001     171.696E+03     199.337E+03              0.    -941.887E+03
           17002     148.079E+03     217.166E+03              0.    -945.719E+03
           17003     123.329E+03     235.859E+03              0.    -949.438E+03
           17004     97.4014E+03     255.442E+03              0.    -953.034E+03
           17005     70.2523E+03     275.941E+03              0.    -956.497E+03
           17006     41.8346E+03     297.383E+03              0.    -959.815E+03
           17007     12.0999E+03     319.796E+03              0.    -962.978E+03
           17008    -19.0022E+03     343.208E+03              0.    -965.973E+03
           17009    -51.5236E+03     367.648E+03              0.    -968.789E+03
           17010    -85.5184E+03     393.147E+03              0.    -971.414E+03
           17011    -121.042E+03     419.736E+03              0.    -973.836E+03
           17012    -158.154E+03     447.446E+03              0.    -976.043E+03
           17013    -196.912E+03     476.310E+03              0.    -978.021E+03
           17014    -237.380E+03     506.363E+03              0.    -979.758E+03
           17015    -279.622E+03     537.637E+03              0.    -981.241E+03
           17016    -323.704E+03     570.169E+03              0.    -982.457E+03
           17017    -369.696E+03     603.996E+03              0.    -983.391E+03
           17018    -417.670E+03     639.154E+03              0.    -984.030E+03
           17019    -467.699E+03     675.683E+03              0.    -984.361E+03
           17020    -519.859E+03     713.621E+03              0.    -984.367E+03
           17021    -574.232E+03     753.008E+03              0.    -984.036E+03
           17022    -630.898E+03     793.886E+03              0.    -983.351E+03
           17023    -689.943E+03     836.298E+03              0.    -982.298E+03
           17024    -751.455E+03     880.285E+03              0.    -980.861E+03
           17025    -815.524E+03     925.893E+03              0.    -979.025E+03
           17026    -882.246E+03     973.167E+03              0.    -976.773E+03
           17027    -951.718E+03     1.02215E+06              0.     -974.09E+03
           17028    -1.02404E+06     1.07290E+06              0.    -970.959E+03
           17029    -1.09932E+06     1.12545E+06              0.    -967.364E+03
           17030    -1.17766E+06     1.17986E+06              0.    -963.287E+03
           17031    -1.25917E+06     1.23617E+06              0.    -958.711E+03
           17032    -1.34398E+06     1.29445E+06              0.    -953.620E+03
           17033    -1.43219E+06     1.35473E+06              0.    -947.995E+03
           17034    -1.52394E+06     1.41707E+06              0.    -941.819E+03
           17035    -1.61934E+06     1.48153E+06              0.    -935.074E+03
           17036    -1.71854E+06     1.54816E+06              0.    -927.742E+03
           17037    -1.82166E+06     1.61702E+06              0.    -919.804E+03
           17038    -1.92886E+06     1.68816E+06              0.    -911.242E+03
           17039    -2.04026E+06     1.76164E+06              0.    -902.037E+03
           17040    -2.15603E+06     1.83752E+06              0.    -892.171E+03
           17041    -2.27632E+06     1.91585E+06              0.    -881.625E+03
           17042    -2.40129E+06     1.99670E+06              0.    -870.380E+03
           17043    -2.53110E+06     2.08012E+06              0.    -858.416E+03
           17044    -2.66592E+06     2.16617E+06              0.    -845.716E+03
           17045    -2.80594E+06     2.25492E+06              0.    -832.259E+03
           17046    -2.95133E+06     2.34642E+06              0.    -818.026E+03
           17047    -3.10228E+06     2.44074E+06              0.    -803.000E+03
           17048    -3.25898E+06     2.53793E+06              0.    -787.160E+03
           17049    -3.42163E+06     2.63805E+06              0.    -770.488E+03
           17050    -3.59044E+06     2.74118E+06              0.    -752.965E+03
           17051    -3.76562E+06     2.84735E+06              0.    -734.573E+03
           17052    -3.94740E+06     2.95665E+06              0.    -715.293E+03
           17053    -4.13598E+06     3.06911E+06              0.    -695.107E+03
           17054    -4.33162E+06     3.18481E+06              0.    -673.997E+03
           17055    -4.53454E+06     3.30379E+06              0.    -651.946E+03
           17056    -4.74500E+06     3.42611E+06              0.    -628.936E+03
           17057    -4.96324E+06     3.55184E+06              0.    -604.950E+03
           17058    -5.18954E+06     3.68100E+06              0.    -579.973E+03
           17059    -5.42415E+06     3.81367E+06              0.    -553.989E+03
           17060    -5.66736E+06     3.94987E+06              0.    -526.982E+03
           17061    -5.91946E+06     4.08966E+06              0.    -498.937E+03
           17062    -6.18072E+06     4.23308E+06              0.    -469.842E+03
           17063    -6.45147E+06     4.38016E+06              0.    -439.682E+03
           17064      -6.732E+06     4.53094E+06              0.    -408.446E+03
           17065    -7.02264E+06     4.68544E+06              0.    -376.121E+03
           17066    -7.32371E+06     4.84368E+06              0.    -342.698E+03
           17067    -7.63555E+06     5.00569E+06              0.    -308.167E+03
           17068    -7.95851E+06     5.17147E+06              0.    -272.519E+03
           17069    -8.29293E+06     5.34103E+06              0.    -235.747E+03
           17070    -8.63919E+06     5.51436E+06              0.    -197.845E+03
           17071    -8.99766E+06     5.69145E+06              0.    -158.808E+03
           17072    -9.36871E+06     5.87228E+06              0.    -118.633E+03
           17073    -9.75274E+06     6.05680E+06              0.    -77.3183E+03
           17074    -10.1501E+06     6.24499E+06              0.    -34.8627E+03
           17075    -10.5613E+06     6.43678E+06              0.     8.73211E+03
           17076    -10.9867E+06     6.63210E+06              0.     53.4634E+03
           17077    -11.4268E+06     6.83087E+06              0.     99.3264E+03
           17078    -11.8819E+06     7.03299E+06              0.     146.315E+03
           17079    -12.3525E+06     7.23834E+06              0.     194.420E+03
           17080    -12.8392E+06     7.44677E+06              0.     243.631E+03
           17081    -13.3422E+06     7.65814E+06              0.     293.936E+03
           17082    -13.8622E+06     7.87226E+06              0.     345.320E+03
           17083    -14.3995E+06     8.08893E+06              0.     397.766E+03
           17084    -14.9547E+06     8.30790E+06              0.     451.255E+03
           17085    -15.5284E+06     8.52894E+06              0.     505.763E+03
           17086    -16.1208E+06     8.75173E+06              0.     561.268E+03
           17087    -16.7327E+06     8.97596E+06              0.     617.742E+03
           17088    -17.3645E+06     9.20125E+06              0.     675.155E+03
           17089    -18.0167E+06     9.42722E+06              0.     733.475E+03
           17090    -18.6898E+06     9.65341E+06              0.     792.667E+03
           17091    -19.3844E+06     9.87933E+06              0.     852.691E+03
           17092    -20.1010E+06     10.1044E+06              0.     913.506E+03
           17093    -20.8401E+06     10.3281E+06              0.     975.069E+03
           17094    -21.6022E+06     10.5498E+06              0.     1.03733E+06
           17095    -22.3880E+06     10.7686E+06              0.     1.10024E+06
           17096    -23.1978E+06     10.9839E+06              0.     1.16374E+06
           17097    -24.0323E+06     11.1948E+06              0.     1.22778E+06
           17098    -24.8919E+06     11.4002E+06              0.     1.29228E+06
           17099    -25.7771E+06     11.5993E+06              0.     1.35719E+06
           17100    -26.6884E+06     11.7908E+06              0.     1.42244E+06
           17101    -27.6263E+06     11.9736E+06              0.     1.48795E+06
           17102    -28.5913E+06     12.1464E+06              0.     1.55364E+06
           17103    -29.5838E+06     12.3076E+06              0.     1.61942E+06
           17104    -30.6041E+06     12.4557E+06              0.     1.68521E+06
           17105    -31.6527E+06     12.5889E+06              0.     1.75092E+06
           17106    -32.7300E+06     12.7056E+06              0.     1.81643E+06
           17107    -33.8362E+06     12.8035E+06              0.     1.88166E+06
           17108    -34.9716E+06     12.8806E+06              0.     1.94647E+06
           17109    -36.1364E+06     12.9344E+06              0.     2.01076E+06
           17110    -37.3308E+06     12.9625E+06              0.     2.07439E+06
           17111    -38.5550E+06     12.9620E+06              0.     2.13722E+06
           17112    -39.8088E+06     12.9299E+06              0.     2.19911E+06
           17113    -41.0924E+06     12.8629E+06              0.     2.25991E+06
           17114    -42.4056E+06     12.7576E+06              0.     2.31944E+06
           17115    -43.7481E+06     12.6102E+06              0.     2.37752E+06
           17116    -45.1197E+06     12.4164E+06              0.     2.43397E+06
           17117    -46.5198E+06     12.1720E+06              0.     2.48856E+06
           17118    -47.9480E+06     11.8719E+06              0.     2.54107E+06
           17119    -49.4035E+06     11.5112E+06              0.     2.59126E+06
           17120    -50.8854E+06     11.0841E+06              0.     2.63886E+06
           17121    -52.3926E+06     10.5846E+06              0.     2.68358E+06
           17122    -53.9240E+06     10.0061E+06              0.     2.72510E+06
           17123    -55.4780E+06     9.34169E+06              0.     2.76307E+06
           17124    -57.0530E+06     8.58361E+06              0.     2.79711E+06
           17125    -58.6469E+06     7.72367E+06              0.     2.82681E+06
           17126    -60.2575E+06     6.75299E+06              0.     2.85171E+06
           17127    -61.8822E+06     5.66200E+06              0.     2.87131E+06
           17128    -63.5180E+06     4.44034E+06              0.     2.88504E+06
           17129    -65.1616E+06     3.07688E+06              0.     2.89229E+06
           17130    -66.8092E+06     1.55955E+06              0.     2.89239E+06
           17131    -68.4566E+06    -124.635E+03              0.     2.88459E+06
           17132    -70.0988E+06    -1.98968E+06              0.     2.86804E+06
           17133    -71.7304E+06    -4.05075E+06              0.     2.84184E+06
           17134    -73.3453E+06    -6.32414E+06              0.     2.80494E+06
           17135    -74.9366E+06    -8.82755E+06              0.     2.75622E+06
           17136    -76.4967E+06    -11.5800E+06              0.      2.6944E+06
           17137    -78.0167E+06     -14.602E+06              0.     2.61807E+06
           17138    -79.4871E+06    -17.9159E+06              0.     2.52565E+06
           17139    -80.8968E+06    -21.5455E+06              0.     2.41540E+06
           17140    -82.2335E+06    -25.5170E+06              0.     2.28533E+06
           17141    -83.4835E+06    -29.8584E+06              0.     2.13327E+06
           17142    -84.6311E+06       -34.6E+06              0.     1.95675E+06
           17143    -86.6707E+06    -40.2607E+06              0.     1.89656E+06
           17144     445.968E+03     201.808E+03              0.    -908.235E+03
           17145     444.884E+03     191.395E+03              0.    -906.662E+03
           17146     448.310E+03     183.010E+03              0.    -898.134E+03
           17147     451.718E+03     174.655E+03              0.    -889.990E+03
           17148     455.099E+03     166.341E+03              0.    -882.226E+03
           17149     458.446E+03     158.081E+03              0.    -874.836E+03
           17150     461.751E+03     149.887E+03              0.    -867.815E+03
           17151     465.007E+03     141.771E+03              0.    -861.157E+03
           17152     468.205E+03     133.742E+03              0.    -854.857E+03
           17153     471.340E+03     125.812E+03              0.    -848.909E+03
           17154     474.404E+03     117.989E+03              0.    -843.308E+03
           17155     477.392E+03     110.285E+03              0.    -838.048E+03
           17156     480.295E+03     102.707E+03              0.    -833.123E+03
           17157     483.109E+03     95.2635E+03              0.    -828.528E+03
           17158     485.826E+03     87.9639E+03              0.    -824.257E+03
           17159     488.441E+03      80.816E+03              0.    -820.304E+03
           17160     490.948E+03     73.8273E+03              0.    -816.663E+03
           17161     493.340E+03     67.0056E+03              0.    -813.329E+03
           17162     495.611E+03     60.3581E+03              0.    -810.295E+03
           17163     497.756E+03     53.8920E+03              0.    -807.555E+03
           17164     499.768E+03     47.6143E+03              0.    -805.104E+03
           17165     501.641E+03     41.5318E+03              0.    -802.936E+03
           17166     503.369E+03     35.6513E+03              0.    -801.044E+03
           17167     504.945E+03     29.9793E+03              0.    -799.423E+03
           17168     506.364E+03     24.5226E+03              0.    -798.066E+03
           17169     507.618E+03     19.2875E+03              0.    -796.967E+03
           17170     508.702E+03     14.2806E+03              0.    -796.120E+03
           17171     509.607E+03     9.50831E+03              0.    -795.520E+03
           17172     510.327E+03     4.97705E+03              0.    -795.159E+03
           17173     510.856E+03         693.365              0.    -795.032E+03
           17174     511.185E+03    -3.33625E+03              0.    -795.132E+03
           17175     511.307E+03    -7.10526E+03              0.    -795.453E+03
           17176     511.213E+03    -10.6070E+03              0.    -795.989E+03
           17177     510.897E+03    -13.8347E+03              0.    -796.733E+03
           17178     510.349E+03    -16.7815E+03              0.    -797.679E+03
           17179     509.561E+03    -19.4406E+03              0.    -798.821E+03
           17180     508.524E+03    -21.8048E+03              0.    -800.151E+03
           17181     507.228E+03    -23.8670E+03              0.    -801.664E+03
           17182     505.663E+03    -25.6196E+03              0.    -803.353E+03
           17183     503.820E+03    -27.0551E+03              0.    -805.211E+03
           17184     501.689E+03    -28.1659E+03              0.    -807.231E+03
           17185     499.257E+03    -28.9438E+03              0.    -809.407E+03
           17186     496.515E+03    -29.3807E+03              0.    -811.732E+03
           17187     493.449E+03    -29.4682E+03              0.    -814.199E+03
           17188     490.048E+03    -29.1975E+03              0.    -816.801E+03
           17189     486.300E+03    -28.5598E+03              0.    -819.531E+03
           17190     482.191E+03    -27.5458E+03              0.    -822.382E+03
           17191     477.707E+03    -26.1460E+03              0.    -825.346E+03
           17192     472.834E+03    -24.3506E+03              0.    -828.417E+03
           17193     467.557E+03    -22.1495E+03              0.    -831.586E+03
           17194     461.861E+03    -19.5321E+03              0.    -834.847E+03
           17195     455.729E+03    -16.4876E+03              0.    -838.192E+03
           17196     449.146E+03    -13.0049E+03              0.    -841.613E+03
           17197     442.093E+03    -9.07234E+03              0.    -845.103E+03
           17198     434.552E+03    -4.67806E+03              0.    -848.653E+03
           17199     426.506E+03         190.321              0.    -852.255E+03
           17200     417.933E+03     5.54564E+03              0.    -855.902E+03
           17201     408.814E+03     11.4010E+03              0.    -859.584E+03
           17202     399.128E+03     17.7701E+03              0.    -863.294E+03
           17203     388.853E+03     24.6671E+03              0.    -867.023E+03
           17204     377.966E+03     32.1066E+03              0.    -870.762E+03
           17205     366.444E+03     40.1037E+03              0.    -874.503E+03
           17206     354.261E+03     48.6739E+03              0.    -878.236E+03
           17207     341.392E+03     57.8333E+03              0.    -881.951E+03
           17208     327.811E+03     67.5987E+03              0.    -885.641E+03
           17209     313.490E+03     77.9872E+03              0.    -889.294E+03
           17210     298.401E+03     89.0168E+03              0.    -892.903E+03
           17211     282.513E+03     100.705E+03              0.    -896.455E+03
           17212     265.796E+03     113.072E+03              0.    -899.942E+03
           17213     248.218E+03     126.137E+03              0.    -903.352E+03
           17214     229.745E+03     139.920E+03              0.    -906.676E+03
           17215     210.343E+03     154.442E+03              0.    -909.903E+03
           17216     189.976E+03     169.724E+03              0.    -913.021E+03
           17217     168.608E+03     185.789E+03              0.    -916.020E+03
           17218     146.198E+03     202.659E+03              0.    -918.888E+03
           17219     122.708E+03     220.358E+03              0.    -921.613E+03
           17220     98.0961E+03     238.911E+03              0.    -924.184E+03
           17221     72.3186E+03     258.342E+03              0.    -926.587E+03
           17222     45.3313E+03     278.678E+03              0.    -928.812E+03
           17223     17.0878E+03     299.945E+03              0.    -930.844E+03
           17224    -12.4598E+03     322.170E+03              0.    -932.671E+03
           17225    -43.3615E+03     345.381E+03              0.    -934.280E+03
           17226    -75.6686E+03     369.609E+03              0.    -935.657E+03
           17227    -109.435E+03     394.881E+03              0.    -936.788E+03
           17228    -144.715E+03     421.230E+03              0.    -937.659E+03
           17229    -181.567E+03     448.687E+03              0.    -938.256E+03
           17230    -220.051E+03     477.284E+03              0.    -938.563E+03
           17231    -260.227E+03     507.055E+03              0.    -938.567E+03
           17232    -302.161E+03     538.034E+03              0.    -938.250E+03
           17233    -345.917E+03     570.255E+03              0.    -937.599E+03
           17234    -391.564E+03     603.756E+03              0.    -936.595E+03
           17235    -439.174E+03     638.574E+03              0.    -935.224E+03
           17236    -488.820E+03     674.746E+03              0.    -933.468E+03
           17237    -540.578E+03     712.311E+03              0.    -931.311E+03
           17238    -594.526E+03     751.309E+03              0.    -928.734E+03
           17239    -650.746E+03     791.782E+03              0.    -925.720E+03
           17240    -709.323E+03     833.771E+03              0.    -922.252E+03
           17241    -770.343E+03     877.319E+03              0.    -918.310E+03
           17242    -833.898E+03     922.470E+03              0.    -913.875E+03
           17243    -900.080E+03     969.269E+03              0.    -908.929E+03
           17244    -968.986E+03     1.01776E+06              0.    -903.452E+03
           17245    -1.04072E+06     1.06799E+06              0.    -897.424E+03
           17246    -1.11538E+06     1.12002E+06              0.    -890.825E+03
           17247    -1.19307E+06     1.17388E+06              0.    -883.635E+03
           17248    -1.27391E+06     1.22962E+06              0.    -875.831E+03
           17249    -1.35801E+06     1.28731E+06              0.    -867.394E+03
           17250    -1.44549E+06     1.34698E+06              0.    -858.301E+03
           17251    -1.53647E+06     1.40870E+06              0.    -848.530E+03
           17252    -1.63107E+06     1.47251E+06              0.    -838.060E+03
           17253    -1.72944E+06     1.53847E+06              0.    -826.868E+03
           17254    -1.83170E+06     1.60664E+06              0.    -814.930E+03
           17255    -1.93799E+06     1.67707E+06              0.    -802.224E+03
           17256    -2.04846E+06     1.74982E+06              0.    -788.726E+03
           17257    -2.16325E+06     1.82494E+06              0.    -774.413E+03
           17258    -2.28253E+06     1.90250E+06              0.    -759.260E+03
           17259    -2.40644E+06     1.98255E+06              0.    -743.243E+03
           17260    -2.53516E+06     2.06515E+06              0.    -726.337E+03
           17261    -2.66885E+06     2.15037E+06              0.    -708.519E+03
           17262    -2.80769E+06     2.23825E+06              0.    -689.763E+03
           17263    -2.95186E+06     2.32887E+06              0.    -670.044E+03
           17264    -3.10154E+06     2.42228E+06              0.    -649.336E+03
           17265    -3.25693E+06     2.51854E+06              0.    -627.616E+03
           17266    -3.41823E+06     2.61771E+06              0.    -604.856E+03
           17267    -3.58564E+06     2.71986E+06              0.    -581.033E+03
           17268    -3.75936E+06     2.82504E+06              0.    -556.120E+03
           17269    -3.93963E+06     2.93332E+06              0.    -530.092E+03
           17270    -4.12666E+06     3.04474E+06              0.    -502.924E+03
           17271    -4.32069E+06     3.15938E+06              0.    -474.590E+03
           17272    -4.52195E+06     3.27728E+06              0.    -445.065E+03
           17273    -4.73069E+06     3.39850E+06              0.    -414.324E+03
           17274    -4.94716E+06     3.52309E+06              0.    -382.343E+03
           17275    -5.17162E+06     3.65112E+06              0.    -349.096E+03
           17276    -5.40435E+06     3.78261E+06              0.    -314.560E+03
           17277    -5.64561E+06     3.91764E+06              0.    -278.712E+03
           17278    -5.89569E+06     4.05622E+06              0.    -241.526E+03
           17279    -6.15488E+06     4.19842E+06              0.    -202.982E+03
           17280    -6.42349E+06     4.34426E+06              0.    -163.055E+03
           17281    -6.70182E+06     4.49379E+06              0.    -121.726E+03
           17282    -6.99019E+06     4.64702E+06              0.    -78.9716E+03
           17283    -7.28893E+06     4.80398E+06              0.    -34.7728E+03
           17284    -7.59837E+06     4.96469E+06              0.     10.8901E+03
           17285    -7.91885E+06     5.12915E+06              0.     58.0357E+03
           17286    -8.25074E+06     5.29739E+06              0.     106.681E+03
           17287    -8.59438E+06     5.46938E+06              0.     156.844E+03
           17288    -8.95016E+06     5.64513E+06              0.     208.538E+03
           17289    -9.31845E+06     5.82460E+06              0.     261.778E+03
           17290    -9.69964E+06     6.00777E+06              0.     316.577E+03
           17291    -10.0941E+06     6.19459E+06              0.     372.945E+03
           17292    -10.5023E+06     6.38502E+06              0.     430.893E+03
           17293    -10.9247E+06     6.57897E+06              0.     490.428E+03
           17294    -11.3616E+06     6.77637E+06              0.     551.558E+03
           17295    -11.8134E+06     6.97713E+06              0.     614.286E+03
           17296    -12.2808E+06     7.18111E+06              0.     678.614E+03
           17297    -12.7640E+06     7.38819E+06              0.     744.544E+03
           17298    -13.2635E+06     7.59821E+06              0.     812.072E+03
           17299    -13.7799E+06     7.81100E+06              0.     881.196E+03
           17300    -14.3136E+06     8.02634E+06              0.     951.907E+03
           17301    -14.8651E+06     8.24401E+06              0.     1.02420E+06
           17302    -15.4348E+06     8.46376E+06              0.     1.09805E+06
           17303    -16.0234E+06     8.68528E+06              0.     1.17346E+06
           17304    -16.6312E+06     8.90827E+06              0.     1.25040E+06
           17305    -17.2588E+06     9.13235E+06              0.     1.32886E+06
           17306    -17.9068E+06     9.35713E+06              0.     1.40880E+06
           17307    -18.5756E+06     9.58217E+06              0.     1.49019E+06
           17308    -19.2657E+06     9.80698E+06              0.     1.57302E+06
           17309    -19.9778E+06     10.0310E+06              0.     1.65723E+06
           17310    -20.7123E+06     10.2537E+06              0.     1.74279E+06
           17311    -21.4697E+06     10.4743E+06              0.     1.82965E+06
           17312    -22.2506E+06     10.6923E+06              0.     1.91777E+06
           17313    -23.0554E+06     10.9067E+06              0.     2.00708E+06
           17314    -23.8848E+06     11.1167E+06              0.     2.09752E+06
           17315    -24.7392E+06     11.3214E+06              0.     2.18904E+06
           17316    -25.6191E+06     11.5198E+06              0.     2.28155E+06
           17317    -26.5250E+06     11.7108E+06              0.     2.37498E+06
           17318    -27.4573E+06     11.8930E+06              0.     2.46923E+06
           17319    -28.4166E+06     12.0653E+06              0.     2.56422E+06
           17320    -29.4033E+06     12.2262E+06              0.     2.65984E+06
           17321    -30.4177E+06     12.3740E+06              0.     2.75598E+06
           17322    -31.4602E+06     12.5072E+06              0.     2.85251E+06
           17323    -32.5313E+06     12.6237E+06              0.     2.94931E+06
           17324    -33.6311E+06     12.7218E+06              0.     3.04623E+06
           17325      -34.76E+06     12.7991E+06              0.     3.14312E+06
           17326    -35.9182E+06     12.8533E+06              0.     3.23980E+06
           17327    -37.1058E+06     12.8818E+06              0.     3.33609E+06
           17328    -38.3230E+06     12.8820E+06              0.     3.43179E+06
           17329    -39.5698E+06     12.8507E+06              0.     3.52668E+06
           17330    -40.8462E+06     12.7848E+06              0.     3.62052E+06
           17331    -42.1520E+06     12.6807E+06              0.     3.71306E+06
           17332    -43.4870E+06     12.5347E+06              0.     3.80400E+06
           17333    -44.8508E+06     12.3426E+06              0.     3.89304E+06
           17334    -46.2432E+06     12.1001E+06              0.     3.97984E+06
           17335    -47.6633E+06     11.8022E+06              0.     4.06404E+06
           17336    -49.1107E+06     11.4440E+06              0.     4.14521E+06
           17337    -50.5843E+06     11.0197E+06              0.     4.22291E+06
           17338    -52.0832E+06     10.5234E+06              0.     4.29667E+06
           17339    -53.6060E+06     9.94847E+06              0.     4.36593E+06
           17340    -55.1514E+06     9.28801E+06              0.     4.43010E+06
           17341    -56.7176E+06     8.53438E+06              0.     4.48855E+06
           17342    -58.3027E+06     7.67941E+06              0.     4.54054E+06
           17343    -59.9044E+06     6.71427E+06              0.     4.58528E+06
           17344    -61.5202E+06     5.62944E+06              0.     4.62190E+06
           17345    -63.1471E+06     4.41463E+06              0.     4.64945E+06
           17346    -64.7818E+06     3.05879E+06              0.     4.66684E+06
           17347    -66.4206E+06     1.54992E+06              0.     4.67291E+06
           17348    -68.0591E+06    -124.857E+03              0.     4.66634E+06
           17349    -69.6927E+06    -1.97946E+06              0.     4.64569E+06
           17350    -71.3160E+06    -4.02892E+06              0.     4.60935E+06
           17351    -72.9228E+06    -6.28943E+06              0.     4.55555E+06
           17352    -74.5064E+06    -8.77851E+06              0.     4.48230E+06
           17353    -76.0592E+06    -11.5150E+06              0.     4.38742E+06
           17354    -77.5727E+06    -14.5194E+06              0.     4.26846E+06
           17355    -79.0371E+06    -17.8135E+06              0.     4.12270E+06
           17356    -80.4417E+06    -21.4213E+06              0.     3.94712E+06
           17357    -81.7745E+06    -25.3684E+06              0.     3.73834E+06
           17358    -83.0218E+06    -29.6827E+06              0.     3.49256E+06
           17359    -84.1681E+06    -34.3939E+06              0.     3.20559E+06
           17360    -86.1966E+06    -40.0184E+06              0.     3.10567E+06
           17361     425.495E+03     192.606E+03              0.    -911.564E+03
           17362     424.463E+03     182.676E+03              0.    -909.986E+03
           17363     427.731E+03     174.674E+03              0.    -901.446E+03
           17364     430.983E+03     166.696E+03              0.    -893.281E+03
           17365     434.209E+03     158.755E+03              0.    -885.487E+03
           17366     437.403E+03     150.863E+03              0.    -878.060E+03
           17367     440.556E+03     143.031E+03              0.    -870.993E+03
           17368     443.661E+03     135.272E+03              0.    -864.283E+03
           17369     446.711E+03     127.595E+03              0.    -857.924E+03
           17370     449.698E+03     120.011E+03              0.    -851.910E+03
           17371     452.617E+03     112.529E+03              0.    -846.236E+03
           17372     455.460E+03     105.159E+03              0.    -840.897E+03
           17373     458.221E+03     97.9103E+03              0.    -835.886E+03
           17374     460.894E+03     90.7908E+03              0.    -831.199E+03
           17375     463.473E+03     83.8091E+03              0.    -826.830E+03
           17376     465.951E+03     76.9732E+03              0.    -822.773E+03
           17377     468.323E+03     70.2907E+03              0.    -819.022E+03
           17378     470.582E+03     63.7692E+03              0.    -815.571E+03
           17379     472.723E+03     57.4160E+03              0.    -812.415E+03
           17380     474.739E+03     51.2383E+03              0.    -809.547E+03
           17381     476.624E+03     45.2429E+03              0.    -806.962E+03
           17382     478.373E+03     39.4367E+03              0.    -804.653E+03
           17383     479.978E+03     33.8264E+03              0.    -802.614E+03
           17384     481.435E+03     28.4185E+03              0.    -800.839E+03
           17385     482.736E+03     23.2196E+03              0.    -799.323E+03
           17386     483.874E+03     18.2363E+03              0.    -798.058E+03
           17387     484.844E+03     13.4749E+03              0.    -797.038E+03
           17388     485.639E+03     8.94179E+03              0.    -796.258E+03
           17389     486.252E+03     4.64342E+03              0.    -795.711E+03
           17390     486.675E+03         586.276              0.    -795.389E+03
           17391     486.901E+03    -3.22320E+03              0.    -795.288E+03
           17392     486.922E+03    -6.77850E+03              0.    -795.400E+03
           17393     486.732E+03    -10.0730E+03              0.    -795.718E+03
           17394     486.321E+03    -13.1000E+03              0.    -796.237E+03
           17395     485.682E+03    -15.8528E+03              0.    -796.949E+03
           17396     484.805E+03    -18.3244E+03              0.    -797.848E+03
           17397     483.682E+03    -20.5079E+03              0.    -798.927E+03
           17398     482.304E+03    -22.3960E+03              0.    -800.178E+03
           17399     480.661E+03    -23.9814E+03              0.    -801.596E+03
           17400     478.743E+03    -25.2566E+03              0.    -803.172E+03
           17401     476.540E+03    -26.2140E+03              0.    -804.900E+03
           17402     474.040E+03    -26.8456E+03              0.    -806.774E+03
           17403     471.233E+03    -27.1432E+03              0.    -808.784E+03
           17404     468.108E+03    -27.0986E+03              0.    -810.925E+03
           17405     464.651E+03    -26.7031E+03              0.    -813.188E+03
           17406     460.851E+03    -25.9479E+03              0.    -815.566E+03
           17407     456.694E+03    -24.8239E+03              0.    -818.052E+03
           17408     452.167E+03    -23.3216E+03              0.    -820.637E+03
           17409     447.255E+03    -21.4313E+03              0.    -823.314E+03
           17410     441.945E+03    -19.1430E+03              0.    -826.076E+03
           17411     436.221E+03    -16.4463E+03              0.    -828.913E+03
           17412     430.066E+03    -13.3305E+03              0.    -831.817E+03
           17413     423.465E+03    -9.78458E+03              0.    -834.781E+03
           17414     416.400E+03    -5.79705E+03              0.    -837.796E+03
           17415     408.853E+03    -1.35612E+03              0.    -840.853E+03
           17416     400.806E+03     3.55043E+03              0.    -843.943E+03
           17417     392.240E+03     8.93529E+03              0.    -847.057E+03
           17418     383.134E+03     14.8114E+03              0.    -850.187E+03
           17419     373.468E+03     21.1924E+03              0.    -853.324E+03
           17420     363.220E+03     28.0921E+03              0.    -856.456E+03
           17421     352.367E+03     35.5250E+03              0.    -859.577E+03
           17422     340.886E+03     43.5061E+03              0.    -862.674E+03
           17423     328.753E+03     52.0507E+03              0.    -865.739E+03
           17424     315.942E+03     61.1747E+03              0.    -868.760E+03
           17425     302.428E+03     70.8947E+03              0.    -871.729E+03
           17426     288.182E+03     81.2276E+03              0.    -874.634E+03
           17427     273.178E+03     92.1911E+03              0.    -877.464E+03
           17428     257.384E+03     103.803E+03              0.    -880.209E+03
           17429     240.771E+03     116.083E+03              0.    -882.856E+03
           17430     223.308E+03     129.049E+03              0.    -885.395E+03
           17431     204.961E+03     142.722E+03              0.    -887.814E+03
           17432     185.695E+03     157.122E+03              0.    -890.100E+03
           17433     165.477E+03     172.271E+03              0.    -892.242E+03
           17434     144.269E+03     188.190E+03              0.    -894.226E+03
           17435     122.032E+03     204.903E+03              0.    -896.041E+03
           17436     98.7280E+03     222.432E+03              0.    -897.672E+03
           17437     74.3152E+03     240.802E+03              0.    -899.106E+03
           17438     48.7511E+03     260.037E+03              0.    -900.330E+03
           17439     21.9918E+03     280.163E+03              0.    -901.329E+03
           17440    -6.00875E+03     301.206E+03              0.    -902.090E+03
           17441    -35.2978E+03     323.193E+03              0.    -902.596E+03
           17442    -65.9246E+03     346.153E+03              0.    -902.834E+03
           17443    -97.9400E+03     370.114E+03              0.    -902.787E+03
           17444    -131.397E+03     395.104E+03              0.    -902.441E+03
           17445    -166.350E+03     421.156E+03              0.    -901.778E+03
           17446    -202.857E+03     448.300E+03              0.    -900.783E+03
           17447    -240.975E+03     476.569E+03              0.    -899.437E+03
           17448    -280.766E+03     505.994E+03              0.    -897.726E+03
           17449    -322.293E+03     536.611E+03              0.    -895.629E+03
           17450    -365.622E+03     568.453E+03              0.    -893.130E+03
           17451    -410.819E+03     601.558E+03              0.    -890.210E+03
           17452    -457.956E+03     635.960E+03              0.    -886.850E+03
           17453    -507.105E+03     671.699E+03              0.     -883.03E+03
           17454    -558.340E+03     708.812E+03              0.    -878.731E+03
           17455    -611.741E+03     747.340E+03              0.    -873.933E+03
           17456    -667.387E+03     787.323E+03              0.    -868.616E+03
           17457    -725.363E+03     828.802E+03              0.    -862.757E+03
           17458    -785.754E+03     871.819E+03              0.    -856.336E+03
           17459    -848.649E+03     916.419E+03              0.    -849.331E+03
           17460    -914.143E+03     962.646E+03              0.    -841.718E+03
           17461    -982.329E+03     1.01055E+06              0.    -833.476E+03
           17462    -1.05331E+06     1.06016E+06              0.    -824.581E+03
           17463    -1.12718E+06     1.11155E+06              0.    -815.010E+03
           17464    -1.20405E+06     1.16475E+06              0.    -804.737E+03
           17465    -1.28404E+06     1.21981E+06              0.    -793.738E+03
           17466    -1.36724E+06     1.27679E+06              0.    -781.988E+03
           17467    -1.45379E+06     1.33573E+06              0.    -769.462E+03
           17468    -1.54380E+06     1.39669E+06              0.    -756.134E+03
           17469    -1.63740E+06     1.45972E+06              0.    -741.975E+03
           17470    -1.73472E+06     1.52488E+06              0.    -726.961E+03
           17471    -1.83588E+06     1.59222E+06              0.    -711.063E+03
           17472    -1.94103E+06     1.66179E+06              0.    -694.253E+03
           17473    -2.05032E+06     1.73366E+06              0.    -676.504E+03
           17474    -2.16389E+06     1.80787E+06              0.    -657.786E+03
           17475    -2.28188E+06     1.88449E+06              0.    -638.070E+03
           17476    -2.40447E+06     1.96358E+06              0.    -617.326E+03
           17477    -2.53181E+06     2.04519E+06              0.    -595.526E+03
           17478    -2.66407E+06     2.12939E+06              0.    -572.638E+03
           17479    -2.80143E+06     2.21622E+06              0.    -548.631E+03
           17480    -2.94405E+06     2.30577E+06              0.    -523.476E+03
           17481    -3.09214E+06     2.39807E+06              0.    -497.140E+03
           17482    -3.24587E+06     2.49320E+06              0.    -469.592E+03
           17483    -3.40545E+06     2.59121E+06              0.      -440.8E+03
           17484    -3.57108E+06     2.69217E+06              0.    -410.732E+03
           17485    -3.74297E+06     2.79614E+06              0.    -379.356E+03
           17486    -3.92133E+06     2.90316E+06              0.    -346.639E+03
           17487    -4.10639E+06     3.01331E+06              0.    -312.549E+03
           17488    -4.29837E+06     3.12664E+06              0.    -277.053E+03
           17489    -4.49752E+06     3.24320E+06              0.    -240.118E+03
           17490    -4.70407E+06     3.36306E+06              0.    -201.712E+03
           17491    -4.91828E+06     3.48626E+06              0.    -161.801E+03
           17492    -5.14041E+06     3.61286E+06              0.    -120.353E+03
           17493    -5.37072E+06     3.74291E+06              0.    -77.3357E+03
           17494    -5.60948E+06     3.87646E+06              0.    -32.7165E+03
           17495    -5.85699E+06     4.01354E+06              0.     13.5367E+03
           17496    -6.11352E+06     4.15420E+06              0.     61.4560E+03
           17497    -6.37938E+06     4.29849E+06              0.     111.073E+03
           17498    -6.65488E+06     4.44642E+06              0.     162.418E+03
           17499    -6.94032E+06     4.59804E+06              0.     215.522E+03
           17500    -7.23604E+06     4.75336E+06              0.     270.415E+03
           17501    -7.54237E+06     4.91241E+06              0.     327.126E+03
           17502    -7.85964E+06     5.07520E+06              0.     385.685E+03
           17503    -8.18822E+06     5.24173E+06              0.     446.118E+03
           17504    -8.52845E+06     5.41199E+06              0.     508.452E+03
           17505    -8.88071E+06     5.58599E+06              0.     572.713E+03
           17506    -9.24538E+06     5.76370E+06              0.     638.926E+03
           17507    -9.62285E+06     5.94508E+06              0.     707.115E+03
           17508    -10.0135E+06     6.13011E+06              0.     777.301E+03
           17509    -10.4178E+06     6.31872E+06              0.     849.504E+03
           17510    -10.8360E+06     6.51085E+06              0.     923.744E+03
           17511    -11.2687E+06     6.70641E+06              0.     1.00004E+06
           17512    -11.7163E+06     6.90532E+06              0.     1.07840E+06
           17513    -12.1792E+06     7.10745E+06              0.     1.15885E+06
           17514    -12.6578E+06     7.31267E+06              0.     1.24139E+06
           17515    -13.1527E+06     7.52083E+06              0.     1.32603E+06
           17516    -13.6642E+06     7.73175E+06              0.     1.41278E+06
           17517    -14.1930E+06     7.94524E+06              0.     1.50164E+06
           17518    -14.7393E+06     8.16106E+06              0.     1.59262E+06
           17519    -15.3039E+06     8.37896E+06              0.     1.68570E+06
           17520    -15.8870E+06     8.59865E+06              0.     1.78089E+06
           17521    -16.4893E+06     8.81982E+06              0.     1.87818E+06
           17522    -17.1113E+06     9.04210E+06              0.     1.97754E+06
           17523    -17.7534E+06     9.26511E+06              0.     2.07897E+06
           17524    -18.4162E+06     9.48839E+06              0.     2.18245E+06
           17525    -19.1002E+06     9.71148E+06              0.     2.28793E+06
           17526    -19.8059E+06     9.93383E+06              0.     2.39540E+06
           17527    -20.5339E+06     10.1549E+06              0.     2.50482E+06
           17528    -21.2846E+06     10.3739E+06              0.     2.61614E+06
           17529    -22.0586E+06     10.5903E+06              0.     2.72931E+06
           17530    -22.8565E+06     10.8032E+06              0.     2.84428E+06
           17531    -23.6786E+06     11.0118E+06              0.     2.96098E+06
           17532    -24.5256E+06     11.2151E+06              0.     3.07934E+06
           17533    -25.3979E+06     11.4122E+06              0.     3.19929E+06
           17534    -26.2960E+06     11.6020E+06              0.     3.32072E+06
           17535    -27.2203E+06     11.7831E+06              0.     3.44355E+06
           17536    -28.1714E+06     11.9544E+06              0.     3.56767E+06
           17537    -29.1496E+06     12.1143E+06              0.     3.69294E+06
           17538    -30.1553E+06     12.2614E+06              0.     3.81924E+06
           17539     -31.189E+06     12.3938E+06              0.     3.94642E+06
           17540    -32.2509E+06     12.5099E+06              0.     4.07430E+06
           17541    -33.3414E+06     12.6076E+06              0.     4.20272E+06
           17542    -34.4608E+06     12.6847E+06              0.     4.33147E+06
           17543    -35.6092E+06     12.7388E+06              0.     4.46034E+06
           17544    -36.7867E+06     12.7676E+06              0.     4.58908E+06
           17545    -37.9936E+06     12.7681E+06              0.     4.71743E+06
           17546    -39.2299E+06     12.7375E+06              0.     4.84509E+06
           17547    -40.4955E+06     12.6724E+06              0.     4.97175E+06
           17548    -41.7902E+06     12.5695E+06              0.     5.09706E+06
           17549    -43.1139E+06     12.4250E+06              0.     5.22063E+06
           17550    -44.4662E+06     12.2347E+06              0.     5.34204E+06
           17551    -45.8468E+06     11.9944E+06              0.     5.46081E+06
           17552    -47.2549E+06     11.6992E+06              0.     5.57644E+06
           17553    -48.6900E+06     11.3439E+06              0.     5.68835E+06
           17554    -50.1511E+06     10.9232E+06              0.     5.79593E+06
           17555    -51.6373E+06     10.4309E+06              0.     5.89848E+06
           17556    -53.1472E+06     9.86073E+06              0.     5.99525E+06
           17557    -54.6795E+06     9.20559E+06              0.     6.08541E+06
           17558    -56.2325E+06     8.45800E+06              0.     6.16803E+06
           17559    -57.8042E+06     7.60987E+06              0.     6.24211E+06
           17560    -59.3924E+06     6.65244E+06              0.     6.30651E+06
           17561    -60.9946E+06     5.57629E+06              0.     6.36000E+06
           17562    -62.6079E+06     4.37124E+06              0.     6.40121E+06
           17563    -64.2291E+06     3.02632E+06              0.     6.42863E+06
           17564    -65.8543E+06     1.52970E+06              0.     6.44058E+06
           17565    -67.4796E+06    -131.377E+03              0.     6.43521E+06
           17566    -69.1000E+06    -1.97067E+06              0.     6.41046E+06
           17567    -70.7105E+06    -4.00303E+06              0.     6.36407E+06
           17568    -72.3050E+06    -6.24446E+06              0.     6.29350E+06
           17569    -73.8769E+06    -8.71225E+06              0.     6.19596E+06
           17570    -75.4187E+06    -11.4250E+06              0.     6.06835E+06
           17571    -76.9219E+06    -14.4028E+06              0.     5.90719E+06
           17572    -78.3773E+06    -17.6675E+06              0.     5.70867E+06
           17573    -79.7742E+06    -21.2423E+06              0.     5.46849E+06
           17574    -81.1008E+06    -25.1527E+06              0.     5.18191E+06
           17575    -82.3439E+06    -29.4260E+06              0.     4.84361E+06
           17576    -83.4887E+06    -34.0917E+06              0.     4.44767E+06
           17577    -85.5010E+06    -39.6616E+06              0.     4.30923E+06
           17578     405.030E+03     183.408E+03              0.    -914.737E+03
           17579     404.048E+03     173.948E+03              0.    -913.155E+03
           17580     407.163E+03     166.321E+03              0.    -904.602E+03
           17581     410.262E+03     158.713E+03              0.    -896.417E+03
           17582     413.337E+03     151.136E+03              0.    -888.596E+03
           17583     416.381E+03     143.604E+03              0.    -881.132E+03
           17584     419.386E+03     136.127E+03              0.    -874.022E+03
           17585     422.344E+03     128.718E+03              0.    -867.261E+03
           17586     425.248E+03     121.385E+03              0.    -860.844E+03
           17587     428.092E+03     114.141E+03              0.    -854.766E+03
           17588     430.869E+03     106.993E+03              0.    -849.021E+03
           17589     433.572E+03     99.9518E+03              0.    -843.604E+03
           17590     436.195E+03      93.026E+03              0.     -838.51E+03
           17591     438.731E+03     86.2239E+03              0.    -833.733E+03
           17592     441.176E+03     79.5539E+03              0.    -829.268E+03
           17593     443.522E+03     73.0240E+03              0.    -825.108E+03
           17594     445.763E+03     66.6416E+03              0.    -821.249E+03
           17595     447.894E+03     60.4145E+03              0.    -817.684E+03
           17596     449.909E+03     54.3496E+03              0.    -814.408E+03
           17597     451.801E+03     48.4542E+03              0.    -811.414E+03
           17598     453.565E+03     42.7351E+03              0.    -808.696E+03
           17599     455.195E+03     37.1990E+03              0.    -806.249E+03
           17600     456.684E+03     31.8527E+03              0.    -804.065E+03
           17601     458.026E+03     26.7025E+03              0.    -802.140E+03
           17602     459.216E+03     21.7551E+03              0.    -800.466E+03
           17603     460.246E+03     17.0170E+03              0.    -799.038E+03
           17604      461.11E+03     12.4942E+03              0.    -797.848E+03
           17605     461.801E+03     8.19345E+03              0.    -796.891E+03
           17606     462.314E+03     4.12088E+03              0.    -796.159E+03
           17607     462.639E+03         282.964              0.    -795.647E+03
           17608     462.771E+03    -3.31390E+03              0.    -795.346E+03
           17609     462.701E+03    -6.66327E+03              0.    -795.252E+03
           17610     462.423E+03    -9.75857E+03              0.    -795.357E+03
           17611     461.928E+03    -12.5932E+03              0.    -795.653E+03
           17612     461.207E+03    -15.1605E+03              0.    -796.135E+03
           17613     460.253E+03    -17.4536E+03              0.    -796.794E+03
           17614     459.056E+03    -19.4655E+03              0.    -797.624E+03
           17615     457.608E+03    -21.1891E+03              0.    -798.618E+03
           17616     455.899E+03    -22.6173E+03              0.    -799.768E+03
           17617     453.918E+03    -23.7425E+03              0.    -801.067E+03
           17618     451.657E+03    -24.5572E+03              0.    -802.507E+03
           17619     449.103E+03    -25.0536E+03              0.    -804.081E+03
           17620     446.247E+03    -25.2235E+03              0.    -805.782E+03
           17621     443.077E+03    -25.0589E+03              0.      -807.6E+03
           17622     439.580E+03    -24.5511E+03              0.    -809.529E+03
           17623     435.745E+03    -23.6914E+03              0.    -811.560E+03
           17624     431.558E+03    -22.4708E+03              0.    -813.686E+03
           17625     427.007E+03    -20.8801E+03              0.    -815.898E+03
           17626     422.076E+03    -18.9095E+03              0.    -818.187E+03
           17627     416.753E+03    -16.5493E+03              0.    -820.545E+03
           17628     411.021E+03    -13.7891E+03              0.    -822.963E+03
           17629     404.865E+03    -10.6185E+03              0.    -825.434E+03
           17630     398.269E+03    -7.02642E+03              0.    -827.946E+03
           17631     391.216E+03    -3.00168E+03              0.    -830.492E+03
           17632     383.688E+03     1.46742E+03              0.    -833.062E+03
           17633     375.667E+03     6.39291E+03              0.    -835.647E+03
           17634     367.134E+03     11.7873E+03              0.    -838.237E+03
           17635     358.069E+03     17.6634E+03              0.    -840.822E+03
           17636     348.452E+03     24.0346E+03              0.    -843.392E+03
           17637     338.261E+03     30.9146E+03              0.    -845.937E+03
           17638     327.474E+03     38.3176E+03              0.    -848.446E+03
           17639     316.068E+03     46.2585E+03              0.    -850.908E+03
           17640     304.019E+03     54.7523E+03              0.    -853.314E+03
           17641     291.303E+03     63.8148E+03              0.    -855.651E+03
           17642     277.892E+03     73.4621E+03              0.    -857.908E+03
           17643     263.761E+03     83.7112E+03              0.    -860.074E+03
           17644     248.882E+03     94.5793E+03              0.    -862.137E+03
           17645     233.225E+03     106.084E+03              0.    -864.084E+03
           17646     216.761E+03     118.245E+03              0.    -865.904E+03
           17647     199.458E+03     131.079E+03              0.    -867.582E+03
           17648     181.284E+03     144.609E+03              0.    -869.108E+03
           17649     162.205E+03     158.852E+03              0.    -870.466E+03
           17650     142.186E+03     173.831E+03              0.    -871.644E+03
           17651     121.192E+03     189.567E+03              0.    -872.628E+03
           17652     99.1843E+03     206.082E+03              0.    -873.403E+03
           17653     76.1241E+03     223.400E+03              0.    -873.954E+03
           17654     51.9711E+03     241.544E+03              0.    -874.267E+03
           17655     26.6833E+03     260.539E+03              0.    -874.327E+03
           17656         217.209     280.409E+03              0.    -874.117E+03
           17657    -27.4723E+03     301.182E+03              0.    -873.622E+03
           17658    -56.4320E+03     322.882E+03              0.    -872.826E+03
           17659    -86.7104E+03     345.539E+03              0.    -871.710E+03
           17660    -118.358E+03     369.180E+03              0.    -870.259E+03
           17661    -151.426E+03     393.835E+03              0.    -868.454E+03
           17662    -185.970E+03     419.533E+03              0.    -866.277E+03
           17663    -222.044E+03     446.305E+03              0.    -863.711E+03
           17664    -259.708E+03     474.183E+03              0.    -860.735E+03
           17665    -299.021E+03     503.200E+03              0.    -857.330E+03
           17666    -340.045E+03     533.389E+03              0.    -853.476E+03
           17667    -382.846E+03     564.785E+03              0.    -849.154E+03
           17668    -427.489E+03     597.422E+03              0.    -844.342E+03
           17669    -474.044E+03     631.337E+03              0.    -839.018E+03
           17670    -522.583E+03     666.568E+03              0.    -833.162E+03
           17671    -573.180E+03     703.152E+03              0.    -826.749E+03
           17672    -625.911E+03     741.128E+03              0.    -819.759E+03
           17673    -680.857E+03     780.536E+03              0.    -812.167E+03
           17674    -738.100E+03     821.418E+03              0.    -803.948E+03
           17675    -797.725E+03     863.816E+03              0.    -795.080E+03
           17676    -859.820E+03     907.772E+03              0.    -785.536E+03
           17677    -924.476E+03     953.331E+03              0.    -775.291E+03
           17678    -991.789E+03     1.00054E+06              0.    -764.319E+03
           17679    -1.06186E+06     1.04944E+06              0.    -752.593E+03
           17680    -1.13478E+06     1.10008E+06              0.    -740.086E+03
           17681    -1.21066E+06     1.15250E+06              0.    -726.769E+03
           17682    -1.28961E+06     1.20677E+06              0.    -712.615E+03
           17683    -1.37174E+06     1.26292E+06              0.    -697.594E+03
           17684    -1.45716E+06     1.32101E+06              0.    -681.677E+03
           17685    -1.54600E+06     1.38109E+06              0.    -664.833E+03
           17686    -1.63838E+06     1.44321E+06              0.    -647.033E+03
           17687    -1.73443E+06     1.50743E+06              0.    -628.243E+03
           17688    -1.83428E+06     1.57380E+06              0.    -608.432E+03
           17689    -1.93806E+06     1.64237E+06              0.    -587.569E+03
           17690    -2.04592E+06     1.71320E+06              0.    -565.619E+03
           17691    -2.15800E+06     1.78635E+06              0.    -542.548E+03
           17692    -2.27446E+06     1.86188E+06              0.    -518.324E+03
           17693    -2.39545E+06     1.93984E+06              0.    -492.910E+03
           17694    -2.52113E+06     2.02029E+06              0.    -466.272E+03
           17695    -2.65166E+06     2.10329E+06              0.    -438.373E+03
           17696    -2.78723E+06     2.18890E+06              0.    -409.177E+03
           17697    -2.92800E+06     2.27717E+06              0.    -378.648E+03
           17698    -3.07416E+06     2.36818E+06              0.    -346.748E+03
           17699    -3.22589E+06     2.46198E+06              0.    -313.439E+03
           17700    -3.38340E+06     2.55862E+06              0.    -278.683E+03
           17701    -3.54688E+06     2.65818E+06              0.    -242.441E+03
           17702    -3.71655E+06     2.76070E+06              0.    -204.674E+03
           17703    -3.89260E+06     2.86625E+06              0.    -165.342E+03
           17704    -4.07527E+06     2.97489E+06              0.    -124.407E+03
           17705    -4.26478E+06     3.08667E+06              0.    -81.8268E+03
           17706    -4.46137E+06     3.20165E+06              0.    -37.5625E+03
           17707    -4.66527E+06     3.31988E+06              0.     8.42680E+03
           17708    -4.87674E+06     3.44142E+06              0.     56.1820E+03
           17709    -5.09603E+06     3.56633E+06              0.     105.744E+03
           17710    -5.32340E+06     3.69464E+06              0.     157.153E+03
           17711    -5.55913E+06     3.82642E+06              0.     210.450E+03
           17712    -5.80350E+06     3.96169E+06              0.     265.677E+03
           17713    -6.05679E+06     4.10052E+06              0.     322.874E+03
           17714    -6.31930E+06     4.24292E+06              0.     382.082E+03
           17715    -6.59133E+06     4.38894E+06              0.     443.340E+03
           17716    -6.87319E+06     4.53861E+06              0.     506.690E+03
           17717    -7.16522E+06     4.69195E+06              0.     572.170E+03
           17718    -7.46772E+06     4.84898E+06              0.     639.820E+03
           17719    -7.78106E+06     5.00971E+06              0.     709.678E+03
           17720    -8.10556E+06     5.17415E+06              0.     781.783E+03
           17721    -8.44159E+06     5.34230E+06              0.     856.171E+03
           17722    -8.78952E+06     5.51415E+06              0.     932.878E+03
           17723    -9.14972E+06     5.68968E+06              0.     1.01194E+06
           17724    -9.52257E+06     5.86886E+06              0.     1.09339E+06
           17725    -9.90847E+06     6.05166E+06              0.     1.17726E+06
           17726    -10.3078E+06     6.23801E+06              0.     1.26359E+06
           17727    -10.7210E+06     6.42785E+06              0.     1.35240E+06
           17728    -11.1485E+06     6.62111E+06              0.     1.44371E+06
           17729    -11.5907E+06     6.81769E+06              0.     1.53757E+06
           17730    -12.0480E+06     7.01748E+06              0.     1.63399E+06
           17731    -12.5210E+06     7.22035E+06              0.     1.73298E+06
           17732    -13.0100E+06     7.42614E+06              0.     1.83459E+06
           17733    -13.5155E+06     7.63467E+06              0.     1.93880E+06
           17734    -14.0379E+06     7.84577E+06              0.     2.04566E+06
           17735    -14.5779E+06     8.05919E+06              0.     2.15515E+06
           17736    -15.1358E+06     8.27469E+06              0.     2.26729E+06
           17737    -15.7121E+06     8.49199E+06              0.     2.38209E+06
           17738    -16.3074E+06     8.71076E+06              0.     2.49954E+06
           17739    -16.9221E+06     8.93067E+06              0.     2.61963E+06
           17740    -17.5568E+06     9.15131E+06              0.     2.74236E+06
           17741    -18.2119E+06     9.37224E+06              0.     2.86771E+06
           17742    -18.8880E+06     9.59300E+06              0.     2.99566E+06
           17743    -19.5857E+06     9.81306E+06              0.     3.12619E+06
           17744    -20.3053E+06     10.0318E+06              0.     3.25925E+06
           17745    -21.0474E+06     10.2487E+06              0.     3.39481E+06
           17746    -21.8126E+06     10.4628E+06              0.     3.53282E+06
           17747    -22.6014E+06     10.6736E+06              0.     3.67322E+06
           17748    -23.4142E+06     10.8802E+06              0.     3.81594E+06
           17749    -24.2515E+06     11.0816E+06              0.     3.96092E+06
           17750    -25.1140E+06     11.2768E+06              0.     4.10805E+06
           17751    -26.0019E+06     11.4647E+06              0.     4.25725E+06
           17752    -26.9158E+06     11.6441E+06              0.     4.40840E+06
           17753    -27.8561E+06     11.8138E+06              0.     4.56137E+06
           17754    -28.8233E+06     11.9722E+06              0.     4.71603E+06
           17755    -29.8177E+06     12.1179E+06              0.     4.87221E+06
           17756    -30.8397E+06     12.2492E+06              0.     5.02974E+06
           17757    -31.8896E+06     12.3643E+06              0.     5.18842E+06
           17758    -32.9678E+06     12.4611E+06              0.     5.34804E+06
           17759    -34.0746E+06     12.5376E+06              0.     5.50836E+06
           17760    -35.2100E+06     12.5914E+06              0.     5.66909E+06
           17761    -36.3743E+06     12.6200E+06              0.     5.82996E+06
           17762    -37.5676E+06     12.6206E+06              0.     5.99063E+06
           17763    -38.7898E+06     12.5904E+06              0.     6.15074E+06
           17764    -40.0411E+06     12.5262E+06              0.     6.30989E+06
           17765    -41.3212E+06     12.4244E+06              0.     6.46763E+06
           17766    -42.6298E+06     12.2814E+06              0.     6.62348E+06
           17767    -43.9668E+06     12.0932E+06              0.     6.77690E+06
           17768    -45.3317E+06     11.8553E+06              0.     6.92729E+06
           17769    -46.7238E+06     11.5631E+06              0.     7.07400E+06
           17770    -48.1425E+06     11.2115E+06              0.     7.21630E+06
           17771    -49.5870E+06     10.7950E+06              0.     7.35340E+06
           17772    -51.0562E+06     10.3077E+06              0.     7.48440E+06
           17773    -52.5489E+06     9.74329E+06              0.     7.60835E+06
           17774    -54.0637E+06     9.09481E+06              0.     7.72417E+06
           17775    -55.5989E+06     8.35485E+06              0.     7.83066E+06
           17776    -57.1527E+06     7.51542E+06              0.     7.92653E+06
           17777    -58.7229E+06     6.56787E+06              0.     8.01032E+06
           17778    -60.3069E+06     5.50291E+06              0.     8.08043E+06
           17779    -61.9020E+06     4.31049E+06              0.     8.13510E+06
           17780    -63.5049E+06     2.97980E+06              0.     8.17238E+06
           17781    -65.1121E+06     1.49919E+06              0.     8.19010E+06
           17782    -66.7195E+06    -143.935E+03              0.     8.18588E+06
           17783    -68.3224E+06    -1.96309E+06              0.     8.15706E+06
           17784    -69.9157E+06    -3.97291E+06              0.     8.10072E+06
           17785    -71.4937E+06    -6.18911E+06              0.     8.01360E+06
           17786    -73.0498E+06    -8.62870E+06              0.     7.89209E+06
           17787    -74.5767E+06    -11.3100E+06              0.     7.73220E+06
           17788    -76.0664E+06    -14.2526E+06              0.     7.52949E+06
           17789    -77.5095E+06    -17.4780E+06              0.     7.27901E+06
           17790    -78.8959E+06    -21.0090E+06              0.     6.97527E+06
           17791    -80.2142E+06    -24.8704E+06              0.     6.61216E+06
           17792    -81.4512E+06    -29.0890E+06              0.     6.18290E+06
           17793    -82.5924E+06    -33.6936E+06              0.     5.67986E+06
           17794    -84.5815E+06    -39.1898E+06              0.     5.50396E+06
           17795     384.576E+03     174.214E+03              0.    -917.757E+03
           17796     383.642E+03     165.214E+03              0.    -916.170E+03
           17797     386.607E+03     157.952E+03              0.    -907.607E+03
           17798     389.557E+03     150.705E+03              0.    -899.404E+03
           17799     392.485E+03     143.485E+03              0.    -891.555E+03
           17800     395.382E+03     136.306E+03              0.    -884.057E+03
           17801     398.242E+03     129.177E+03              0.    -876.905E+03
           17802     401.057E+03     122.110E+03              0.    -870.095E+03
           17803     403.819E+03     115.115E+03              0.    -863.622E+03
           17804     406.523E+03     108.203E+03              0.    -857.481E+03
           17805     409.162E+03     101.383E+03              0.    -851.667E+03
           17806     411.728E+03     94.6645E+03              0.    -846.174E+03
           17807     414.217E+03     88.0555E+03              0.    -840.998E+03
           17808     416.622E+03     81.5648E+03              0.    -836.133E+03
           17809     418.936E+03     75.2005E+03              0.    -831.574E+03
           17810     421.154E+03     68.9705E+03              0.    -827.314E+03
           17811     423.269E+03     62.8824E+03              0.    -823.349E+03
           17812     425.277E+03     56.9436E+03              0.    -819.672E+03
           17813     427.170E+03     51.1611E+03              0.    -816.278E+03
           17814     428.944E+03     45.5420E+03              0.    -813.160E+03
           17815     430.592E+03     40.0931E+03              0.    -810.313E+03
           17816     432.108E+03     34.8211E+03              0.    -807.730E+03
           17817     433.487E+03     29.7326E+03              0.    -805.404E+03
           17818     434.721E+03     24.8340E+03              0.    -803.331E+03
           17819     435.806E+03     20.1316E+03              0.    -801.503E+03
           17820     436.733E+03     15.6321E+03              0.    -799.914E+03
           17821     437.499E+03     11.3414E+03              0.    -798.557E+03
           17822     438.094E+03     7.26612E+03              0.    -797.425E+03
           17823     438.514E+03     3.41232E+03              0.    -796.513E+03
           17824     438.750E+03        -213.576              0.    -795.812E+03
           17825     438.796E+03    -3.60527E+03              0.    -795.317E+03
           17826     438.644E+03    -6.75637E+03              0.    -795.020E+03
           17827     438.287E+03    -9.66041E+03              0.    -794.914E+03
           17828     437.717E+03    -12.3109E+03              0.    -794.991E+03
           17829     436.925E+03    -14.7011E+03              0.    -795.246E+03
           17830     435.904E+03    -16.8244E+03              0.    -795.670E+03
           17831     434.645E+03    -18.6739E+03              0.    -796.255E+03
           17832     433.138E+03    -20.2426E+03              0.    -796.996E+03
           17833     431.374E+03    -21.5233E+03              0.    -797.882E+03
           17834     429.345E+03    -22.5087E+03              0.    -798.908E+03
           17835     427.038E+03    -23.1913E+03              0.    -800.065E+03
           17836     424.445E+03    -23.5634E+03              0.    -801.345E+03
           17837     421.554E+03    -23.6171E+03              0.    -802.739E+03
           17838     418.355E+03    -23.3442E+03              0.    -804.241E+03
           17839     414.834E+03    -22.7364E+03              0.    -805.841E+03
           17840     410.981E+03    -21.7851E+03              0.    -807.531E+03
           17841     406.781E+03    -20.4813E+03              0.    -809.302E+03
           17842     402.224E+03    -18.8160E+03              0.    -811.146E+03
           17843     397.293E+03    -16.7796E+03              0.    -813.053E+03
           17844     391.976E+03    -14.3625E+03              0.    -815.014E+03
           17845     386.258E+03    -11.5544E+03              0.    -817.021E+03
           17846     380.122E+03    -8.34512E+03              0.    -819.063E+03
           17847     373.554E+03    -4.72381E+03              0.    -821.132E+03
           17848     366.536E+03        -679.378              0.    -823.216E+03
           17849     359.052E+03     3.79965E+03              0.    -825.308E+03
           17850     351.082E+03     8.72514E+03              0.    -827.395E+03
           17851     342.609E+03     14.1094E+03              0.    -829.468E+03
           17852     333.613E+03     19.9650E+03              0.    -831.516E+03
           17853     324.074E+03     26.3051E+03              0.    -833.528E+03
           17854     313.970E+03     33.1433E+03              0.    -835.494E+03
           17855     303.281E+03     40.4934E+03              0.    -837.402E+03
           17856     291.982E+03     48.3702E+03              0.    -839.239E+03
           17857     280.052E+03     56.7884E+03              0.    -840.996E+03
           17858     267.464E+03     65.7635E+03              0.    -842.659E+03
           17859     254.195E+03     75.3115E+03              0.    -844.216E+03
           17860     240.217E+03     85.4489E+03              0.    -845.654E+03
           17861     225.503E+03     96.1928E+03              0.    -846.962E+03
           17862     210.024E+03     107.561E+03              0.    -848.124E+03
           17863     193.752E+03     119.571E+03              0.    -849.128E+03
           17864     176.655E+03     132.242E+03              0.    -849.960E+03
           17865     158.701E+03     145.593E+03              0.    -850.606E+03
           17866     139.857E+03     159.645E+03              0.    -851.051E+03
           17867     120.089E+03     174.418E+03              0.    -851.280E+03
           17868     99.3618E+03     189.933E+03              0.    -851.278E+03
           17869     77.6379E+03     206.213E+03              0.    -851.030E+03
           17870     54.8790E+03     223.279E+03              0.    -850.518E+03
           17871     31.0454E+03     241.156E+03              0.    -849.728E+03
           17872     6.09584E+03     259.866E+03              0.    -848.641E+03
           17873    -20.0125E+03     279.436E+03              0.    -847.242E+03
           17874    -47.3240E+03     299.891E+03              0.    -845.511E+03
           17875    -75.8847E+03     321.256E+03              0.    -843.431E+03
           17876    -105.742E+03     343.560E+03              0.    -840.983E+03
           17877    -136.946E+03     366.829E+03              0.    -838.149E+03
           17878    -169.548E+03     391.093E+03              0.    -834.908E+03
           17879    -203.600E+03     416.382E+03              0.    -831.241E+03
           17880    -239.158E+03     442.724E+03              0.    -827.127E+03
           17881    -276.279E+03     470.153E+03              0.    -822.545E+03
           17882    -315.022E+03     498.699E+03              0.    -817.473E+03
           17883    -355.449E+03     528.396E+03              0.    -811.890E+03
           17884    -397.622E+03     559.277E+03              0.    -805.772E+03
           17885    -441.608E+03     591.378E+03              0.    -799.096E+03
           17886    -487.475E+03     624.734E+03              0.    -791.839E+03
           17887    -535.293E+03     659.382E+03              0.    -783.977E+03
           17888    -585.135E+03     695.359E+03              0.    -775.483E+03
           17889    -637.078E+03     732.703E+03              0.    -766.333E+03
           17890    -691.198E+03     771.455E+03              0.    -756.500E+03
           17891    -747.579E+03     811.655E+03              0.    -745.958E+03
           17892    -806.302E+03     853.344E+03              0.    -734.679E+03
           17893    -867.457E+03     896.564E+03              0.    -722.635E+03
           17894    -931.131E+03     941.360E+03              0.    -709.796E+03
           17895    -997.419E+03     987.774E+03              0.    -696.135E+03
           17896    -1.06642E+06     1.03585E+06              0.    -681.620E+03
           17897    -1.13822E+06     1.08564E+06              0.    -666.221E+03
           17898    -1.21294E+06     1.13719E+06              0.    -649.906E+03
           17899    -1.29068E+06     1.19055E+06              0.    -632.643E+03
           17900    -1.37155E+06     1.24576E+06              0.    -614.399E+03
           17901    -1.45566E+06     1.30287E+06              0.    -595.140E+03
           17902    -1.54313E+06     1.36195E+06              0.    -574.833E+03
           17903    -1.63409E+06     1.42303E+06              0.    -553.442E+03
           17904    -1.72866E+06     1.48617E+06              0.    -530.932E+03
           17905    -1.82696E+06     1.55143E+06              0.    -507.266E+03
           17906    -1.92914E+06     1.61886E+06              0.    -482.406E+03
           17907    -2.03534E+06     1.68851E+06              0.    -456.316E+03
           17908    -2.14569E+06     1.76044E+06              0.    -428.955E+03
           17909    -2.26035E+06     1.83471E+06              0.    -400.286E+03
           17910    -2.37947E+06     1.91138E+06              0.    -370.268E+03
           17911    -2.50321E+06     1.99050E+06              0.    -338.860E+03
           17912    -2.63173E+06     2.07213E+06              0.    -306.021E+03
           17913    -2.76520E+06     2.15633E+06              0.    -271.709E+03
           17914     -2.9038E+06     2.24316E+06              0.    -235.881E+03
           17915    -3.04771E+06     2.33268E+06              0.    -198.494E+03
           17916    -3.19711E+06     2.42494E+06              0.    -159.503E+03
           17917    -3.35219E+06     2.52002E+06              0.    -118.864E+03
           17918    -3.51316E+06     2.61796E+06              0.    -76.5323E+03
           17919    -3.68022E+06     2.71882E+06              0.    -32.4612E+03
           17920    -3.85357E+06     2.82267E+06              0.     13.3954E+03
           17921    -4.03344E+06     2.92956E+06              0.     61.0843E+03
           17922    -4.22006E+06     3.03955E+06              0.     110.653E+03
           17923    -4.41364E+06     3.15270E+06              0.     162.149E+03
           17924    -4.61443E+06     3.26905E+06              0.     215.621E+03
           17925    -4.82268E+06     3.38867E+06              0.     271.117E+03
           17926    -5.03864E+06     3.51161E+06              0.     328.687E+03
           17927    -5.26256E+06     3.63791E+06              0.     388.378E+03
           17928    -5.49472E+06     3.76762E+06              0.     450.242E+03
           17929    -5.73539E+06     3.90079E+06              0.     514.327E+03
           17930    -5.98486E+06     4.03746E+06              0.     580.682E+03
           17931    -6.24342E+06     4.17767E+06              0.     649.358E+03
           17932    -6.51136E+06     4.32145E+06              0.     720.405E+03
           17933    -6.78900E+06     4.46883E+06              0.     793.870E+03
           17934    -7.07665E+06     4.61984E+06              0.     869.805E+03
           17935    -7.37465E+06     4.77450E+06              0.     948.257E+03
           17936    -7.68331E+06     4.93281E+06              0.     1.02927E+06
           17937    -8.00300E+06     5.09480E+06              0.     1.11291E+06
           17938    -8.33405E+06     5.26044E+06              0.     1.19920E+06
           17939    -8.67683E+06     5.42975E+06              0.     1.28820E+06
           17940    -9.03171E+06     5.60269E+06              0.     1.37996E+06
           17941    -9.39907E+06     5.77925E+06              0.     1.47451E+06
           17942    -9.77930E+06     5.95938E+06              0.     1.57190E+06
           17943    -10.1728E+06     6.14304E+06              0.     1.67218E+06
           17944    -10.5800E+06     6.33015E+06              0.     1.77538E+06
           17945    -11.0012E+06     6.52064E+06              0.     1.88154E+06
           17946    -11.4370E+06     6.71443E+06              0.     1.99071E+06
           17947    -11.8877E+06     6.91138E+06              0.     2.10290E+06
           17948    -12.3538E+06     7.11139E+06              0.     2.21817E+06
           17949    -12.8357E+06     7.31430E+06              0.     2.33653E+06
           17950    -13.3339E+06     7.51994E+06              0.     2.45801E+06
           17951    -13.8489E+06     7.72812E+06              0.     2.58264E+06
           17952    -14.3811E+06     7.93861E+06              0.     2.71044E+06
           17953    -14.9310E+06     8.15116E+06              0.     2.84141E+06
           17954    -15.4991E+06     8.36551E+06              0.     2.97559E+06
           17955    -16.0859E+06     8.58132E+06              0.     3.11297E+06
           17956    -16.6918E+06     8.79827E+06              0.     3.25355E+06
           17957    -17.3175E+06     9.01596E+06              0.     3.39733E+06
           17958    -17.9633E+06     9.23396E+06              0.     3.54431E+06
           17959    -18.6299E+06     9.45180E+06              0.     3.69446E+06
           17960    -19.3176E+06     9.66895E+06              0.     3.84777E+06
           17961    -20.0270E+06     9.88484E+06              0.     4.00420E+06
           17962    -20.7587E+06     10.0988E+06              0.     4.16372E+06
           17963    -21.5131E+06     10.3103E+06              0.     4.32627E+06
           17964    -22.2908E+06     10.5183E+06              0.     4.49180E+06
           17965    -23.0921E+06     10.7222E+06              0.     4.66025E+06
           17966    -23.9177E+06     10.9210E+06              0.     4.83151E+06
           17967    -24.7680E+06     11.1137E+06              0.     5.00551E+06
           17968    -25.6434E+06     11.2992E+06              0.     5.18214E+06
           17969    -26.5444E+06     11.4763E+06              0.     5.36126E+06
           17970    -27.4715E+06     11.6438E+06              0.     5.54275E+06
           17971    -28.4251E+06     11.8003E+06              0.     5.72643E+06
           17972    -29.4055E+06     11.9441E+06              0.     5.91212E+06
           17973    -30.4131E+06     12.0737E+06              0.     6.09963E+06
           17974    -31.4483E+06     12.1873E+06              0.     6.28872E+06
           17975    -32.5113E+06     12.2828E+06              0.     6.47914E+06
           17976    -33.6023E+06     12.3583E+06              0.     6.67061E+06
           17977    -34.7217E+06     12.4113E+06              0.     6.86281E+06
           17978    -35.8695E+06     12.4395E+06              0.     7.05538E+06
           17979    -37.0459E+06     12.4400E+06              0.     7.24794E+06
           17980    -38.2508E+06     12.4101E+06              0.     7.44006E+06
           17981    -39.4842E+06     12.3465E+06              0.     7.63124E+06
           17982    -40.7461E+06     12.2458E+06              0.     7.82096E+06
           17983    -42.0361E+06     12.1044E+06              0.     8.00864E+06
           17984    -43.3539E+06     11.9183E+06              0.     8.19361E+06
           17985    -44.6992E+06     11.6832E+06              0.     8.37516E+06
           17986    -46.0714E+06     11.3945E+06              0.     8.55249E+06
           17987    -47.4697E+06     11.0470E+06              0.     8.72472E+06
           17988    -48.8934E+06     10.6356E+06              0.     8.89088E+06
           17989    -50.3414E+06     10.1542E+06              0.     9.04990E+06
           17990    -51.8126E+06     9.59666E+06              0.     9.20059E+06
           17991    -53.3055E+06     8.95618E+06              0.     9.34164E+06
           17992    -54.8186E+06     8.22544E+06              0.     9.47160E+06
           17993    -56.3500E+06     7.39656E+06              0.     9.58887E+06
           17994    -57.8976E+06     6.46105E+06              0.      9.6917E+06
           17995    -59.4590E+06     5.40976E+06              0.     9.77812E+06
           17996    -61.0313E+06     4.23284E+06              0.     9.84600E+06
           17997    -62.6115E+06     2.91965E+06              0.     9.89292E+06
           17998    -64.1961E+06     1.45876E+06              0.     9.91627E+06
           17999    -65.7811E+06    -162.183E+03              0.     9.91313E+06
           18000    -67.3621E+06    -1.95643E+06              0.     9.88027E+06
           18001     -68.934E+06    -3.93832E+06              0.     9.81411E+06
           18002    -70.4912E+06    -6.12323E+06              0.     9.71070E+06
           18003    -72.0276E+06    -8.52782E+06              0.     9.56566E+06
           18004    -73.5359E+06    -11.1699E+06              0.     9.37410E+06
           18005    -75.0084E+06    -14.0689E+06              0.     9.13062E+06
           18006    -76.4362E+06    -17.2454E+06              0.     8.82924E+06
           18007    -77.8095E+06    -20.7218E+06              0.     8.46327E+06
           18008    -79.1172E+06    -24.5224E+06              0.     8.02530E+06
           18009    -80.3468E+06    -28.6730E+06              0.     7.50703E+06
           18010    -81.4844E+06    -33.2017E+06              0.     6.89929E+06
           18011    -83.4457E+06    -38.6071E+06              0.     6.68700E+06
           18012     364.134E+03     165.025E+03              0.    -920.627E+03
           18013     363.248E+03     156.473E+03              0.    -919.037E+03
           18014     366.066E+03     149.569E+03              0.    -910.465E+03
           18015     368.871E+03     142.675E+03              0.    -902.243E+03
           18016     371.654E+03     135.804E+03              0.    -894.369E+03
           18017     374.409E+03     128.970E+03              0.    -886.838E+03
           18018     377.127E+03     122.181E+03              0.    -879.646E+03
           18019     379.802E+03     115.450E+03              0.    -872.788E+03
           18020     382.426E+03     108.787E+03              0.    -866.261E+03
           18021     384.994E+03     102.201E+03              0.    -860.059E+03
           18022     387.498E+03     95.7023E+03              0.    -854.177E+03
           18023     389.932E+03     89.2993E+03              0.    -848.611E+03
           18024     392.290E+03     83.0010E+03              0.    -843.355E+03
           18025     394.566E+03     76.8155E+03              0.    -838.404E+03
           18026     396.754E+03     70.7509E+03              0.    -833.753E+03
           18027     398.848E+03     64.8151E+03              0.    -829.396E+03
           18028     400.842E+03     59.0153E+03              0.    -825.327E+03
           18029     402.731E+03     53.3589E+03              0.    -821.541E+03
           18030     404.508E+03     47.8529E+03              0.    -818.031E+03
           18031     406.169E+03     42.5043E+03              0.    -814.792E+03
           18032     407.706E+03     37.3198E+03              0.    -811.817E+03
           18033     409.114E+03     32.3058E+03              0.    -809.101E+03
           18034     410.387E+03     27.4690E+03              0.    -806.637E+03
           18035     411.520E+03     22.8157E+03              0.    -804.419E+03
           18036     412.505E+03     18.3522E+03              0.    -802.440E+03
           18037     413.338E+03     14.0848E+03              0.    -800.693E+03
           18038     414.011E+03     10.0197E+03              0.    -799.172E+03
           18039     414.518E+03     6.16309E+03              0.    -797.869E+03
           18040     414.852E+03     2.52116E+03              0.    -796.779E+03
           18041     415.007E+03        -899.843              0.    -795.894E+03
           18042     414.975E+03    -4.09369E+03              0.    -795.207E+03
           18043      414.75E+03    -7.05410E+03              0.    -794.711E+03
           18044     414.323E+03    -9.77468E+03              0.    -794.398E+03
           18045     413.688E+03    -12.2490E+03              0.    -794.262E+03
           18046     412.835E+03    -14.4706E+03              0.    -794.293E+03
           18047     411.758E+03    -16.4328E+03              0.    -794.486E+03
           18048     410.447E+03    -18.1288E+03              0.    -794.832E+03
           18049     408.893E+03    -19.5518E+03              0.    -795.323E+03
           18050     407.087E+03    -20.6947E+03              0.    -795.951E+03
           18051     405.021E+03    -21.5503E+03              0.    -796.709E+03
           18052     402.683E+03    -22.1112E+03              0.    -797.587E+03
           18053     400.064E+03    -22.3699E+03              0.    -798.578E+03
           18054     397.153E+03    -22.3185E+03              0.    -799.673E+03
           18055     393.938E+03    -21.9492E+03              0.    -800.863E+03
           18056     390.410E+03    -21.2535E+03              0.    -802.140E+03
           18057     386.554E+03    -20.2231E+03              0.    -803.495E+03
           18058     382.360E+03    -18.8493E+03              0.    -804.918E+03
           18059     377.814E+03    -17.1230E+03              0.    -806.400E+03
           18060     372.902E+03     -15.035E+03              0.    -807.932E+03
           18061     367.611E+03    -12.5756E+03              0.    -809.504E+03
           18062     361.926E+03    -9.73509E+03              0.    -811.106E+03
           18063     355.832E+03    -6.50306E+03              0.    -812.728E+03
           18064     349.314E+03    -2.86907E+03              0.    -814.360E+03
           18065     342.355E+03     1.17781E+03              0.    -815.992E+03
           18066     334.937E+03     5.64885E+03              0.    -817.613E+03
           18067     327.044E+03     10.5557E+03              0.    -819.211E+03
           18068     318.657E+03     15.9104E+03              0.    -820.777E+03
           18069     309.757E+03     21.7254E+03              0.    -822.298E+03
           18070     300.324E+03     28.0135E+03              0.    -823.763E+03
           18071     290.338E+03     34.7881E+03              0.    -825.159E+03
           18072     279.777E+03     42.0628E+03              0.    -826.476E+03
           18073     268.618E+03     49.8520E+03              0.    -827.701E+03
           18074     256.839E+03     58.1701E+03              0.    -828.820E+03
           18075     244.417E+03     67.0325E+03              0.    -829.821E+03
           18076     231.324E+03     76.4549E+03              0.    -830.690E+03
           18077     217.537E+03     86.4532E+03              0.    -831.414E+03
           18078     203.028E+03     97.0445E+03              0.    -831.979E+03
           18079     187.769E+03     108.246E+03              0.    -832.370E+03
           18080     171.730E+03     120.075E+03              0.    -832.574E+03
           18081     154.883E+03     132.551E+03              0.    -832.574E+03
           18082     137.195E+03     145.692E+03              0.    -832.356E+03
           18083     118.635E+03     159.518E+03              0.    -831.904E+03
           18084     99.1680E+03     174.049E+03              0.    -831.201E+03
           18085     78.7597E+03     189.306E+03              0.    -830.232E+03
           18086     57.3737E+03     205.311E+03              0.    -828.978E+03
           18087     34.9724E+03     222.086E+03              0.    -827.423E+03
           18088     11.5168E+03     239.654E+03              0.    -825.548E+03
           18089    -13.0336E+03     258.039E+03              0.    -823.336E+03
           18090    -38.7209E+03     277.264E+03              0.    -820.767E+03
           18091    -65.5884E+03     297.354E+03              0.    -817.823E+03
           18092    -93.6815E+03     318.337E+03              0.    -814.483E+03
           18093    -123.047E+03     340.238E+03              0.    -810.726E+03
           18094    -153.733E+03     363.085E+03              0.    -806.533E+03
           18095    -185.791E+03     386.905E+03              0.    -801.882E+03
           18096    -219.272E+03     411.728E+03              0.    -796.751E+03
           18097    -254.230E+03     437.584E+03              0.    -791.117E+03
           18098    -290.722E+03     464.503E+03              0.    -784.957E+03
           18099    -328.805E+03     492.517E+03              0.    -778.248E+03
           18100    -368.540E+03     521.658E+03              0.    -770.965E+03
           18101    -409.989E+03     551.960E+03              0.    -763.083E+03
           18102    -453.216E+03     583.456E+03              0.    -754.577E+03
           18103    -498.289E+03     616.182E+03              0.    -745.421E+03
           18104    -545.277E+03     650.174E+03              0.    -735.587E+03
           18105    -594.251E+03     685.468E+03              0.    -725.049E+03
           18106    -645.286E+03     722.103E+03              0.    -713.777E+03
           18107    -698.459E+03     760.117E+03              0.    -701.743E+03
           18108    -753.849E+03      799.55E+03              0.    -688.917E+03
           18109    -811.539E+03     840.443E+03              0.    -675.270E+03
           18110    -871.615E+03     882.837E+03              0.    -660.768E+03
           18111    -934.164E+03     926.776E+03              0.    -645.382E+03
           18112    -999.278E+03     972.302E+03              0.    -629.077E+03
           18113    -1.06705E+06     1.01946E+06              0.    -611.822E+03
           18114    -1.13758E+06     1.06830E+06              0.    -593.580E+03
           18115    -1.21097E+06     1.11886E+06              0.    -574.318E+03
           18116    -1.28733E+06     1.17119E+06              0.    -553.999E+03
           18117    -1.36675E+06     1.22534E+06              0.    -532.587E+03
           18118    -1.44936E+06     1.28137E+06              0.    -510.045E+03
           18119    -1.53527E+06     1.33931E+06              0.    -486.333E+03
           18120    -1.62460E+06     1.39922E+06              0.    -461.413E+03
           18121    -1.71748E+06     1.46116E+06              0.    -435.245E+03
           18122    -1.81402E+06     1.52517E+06              0.    -407.788E+03
           18123    -1.91437E+06     1.59132E+06              0.    -378.999E+03
           18124    -2.01867E+06     1.65965E+06              0.    -348.838E+03
           18125    -2.12704E+06     1.73021E+06              0.    -317.259E+03
           18126    -2.23965E+06     1.80307E+06              0.    -284.219E+03
           18127    -2.35663E+06     1.87829E+06              0.    -249.673E+03
           18128    -2.47816E+06     1.95591E+06              0.    -213.575E+03
           18129    -2.60438E+06     2.03600E+06              0.    -175.877E+03
           18130    -2.73546E+06     2.11861E+06              0.    -136.532E+03
           18131    -2.87158E+06     2.20381E+06              0.    -95.4920E+03
           18132    -3.01291E+06     2.29165E+06              0.    -52.7068E+03
           18133    -3.15964E+06     2.38219E+06              0.    -8.12674E+03
           18134    -3.31196E+06     2.47548E+06              0.     38.2994E+03
           18135    -3.47005E+06     2.57160E+06              0.     86.6232E+03
           18136    -3.63413E+06     2.67059E+06              0.     136.897E+03
           18137    -3.80440E+06     2.77251E+06              0.     189.175E+03
           18138    -3.98107E+06     2.87743E+06              0.     243.509E+03
           18139    -4.16436E+06     2.98539E+06              0.     299.956E+03
           18140    -4.35450E+06     3.09646E+06              0.     358.570E+03
           18141    -4.55173E+06     3.21068E+06              0.     419.406E+03
           18142    -4.75629E+06     3.32812E+06              0.     482.522E+03
           18143    -4.96843E+06     3.44881E+06              0.     547.974E+03
           18144    -5.18839E+06     3.57282E+06              0.     615.819E+03
           18145    -5.41646E+06     3.70019E+06              0.     686.116E+03
           18146    -5.65289E+06     3.83097E+06              0.     758.922E+03
           18147    -5.89796E+06     3.96518E+06              0.     834.296E+03
           18148    -6.15198E+06     4.10288E+06              0.     912.295E+03
           18149    -6.41522E+06     4.24410E+06              0.     992.980E+03
           18150    -6.68799E+06     4.38887E+06              0.     1.07641E+06
           18151    -6.97061E+06     4.53720E+06              0.     1.16264E+06
           18152    -7.26340E+06     4.68913E+06              0.     1.25173E+06
           18153    -7.56669E+06     4.84467E+06              0.     1.34374E+06
           18154    -7.88080E+06     5.00382E+06              0.     1.43873E+06
           18155    -8.20610E+06     5.16658E+06              0.     1.53675E+06
           18156    -8.54294E+06     5.33295E+06              0.     1.63786E+06
           18157    -8.89167E+06     5.50291E+06              0.     1.74212E+06
           18158    -9.25268E+06     5.67643E+06              0.     1.84958E+06
           18159    -9.62635E+06     5.85348E+06              0.     1.96029E+06
           18160    -10.0131E+06     6.03399E+06              0.     2.07432E+06
           18161    -10.4132E+06     6.21793E+06              0.      2.1917E+06
           18162    -10.8272E+06     6.40520E+06              0.     2.31249E+06
           18163    -11.2555E+06     6.59572E+06              0.     2.43674E+06
           18164    -11.6985E+06     6.78937E+06              0.     2.56449E+06
           18165    -12.1566E+06     6.98603E+06              0.     2.69578E+06
           18166    -12.6303E+06     7.18557E+06              0.     2.83066E+06
           18167    -13.1200E+06     7.38779E+06              0.     2.96915E+06
           18168    -13.6262E+06     7.59253E+06              0.     3.11130E+06
           18169    -14.1494E+06     7.79956E+06              0.     3.25714E+06
           18170    -14.6899E+06     8.00862E+06              0.     3.40668E+06
           18171    -15.2484E+06     8.21946E+06              0.     3.55995E+06
           18172    -15.8252E+06     8.43176E+06              0.     3.71697E+06
           18173    -16.4210E+06     8.64519E+06              0.     3.87774E+06
           18174    -17.0360E+06     8.85935E+06              0.     4.04227E+06
           18175    -17.6709E+06     9.07383E+06              0.     4.21056E+06
           18176    -18.3262E+06     9.28816E+06              0.     4.38259E+06
           18177    -19.0023E+06     9.50182E+06              0.     4.55835E+06
           18178    -19.6998E+06     9.71425E+06              0.     4.73781E+06
           18179    -20.4191E+06     9.92482E+06              0.     4.92094E+06
           18180    -21.1608E+06     10.1329E+06              0.     5.10768E+06
           18181    -21.9253E+06     10.3376E+06              0.     5.29797E+06
           18182    -22.7132E+06     10.5382E+06              0.     5.49174E+06
           18183    -23.5248E+06     10.7338E+06              0.     5.68891E+06
           18184    -24.3607E+06     10.9234E+06              0.     5.88938E+06
           18185    -25.2214E+06     11.1059E+06              0.     6.09301E+06
           18186    -26.1072E+06     11.2802E+06              0.     6.29969E+06
           18187    -27.0186E+06     11.4450E+06              0.     6.50924E+06
           18188    -27.9560E+06     11.5988E+06              0.     6.72150E+06
           18189    -28.9198E+06     11.7403E+06              0.     6.93625E+06
           18190    -29.9103E+06     11.8677E+06              0.     7.15326E+06
           18191    -30.9279E+06     11.9793E+06              0.     7.37228E+06
           18192    -31.9728E+06     12.0732E+06              0.     7.59301E+06
           18193    -33.0453E+06     12.1472E+06              0.     7.81513E+06
           18194    -34.1456E+06     12.1992E+06              0.     8.03827E+06
           18195    -35.2737E+06     12.2266E+06              0.     8.26203E+06
           18196    -36.4299E+06     12.2268E+06              0.     8.48595E+06
           18197    -37.6142E+06     12.1969E+06              0.     8.70952E+06
           18198    -38.8264E+06     12.1339E+06              0.     8.93220E+06
           18199    -40.0664E+06     12.0343E+06              0.     9.15335E+06
           18200    -41.3341E+06     11.8946E+06              0.     9.37228E+06
           18201    -42.6292E+06     11.7109E+06              0.     9.58824E+06
           18202    -43.9511E+06     11.4788E+06              0.     9.80038E+06
           18203    -45.2994E+06     11.1939E+06              0.     10.0078E+06
           18204    -46.6734E+06     10.8513E+06              0.     10.2094E+06
           18205    -48.0722E+06     10.4455E+06              0.     10.4040E+06
           18206    -49.4949E+06     9.97100E+06              0.     10.5905E+06
           18207    -50.9404E+06     9.42149E+06              0.     10.7674E+06
           18208    -52.4072E+06     8.79034E+06              0.     10.9332E+06
           18209    -53.8939E+06     8.07039E+06              0.     11.0861E+06
           18210    -55.3985E+06     7.25391E+06              0.     11.2243E+06
           18211    -56.9191E+06     6.33258E+06              0.     11.3457E+06
           18212    -58.4533E+06     5.29745E+06              0.     11.4481E+06
           18213    -59.9984E+06     4.13885E+06              0.     11.5288E+06
           18214    -61.5515E+06     2.84640E+06              0.     11.5852E+06
           18215    -63.1090E+06     1.40889E+06              0.     11.6140E+06
           18216    -64.6673E+06    -185.703E+03              0.     11.6118E+06
           18217    -66.2219E+06    -1.95034E+06              0.     11.5750E+06
           18218    -67.7682E+06    -3.89900E+06              0.     11.4992E+06
           18219    -69.3006E+06    -6.04668E+06              0.     11.3798E+06
           18220    -70.8132E+06    -8.40957E+06              0.     11.2117E+06
           18221    -72.2993E+06    -11.0051E+06              0.     10.9892E+06
           18222    -73.7512E+06    -13.8518E+06              0.     10.7060E+06
           18223    -75.1606E+06    -16.9701E+06              0.     10.3550E+06
           18224    -76.5179E+06    -20.3816E+06              0.     9.92841E+06
           18225    -77.8128E+06    -24.1096E+06              0.     9.41759E+06
           18226    -79.0334E+06    -28.1793E+06              0.     8.81290E+06
           18227    -80.1668E+06    -32.6177E+06              0.     8.10359E+06
           18228    -82.0954E+06    -37.9152E+06              0.     7.85731E+06
           18229     343.706E+03     155.842E+03              0.    -923.352E+03
           18230     342.866E+03     147.728E+03              0.    -921.759E+03
           18231     345.541E+03     141.172E+03              0.    -913.178E+03
           18232     348.204E+03     134.623E+03              0.    -904.940E+03
           18233     350.847E+03     128.094E+03              0.    -897.041E+03
           18234     353.462E+03     121.597E+03              0.    -889.478E+03
           18235     356.042E+03     115.142E+03              0.    -882.247E+03
           18236     358.581E+03     108.740E+03              0.    -875.344E+03
           18237     361.070E+03     102.401E+03              0.    -868.764E+03
           18238     363.505E+03     96.1352E+03              0.    -862.503E+03
           18239     365.878E+03     89.9513E+03              0.    -856.555E+03
           18240     368.183E+03     83.8581E+03              0.    -850.918E+03
           18241     370.414E+03     77.8645E+03              0.    -845.584E+03
           18242     372.566E+03     71.9784E+03              0.    -840.550E+03
           18243     374.632E+03     66.2076E+03              0.    -835.809E+03
           18244     376.606E+03     60.5601E+03              0.    -831.356E+03
           18245     378.483E+03     55.0428E+03              0.    -827.187E+03
           18246     380.258E+03     49.6631E+03              0.    -823.293E+03
           18247     381.924E+03     44.4279E+03              0.    -819.671E+03
           18248     383.475E+03     39.3439E+03              0.    -816.314E+03
           18249     384.906E+03     34.4178E+03              0.    -813.215E+03
           18250     386.212E+03     29.6560E+03              0.    -810.370E+03
           18251     387.386E+03     25.0650E+03              0.    -807.770E+03
           18252     388.423E+03     20.6509E+03              0.    -805.409E+03
           18253     389.316E+03     16.4200E+03              0.    -803.282E+03
           18254     390.059E+03     12.3785E+03              0.    -801.381E+03
           18255     390.647E+03     8.53242E+03              0.    -799.699E+03
           18256     391.072E+03     4.88794E+03              0.    -798.230E+03
           18257     391.329E+03     1.45106E+03              0.    -796.967E+03
           18258      391.41E+03    -1.77204E+03              0.    -795.901E+03
           18259     391.309E+03    -4.77524E+03              0.    -795.027E+03
           18260     391.018E+03    -7.55239E+03              0.    -794.336E+03
           18261     390.531E+03    -10.0972E+03              0.    -793.820E+03
           18262     389.840E+03    -12.4034E+03              0.    -793.474E+03
           18263     388.936E+03    -14.4645E+03              0.    -793.287E+03
           18264     387.812E+03    -16.2741E+03              0.    -793.254E+03
           18265     386.460E+03    -17.8254E+03              0.    -793.364E+03
           18266     384.871E+03    -19.1119E+03              0.    -793.611E+03
           18267     383.035E+03    -20.1264E+03              0.    -793.987E+03
           18268     380.944E+03    -20.8621E+03              0.    -794.481E+03
           18269     378.587E+03    -21.3115E+03              0.    -795.087E+03
           18270     375.956E+03    -21.4674E+03              0.    -795.795E+03
           18271     373.038E+03    -21.3220E+03              0.    -796.597E+03
           18272     369.825E+03    -20.8675E+03              0.    -797.482E+03
           18273     366.303E+03    -20.0959E+03              0.    -798.443E+03
           18274     362.462E+03    -18.9989E+03              0.    -799.468E+03
           18275     358.289E+03    -17.5679E+03              0.    -800.550E+03
           18276     353.772E+03    -15.7940E+03              0.    -801.678E+03
           18277     348.897E+03    -13.6683E+03              0.    -802.843E+03
           18278     343.651E+03    -11.1812E+03              0.    -804.033E+03
           18279     338.020E+03    -8.32315E+03              0.    -805.239E+03
           18280     331.989E+03    -5.08407E+03              0.    -806.449E+03
           18281     325.542E+03    -1.45368E+03              0.    -807.654E+03
           18282     318.664E+03     2.57874E+03              0.    -808.842E+03
           18283     311.337E+03     7.02420E+03              0.    -810.002E+03
           18284     303.546E+03     11.8941E+03              0.    -811.122E+03
           18285     295.270E+03     17.2003E+03              0.    -812.190E+03
           18286     286.493E+03     22.9549E+03              0.    -813.195E+03
           18287     277.194E+03     29.1705E+03              0.    -814.123E+03
           18288     267.354E+03     35.8601E+03              0.    -814.963E+03
           18289     256.951E+03     43.0372E+03              0.    -815.701E+03
           18290     245.964E+03     50.7157E+03              0.    -816.324E+03
           18291     234.370E+03     58.9100E+03              0.    -816.819E+03
           18292     222.146E+03     67.6348E+03              0.    -817.171E+03
           18293     209.267E+03     76.9056E+03              0.    -817.366E+03
           18294     195.707E+03     86.7382E+03              0.    -817.390E+03
           18295     181.441E+03     97.1490E+03              0.    -817.229E+03
           18296     166.441E+03     108.155E+03              0.    -816.865E+03
           18297     150.679E+03     119.773E+03              0.    -816.284E+03
           18298     134.126E+03     132.022E+03              0.    -815.470E+03
           18299     116.750E+03     144.920E+03              0.    -814.405E+03
           18300     98.5195E+03     158.487E+03              0.    -813.074E+03
           18301     79.4025E+03     172.741E+03              0.    -811.458E+03
           18302     59.3642E+03     187.705E+03              0.    -809.541E+03
           18303     38.3692E+03     203.398E+03              0.    -807.302E+03
           18304     16.3808E+03     219.843E+03              0.    -804.724E+03
           18305    -6.63942E+03     237.061E+03              0.    -801.788E+03
           18306    -30.7309E+03     255.077E+03              0.    -798.472E+03
           18307    -55.9348E+03     273.914E+03              0.    -794.758E+03
           18308    -82.2938E+03     293.596E+03              0.    -790.624E+03
           18309    -109.852E+03     314.149E+03              0.    -786.049E+03
           18310    -138.655E+03     335.599E+03              0.    -781.011E+03
           18311    -168.751E+03     357.972E+03              0.    -775.487E+03
           18312    -200.189E+03     381.297E+03              0.    -769.454E+03
           18313    -233.020E+03     405.601E+03              0.    -762.888E+03
           18314    -267.297E+03     430.914E+03              0.    -755.765E+03
           18315    -303.074E+03     457.266E+03              0.    -748.059E+03
           18316    -340.409E+03     484.687E+03              0.    -739.745E+03
           18317    -379.360E+03     513.210E+03              0.    -730.797E+03
           18318    -419.989E+03     542.867E+03              0.    -721.187E+03
           18319    -462.359E+03     573.692E+03              0.    -710.887E+03
           18320    -506.535E+03     605.719E+03              0.    -699.870E+03
           18321    -552.585E+03     638.982E+03              0.    -688.104E+03
           18322    -600.580E+03     673.519E+03              0.    -675.562E+03
           18323    -650.591E+03     709.367E+03              0.    -662.210E+03
           18324    -702.696E+03     746.563E+03              0.    -648.019E+03
           18325    -756.970E+03     785.147E+03              0.    -632.955E+03
           18326    -813.497E+03     825.158E+03              0.    -616.986E+03
           18327    -872.358E+03     866.638E+03              0.    -600.076E+03
           18328    -933.640E+03     909.627E+03              0.    -582.192E+03
           18329    -997.434E+03     954.170E+03              0.    -563.297E+03
           18330    -1.06383E+06     1.00031E+06              0.    -543.354E+03
           18331    -1.13293E+06     1.04809E+06              0.    -522.326E+03
           18332    -1.20483E+06     1.09756E+06              0.    -500.175E+03
           18333    -1.27962E+06     1.14876E+06              0.    -476.860E+03
           18334    -1.35743E+06     1.20174E+06              0.    -452.342E+03
           18335    -1.43835E+06     1.25656E+06              0.    -426.579E+03
           18336    -1.52251E+06     1.31325E+06              0.    -399.529E+03
           18337    -1.61002E+06     1.37187E+06              0.    -371.149E+03
           18338    -1.70099E+06     1.43247E+06              0.    -341.394E+03
           18339    -1.79556E+06     1.49511E+06              0.    -310.219E+03
           18340    -1.89386E+06     1.55983E+06              0.    -277.578E+03
           18341    -1.99602E+06     1.62668E+06              0.    -243.423E+03
           18342    -2.10218E+06     1.69574E+06              0.    -207.707E+03
           18343    -2.21248E+06     1.76703E+06              0.    -170.380E+03
           18344    -2.32707E+06     1.84064E+06              0.    -131.393E+03
           18345    -2.44611E+06     1.91660E+06              0.    -90.6928E+03
           18346    -2.56974E+06     1.99498E+06              0.    -48.2284E+03
           18347    -2.69814E+06     2.07583E+06              0.    -3.94630E+03
           18348    -2.83148E+06     2.15921E+06              0.     42.2078E+03
           18349    -2.96992E+06     2.24519E+06              0.      90.289E+03
           18350    -3.11366E+06     2.33380E+06              0.     140.354E+03
           18351    -3.26286E+06     2.42513E+06              0.     192.459E+03
           18352    -3.41773E+06     2.51921E+06              0.     246.662E+03
           18353    -3.57846E+06     2.61611E+06              0.     303.024E+03
           18354    -3.74525E+06     2.71589E+06              0.     361.603E+03
           18355    -3.91832E+06     2.81861E+06              0.     422.461E+03
           18356    -4.09788E+06     2.92431E+06              0.     485.658E+03
           18357    -4.28416E+06     3.03306E+06              0.     551.259E+03
           18358    -4.47738E+06     3.14490E+06              0.     619.325E+03
           18359    -4.67779E+06     3.25989E+06              0.     689.921E+03
           18360    -4.88562E+06     3.37809E+06              0.     763.112E+03
           18361    -5.10113E+06     3.49954E+06              0.     838.963E+03
           18362    -5.32457E+06     3.62428E+06              0.     917.540E+03
           18363    -5.55622E+06     3.75236E+06              0.     998.910E+03
           18364    -5.79635E+06     3.88383E+06              0.     1.08314E+06
           18365    -6.04523E+06     4.01871E+06              0.     1.17029E+06
           18366    -6.30317E+06     4.15705E+06              0.     1.26044E+06
           18367    -6.57045E+06     4.29887E+06              0.     1.35366E+06
           18368    -6.84739E+06      4.4442E+06              0.     1.45000E+06
           18369    -7.13429E+06     4.59306E+06              0.     1.54954E+06
           18370    -7.43149E+06     4.74546E+06              0.     1.65235E+06
           18371    -7.73931E+06     4.90141E+06              0.     1.75849E+06
           18372    -8.05810E+06     5.06092E+06              0.     1.86803E+06
           18373    -8.38819E+06     5.22396E+06              0.     1.98104E+06
           18374    -8.72996E+06     5.39054E+06              0.     2.09758E+06
           18375    -9.08377E+06     5.56061E+06              0.     2.21773E+06
           18376    -9.44999E+06     5.73415E+06              0.     2.34153E+06
           18377    -9.82900E+06     5.91111E+06              0.     2.46906E+06
           18378    -10.2212E+06     6.09143E+06              0.     2.60038E+06
           18379    -10.6270E+06     6.27502E+06              0.     2.73554E+06
           18380    -11.0468E+06     6.46181E+06              0.     2.87461E+06
           18381    -11.4810E+06     6.65169E+06              0.     3.01764E+06
           18382    -11.9300E+06     6.84453E+06              0.     3.16469E+06
           18383    -12.3943E+06     7.04019E+06              0.     3.31579E+06
           18384    -12.8744E+06     7.23851E+06              0.     3.47101E+06
           18385    -13.3706E+06     7.43929E+06              0.     3.63037E+06
           18386    -13.8834E+06     7.64233E+06              0.     3.79393E+06
           18387    -14.4133E+06     7.84738E+06              0.     3.96171E+06
           18388    -14.9607E+06     8.05417E+06              0.     4.13375E+06
           18389    -15.5262E+06     8.26241E+06              0.     4.31007E+06
           18390    -16.1101E+06     8.47175E+06              0.     4.49068E+06
           18391    -16.7131E+06     8.68182E+06              0.     4.67560E+06
           18392    -17.3355E+06     8.89221E+06              0.     4.86482E+06
           18393    -17.9779E+06     9.10245E+06              0.     5.05835E+06
           18394    -18.6407E+06     9.31204E+06              0.     5.25617E+06
           18395    -19.3244E+06     9.52042E+06              0.     5.45825E+06
           18396    -20.0295E+06     9.72698E+06              0.     5.66456E+06
           18397    -20.7566E+06     9.93103E+06              0.     5.87506E+06
           18398    -21.5060E+06     10.1318E+06              0.     6.08967E+06
           18399    -22.2783E+06     10.3286E+06              0.     6.30832E+06
           18400    -23.0739E+06     10.5204E+06              0.     6.53093E+06
           18401    -23.8933E+06     10.7064E+06              0.     6.75737E+06
           18402    -24.7369E+06     10.8853E+06              0.     6.98753E+06
           18403    -25.6052E+06     11.0562E+06              0.     7.22125E+06
           18404    -26.4985E+06     11.2177E+06              0.     7.45835E+06
           18405    -27.4173E+06     11.3685E+06              0.     7.69865E+06
           18406    -28.3619E+06     11.5071E+06              0.     7.94191E+06
           18407    -29.3327E+06     11.6318E+06              0.     8.18787E+06
           18408    -30.3299E+06     11.7410E+06              0.     8.43624E+06
           18409    -31.3539E+06     11.8328E+06              0.      8.6867E+06
           18410    -32.4049E+06     11.9050E+06              0.     8.93888E+06
           18411    -33.4830E+06     11.9555E+06              0.     9.19235E+06
           18412    -34.5885E+06     11.9819E+06              0.     9.44667E+06
           18413    -35.7213E+06     11.9815E+06              0.     9.70131E+06
           18414    -36.8816E+06     11.9516E+06              0.     9.95571E+06
           18415    -38.0692E+06     11.8891E+06              0.     10.2092E+06
           18416    -39.2841E+06     11.7906E+06              0.     10.4611E+06
           18417    -40.5259E+06     11.6527E+06              0.     10.7107E+06
           18418    -41.7945E+06     11.4715E+06              0.     10.9569E+06
           18419    -43.0894E+06     11.2428E+06              0.     11.1990E+06
           18420    -44.4100E+06     10.9623E+06              0.     11.4358E+06
           18421    -45.7558E+06     10.6250E+06              0.     11.6660E+06
           18422    -47.1258E+06     10.2257E+06              0.     11.8886E+06
           18423    -48.5192E+06     9.75891E+06              0.     12.1018E+06
           18424    -49.9348E+06     9.21852E+06              0.     12.3043E+06
           18425    -51.3714E+06     8.59804E+06              0.     12.4942E+06
           18426    -52.8273E+06     7.89045E+06              0.     12.6695E+06
           18427    -54.3009E+06     7.08821E+06              0.     12.8281E+06
           18428    -55.7902E+06     6.18319E+06              0.     12.9677E+06
           18429    -57.2929E+06     5.16665E+06              0.     13.0855E+06
           18430    -58.8064E+06     4.02917E+06              0.     13.1788E+06
           18431    -60.3279E+06     2.76064E+06              0.     13.2442E+06
           18432    -61.8540E+06     1.35016E+06              0.     13.2782E+06
           18433    -63.3812E+06    -214.000E+03              0.     13.2770E+06
           18434    -64.9053E+06    -1.94441E+06              0.     13.2362E+06
           18435    -66.4218E+06    -3.85464E+06              0.     13.1510E+06
           18436    -67.9254E+06    -5.95924E+06              0.     13.0160E+06
           18437    -69.4104E+06    -8.27389E+06              0.     12.8255E+06
           18438    -70.8705E+06    -10.8154E+06              0.     12.5729E+06
           18439    -72.2984E+06    -13.6019E+06              0.     12.2511E+06
           18440    -73.6861E+06    -16.6528E+06              0.     11.8519E+06
           18441    -75.0248E+06    -19.9891E+06              0.     11.3666E+06
           18442    -76.3045E+06    -23.6331E+06              0.     10.7853E+06
           18443    -77.5140E+06    -27.6091E+06              0.     10.0971E+06
           18444    -78.6406E+06    -31.9429E+06              0.     9.28969E+06
           18445    -80.5297E+06    -37.1147E+06              0.     9.01134E+06
           18446     323.293E+03     146.666E+03              0.    -925.935E+03
           18447     322.498E+03     138.978E+03              0.    -924.338E+03
           18448     325.034E+03     132.763E+03              0.    -915.750E+03
           18449     327.559E+03     126.551E+03              0.    -907.496E+03
           18450     330.064E+03     120.357E+03              0.    -899.575E+03
           18451     332.543E+03     114.190E+03              0.    -891.981E+03
           18452     334.989E+03     108.061E+03              0.    -884.713E+03
           18453     337.394E+03     101.981E+03              0.    -877.765E+03
           18454     339.753E+03     95.9604E+03              0.    -871.134E+03
           18455     342.058E+03     90.0077E+03              0.    -864.816E+03
           18456     344.303E+03     84.1325E+03              0.    -858.806E+03
           18457     346.483E+03     78.3432E+03              0.    -853.098E+03
           18458     348.591E+03     72.6483E+03              0.    -847.689E+03
           18459     350.622E+03     67.0557E+03              0.    -842.574E+03
           18460     352.570E+03     61.5731E+03              0.    -837.746E+03
           18461     354.429E+03     56.2080E+03              0.    -833.201E+03
           18462     356.193E+03     50.9676E+03              0.    -828.933E+03
           18463     357.857E+03     45.8590E+03              0.    -824.936E+03
           18464     359.416E+03     40.8888E+03              0.    -821.204E+03
           18465     360.864E+03     36.0638E+03              0.    -817.731E+03
           18466     362.194E+03     31.3904E+03              0.    -814.512E+03
           18467     363.403E+03     26.8750E+03              0.    -811.539E+03
           18468     364.483E+03     22.5238E+03              0.    -808.807E+03
           18469     365.429E+03     18.3430E+03              0.    -806.308E+03
           18470     366.236E+03     14.3386E+03              0.    -804.037E+03
           18471     366.896E+03     10.5168E+03              0.    -801.985E+03
           18472     367.405E+03     6.88344E+03              0.    -800.147E+03
           18473     367.756E+03     3.44457E+03              0.    -798.515E+03
           18474     367.942E+03         206.076              0.    -797.082E+03
           18475     367.957E+03    -2.82598E+03              0.    -795.840E+03
           18476     367.795E+03    -5.64561E+03              0.    -794.783E+03
           18477     367.448E+03    -8.24677E+03              0.    -793.901E+03
           18478     366.909E+03    -10.6233E+03              0.    -793.189E+03
           18479     366.171E+03    -12.7691E+03              0.    -792.637E+03
           18480     365.225E+03    -14.6778E+03              0.    -792.237E+03
           18481     364.066E+03    -16.3431E+03              0.    -791.983E+03
           18482     362.683E+03    -17.7585E+03              0.    -791.864E+03
           18483     361.068E+03    -18.9173E+03              0.    -791.873E+03
           18484     359.214E+03    -19.8128E+03              0.    -792.001E+03
           18485     357.111E+03    -20.4381E+03              0.    -792.239E+03
           18486     354.748E+03    -20.7861E+03              0.    -792.578E+03
           18487     352.117E+03    -20.8495E+03              0.    -793.010E+03
           18488     349.207E+03    -20.6209E+03              0.    -793.524E+03
           18489     346.008E+03    -20.0926E+03              0.    -794.112E+03
           18490     342.509E+03    -19.2567E+03              0.    -794.763E+03
           18491     338.698E+03    -18.1051E+03              0.    -795.468E+03
           18492     334.563E+03    -16.6295E+03              0.    -796.217E+03
           18493     330.092E+03    -14.8212E+03              0.    -796.999E+03
           18494     325.272E+03    -12.6713E+03              0.    -797.804E+03
           18495     320.091E+03    -10.1707E+03              0.    -798.621E+03
           18496     314.533E+03    -7.30986E+03              0.    -799.440E+03
           18497     308.584E+03    -4.07903E+03              0.    -800.249E+03
           18498     302.230E+03        -468.152              0.    -801.036E+03
           18499     295.455E+03     3.53324E+03              0.    -801.790E+03
           18500     288.243E+03     7.93592E+03              0.    -802.499E+03
           18501     280.576E+03     12.7510E+03              0.    -803.151E+03
           18502     272.438E+03     17.9901E+03              0.    -803.734E+03
           18503     263.810E+03     23.6649E+03              0.    -804.234E+03
           18504     254.672E+03     29.7879E+03              0.    -804.638E+03
           18505     245.007E+03     36.3717E+03              0.    -804.933E+03
           18506     234.792E+03     43.4295E+03              0.    -805.106E+03
           18507     224.007E+03     50.9749E+03              0.    -805.141E+03
           18508     212.630E+03     59.0217E+03              0.    -805.026E+03
           18509     200.637E+03     67.5847E+03              0.    -804.744E+03
           18510     188.006E+03     76.6787E+03              0.    -804.281E+03
           18511     174.711E+03     86.3192E+03              0.    -803.622E+03
           18512     160.726E+03     96.5222E+03              0.    -802.749E+03
           18513     146.025E+03     107.304E+03              0.    -801.648E+03
           18514     130.580E+03     118.682E+03              0.    -800.300E+03
           18515     114.362E+03     130.674E+03              0.    -798.690E+03
           18516     97.3421E+03     143.298E+03              0.    -796.799E+03
           18517     79.4885E+03     156.572E+03              0.    -794.608E+03
           18518     60.7693E+03     170.516E+03              0.    -792.101E+03
           18519     41.1510E+03     185.150E+03              0.    -789.256E+03
           18520     20.5991E+03     200.494E+03              0.    -786.055E+03
           18521        -922.473     216.571E+03              0.    -782.478E+03
           18522    -23.4510E+03     233.401E+03              0.    -778.503E+03
           18523    -47.0250E+03     251.007E+03              0.    -774.110E+03
           18524    -71.6848E+03     269.413E+03              0.    -769.277E+03
           18525    -97.4719E+03     288.642E+03              0.    -763.981E+03
           18526    -124.429E+03     308.719E+03              0.    -758.199E+03
           18527    -152.602E+03     329.671E+03              0.    -751.908E+03
           18528    -182.037E+03     351.522E+03              0.    -745.083E+03
           18529    -212.781E+03     374.299E+03              0.    -737.699E+03
           18530    -244.884E+03     398.031E+03              0.    -729.731E+03
           18531    -278.399E+03     422.747E+03              0.    -721.153E+03
           18532    -313.379E+03     448.474E+03              0.    -711.936E+03
           18533    -349.879E+03     475.245E+03              0.    -702.054E+03
           18534    -387.957E+03     503.088E+03              0.    -691.478E+03
           18535    -427.673E+03     532.038E+03              0.    -680.179E+03
           18536    -469.087E+03     562.125E+03              0.    -668.126E+03
           18537    -512.265E+03     593.384E+03              0.    -655.289E+03
           18538    -557.273E+03     625.849E+03              0.    -641.635E+03
           18539    -604.178E+03     659.556E+03              0.    -627.133E+03
           18540    -653.053E+03     694.541E+03              0.    -611.750E+03
           18541    -703.970E+03     730.841E+03              0.    -595.449E+03
           18542    -757.007E+03     768.494E+03              0.    -578.198E+03
           18543    -812.241E+03     807.540E+03              0.    -559.958E+03
           18544    -869.755E+03     848.018E+03              0.    -540.694E+03
           18545    -929.634E+03     889.968E+03              0.    -520.368E+03
           18546    -991.964E+03     933.434E+03              0.    -498.940E+03
           18547    -1.05684E+06     978.458E+03              0.    -476.370E+03
           18548    -1.12435E+06     1.02508E+06              0.    -452.618E+03
           18549    -1.19459E+06     1.07336E+06              0.    -427.641E+03
           18550    -1.26766E+06     1.12332E+06              0.    -401.397E+03
           18551    -1.34368E+06     1.17502E+06              0.    -373.842E+03
           18552    -1.42273E+06     1.22851E+06              0.    -344.930E+03
           18553    -1.50495E+06     1.28383E+06              0.    -314.615E+03
           18554    -1.59043E+06     1.34104E+06              0.    -282.850E+03
           18555    -1.67931E+06     1.40018E+06              0.    -249.587E+03
           18556    -1.77169E+06     1.46130E+06              0.    -214.775E+03
           18557    -1.86772E+06     1.52446E+06              0.    -178.366E+03
           18558    -1.96752E+06     1.58971E+06              0.    -140.306E+03
           18559    -2.07122E+06     1.65710E+06              0.    -100.542E+03
           18560    -2.17897E+06     1.72669E+06              0.    -59.0220E+03
           18561    -2.29091E+06     1.79852E+06              0.    -15.6891E+03
           18562    -2.40719E+06     1.87267E+06              0.     29.5127E+03
           18563    -2.52797E+06     1.94917E+06              0.     76.6408E+03
           18564    -2.65341E+06     2.02809E+06              0.     125.754E+03
           18565    -2.78366E+06     2.10948E+06              0.     176.912E+03
           18566    -2.91890E+06     2.19340E+06              0.     230.176E+03
           18567    -3.05932E+06     2.27991E+06              0.     285.607E+03
           18568    -3.20507E+06     2.36906E+06              0.     343.270E+03
           18569    -3.35637E+06     2.46091E+06              0.     403.229E+03
           18570    -3.51339E+06     2.55552E+06              0.     465.548E+03
           18571    -3.67634E+06     2.65294E+06              0.     530.295E+03
           18572    -3.84542E+06     2.75323E+06              0.     597.538E+03
           18573    -4.02084E+06     2.85644E+06              0.     667.344E+03
           18574    -4.20283E+06     2.96263E+06              0.     739.784E+03
           18575    -4.39161E+06     3.07185E+06              0.     814.928E+03
           18576    -4.58740E+06     3.18416E+06              0.     892.848E+03
           18577    -4.79046E+06     3.29959E+06              0.     973.616E+03
           18578    -5.00102E+06     3.41820E+06              0.     1.05731E+06
           18579    -5.21934E+06     3.54004E+06              0.     1.14399E+06
           18580    -5.44567E+06     3.66515E+06              0.     1.23375E+06
           18581    -5.68030E+06     3.79357E+06              0.     1.32665E+06
           18582    -5.92348E+06     3.92533E+06              0.     1.42277E+06
           18583    -6.17552E+06     4.06048E+06              0.     1.52219E+06
           18584    -6.43669E+06     4.19904E+06              0.     1.62499E+06
           18585    -6.70730E+06     4.34103E+06              0.     1.73123E+06
           18586    -6.98766E+06     4.48648E+06              0.     1.84101E+06
           18587    -7.27808E+06      4.6354E+06              0.     1.95439E+06
           18588    -7.57889E+06     4.78780E+06              0.     2.07146E+06
           18589    -7.89042E+06     4.94367E+06              0.     2.19229E+06
           18590    -8.21300E+06     5.10302E+06              0.     2.31695E+06
           18591    -8.54700E+06     5.26582E+06              0.     2.44553E+06
           18592    -8.89277E+06     5.43205E+06              0.     2.57809E+06
           18593    -9.25067E+06     5.60168E+06              0.     2.71472E+06
           18594    -9.62109E+06     5.77465E+06              0.     2.85549E+06
           18595    -10.0044E+06     5.95092E+06              0.     3.00046E+06
           18596    -10.4010E+06     6.13040E+06              0.     3.14970E+06
           18597    -10.8113E+06     6.31301E+06              0.     3.30329E+06
           18598    -11.2356E+06     6.49865E+06              0.     3.46130E+06
           18599    -11.6745E+06     6.68719E+06              0.     3.62377E+06
           18600    -12.1283E+06     6.87850E+06              0.     3.79077E+06
           18601    -12.5975E+06     7.07241E+06              0.     3.96237E+06
           18602    -13.0825E+06     7.26874E+06              0.     4.13860E+06
           18603    -13.5837E+06     7.46727E+06              0.     4.31952E+06
           18604    -14.1016E+06     7.66778E+06              0.     4.50518E+06
           18605    -14.6367E+06     7.87000E+06              0.     4.69560E+06
           18606    -15.1894E+06     8.07364E+06              0.     4.89082E+06
           18607    -15.7602E+06     8.27835E+06              0.     5.09086E+06
           18608    -16.3495E+06     8.48378E+06              0.     5.29575E+06
           18609    -16.9578E+06     8.68952E+06              0.     5.50548E+06
           18610    -17.5857E+06     8.89511E+06              0.     5.72007E+06
           18611    -18.2335E+06     9.10006E+06              0.     5.93949E+06
           18612    -18.9017E+06     9.30382E+06              0.     6.16372E+06
           18613    -19.5909E+06     9.50578E+06              0.     6.39274E+06
           18614    -20.3014E+06     9.70529E+06              0.     6.62649E+06
           18615    -21.0338E+06     9.90161E+06              0.     6.86491E+06
           18616    -21.7886E+06     10.0940E+06              0.     7.10791E+06
           18617    -22.5661E+06     10.2815E+06              0.     7.35541E+06
           18618    -23.3668E+06     10.4632E+06              0.     7.60729E+06
           18619    -24.1912E+06     10.6380E+06              0.     7.86339E+06
           18620    -25.0396E+06     10.8049E+06              0.     8.12357E+06
           18621    -25.9125E+06     10.9626E+06              0.     8.38763E+06
           18622    -26.8102E+06     11.1098E+06              0.     8.65535E+06
           18623    -27.7331E+06     11.2450E+06              0.     8.92649E+06
           18624    -28.6815E+06     11.3667E+06              0.     9.20075E+06
           18625    -29.6558E+06     11.4730E+06              0.     9.47781E+06
           18626    -30.6561E+06     11.5623E+06              0.     9.75732E+06
           18627    -31.6827E+06     11.6324E+06              0.     10.0389E+06
           18628    -32.7358E+06     11.6811E+06              0.     10.3220E+06
           18629    -33.8156E+06     11.7062E+06              0.     10.6061E+06
           18630    -34.9220E+06     11.7051E+06              0.     10.8908E+06
           18631    -36.0551E+06     11.6749E+06              0.     11.1752E+06
           18632    -37.2148E+06     11.6128E+06              0.     11.4588E+06
           18633    -38.4011E+06     11.5155E+06              0.     11.7407E+06
           18634    -39.6137E+06     11.3795E+06              0.     12.0201E+06
           18635    -40.8523E+06     11.2010E+06              0.     12.2959E+06
           18636    -42.1165E+06     10.9761E+06              0.     12.5671E+06
           18637    -43.4057E+06     10.7003E+06              0.     12.8325E+06
           18638    -44.7194E+06     10.3689E+06              0.     13.0907E+06
           18639    -46.0568E+06     9.97693E+06              0.     13.3403E+06
           18640    -47.4169E+06     9.51880E+06              0.     13.5797E+06
           18641    -48.7987E+06     8.98866E+06              0.     13.8070E+06
           18642    -50.2009E+06     8.38016E+06              0.     14.0203E+06
           18643    -51.6220E+06     7.68650E+06              0.     14.2173E+06
           18644    -53.0604E+06     6.90031E+06              0.     14.3957E+06
           18645    -54.5141E+06     6.01369E+06              0.     14.5528E+06
           18646    -55.9811E+06     5.01816E+06              0.     14.6856E+06
           18647    -57.4587E+06     3.90457E+06              0.     14.7909E+06
           18648    -58.9444E+06     2.66310E+06              0.     14.8651E+06
           18649    -60.4349E+06     1.28319E+06              0.     14.9042E+06
           18650    -61.9268E+06    -246.511E+03              0.     14.9038E+06
           18651    -63.4162E+06    -1.93816E+06              0.     14.8591E+06
           18652    -64.8988E+06    -3.80489E+06              0.     14.7647E+06
           18653    -66.3696E+06    -5.86071E+06              0.     14.6146E+06
           18654    -67.8232E+06    -8.12076E+06              0.     14.4024E+06
           18655    -69.2537E+06    -10.6012E+06              0.     14.1207E+06
           18656    -70.6542E+06    -13.3194E+06              0.     13.7615E+06
           18657    -72.0173E+06    -16.2942E+06              0.     13.3159E+06
           18658    -73.3345E+06    -19.5453E+06              0.     12.7740E+06
           18659    -74.5967E+06    -23.0945E+06              0.     12.1249E+06
           18660    -75.7933E+06    -26.9648E+06              0.     11.3563E+06
           18661    -76.9132E+06    -31.1808E+06              0.     10.4547E+06
           18662    -78.7588E+06    -36.2113E+06              0.     10.1465E+06
           18663     302.897E+03     137.496E+03              0.    -928.380E+03
           18664     302.146E+03     130.225E+03              0.    -926.780E+03
           18665     304.546E+03     124.342E+03              0.    -918.184E+03
           18666     306.935E+03     118.461E+03              0.    -909.917E+03
           18667     309.307E+03     112.592E+03              0.    -901.973E+03
           18668     311.653E+03     106.749E+03              0.    -894.351E+03
           18669     313.967E+03     100.939E+03              0.    -887.046E+03
           18670     316.243E+03     95.1755E+03              0.    -880.056E+03
           18671     318.473E+03     89.4662E+03              0.    -873.376E+03
           18672     320.652E+03     83.8208E+03              0.    -867.003E+03
           18673     322.774E+03     78.2483E+03              0.    -860.931E+03
           18674     324.832E+03     72.7569E+03              0.    -855.157E+03
           18675     326.821E+03     67.3549E+03              0.    -849.675E+03
           18676     328.735E+03     62.0500E+03              0.    -844.480E+03
           18677     330.568E+03     56.8499E+03              0.    -839.568E+03
           18678     332.315E+03     51.7618E+03              0.    -834.933E+03
           18679     333.971E+03     46.7927E+03              0.    -830.569E+03
           18680     335.530E+03     41.9495E+03              0.    -826.471E+03
           18681     336.986E+03     37.2388E+03              0.    -822.633E+03
           18682     338.334E+03     32.6672E+03              0.    -819.049E+03
           18683     339.569E+03     28.2409E+03              0.    -815.712E+03
           18684     340.685E+03     23.9662E+03              0.    -812.616E+03
           18685     341.677E+03     19.8492E+03              0.    -809.755E+03
           18686     342.539E+03     15.8958E+03              0.    -807.122E+03
           18687     343.264E+03     12.1120E+03              0.    -804.710E+03
           18688     343.849E+03     8.50380E+03              0.    -802.512E+03
           18689     344.285E+03     5.07692E+03              0.    -800.522E+03
           18690     344.568E+03     1.83729E+03              0.    -798.731E+03
           18691     344.691E+03    -1.20933E+03              0.    -797.133E+03
           18692     344.648E+03    -4.05705E+03              0.    -795.720E+03
           18693     344.432E+03    -6.70002E+03              0.    -794.484E+03
           18694     344.036E+03    -9.13232E+03              0.    -793.417E+03
           18695     343.454E+03    -11.3480E+03              0.    -792.512E+03
           18696     342.678E+03    -13.3409E+03              0.    -791.760E+03
           18697     341.700E+03    -15.1051E+03              0.    -791.154E+03
           18698     340.514E+03    -16.6342E+03              0.    -790.683E+03
           18699     339.111E+03    -17.9220E+03              0.    -790.341E+03
           18700     337.483E+03    -18.9619E+03              0.    -790.118E+03
           18701     335.621E+03    -19.7475E+03              0.    -790.005E+03
           18702     333.517E+03    -20.2718E+03              0.    -789.993E+03
           18703     331.161E+03    -20.5281E+03              0.    -790.073E+03
           18704     328.543E+03    -20.5093E+03              0.    -790.236E+03
           18705     325.655E+03    -20.2080E+03              0.    -790.470E+03
           18706     322.485E+03    -19.6168E+03              0.    -790.768E+03
           18707     319.022E+03    -18.7280E+03              0.    -791.118E+03
           18708     315.256E+03    -17.5337E+03              0.    -791.510E+03
           18709     311.176E+03    -16.0258E+03              0.    -791.934E+03
           18710     306.768E+03    -14.1958E+03              0.    -792.379E+03
           18711     302.021E+03    -12.0351E+03              0.    -792.834E+03
           18712     296.921E+03    -9.53473E+03              0.    -793.288E+03
           18713     291.455E+03    -6.68552E+03              0.    -793.729E+03
           18714     285.610E+03    -3.47788E+03              0.    -794.146E+03
           18715     279.369E+03         97.9475              0.    -794.526E+03
           18716     272.719E+03     4.05217E+03              0.    -794.858E+03
           18717     265.643E+03     8.39527E+03              0.    -795.128E+03
           18718     258.125E+03     13.1381E+03              0.    -795.324E+03
           18719     250.148E+03     18.2919E+03              0.    -795.433E+03
           18720     241.695E+03     23.8682E+03              0.    -795.441E+03
           18721     232.746E+03     29.8789E+03              0.    -795.335E+03
           18722     223.282E+03     36.3366E+03              0.    -795.100E+03
           18723     213.284E+03     43.2538E+03              0.    -794.721E+03
           18724     202.732E+03     50.6440E+03              0.    -794.184E+03
           18725     191.603E+03     58.5207E+03              0.    -793.474E+03
           18726     179.875E+03     66.8980E+03              0.    -792.575E+03
           18727     167.525E+03     75.7905E+03              0.    -791.470E+03
           18728     154.529E+03     85.2133E+03              0.    -790.144E+03
           18729     140.862E+03     95.1820E+03              0.    -788.579E+03
           18730     126.498E+03     105.713E+03              0.    -786.759E+03
           18731     111.410E+03     116.822E+03              0.    -784.664E+03
           18732     95.5705E+03     128.526E+03              0.    -782.278E+03
           18733     78.9497E+03     140.845E+03              0.    -779.580E+03
           18734     61.5176E+03     153.794E+03              0.    -776.553E+03
           18735     43.2431E+03     167.394E+03              0.    -773.176E+03
           18736     24.0935E+03     181.665E+03              0.    -769.428E+03
           18737     4.03530E+03     196.625E+03              0.    -765.290E+03
           18738    -16.9666E+03     212.295E+03              0.    -760.738E+03
           18739    -38.9486E+03     228.698E+03              0.    -755.752E+03
           18740    -61.9481E+03     245.855E+03              0.    -750.309E+03
           18741    -86.0043E+03     263.788E+03              0.    -744.385E+03
           18742    -111.158E+03     282.521E+03              0.    -737.956E+03
           18743    -137.450E+03     302.078E+03              0.    -730.998E+03
           18744    -164.926E+03     322.484E+03              0.    -723.486E+03
           18745    -193.629E+03     343.765E+03              0.    -715.393E+03
           18746    -223.607E+03     365.946E+03              0.    -706.693E+03
           18747    -254.909E+03     389.054E+03              0.    -697.359E+03
           18748    -287.584E+03     413.118E+03              0.    -687.361E+03
           18749    -321.685E+03     438.166E+03              0.    -676.672E+03
           18750    -357.266E+03     464.228E+03              0.    -665.261E+03
           18751    -394.382E+03     491.332E+03              0.    -653.099E+03
           18752    -433.093E+03     519.512E+03              0.    -640.153E+03
           18753    -473.457E+03     548.798E+03              0.    -626.391E+03
           18754    -515.538E+03     579.223E+03              0.     -611.78E+03
           18755    -559.400E+03     610.821E+03              0.    -596.286E+03
           18756     -605.11E+03     643.627E+03              0.    -579.875E+03
           18757    -652.737E+03     677.675E+03              0.    -562.509E+03
           18758    -702.352E+03     713.002E+03              0.    -544.153E+03
           18759    -754.030E+03     749.646E+03              0.    -524.768E+03
           18760    -807.849E+03     787.643E+03              0.    -504.316E+03
           18761    -863.886E+03     827.034E+03              0.    -482.757E+03
           18762    -922.226E+03     867.859E+03              0.    -460.049E+03
           18763    -982.953E+03     910.157E+03              0.    -436.151E+03
           18764    -1.04615E+06     953.971E+03              0.    -411.020E+03
           18765    -1.11192E+06     999.343E+03              0.    -384.611E+03
           18766    -1.18035E+06     1.04632E+06              0.    -356.879E+03
           18767    -1.25154E+06     1.09494E+06              0.    -327.779E+03
           18768    -1.32559E+06     1.14525E+06              0.    -297.261E+03
           18769    -1.40261E+06     1.19730E+06              0.    -265.278E+03
           18770    -1.48270E+06     1.25114E+06              0.    -231.779E+03
           18771    -1.56597E+06     1.30681E+06              0.    -196.713E+03
           18772    -1.65254E+06     1.36436E+06              0.    -160.028E+03
           18773    -1.74254E+06     1.42385E+06              0.    -121.670E+03
           18774    -1.83608E+06     1.48532E+06              0.    -81.5847E+03
           18775    -1.93329E+06     1.54882E+06              0.    -39.7148E+03
           18776    -2.03431E+06     1.61441E+06              0.     3.99656E+03
           18777    -2.13927E+06     1.68213E+06              0.     49.6083E+03
           18778    -2.24831E+06     1.75205E+06              0.     97.1804E+03
           18779    -2.36158E+06     1.82421E+06              0.     146.774E+03
           18780    -2.47923E+06     1.89868E+06              0.     198.453E+03
           18781    -2.60141E+06     1.97550E+06              0.     252.279E+03
           18782    -2.72830E+06     2.05472E+06              0.     308.320E+03
           18783    -2.86004E+06     2.13642E+06              0.     366.641E+03
           18784    -2.99681E+06     2.22063E+06              0.     427.310E+03
           18785    -3.13880E+06     2.30742E+06              0.     490.396E+03
           18786    -3.28618E+06     2.39684E+06              0.     555.971E+03
           18787    -3.43914E+06     2.48895E+06              0.     624.106E+03
           18788    -3.59787E+06     2.58380E+06              0.     694.873E+03
           18789    -3.76258E+06     2.68145E+06              0.     768.347E+03
           18790    -3.93348E+06     2.78195E+06              0.     844.604E+03
           18791    -4.11076E+06     2.88535E+06              0.     923.721E+03
           18792    -4.29467E+06     2.99170E+06              0.     1.00577E+06
           18793    -4.48541E+06     3.10107E+06              0.     1.09084E+06
           18794    -4.68323E+06     3.21348E+06              0.     1.17901E+06
           18795    -4.88836E+06     3.32900E+06              0.     1.27035E+06
           18796    -5.10105E+06     3.44767E+06              0.     1.36495E+06
           18797    -5.32156E+06     3.56952E+06              0.     1.46290E+06
           18798    -5.55014E+06     3.69461E+06              0.     1.56426E+06
           18799    -5.78707E+06     3.82296E+06              0.     1.66914E+06
           18800    -6.03262E+06     3.95461E+06              0.     1.77762E+06
           18801    -6.28708E+06     4.08959E+06              0.     1.88977E+06
           18802    -6.55074E+06     4.22792E+06              0.     2.00569E+06
           18803    -6.82390E+06     4.36963E+06              0.     2.12546E+06
           18804    -7.10687E+06     4.51473E+06              0.     2.24917E+06
           18805    -7.39996E+06     4.66321E+06              0.     2.37691E+06
           18806    -7.70350E+06     4.81510E+06              0.     2.50876E+06
           18807    -8.01782E+06     4.97037E+06              0.     2.64481E+06
           18808    -8.34326E+06     5.12902E+06              0.     2.78514E+06
           18809    -8.68017E+06     5.29101E+06              0.     2.92984E+06
           18810    -9.02891E+06     5.45633E+06              0.     3.07899E+06
           18811    -9.38984E+06     5.62491E+06              0.     3.23268E+06
           18812    -9.76335E+06     5.79670E+06              0.     3.39099E+06
           18813    -10.1498E+06     5.97164E+06              0.     3.55399E+06
           18814    -10.5496E+06     6.14963E+06              0.     3.72176E+06
           18815    -10.9631E+06     6.33058E+06              0.     3.89439E+06
           18816    -11.3908E+06     6.51436E+06              0.     4.07193E+06
           18817    -11.8330E+06     6.70084E+06              0.     4.25447E+06
           18818    -12.2902E+06     6.88986E+06              0.     4.44206E+06
           18819    -12.7627E+06     7.08125E+06              0.     4.63477E+06
           18820    -13.2511E+06     7.27479E+06              0.     4.83265E+06
           18821    -13.7558E+06     7.47025E+06              0.     5.03575E+06
           18822    -14.2772E+06     7.66738E+06              0.     5.24412E+06
           18823    -14.8157E+06     7.86588E+06              0.     5.45780E+06
           18824    -15.3719E+06     8.06544E+06              0.     5.67683E+06
           18825    -15.9461E+06     8.26569E+06              0.     5.90121E+06
           18826    -16.5388E+06     8.46623E+06              0.     6.13096E+06
           18827    -17.1505E+06     8.66662E+06              0.      6.3661E+06
           18828    -17.7817E+06     8.86638E+06              0.     6.60661E+06
           18829    -18.4328E+06     9.06496E+06              0.     6.85247E+06
           18830    -19.1042E+06     9.26178E+06              0.     7.10364E+06
           18831    -19.7965E+06     9.45618E+06              0.     7.36009E+06
           18832    -20.5100E+06     9.64745E+06              0.     7.62173E+06
           18833    -21.2452E+06     9.83482E+06              0.     7.88850E+06
           18834    -22.0026E+06     10.0174E+06              0.     8.16028E+06
           18835    -22.7826E+06     10.1944E+06              0.     8.43695E+06
           18836    -23.5856E+06     10.3646E+06              0.     8.71837E+06
           18837    -24.4119E+06     10.5270E+06              0.     9.00434E+06
           18838    -25.2621E+06     10.6804E+06              0.     9.29467E+06
           18839    -26.1363E+06     10.8235E+06              0.     9.58913E+06
           18840    -27.0351E+06     10.9549E+06              0.     9.88742E+06
           18841    -27.9587E+06     11.0730E+06              0.     10.1893E+06
           18842    -28.9073E+06     11.1761E+06              0.     10.4943E+06
           18843    -29.8812E+06     11.2625E+06              0.     10.8021E+06
           18844    -30.8808E+06     11.3301E+06              0.     11.1122E+06
           18845    -31.9060E+06     11.3768E+06              0.     11.4241E+06
           18846    -32.9570E+06     11.4004E+06              0.     11.7373E+06
           18847    -34.0340E+06     11.3983E+06              0.     12.0511E+06
           18848    -35.1368E+06     11.3678E+06              0.     12.3648E+06
           18849    -36.2655E+06     11.3061E+06              0.     12.6777E+06
           18850    -37.4200E+06     11.2099E+06              0.     12.9887E+06
           18851    -38.5999E+06     11.0759E+06              0.     13.2971E+06
           18852    -39.8051E+06     10.9005E+06              0.     13.6016E+06
           18853    -41.0350E+06     10.6796E+06              0.     13.9010E+06
           18854    -42.2893E+06     10.4090E+06              0.     14.1942E+06
           18855    -43.5673E+06     10.0842E+06              0.     14.4795E+06
           18856    -44.8683E+06     9.70018E+06              0.     14.7553E+06
           18857    -46.1913E+06     9.25164E+06              0.     15.0199E+06
           18858    -47.5353E+06     8.73286E+06              0.     15.2712E+06
           18859    -48.8992E+06     8.13769E+06              0.     15.5071E+06
           18860    -50.2815E+06     7.45949E+06              0.     15.7252E+06
           18861    -51.6806E+06     6.69115E+06              0.     15.9227E+06
           18862    -53.0947E+06     5.82502E+06              0.     16.0967E+06
           18863    -54.5218E+06     4.85288E+06              0.     16.2439E+06
           18864    -55.9595E+06     3.76588E+06              0.     16.3608E+06
           18865    -57.4052E+06     2.55455E+06              0.     16.4434E+06
           18866    -58.8559E+06     1.20869E+06              0.     16.4872E+06
           18867    -60.3085E+06    -282.623E+03              0.     16.4876E+06
           18868    -61.7592E+06    -1.93111E+06              0.     16.4390E+06
           18869    -63.2038E+06    -3.74937E+06              0.     16.3356E+06
           18870    -64.6380E+06    -5.75088E+06              0.     16.1709E+06
           18871    -66.0565E+06    -7.95013E+06              0.     15.9377E+06
           18872    -67.4538E+06    -10.3626E+06              0.     15.6280E+06
           18873    -68.8236E+06    -13.0049E+06              0.     15.2330E+06
           18874    -70.1589E+06    -15.8949E+06              0.     14.7428E+06
           18875    -71.4519E+06    -19.0515E+06              0.     14.1467E+06
           18876    -72.6941E+06    -22.4953E+06              0.     13.4327E+06
           18877    -73.8758E+06    -26.2480E+06              0.     12.5874E+06
           18878    -74.9862E+06    -30.3329E+06              0.     11.5959E+06
           18879    -76.7822E+06    -35.2062E+06              0.     11.2606E+06
           18880     282.519E+03     128.334E+03              0.    -930.689E+03
           18881     281.811E+03     121.469E+03              0.    -929.086E+03
           18882     284.078E+03     115.911E+03              0.    -920.485E+03
           18883     286.335E+03     110.352E+03              0.    -912.204E+03
           18884     288.576E+03     104.803E+03              0.    -904.239E+03
           18885     290.793E+03     99.2755E+03              0.    -896.589E+03
           18886     292.979E+03     93.7794E+03              0.    -889.250E+03
           18887     295.128E+03     88.3247E+03              0.    -882.220E+03
           18888     297.234E+03     82.9207E+03              0.    -875.493E+03
           18889     299.290E+03     77.5765E+03              0.    -869.066E+03
           18890     301.291E+03     72.3007E+03              0.    -862.935E+03
           18891     303.231E+03     67.1014E+03              0.    -857.096E+03
           18892     305.103E+03     61.9866E+03              0.    -851.543E+03
           18893     306.904E+03     56.9639E+03              0.    -846.273E+03
           18894     308.627E+03     52.0407E+03              0.    -841.279E+03
           18895     310.266E+03     47.2241E+03              0.    -836.557E+03
           18896     311.818E+03     42.5209E+03              0.    -832.101E+03
           18897     313.275E+03     37.9378E+03              0.    -827.905E+03
           18898     314.633E+03     33.4812E+03              0.    -823.964E+03
           18899     315.887E+03     29.1575E+03              0.    -820.271E+03
           18900     317.031E+03     24.9729E+03              0.    -816.820E+03
           18901     318.059E+03     20.9333E+03              0.    -813.605E+03
           18902     318.968E+03     17.0448E+03              0.    -810.619E+03
           18903     319.750E+03     13.3131E+03              0.    -807.855E+03
           18904     320.401E+03     9.74414E+03              0.    -805.307E+03
           18905     320.914E+03     6.34364E+03              0.    -802.967E+03
           18906     321.285E+03     3.11722E+03              0.    -800.829E+03
           18907     321.506E+03         70.6412              0.    -798.885E+03
           18908     321.573E+03    -2.79048E+03              0.    -797.126E+03
           18909     321.479E+03    -5.46040E+03              0.    -795.547E+03
           18910     321.216E+03    -7.93343E+03              0.    -794.138E+03
           18911     320.780E+03    -10.2038E+03              0.    -792.891E+03
           18912     320.163E+03    -12.2657E+03              0.    -791.799E+03
           18913     319.358E+03    -14.1133E+03              0.    -790.854E+03
           18914     318.358E+03    -15.7406E+03              0.    -790.045E+03
           18915     317.155E+03    -17.1415E+03              0.    -789.366E+03
           18916     315.742E+03    -18.3099E+03              0.    -788.807E+03
           18917      314.11E+03    -19.2394E+03              0.    -788.358E+03
           18918     312.252E+03    -19.9238E+03              0.    -788.011E+03
           18919     310.158E+03    -20.3564E+03              0.    -787.756E+03
           18920     307.820E+03    -20.5305E+03              0.    -787.584E+03
           18921     305.229E+03    -20.4393E+03              0.    -787.485E+03
           18922     302.375E+03    -20.0755E+03              0.    -787.448E+03
           18923     299.247E+03    -19.4321E+03              0.    -787.463E+03
           18924     295.836E+03    -18.5015E+03              0.    -787.521E+03
           18925     292.130E+03    -17.2760E+03              0.    -787.609E+03
           18926     288.119E+03    -15.7477E+03              0.    -787.717E+03
           18927     283.791E+03    -13.9085E+03              0.    -787.835E+03
           18928     279.133E+03    -11.7499E+03              0.     -787.95E+03
           18929     274.133E+03    -9.26332E+03              0.    -788.051E+03
           18930     268.779E+03    -6.43971E+03              0.    -788.125E+03
           18931     263.055E+03    -3.26982E+03              0.    -788.161E+03
           18932     256.948E+03         255.843              0.    -788.146E+03
           18933     250.444E+03     4.14717E+03              0.    -788.067E+03
           18934     243.527E+03     8.41435E+03              0.    -787.911E+03
           18935     236.180E+03     13.0679E+03              0.    -787.664E+03
           18936     228.388E+03     18.1188E+03              0.    -787.313E+03
           18937     220.134E+03     23.5781E+03              0.    -786.843E+03
           18938     211.399E+03     29.4576E+03              0.    -786.240E+03
           18939     202.165E+03     35.7692E+03              0.    -785.490E+03
           18940     192.412E+03     42.5254E+03              0.    -784.575E+03
           18941     182.121E+03     49.7390E+03              0.    -783.482E+03
           18942     171.271E+03     57.4232E+03              0.    -782.194E+03
           18943     159.839E+03     65.5918E+03              0.    -780.695E+03
           18944     147.804E+03     74.2588E+03              0.    -778.967E+03
           18945     135.142E+03     83.4390E+03              0.    -776.993E+03
           18946     121.829E+03     93.1475E+03              0.    -774.755E+03
           18947     107.840E+03     103.400E+03              0.    -772.236E+03
           18948     93.1477E+03     114.212E+03              0.    -769.415E+03
           18949     77.7261E+03     125.601E+03              0.    -766.275E+03
           18950     61.5465E+03     137.583E+03              0.    -762.795E+03
           18951     44.5798E+03     150.177E+03              0.    -758.954E+03
           18952     26.7955E+03     163.401E+03              0.    -754.732E+03
           18953     8.16211E+03     177.274E+03              0.    -750.107E+03
           18954    -11.3531E+03     191.814E+03              0.    -745.057E+03
           18955     -31.784E+03     207.043E+03              0.    -739.559E+03
           18956    -53.1660E+03     222.981E+03              0.    -733.590E+03
           18957    -75.5354E+03     239.649E+03              0.    -727.126E+03
           18958    -98.9303E+03     257.069E+03              0.    -720.141E+03
           18959    -123.390E+03     275.264E+03              0.    -712.612E+03
           18960    -148.955E+03     294.258E+03              0.    -704.511E+03
           18961    -175.668E+03     314.074E+03              0.    -695.812E+03
           18962    -203.573E+03     334.737E+03              0.    -686.487E+03
           18963    -232.715E+03     356.273E+03              0.    -676.508E+03
           18964    -263.141E+03     378.707E+03              0.    -665.845E+03
           18965    -294.900E+03     402.068E+03              0.    -654.469E+03
           18966    -328.043E+03     426.382E+03              0.    -642.348E+03
           18967    -362.622E+03     451.678E+03              0.    -629.452E+03
           18968    -398.692E+03     477.986E+03              0.    -615.747E+03
           18969    -436.308E+03     505.336E+03              0.    -601.201E+03
           18970    -475.530E+03     533.758E+03              0.    -585.778E+03
           18971    -516.418E+03     563.284E+03              0.    -569.443E+03
           18972    -559.035E+03     593.948E+03              0.    -552.160E+03
           18973    -603.445E+03     625.783E+03              0.    -533.892E+03
           18974    -649.715E+03     658.823E+03              0.    -514.600E+03
           18975    -697.916E+03     693.103E+03              0.    -494.245E+03
           18976    -748.120E+03     728.659E+03              0.    -472.787E+03
           18977    -800.400E+03     765.529E+03              0.    -450.184E+03
           18978    -854.835E+03     803.750E+03              0.    -426.393E+03
           18979    -911.505E+03     843.362E+03              0.     -401.37E+03
           18980    -970.492E+03     884.404E+03              0.    -375.071E+03
           18981    -1.03188E+06     926.916E+03              0.    -347.449E+03
           18982    -1.09576E+06     970.940E+03              0.    -318.458E+03
           18983    -1.16223E+06     1.01652E+06              0.    -288.047E+03
           18984    -1.23137E+06     1.06369E+06              0.    -256.169E+03
           18985    -1.30329E+06     1.11251E+06              0.    -222.771E+03
           18986    -1.37809E+06     1.16302E+06              0.    -187.801E+03
           18987    -1.45588E+06     1.21526E+06              0.    -151.206E+03
           18988    -1.53675E+06     1.26928E+06              0.    -112.930E+03
           18989    -1.62083E+06     1.32512E+06              0.    -72.9177E+03
           18990    -1.70824E+06     1.38284E+06              0.    -31.1104E+03
           18991    -1.79908E+06     1.44249E+06              0.     12.5507E+03
           18992    -1.89349E+06     1.50411E+06              0.     58.1261E+03
           18993    -1.99160E+06     1.56775E+06              0.     105.678E+03
           18994    -2.09353E+06     1.63348E+06              0.     155.269E+03
           18995    -2.19943E+06     1.70133E+06              0.     206.965E+03
           18996    -2.30944E+06     1.77136E+06              0.     260.831E+03
           18997    -2.42369E+06     1.84363E+06              0.     316.936E+03
           18998    -2.54236E+06     1.91818E+06              0.     375.349E+03
           18999    -2.66558E+06     1.99508E+06              0.     436.139E+03
           19000    -2.79353E+06     2.07437E+06              0.     499.380E+03
           19001    -2.92636E+06     2.15610E+06              0.     565.145E+03
           19002    -3.06425E+06     2.24035E+06              0.     633.509E+03
           19003    -3.20739E+06     2.32714E+06              0.     704.549E+03
           19004    -3.35594E+06     2.41655E+06              0.     778.342E+03
           19005    -3.51010E+06     2.50863E+06              0.     854.968E+03
           19006    -3.67007E+06     2.60342E+06              0.     934.507E+03
           19007    -3.83604E+06     2.70099E+06              0.     1.01704E+06
           19008    -4.00823E+06     2.80137E+06              0.     1.10266E+06
           19009    -4.18684E+06     2.90463E+06              0.     1.19143E+06
           19010    -4.37210E+06     3.01082E+06              0.     1.28346E+06
           19011    -4.56423E+06     3.11997E+06              0.     1.37883E+06
           19012    -4.76346E+06     3.23214E+06              0.     1.47762E+06
           19013    -4.97004E+06     3.34736E+06              0.     1.57993E+06
           19014    -5.18421E+06     3.46569E+06              0.     1.68584E+06
           19015    -5.40623E+06     3.58717E+06              0.     1.79545E+06
           19016    -5.63636E+06     3.71182E+06              0.     1.90885E+06
           19017    -5.87486E+06     3.83967E+06              0.     2.02614E+06
           19018    -6.12202E+06     3.97077E+06              0.     2.14740E+06
           19019    -6.37812E+06     4.10513E+06              0.     2.27274E+06
           19020    -6.64344E+06     4.24277E+06              0.     2.40224E+06
           19021    -6.91829E+06     4.38370E+06              0.     2.53601E+06
           19022    -7.20298E+06     4.52794E+06              0.     2.67414E+06
           19023    -7.49782E+06     4.67548E+06              0.     2.81672E+06
           19024    -7.80313E+06     4.82632E+06              0.     2.96385E+06
           19025    -8.11925E+06     4.98044E+06              0.     3.11563E+06
           19026    -8.44651E+06     5.13782E+06              0.     3.27214E+06
           19027    -8.78526E+06     5.29843E+06              0.     3.43349E+06
           19028    -9.13586E+06     5.46222E+06              0.     3.59976E+06
           19029    -9.49866E+06     5.62913E+06              0.     3.77105E+06
           19030    -9.87404E+06     5.79910E+06              0.     3.94744E+06
           19031    -10.2624E+06     5.97204E+06              0.     4.12903E+06
           19032    -10.6640E+06     6.14786E+06              0.     4.31589E+06
           19033    -11.0794E+06     6.32643E+06              0.     4.50811E+06
           19034    -11.5090E+06     6.50763E+06              0.     4.70576E+06
           19035    -11.9531E+06     6.69129E+06              0.     4.90892E+06
           19036    -12.4121E+06     6.87725E+06              0.     5.11767E+06
           19037    -12.8865E+06     7.06531E+06              0.     5.33206E+06
           19038    -13.3766E+06     7.25523E+06              0.     5.55215E+06
           19039    -13.8830E+06     7.44676E+06              0.     5.77799E+06
           19040    -14.4061E+06     7.63963E+06              0.     6.00964E+06
           19041    -14.9462E+06     7.83351E+06              0.     6.24713E+06
           19042    -15.5039E+06     8.02806E+06              0.     6.49048E+06
           19043    -16.0796E+06     8.22288E+06              0.     6.73972E+06
           19044    -16.6736E+06     8.41754E+06              0.     6.99485E+06
           19045    -17.2866E+06     8.61156E+06              0.     7.25588E+06
           19046    -17.9188E+06     8.80443E+06              0.     7.52277E+06
           19047    -18.5708E+06     8.99555E+06              0.     7.79549E+06
           19048    -19.2430E+06     9.18431E+06              0.     8.07401E+06
           19049    -19.9358E+06     9.37000E+06              0.     8.35824E+06
           19050    -20.6496E+06     9.55186E+06              0.     8.64811E+06
           19051    -21.3849E+06     9.72907E+06              0.     8.94349E+06
           19052    -22.1421E+06     9.90070E+06              0.     9.24427E+06
           19053    -22.9216E+06     10.0658E+06              0.     9.55027E+06
           19054    -23.7237E+06     10.2232E+06              0.     9.86130E+06
           19055    -24.5489E+06     10.3719E+06              0.     10.1772E+06
           19056    -25.3974E+06     10.5104E+06              0.     10.4976E+06
           19057    -26.2697E+06     10.6375E+06              0.     10.8222E+06
           19058    -27.1659E+06     10.7516E+06              0.     11.1508E+06
           19059    -28.0864E+06     10.8511E+06              0.     11.4829E+06
           19060    -29.0314E+06     10.9342E+06              0.     11.8182E+06
           19061    -30.0011E+06     10.9990E+06              0.     12.1560E+06
           19062    -30.9956E+06     11.0435E+06              0.     12.4959E+06
           19063    -32.0152E+06     11.0653E+06              0.     12.8372E+06
           19064    -33.0597E+06     11.0621E+06              0.     13.1793E+06
           19065    -34.1293E+06     11.0312E+06              0.     13.5213E+06
           19066    -35.2239E+06     10.9698E+06              0.     13.8625E+06
           19067    -36.3433E+06     10.8748E+06              0.     14.2017E+06
           19068    -37.4873E+06     10.7430E+06              0.     14.5381E+06
           19069    -38.6557E+06     10.5708E+06              0.     14.8703E+06
           19070    -39.8481E+06     10.3543E+06              0.     15.1971E+06
           19071    -41.0639E+06     10.0895E+06              0.     15.5170E+06
           19072    -42.3027E+06     9.77183E+06              0.     15.8284E+06
           19073    -43.5636E+06     9.39656E+06              0.     16.1296E+06
           19074    -44.8458E+06     8.95855E+06              0.     16.4185E+06
           19075    -46.1483E+06     8.45224E+06              0.     16.6930E+06
           19076    -47.4701E+06     7.87169E+06              0.     16.9506E+06
           19077    -48.8097E+06     7.21050E+06              0.     17.1888E+06
           19078    -50.1656E+06     6.46179E+06              0.     17.4047E+06
           19079    -51.5361E+06     5.61818E+06              0.     17.5949E+06
           19080    -52.9193E+06     4.67177E+06              0.     17.7559E+06
           19081    -54.3130E+06     3.61402E+06              0.     17.8839E+06
           19082    -55.7148E+06     2.43585E+06              0.     17.9744E+06
           19083    -57.1218E+06     1.12744E+06              0.     18.0228E+06
           19084    -58.5310E+06    -321.662E+03              0.     18.0238E+06
           19085    -59.9390E+06    -1.92269E+06              0.     17.9714E+06
           19086     -61.342E+06    -3.68769E+06              0.     17.8594E+06
           19087    -62.7357E+06    -5.62951E+06              0.     17.6807E+06
           19088    -64.1155E+06    -7.76198E+06              0.     17.4273E+06
           19089    -65.4762E+06    -10.0998E+06              0.     17.0908E+06
           19090    -66.8119E+06    -12.6588E+06              0.     16.6615E+06
           19091    -68.1163E+06    -15.4558E+06              0.     16.1288E+06
           19092    -69.3823E+06    -18.5088E+06              0.     15.4811E+06
           19093    -70.6021E+06    -21.8371E+06              0.     14.7053E+06
           19094    -71.7669E+06    -25.4612E+06              0.     13.7872E+06
           19095    -72.8671E+06    -29.4028E+06              0.     12.7107E+06
           19096    -74.6095E+06    -34.1049E+06              0.     12.3507E+06
           19097     262.160E+03     119.180E+03              0.    -932.867E+03
           19098     261.493E+03     112.711E+03              0.    -931.261E+03
           19099     263.631E+03     107.470E+03              0.    -922.655E+03
           19100     265.759E+03     102.226E+03              0.    -914.361E+03
           19101     267.872E+03     96.9898E+03              0.    -906.377E+03
           19102     269.963E+03     91.7718E+03              0.    -898.700E+03
           19103     272.024E+03     86.5822E+03              0.    -891.329E+03
           19104     274.049E+03     81.4305E+03              0.    -884.259E+03
           19105     276.033E+03     76.3259E+03              0.    -877.487E+03
           19106     277.970E+03     71.2769E+03              0.    -871.009E+03
           19107     279.854E+03     66.2920E+03              0.    -864.821E+03
           19108     281.678E+03     61.3792E+03              0.    -858.919E+03
           19109     283.439E+03     56.5462E+03              0.    -853.299E+03
           19110     285.130E+03     51.8003E+03              0.    -847.955E+03
           19111     286.746E+03     47.1487E+03              0.    -842.883E+03
           19112     288.281E+03     42.5982E+03              0.    -838.077E+03
           19113     289.732E+03     38.1556E+03              0.    -833.531E+03
           19114     291.092E+03     33.8273E+03              0.    -829.241E+03
           19115     292.356E+03     29.6195E+03              0.    -825.200E+03
           19116     293.519E+03     25.5384E+03              0.    -821.402E+03
           19117     294.577E+03     21.5901E+03              0.    -817.841E+03
           19118     295.523E+03     17.7802E+03              0.    -814.511E+03
           19119     296.354E+03     14.1148E+03              0.    -811.404E+03
           19120     297.062E+03     10.5993E+03              0.    -808.514E+03
           19121     297.643E+03     7.23953E+03              0.    -805.834E+03
           19122     298.092E+03     4.04097E+03              0.    -803.357E+03
           19123     298.403E+03     1.00912E+03              0.    -801.076E+03
           19124     298.569E+03    -1.85042E+03              0.    -798.982E+03
           19125     298.586E+03    -4.53222E+03              0.    -797.069E+03
           19126     298.448E+03    -7.03070E+03              0.    -795.328E+03
           19127     298.147E+03    -9.34033E+03              0.    -793.752E+03
           19128     297.678E+03    -11.4555E+03              0.    -792.331E+03
           19129     297.034E+03    -13.3707E+03              0.    -791.059E+03
           19130     296.208E+03    -15.0800E+03              0.    -789.925E+03
           19131     295.194E+03    -16.5778E+03              0.    -788.922E+03
           19132     293.983E+03    -17.8582E+03              0.    -788.040E+03
           19133     292.570E+03    -18.9152E+03              0.    -787.270E+03
           19134     290.945E+03    -19.7427E+03              0.    -786.603E+03
           19135     289.101E+03    -20.3345E+03              0.    -786.030E+03
           19136     287.029E+03    -20.6842E+03              0.    -785.540E+03
           19137     284.721E+03    -20.7854E+03              0.    -785.124E+03
           19138     282.168E+03    -20.6313E+03              0.    -784.771E+03
           19139     279.361E+03    -20.2151E+03              0.    -784.471E+03
           19140     276.289E+03    -19.5298E+03              0.    -784.213E+03
           19141     272.943E+03    -18.5681E+03              0.    -783.987E+03
           19142     269.312E+03    -17.3227E+03              0.    -783.781E+03
           19143     265.386E+03    -15.7857E+03              0.    -783.583E+03
           19144     261.153E+03    -13.9493E+03              0.    -783.384E+03
           19145     256.601E+03    -11.8054E+03              0.    -783.169E+03
           19146     251.718E+03    -9.34556E+03              0.    -782.928E+03
           19147     246.492E+03    -6.56111E+03              0.    -782.647E+03
           19148     240.909E+03    -3.44308E+03              0.    -782.314E+03
           19149     234.956E+03         17.7366              0.    -781.916E+03
           19150     228.618E+03     3.83091E+03              0.    -781.439E+03
           19151     221.880E+03     8.00631E+03              0.    -780.870E+03
           19152     214.728E+03     12.5541E+03              0.    -780.194E+03
           19153     207.144E+03     17.4849E+03              0.    -779.397E+03
           19154     199.113E+03     22.8095E+03              0.    -778.464E+03
           19155     190.618E+03     28.5392E+03              0.    -777.380E+03
           19156     181.639E+03     34.6855E+03              0.     -776.13E+03
           19157     172.159E+03     41.2606E+03              0.    -774.697E+03
           19158     162.158E+03     48.2769E+03              0.    -773.065E+03
           19159     151.615E+03     55.7471E+03              0.    -771.217E+03
           19160     140.511E+03     63.6845E+03              0.    -769.136E+03
           19161     128.823E+03     72.1028E+03              0.    -766.804E+03
           19162     116.528E+03     81.0162E+03              0.    -764.203E+03
           19163     103.604E+03     90.4393E+03              0.    -761.313E+03
           19164     90.0248E+03     100.387E+03              0.    -758.117E+03
           19165     75.7664E+03     110.875E+03              0.    -754.593E+03
           19166     60.8021E+03     121.920E+03              0.    -750.722E+03
           19167     45.1047E+03     133.538E+03              0.    -746.483E+03
           19168     28.6458E+03     145.746E+03              0.    -741.854E+03
           19169     11.3960E+03     158.562E+03              0.    -736.814E+03
           19170    -6.67521E+03     172.004E+03              0.    -731.338E+03
           19171    -25.5994E+03     186.091E+03              0.    -725.405E+03
           19172    -45.4096E+03     200.843E+03              0.    -718.991E+03
           19173    -66.1397E+03     216.280E+03              0.    -712.069E+03
           19174    -87.8251E+03     232.421E+03              0.    -704.616E+03
           19175    -110.503E+03     249.289E+03              0.    -696.605E+03
           19176    -134.210E+03     266.906E+03              0.    -688.009E+03
           19177    -158.987E+03     285.293E+03              0.    -678.801E+03
           19178    -184.875E+03     304.475E+03              0.    -668.951E+03
           19179    -211.915E+03     324.476E+03              0.    -658.433E+03
           19180    -240.152E+03     345.319E+03              0.    -647.214E+03
           19181    -269.632E+03     367.031E+03              0.    -635.264E+03
           19182    -300.401E+03     389.637E+03              0.    -622.552E+03
           19183    -332.509E+03     413.165E+03              0.    -609.045E+03
           19184    -366.007E+03     437.642E+03              0.    -594.709E+03
           19185    -400.947E+03     463.096E+03              0.    -579.510E+03
           19186    -437.383E+03     489.557E+03              0.    -563.412E+03
           19187    -475.373E+03     517.055E+03              0.    -546.379E+03
           19188    -514.974E+03     545.620E+03              0.    -528.374E+03
           19189    -556.248E+03     575.285E+03              0.    -509.357E+03
           19190    -599.258E+03     606.081E+03              0.    -489.290E+03
           19191    -644.067E+03     638.043E+03              0.    -468.132E+03
           19192    -690.745E+03     671.203E+03              0.    -445.840E+03
           19193    -739.360E+03     705.598E+03              0.    -422.372E+03
           19194    -789.985E+03     741.262E+03              0.    -397.683E+03
           19195    -842.694E+03     778.234E+03              0.    -371.729E+03
           19196    -897.566E+03     816.549E+03              0.    -344.463E+03
           19197    -954.681E+03     856.248E+03              0.    -315.837E+03
           19198    -1.01412E+06     897.369E+03              0.    -285.801E+03
           19199    -1.07597E+06     939.952E+03              0.    -254.305E+03
           19200    -1.14032E+06     984.039E+03              0.    -221.299E+03
           19201    -1.20727E+06     1.02967E+06              0.    -186.728E+03
           19202    -1.27690E+06     1.07689E+06              0.    -150.537E+03
           19203    -1.34932E+06     1.12575E+06              0.    -112.672E+03
           19204    -1.42462E+06     1.17628E+06              0.    -73.0754E+03
           19205    -1.50292E+06     1.22853E+06              0.    -31.6876E+03
           19206    -1.58432E+06     1.28255E+06              0.     11.5514E+03
           19207    -1.66894E+06     1.33838E+06              0.     56.7031E+03
           19208    -1.75688E+06     1.39608E+06              0.     103.831E+03
           19209    -1.84828E+06     1.45569E+06              0.     152.999E+03
           19210    -1.94326E+06     1.51726E+06              0.     204.275E+03
           19211    -2.04194E+06     1.58084E+06              0.     257.725E+03
           19212    -2.14446E+06     1.64648E+06              0.     313.419E+03
           19213    -2.25095E+06     1.71423E+06              0.     371.429E+03
           19214    -2.36156E+06     1.78415E+06              0.     431.827E+03
           19215    -2.47643E+06     1.85628E+06              0.     494.687E+03
           19216    -2.59572E+06     1.93068E+06              0.     560.085E+03
           19217    -2.71959E+06     2.00739E+06              0.     628.098E+03
           19218    -2.84818E+06     2.08648E+06              0.     698.806E+03
           19219    -2.98167E+06     2.16799E+06              0.     772.289E+03
           19220    -3.12024E+06     2.25198E+06              0.     848.629E+03
           19221    -3.26405E+06     2.33850E+06              0.     927.911E+03
           19222    -3.41329E+06     2.42760E+06              0.     1.01022E+06
           19223    -3.56816E+06     2.51933E+06              0.     1.09564E+06
           19224    -3.72883E+06     2.61375E+06              0.     1.18427E+06
           19225    -3.89553E+06     2.71090E+06              0.     1.27619E+06
           19226    -4.06844E+06     2.81083E+06              0.     1.37149E+06
           19227    -4.24779E+06     2.91360E+06              0.     1.47027E+06
           19228    -4.43379E+06     3.01925E+06              0.     1.57262E+06
           19229    -4.62667E+06     3.12782E+06              0.     1.67864E+06
           19230    -4.82667E+06     3.23935E+06              0.     1.78842E+06
           19231    -5.03401E+06     3.35389E+06              0.     1.90207E+06
           19232    -5.24896E+06     3.47148E+06              0.     2.01968E+06
           19233    -5.47175E+06     3.59214E+06              0.     2.14135E+06
           19234    -5.70266E+06     3.71592E+06              0.     2.26719E+06
           19235    -5.94194E+06     3.84283E+06              0.     2.39729E+06
           19236    -6.18987E+06     3.97291E+06              0.     2.53177E+06
           19237    -6.44675E+06     4.10617E+06              0.     2.67072E+06
           19238    -6.71285E+06     4.24262E+06              0.     2.81424E+06
           19239    -6.98847E+06     4.38227E+06              0.     2.96245E+06
           19240    -7.27391E+06     4.52513E+06              0.     3.11545E+06
           19241    -7.56950E+06     4.67118E+06              0.     3.27333E+06
           19242    -7.87555E+06     4.82042E+06              0.     3.43622E+06
           19243    -8.19238E+06     4.97281E+06              0.     3.60420E+06
           19244    -8.52034E+06     5.12833E+06              0.     3.77738E+06
           19245    -8.85976E+06     5.28694E+06              0.     3.95586E+06
           19246    -9.21099E+06     5.44857E+06              0.     4.13975E+06
           19247    -9.57440E+06     5.61317E+06              0.     4.32914E+06
           19248    -9.95035E+06     5.78064E+06              0.     4.52412E+06
           19249    -10.3392E+06     5.95090E+06              0.     4.72480E+06
           19250    -10.7413E+06     6.12382E+06              0.     4.93125E+06
           19251    -11.1572E+06     6.29929E+06              0.     5.14358E+06
           19252    -11.5870E+06     6.47715E+06              0.     5.36185E+06
           19253    -12.0314E+06     6.65722E+06              0.     5.58615E+06
           19254    -12.4906E+06     6.83932E+06              0.     5.81655E+06
           19255    -12.9651E+06     7.02322E+06              0.     6.05312E+06
           19256    -13.4552E+06     7.20867E+06              0.     6.29591E+06
           19257    -13.9615E+06     7.39541E+06              0.     6.54499E+06
           19258    -14.4843E+06     7.58312E+06              0.     6.80038E+06
           19259    -15.0241E+06     7.77145E+06              0.     7.06213E+06
           19260    -15.5812E+06     7.96004E+06              0.     7.33026E+06
           19261    -16.1561E+06     8.14845E+06              0.     7.60478E+06
           19262    -16.7493E+06     8.33623E+06              0.     7.88569E+06
           19263    -17.3611E+06     8.52286E+06              0.     8.17296E+06
           19264    -17.9920E+06     8.70778E+06              0.     8.46658E+06
           19265    -18.6423E+06     8.89037E+06              0.     8.76647E+06
           19266    -19.3126E+06     9.06995E+06              0.     9.07259E+06
           19267    -20.0032E+06     9.24579E+06              0.     9.38483E+06
           19268    -20.7146E+06     9.41708E+06              0.     9.70307E+06
           19269    -21.4470E+06     9.58293E+06              0.     10.0272E+06
           19270    -22.2010E+06     9.74237E+06              0.     10.3570E+06
           19271    -22.9768E+06     9.89437E+06              0.     10.6923E+06
           19272    -23.7748E+06     10.0378E+06              0.     11.0328E+06
           19273    -24.5954E+06     10.1713E+06              0.     11.3783E+06
           19274    -25.4388E+06     10.2937E+06              0.     11.7285E+06
           19275    -26.3053E+06     10.4034E+06              0.     12.0830E+06
           19276    -27.1952E+06     10.4989E+06              0.     12.4413E+06
           19277    -28.1087E+06     10.5785E+06              0.     12.8030E+06
           19278    -29.0460E+06     10.6402E+06              0.     13.1676E+06
           19279    -30.0072E+06     10.6821E+06              0.     13.5345E+06
           19280    -30.9925E+06     10.7020E+06              0.     13.9030E+06
           19281    -32.0018E+06     10.6975E+06              0.     14.2723E+06
           19282    -33.0353E+06     10.6661E+06              0.     14.6417E+06
           19283    -34.0927E+06     10.6051E+06              0.     15.0101E+06
           19284    -35.1740E+06     10.5114E+06              0.     15.3765E+06
           19285    -36.2791E+06     10.3819E+06              0.     15.7399E+06
           19286    -37.4075E+06     10.2132E+06              0.     16.0988E+06
           19287    -38.5589E+06     10.0015E+06              0.     16.4518E+06
           19288    -39.7330E+06     9.74287E+06              0.     16.7975E+06
           19289    -40.9290E+06     9.43300E+06              0.     17.1340E+06
           19290    -42.1464E+06     9.06726E+06              0.     17.4594E+06
           19291    -43.3843E+06      8.6407E+06              0.     17.7717E+06
           19292    -44.6417E+06     8.14797E+06              0.     18.0683E+06
           19293    -45.9176E+06     7.58335E+06              0.     18.3468E+06
           19294    -47.2108E+06     6.94068E+06              0.     18.6043E+06
           19295    -48.5197E+06     6.21335E+06              0.     18.8377E+06
           19296    -49.8429E+06     5.39428E+06              0.     19.0433E+06
           19297    -51.1784E+06     4.47587E+06              0.     19.2175E+06
           19298    -52.5243E+06     3.44998E+06              0.     19.3560E+06
           19299    -53.8782E+06     2.30790E+06              0.     19.4541E+06
           19300    -55.2377E+06     1.04026E+06              0.     19.5067E+06
           19301    -56.5997E+06    -362.922E+03              0.     19.5081E+06
           19302    -57.9613E+06    -1.91233E+06              0.     19.4521E+06
           19303    -59.3188E+06    -3.61942E+06              0.     19.3318E+06
           19304    -60.6685E+06    -5.49640E+06              0.     19.1396E+06
           19305    -62.0060E+06    -7.55634E+06              0.     18.8670E+06
           19306    -63.3266E+06    -9.81317E+06              0.     18.5049E+06
           19307    -64.6250E+06    -12.2817E+06              0.     18.0431E+06
           19308    -65.8955E+06    -14.9780E+06              0.     17.4701E+06
           19309    -67.1317E+06    -17.9187E+06              0.     16.7736E+06
           19310    -68.3265E+06    -21.1219E+06              0.     15.9396E+06
           19311    -69.4723E+06    -24.6068E+06              0.     14.9528E+06
           19312    -70.5606E+06    -28.3937E+06              0.     13.7964E+06
           19313    -72.2446E+06    -32.9106E+06              0.     13.4153E+06
           19314     241.819E+03     110.034E+03              0.    -934.916E+03
           19315     241.194E+03     103.952E+03              0.    -933.307E+03
           19316     243.205E+03     99.0206E+03              0.    -924.696E+03
           19317     245.208E+03     94.0844E+03              0.    -916.391E+03
           19318     247.196E+03     89.1539E+03              0.    -908.389E+03
           19319     249.163E+03     84.2391E+03              0.    -900.687E+03
           19320     251.102E+03     79.3496E+03              0.    -893.284E+03
           19321     253.007E+03     74.4949E+03              0.    -886.177E+03
           19322     254.873E+03     69.6836E+03              0.    -879.362E+03
           19323     256.693E+03     64.9241E+03              0.    -872.835E+03
           19324     258.462E+03     60.2247E+03              0.    -866.593E+03
           19325     260.175E+03     55.5929E+03              0.    -860.631E+03
           19326     261.827E+03     51.0363E+03              0.    -854.945E+03
           19327     263.411E+03     46.5619E+03              0.    -849.531E+03
           19328     264.924E+03     42.1766E+03              0.    -844.383E+03
           19329     266.359E+03     37.8872E+03              0.    -839.496E+03
           19330     267.713E+03     33.7000E+03              0.    -834.865E+03
           19331     268.979E+03     29.6214E+03              0.    -830.483E+03
           19332     270.154E+03     25.6573E+03              0.    -826.347E+03
           19333     271.231E+03     21.8137E+03              0.    -822.448E+03
           19334     272.207E+03     18.0965E+03              0.    -818.781E+03
           19335     273.076E+03     14.5112E+03              0.    -815.339E+03
           19336     273.833E+03     11.0635E+03              0.    -812.116E+03
           19337     274.472E+03     7.75890E+03              0.    -809.104E+03
           19338     274.990E+03     4.60278E+03              0.    -806.297E+03
           19339     275.379E+03     1.60059E+03              0.    -803.688E+03
           19340     275.636E+03    -1.24238E+03              0.    -801.268E+03
           19341     275.754E+03    -3.92073E+03              0.    -799.031E+03
           19342     275.728E+03    -6.42919E+03              0.    -796.968E+03
           19343     275.551E+03    -8.76239E+03              0.    -795.072E+03
           19344     275.219E+03    -10.9150E+03              0.    -793.334E+03
           19345     274.724E+03    -12.8815E+03              0.    -791.745E+03
           19346     274.061E+03    -14.6566E+03              0.    -790.298E+03
           19347     273.223E+03    -16.2347E+03              0.    -788.983E+03
           19348     272.203E+03    -17.6103E+03              0.    -787.792E+03
           19349     270.995E+03    -18.7776E+03              0.    -786.714E+03
           19350     269.590E+03    -19.7309E+03              0.    -785.742E+03
           19351     267.982E+03    -20.4643E+03              0.    -784.864E+03
           19352     266.162E+03    -20.9719E+03              0.    -784.072E+03
           19353     264.123E+03    -21.2473E+03              0.    -783.355E+03
           19354     261.856E+03    -21.2845E+03              0.    -782.703E+03
           19355     259.353E+03    -21.0769E+03              0.    -782.105E+03
           19356     256.605E+03    -20.6179E+03              0.    -781.551E+03
           19357     253.602E+03    -19.9007E+03              0.    -781.029E+03
           19358     250.335E+03    -18.9183E+03              0.    -780.529E+03
           19359     246.793E+03    -17.6637E+03              0.    -780.039E+03
           19360     242.966E+03    -16.1292E+03              0.    -779.547E+03
           19361     238.843E+03    -14.3074E+03              0.    -779.041E+03
           19362     234.413E+03    -12.1903E+03              0.    -778.508E+03
           19363     229.665E+03    -9.76987E+03              0.    -777.936E+03
           19364     224.584E+03    -7.03773E+03              0.    -777.312E+03
           19365     219.161E+03    -3.98521E+03              0.    -776.623E+03
           19366     213.379E+03        -603.430              0.    -775.855E+03
           19367     207.227E+03     3.11684E+03              0.    -774.994E+03
           19368     200.690E+03     7.18512E+03              0.    -774.026E+03
           19369     193.753E+03     11.6112E+03              0.    -772.935E+03
           19370     186.400E+03     16.4054E+03              0.    -771.708E+03
           19371     178.616E+03     21.5780E+03              0.    -770.328E+03
           19372     170.384E+03     27.1400E+03              0.    -768.780E+03
           19373     161.686E+03     33.1025E+03              0.    -767.048E+03
           19374     152.504E+03     39.4771E+03              0.    -765.114E+03
           19375     142.821E+03     46.2760E+03              0.    -762.961E+03
           19376     132.615E+03     53.5112E+03              0.    -760.572E+03
           19377     121.868E+03     61.1958E+03              0.    -757.930E+03
           19378     110.557E+03     69.3428E+03              0.    -755.014E+03
           19379     98.6625E+03     77.9660E+03              0.    -751.807E+03
           19380     86.1602E+03     87.0795E+03              0.    -748.288E+03
           19381     73.0271E+03     96.6977E+03              0.    -744.438E+03
           19382     59.2387E+03     106.836E+03              0.    -740.235E+03
           19383     44.7698E+03     117.509E+03              0.    -735.659E+03
           19384     29.5940E+03     128.734E+03              0.    -730.687E+03
           19385     13.6840E+03     140.527E+03              0.    -725.297E+03
           19386    -2.98850E+03     152.904E+03              0.    -719.466E+03
           19387    -20.4530E+03     165.885E+03              0.    -713.170E+03
           19388    -38.7399E+03     179.486E+03              0.    -706.384E+03
           19389    -57.8810E+03     193.727E+03              0.    -699.083E+03
           19390    -77.9092E+03     208.626E+03              0.    -691.242E+03
           19391    -98.8584E+03     224.205E+03              0.    -682.834E+03
           19392    -120.764E+03     240.483E+03              0.    -673.831E+03
           19393    -143.663E+03     257.481E+03              0.    -664.205E+03
           19394    -167.593E+03     275.222E+03              0.    -653.927E+03
           19395    -192.594E+03     293.728E+03              0.    -642.967E+03
           19396    -218.706E+03     313.021E+03              0.    -631.295E+03
           19397    -245.973E+03     333.126E+03              0.    -618.879E+03
           19398    -274.437E+03     354.068E+03              0.    -605.687E+03
           19399    -304.145E+03     375.871E+03              0.    -591.684E+03
           19400    -335.144E+03     398.562E+03              0.    -576.838E+03
           19401    -367.483E+03     422.167E+03              0.    -561.111E+03
           19402    -401.213E+03     446.713E+03              0.    -544.469E+03
           19403    -436.385E+03     472.229E+03              0.    -526.873E+03
           19404    -473.056E+03     498.744E+03              0.    -508.285E+03
           19405    -511.281E+03     526.287E+03              0.    -488.666E+03
           19406    -551.118E+03     554.890E+03              0.    -467.975E+03
           19407    -592.629E+03     584.582E+03              0.    -446.170E+03
           19408    -635.876E+03     615.397E+03              0.    -423.208E+03
           19409    -680.924E+03     647.368E+03              0.    -399.045E+03
           19410    -727.841E+03     680.528E+03              0.    -373.636E+03
           19411    -776.697E+03     714.912E+03              0.    -346.933E+03
           19412    -827.562E+03     750.555E+03              0.    -318.890E+03
           19413    -880.513E+03     787.495E+03              0.    -289.455E+03
           19414    -935.627E+03     825.767E+03              0.    -258.580E+03
           19415    -992.984E+03     865.410E+03              0.    -226.212E+03
           19416    -1.05267E+06     906.463E+03              0.    -192.298E+03
           19417    -1.11476E+06     948.966E+03              0.    -156.782E+03
           19418    -1.17935E+06     992.958E+03              0.    -119.609E+03
           19419    -1.24654E+06     1.03848E+06              0.    -80.7213E+03
           19420    -1.31641E+06     1.08558E+06              0.    -40.0587E+03
           19421    -1.38907E+06     1.13430E+06              0.     2.43900E+03
           19422    -1.46462E+06     1.18467E+06              0.     46.8343E+03
           19423    -1.54316E+06     1.23675E+06              0.     93.1910E+03
           19424    -1.62480E+06     1.29058E+06              0.     141.575E+03
           19425    -1.70965E+06     1.34621E+06              0.     192.053E+03
           19426    -1.79783E+06     1.40368E+06              0.     244.694E+03
           19427    -1.88946E+06     1.46305E+06              0.     299.568E+03
           19428    -1.98467E+06     1.52435E+06              0.     356.748E+03
           19429    -2.08358E+06     1.58764E+06              0.     416.307E+03
           19430    -2.18632E+06     1.65297E+06              0.     478.322E+03
           19431    -2.29304E+06     1.72038E+06              0.     542.869E+03
           19432    -2.40387E+06     1.78994E+06              0.     610.028E+03
           19433    -2.51896E+06     1.86167E+06              0.     679.880E+03
           19434    -2.63845E+06     1.93565E+06              0.     752.506E+03
           19435    -2.76252E+06     2.01192E+06              0.     827.992E+03
           19436    -2.89131E+06     2.09052E+06              0.     906.424E+03
           19437    -3.02499E+06     2.17152E+06              0.     987.889E+03
           19438    -3.16374E+06     2.25496E+06              0.     1.07248E+06
           19439    -3.30773E+06     2.34089E+06              0.     1.16028E+06
           19440    -3.45713E+06     2.42936E+06              0.     1.25139E+06
           19441    -3.61215E+06     2.52043E+06              0.     1.34591E+06
           19442    -3.77297E+06     2.61413E+06              0.     1.44392E+06
           19443    -3.93980E+06     2.71052E+06              0.     1.54553E+06
           19444    -4.11283E+06     2.80965E+06              0.     1.65084E+06
           19445    -4.29228E+06     2.91155E+06              0.     1.75994E+06
           19446    -4.47837E+06     3.01628E+06              0.     1.87295E+06
           19447    -4.67132E+06     3.12387E+06              0.     1.98997E+06
           19448    -4.87136E+06     3.23437E+06              0.     2.11109E+06
           19449    -5.07874E+06     3.34780E+06              0.     2.23644E+06
           19450    -5.29368E+06     3.46421E+06              0.     2.36611E+06
           19451    -5.51645E+06     3.58363E+06              0.     2.50022E+06
           19452    -5.74731E+06     3.70607E+06              0.     2.63887E+06
           19453    -5.98651E+06     3.83157E+06              0.     2.78218E+06
           19454    -6.23433E+06     3.96014E+06              0.     2.93026E+06
           19455    -6.49105E+06     4.09180E+06              0.     3.08323E+06
           19456    -6.75696E+06     4.22654E+06              0.     3.24119E+06
           19457    -7.03235E+06     4.36439E+06              0.     3.40425E+06
           19458    -7.31751E+06     4.50531E+06              0.     3.57254E+06
           19459    -7.61276E+06     4.64931E+06              0.     3.74616E+06
           19460    -7.91842E+06     4.79636E+06              0.     3.92523E+06
           19461    -8.23480E+06     4.94643E+06              0.     4.10985E+06
           19462    -8.56224E+06     5.09947E+06              0.     4.30015E+06
           19463    -8.90107E+06     5.25544E+06              0.     4.49622E+06
           19464    -9.25164E+06     5.41426E+06              0.     4.69817E+06
           19465    -9.61429E+06     5.57586E+06              0.     4.90611E+06
           19466    -9.98939E+06     5.74015E+06              0.     5.12014E+06
           19467    -10.3773E+06     5.90701E+06              0.     5.34036E+06
           19468    -10.7784E+06     6.07632E+06              0.     5.56687E+06
           19469    -11.1930E+06     6.24792E+06              0.     5.79974E+06
           19470    -11.6216E+06     6.42167E+06              0.     6.03908E+06
           19471    -12.0645E+06     6.59735E+06              0.     6.28496E+06
           19472    -12.5221E+06     6.77477E+06              0.     6.53746E+06
           19473    -12.9949E+06     6.95368E+06              0.     6.79663E+06
           19474    -13.4831E+06     7.13381E+06              0.     7.06254E+06
           19475    -13.9872E+06     7.31486E+06              0.     7.33524E+06
           19476    -14.5077E+06     7.49650E+06              0.     7.61476E+06
           19477    -15.0449E+06     7.67836E+06              0.     7.90114E+06
           19478    -15.5993E+06     7.86003E+06              0.     8.19438E+06
           19479    -16.1711E+06     8.04106E+06              0.     8.49449E+06
           19480    -16.7610E+06     8.22096E+06              0.     8.80144E+06
           19481    -17.3691E+06     8.39917E+06              0.     9.11522E+06
           19482    -17.9961E+06     8.57510E+06              0.     9.43576E+06
           19483    -18.6421E+06     8.74809E+06              0.     9.76299E+06
           19484    -19.3078E+06     8.91742E+06              0.     10.0968E+06
           19485    -19.9933E+06     9.08230E+06              0.     10.4371E+06
           19486    -20.6991E+06     9.24188E+06              0.     10.7837E+06
           19487    -21.4256E+06     9.39523E+06              0.     11.1365E+06
           19488    -22.1731E+06     9.54132E+06              0.     11.4951E+06
           19489    -22.9419E+06     9.67904E+06              0.     11.8595E+06
           19490    -23.7323E+06     9.80720E+06              0.     12.2292E+06
           19491    -24.5446E+06     9.92449E+06              0.     12.6039E+06
           19492    -25.3792E+06     10.0295E+06              0.     12.9833E+06
           19493    -26.2361E+06     10.1206E+06              0.     13.3668E+06
           19494    -27.1157E+06     10.1963E+06              0.     13.7541E+06
           19495    -28.0181E+06     10.2547E+06              0.     14.1444E+06
           19496    -28.9434E+06     10.2938E+06              0.     14.5373E+06
           19497    -29.8918E+06     10.3116E+06              0.     14.9319E+06
           19498    -30.8632E+06     10.3057E+06              0.     15.3274E+06
           19499    -31.8577E+06     10.2738E+06              0.     15.7229E+06
           19500    -32.8751E+06     10.2131E+06              0.     16.1175E+06
           19501    -33.9154E+06     10.1208E+06              0.     16.5100E+06
           19502    -34.9784E+06     9.99384E+06              0.     16.8992E+06
           19503    -36.0638E+06     9.82889E+06              0.     17.2837E+06
           19504    -37.1712E+06     9.62237E+06              0.     17.6619E+06
           19505    -38.3002E+06     9.37045E+06              0.     18.0322E+06
           19506    -39.4503E+06     9.06899E+06              0.     18.3927E+06
           19507    -40.6208E+06     8.71356E+06              0.     18.7413E+06
           19508    -41.8109E+06     8.29938E+06              0.     19.0758E+06
           19509    -43.0197E+06     7.82133E+06              0.     19.3936E+06
           19510    -44.2463E+06     7.27392E+06              0.     19.6919E+06
           19511    -45.4895E+06     6.65127E+06              0.     19.9678E+06
           19512    -46.7479E+06     5.94704E+06              0.     20.2177E+06
           19513    -48.0200E+06     5.15447E+06              0.     20.4381E+06
           19514    -49.3042E+06     4.26632E+06              0.     20.6247E+06
           19515    -50.5986E+06     3.27481E+06              0.     20.7731E+06
           19516    -51.9010E+06     2.17167E+06              0.     20.8783E+06
           19517    -53.2091E+06     948.009E+03              0.     20.9348E+06
           19518    -54.5204E+06    -405.656E+03              0.     20.9366E+06
           19519    -55.8318E+06    -1.89943E+06              0.     20.8770E+06
           19520    -57.1404E+06    -3.54415E+06              0.     20.7487E+06
           19521    -58.4425E+06    -5.35131E+06              0.     20.5436E+06
           19522    -59.7342E+06    -7.33322E+06              0.     20.2529E+06
           19523    -61.0114E+06    -9.50294E+06              0.     19.8667E+06
           19524    -62.2694E+06    -11.8744E+06              0.     19.3741E+06
           19525    -63.5029E+06    -14.4624E+06              0.     18.7632E+06
           19526    -64.7064E+06    -17.2826E+06              0.     18.0207E+06
           19527    -65.8737E+06    -20.3517E+06              0.     17.1322E+06
           19528    -66.9979E+06    -23.6874E+06              0.     16.0813E+06
           19529    -68.0710E+06    -27.3083E+06              0.     14.8503E+06
           19530    -69.6912E+06    -31.6267E+06              0.     14.4506E+06
           19531     221.499E+03     100.896E+03              0.    -936.839E+03
           19532     220.913E+03     95.1914E+03              0.    -935.228E+03
           19533     222.800E+03     90.5631E+03              0.    -926.613E+03
           19534     224.681E+03     85.9280E+03              0.    -918.297E+03
           19535     226.547E+03     81.2966E+03              0.    -910.278E+03
           19536     228.393E+03     76.6786E+03              0.    -902.553E+03
           19537     230.213E+03     72.0833E+03              0.     -895.12E+03
           19538     232.001E+03     67.5196E+03              0.    -887.977E+03
           19539     233.751E+03     62.9960E+03              0.    -881.120E+03
           19540     235.458E+03     58.5206E+03              0.    -874.547E+03
           19541     237.116E+03     54.1012E+03              0.    -868.252E+03
           19542     238.721E+03     49.7451E+03              0.    -862.234E+03
           19543     240.266E+03     45.4597E+03              0.    -856.485E+03
           19544     241.747E+03     41.2517E+03              0.    -851.003E+03
           19545     243.160E+03     37.1278E+03              0.    -845.783E+03
           19546     244.499E+03     33.0944E+03              0.    -840.818E+03
           19547     245.759E+03     29.1577E+03              0.    -836.105E+03
           19548     246.936E+03     25.3238E+03              0.    -831.636E+03
           19549     248.025E+03     21.5985E+03              0.    -827.407E+03
           19550     249.021E+03     17.9874E+03              0.    -823.411E+03
           19551     249.919E+03     14.4963E+03              0.    -819.642E+03
           19552     250.715E+03     11.1305E+03              0.    -816.094E+03
           19553     251.403E+03     7.89552E+03              0.    -812.759E+03
           19554     251.979E+03     4.79653E+03              0.    -809.630E+03
           19555     252.437E+03     1.83883E+03              0.    -806.701E+03
           19556     252.773E+03        -972.367              0.    -803.965E+03
           19557     252.981E+03    -3.63196E+03              0.    -801.413E+03
           19558     253.057E+03    -6.13476E+03              0.    -799.037E+03
           19559     252.994E+03    -8.47567E+03              0.    -796.831E+03
           19560     252.786E+03    -10.6495E+03              0.    -794.785E+03
           19561     252.429E+03    -12.6512E+03              0.    -792.891E+03
           19562     251.917E+03    -14.4754E+03              0.    -791.141E+03
           19563     251.242E+03    -16.1170E+03              0.    -789.526E+03
           19564     250.399E+03    -17.5706E+03              0.    -788.037E+03
           19565     249.382E+03    -18.8308E+03              0.    -786.664E+03
           19566     248.184E+03    -19.8923E+03              0.    -785.398E+03
           19567     246.797E+03    -20.7493E+03              0.    -784.230E+03
           19568     245.215E+03    -21.3964E+03              0.    -783.150E+03
           19569     243.429E+03    -21.8276E+03              0.    -782.147E+03
           19570     241.433E+03    -22.0372E+03              0.    -781.212E+03
           19571     239.219E+03    -22.0189E+03              0.    -780.333E+03
           19572     236.777E+03    -21.7667E+03              0.    -779.500E+03
           19573     234.100E+03    -21.2742E+03              0.    -778.701E+03
           19574     231.178E+03    -20.5348E+03              0.    -777.926E+03
           19575     228.002E+03    -19.5419E+03              0.    -777.162E+03
           19576     224.563E+03    -18.2884E+03              0.    -776.399E+03
           19577     220.850E+03    -16.7673E+03              0.    -775.622E+03
           19578     216.852E+03    -14.9713E+03              0.    -774.821E+03
           19579     212.559E+03    -12.8928E+03              0.    -773.982E+03
           19580     207.960E+03    -10.5239E+03              0.    -773.093E+03
           19581     203.043E+03    -7.85676E+03              0.    -772.139E+03
           19582     197.796E+03    -4.88291E+03              0.    -771.107E+03
           19583     192.205E+03    -1.59386E+03              0.    -769.983E+03
           19584     186.258E+03     2.01929E+03              0.    -768.752E+03
           19585     179.941E+03     5.96565E+03              0.    -767.400E+03
           19586     173.240E+03     10.2547E+03              0.    -765.911E+03
           19587     166.140E+03     14.8962E+03              0.    -764.269E+03
           19588     158.625E+03     19.9002E+03              0.    -762.459E+03
           19589     150.679E+03     25.2772E+03              0.    -760.464E+03
           19590     142.286E+03     31.0380E+03              0.    -758.267E+03
           19591     133.429E+03     37.1935E+03              0.    -755.851E+03
           19592     124.089E+03     43.7556E+03              0.    -753.198E+03
           19593     114.248E+03     50.7358E+03              0.    -750.289E+03
           19594     103.886E+03     58.1466E+03              0.    -747.106E+03
           19595     92.9838E+03     66.0006E+03              0.    -743.629E+03
           19596     81.5196E+03     74.3111E+03              0.    -739.839E+03
           19597     69.4720E+03     83.0915E+03              0.    -735.714E+03
           19598     56.8183E+03     92.3557E+03              0.    -731.235E+03
           19599     43.5352E+03     102.118E+03              0.    -726.378E+03
           19600     29.5982E+03     112.394E+03              0.    -721.123E+03
           19601     14.9822E+03     123.199E+03              0.    -715.446E+03
           19602        -339.287     134.548E+03              0.    -709.324E+03
           19603    -16.3933E+03     146.458E+03              0.    -702.731E+03
           19604    -33.2081E+03     158.946E+03              0.    -695.645E+03
           19605    -50.8132E+03     172.030E+03              0.    -688.039E+03
           19606    -69.2388E+03     185.727E+03              0.    -679.886E+03
           19607    -88.5166E+03     200.056E+03              0.    -671.160E+03
           19608    -108.679E+03     215.036E+03              0.    -661.832E+03
           19609    -129.761E+03     230.687E+03              0.    -651.874E+03
           19610    -151.797E+03     247.029E+03              0.    -641.257E+03
           19611    -174.824E+03     264.084E+03              0.    -629.950E+03
           19612    -198.879E+03     281.872E+03              0.    -617.921E+03
           19613    -224.002E+03     300.416E+03              0.    -605.139E+03
           19614    -250.234E+03     319.740E+03              0.    -591.571E+03
           19615    -277.617E+03     339.865E+03              0.    -577.182E+03
           19616    -306.195E+03     360.818E+03              0.    -561.938E+03
           19617    -336.013E+03     382.623E+03              0.    -545.802E+03
           19618    -367.119E+03     405.304E+03              0.    -528.737E+03
           19619    -399.560E+03     428.890E+03              0.    -510.705E+03
           19620    -433.389E+03     453.406E+03              0.    -491.667E+03
           19621    -468.656E+03     478.882E+03              0.    -471.583E+03
           19622    -505.417E+03     505.344E+03              0.    -450.411E+03
           19623    -543.727E+03     532.823E+03              0.    -428.107E+03
           19624    -583.646E+03     561.349E+03              0.    -404.629E+03
           19625    -625.232E+03     590.953E+03              0.    -379.931E+03
           19626    -668.549E+03     621.667E+03              0.    -353.967E+03
           19627    -713.662E+03     653.522E+03              0.    -326.689E+03
           19628    -760.638E+03     686.553E+03              0.    -298.047E+03
           19629    -809.545E+03     720.793E+03              0.    -267.992E+03
           19630    -860.456E+03     756.278E+03              0.    -236.470E+03
           19631    -913.445E+03     793.043E+03              0.    -203.431E+03
           19632    -968.590E+03     831.125E+03              0.    -168.817E+03
           19633    -1.02597E+06     870.561E+03              0.    -132.574E+03
           19634    -1.08567E+06     911.390E+03              0.    -94.6424E+03
           19635    -1.14777E+06     953.650E+03              0.    -54.9643E+03
           19636    -1.21236E+06     997.382E+03              0.    -13.4783E+03
           19637    -1.27953E+06     1.04263E+06              0.     29.8781E+03
           19638    -1.34938E+06     1.08942E+06              0.     75.1690E+03
           19639    -1.42200E+06     1.13782E+06              0.     122.460E+03
           19640    -1.49750E+06     1.18785E+06              0.     171.819E+03
           19641    -1.57598E+06     1.23956E+06              0.     223.316E+03
           19642    -1.65755E+06     1.29300E+06              0.     277.020E+03
           19643    -1.74232E+06     1.34822E+06              0.     333.005E+03
           19644    -1.83041E+06     1.40525E+06              0.     391.345E+03
           19645    -1.92193E+06     1.46414E+06              0.     452.118E+03
           19646    -2.01701E+06     1.52495E+06              0.     515.400E+03
           19647    -2.11577E+06     1.58771E+06              0.     581.272E+03
           19648    -2.21835E+06     1.65248E+06              0.     649.816E+03
           19649    -2.32489E+06     1.71931E+06              0.     721.115E+03
           19650    -2.43551E+06     1.78823E+06              0.     795.256E+03
           19651    -2.55038E+06     1.85931E+06              0.     872.327E+03
           19652    -2.66964E+06     1.93259E+06              0.     952.415E+03
           19653    -2.79344E+06     2.00812E+06              0.     1.03561E+06
           19654    -2.92194E+06     2.08595E+06              0.     1.12202E+06
           19655    -3.05530E+06     2.16613E+06              0.     1.21172E+06
           19656    -3.19371E+06     2.24870E+06              0.     1.30481E+06
           19657    -3.33732E+06     2.33372E+06              0.     1.40140E+06
           19658    -3.48633E+06     2.42123E+06              0.     1.50159E+06
           19659    -3.64092E+06     2.51128E+06              0.     1.60548E+06
           19660    -3.80127E+06     2.60392E+06              0.     1.71316E+06
           19661    -3.96759E+06     2.69919E+06              0.     1.82476E+06
           19662    -4.14008E+06     2.79712E+06              0.     1.94038E+06
           19663    -4.31895E+06     2.89778E+06              0.     2.06012E+06
           19664    -4.50442E+06     3.00119E+06              0.     2.18410E+06
           19665    -4.69670E+06     3.10739E+06              0.     2.31243E+06
           19666    -4.89602E+06     3.21642E+06              0.     2.44523E+06
           19667    -5.10262E+06     3.32831E+06              0.     2.58261E+06
           19668    -5.31675E+06     3.44309E+06              0.     2.72468E+06
           19669    -5.53864E+06     3.56079E+06              0.     2.87157E+06
           19670    -5.76855E+06     3.68142E+06              0.     3.02340E+06
           19671    -6.00674E+06     3.80501E+06              0.     3.18028E+06
           19672    -6.25349E+06     3.93157E+06              0.     3.34234E+06
           19673    -6.50905E+06     4.06110E+06              0.     3.50969E+06
           19674    -6.77373E+06     4.19360E+06              0.     3.68246E+06
           19675    -7.04780E+06     4.32908E+06              0.     3.86077E+06
           19676    -7.33156E+06     4.46750E+06              0.     4.04474E+06
           19677    -7.62532E+06     4.60886E+06              0.     4.23449E+06
           19678    -7.92938E+06     4.75312E+06              0.     4.43014E+06
           19679    -8.24405E+06     4.90024E+06              0.     4.63181E+06
           19680    -8.56967E+06     5.05017E+06              0.     4.83961E+06
           19681    -8.90655E+06     5.20284E+06              0.     5.05367E+06
           19682    -9.25504E+06     5.35819E+06              0.     5.27409E+06
           19683    -9.61548E+06     5.51610E+06              0.     5.50098E+06
           19684    -9.98822E+06     5.67649E+06              0.     5.73446E+06
           19685    -10.3736E+06     5.83922E+06              0.     5.97462E+06
           19686    -10.7720E+06     6.00416E+06              0.     6.22157E+06
           19687    -11.1838E+06     6.17114E+06              0.     6.47538E+06
           19688    -11.6093E+06     6.33998E+06              0.     6.73616E+06
           19689    -12.0489E+06     6.51047E+06              0.     7.00399E+06
           19690    -12.5030E+06     6.68238E+06              0.     7.27893E+06
           19691    -12.9720E+06     6.85544E+06              0.     7.56104E+06
           19692    -13.4563E+06     7.02938E+06              0.     7.85039E+06
           19693    -13.9562E+06     7.20386E+06              0.     8.14702E+06
           19694    -14.4721E+06     7.37852E+06              0.     8.45095E+06
           19695    -15.0045E+06     7.55298E+06              0.      8.7622E+06
           19696    -15.5536E+06     7.72679E+06              0.     9.08077E+06
           19697    -16.1200E+06     7.89948E+06              0.     9.40666E+06
           19698    -16.7039E+06     8.07051E+06              0.     9.73982E+06
           19699    -17.3058E+06     8.23930E+06              0.     10.0802E+06
           19700    -17.9260E+06     8.40522E+06              0.     10.4277E+06
           19701    -18.5649E+06     8.56757E+06              0.     10.7823E+06
           19702    -19.2229E+06      8.7256E+06              0.     11.1438E+06
           19703    -19.9003E+06     8.87847E+06              0.     11.5120E+06
           19704    -20.5974E+06     9.02527E+06              0.     11.8868E+06
           19705    -21.3146E+06     9.16503E+06              0.     12.2679E+06
           19706    -22.0522E+06     9.29667E+06              0.     12.6551E+06
           19707    -22.8104E+06     9.41904E+06              0.     13.0480E+06
           19708    -23.5896E+06     9.53086E+06              0.     13.4463E+06
           19709    -24.3899E+06     9.63077E+06              0.     13.8495E+06
           19710    -25.2117E+06     9.71729E+06              0.     14.2572E+06
           19711    -26.0550E+06     9.78881E+06              0.     14.6689E+06
           19712    -26.9201E+06     9.84359E+06              0.     15.0839E+06
           19713    -27.8071E+06     9.87975E+06              0.     15.5016E+06
           19714    -28.7160E+06     9.89527E+06              0.     15.9211E+06
           19715    -29.6468E+06     9.88794E+06              0.     16.3417E+06
           19716    -30.5997E+06     9.85541E+06              0.     16.7623E+06
           19717    -31.5744E+06     9.79513E+06              0.     17.1819E+06
           19718    -32.5709E+06     9.70435E+06              0.     17.5992E+06
           19719    -33.5890E+06     9.58011E+06              0.     18.0131E+06
           19720    -34.6284E+06     9.41923E+06              0.     18.4219E+06
           19721    -35.6888E+06     9.21828E+06              0.     18.8241E+06
           19722    -36.7697E+06     8.97358E+06              0.     19.2178E+06
           19723    -37.8706E+06     8.68117E+06              0.     19.6011E+06
           19724    -38.9910E+06     8.33681E+06              0.     19.9718E+06
           19725    -40.1301E+06     7.93593E+06              0.     20.3274E+06
           19726    -41.2871E+06     7.47366E+06              0.     20.6652E+06
           19727    -42.4610E+06     6.94474E+06              0.     20.9824E+06
           19728    -43.6508E+06     6.34357E+06              0.     21.2755E+06
           19729    -44.8552E+06     5.66413E+06              0.     21.5412E+06
           19730    -46.0728E+06     4.89998E+06              0.     21.7753E+06
           19731    -47.3022E+06     4.04426E+06              0.     21.9737E+06
           19732    -48.5415E+06     3.08961E+06              0.     22.1313E+06
           19733    -49.7889E+06     2.02818E+06              0.     22.2431E+06
           19734    -51.0422E+06     851.590E+03              0.     22.3033E+06
           19735    -52.2991E+06    -449.100E+03              0.     22.3053E+06
           19736    -53.5570E+06    -1.88340E+06              0.     22.2422E+06
           19737    -54.8131E+06    -3.46146E+06              0.     22.1064E+06
           19738    -56.0642E+06    -5.19406E+06              0.     21.8892E+06
           19739    -57.3069E+06    -7.09269E+06              0.     21.5813E+06
           19740    -58.5375E+06    -9.16951E+06              0.     21.1723E+06
           19741    -59.7518E+06    -11.4374E+06              0.     20.6509E+06
           19742    -60.9454E+06    -13.9102E+06              0.     20.0046E+06
           19743    -62.1135E+06    -16.6022E+06              0.     19.2194E+06
           19744    -63.2506E+06    -19.5288E+06              0.     18.2801E+06
           19745    -64.3510E+06    -22.7063E+06              0.     17.1698E+06
           19746    -65.4087E+06    -26.1516E+06              0.     15.8698E+06
           19747    -66.9623E+06    -30.2605E+06              0.     15.4550E+06
           19748     201.198E+03     91.7668E+03              0.    -938.640E+03
           19749     200.651E+03     86.4307E+03              0.    -937.027E+03
           19750     202.418E+03     82.0982E+03              0.    -928.409E+03
           19751     204.178E+03     77.7577E+03              0.    -920.082E+03
           19752     205.926E+03     73.4191E+03              0.    -912.047E+03
           19753     207.654E+03     69.0919E+03              0.    -904.299E+03
           19754     209.358E+03     64.7849E+03              0.    -896.839E+03
           19755     211.031E+03     60.5066E+03              0.    -889.662E+03
           19756     212.668E+03     56.2652E+03              0.    -882.766E+03
           19757     214.265E+03     52.0685E+03              0.    -876.148E+03
           19758     215.815E+03     47.9239E+03              0.    -869.804E+03
           19759     217.313E+03     43.8386E+03              0.    -863.730E+03
           19760     218.756E+03     39.8194E+03              0.    -857.922E+03
           19761     220.138E+03     35.8729E+03              0.    -852.375E+03
           19762     221.453E+03     32.0054E+03              0.    -847.086E+03
           19763     222.699E+03     28.2233E+03              0.    -842.047E+03
           19764     223.870E+03     24.5323E+03              0.    -837.255E+03
           19765     224.961E+03     20.9384E+03              0.    -832.703E+03
           19766     225.968E+03     17.4470E+03              0.    -828.386E+03
           19767     226.886E+03     14.0637E+03              0.    -824.297E+03
           19768     227.711E+03     10.7939E+03              0.    -820.430E+03
           19769     228.437E+03     7.64280E+03              0.    -816.780E+03
           19770     229.062E+03     4.61556E+03              0.    -813.337E+03
           19771     229.579E+03     1.71722E+03              0.    -810.097E+03
           19772     229.983E+03    -1.04715E+03              0.    -807.052E+03
           19773     230.271E+03    -3.67253E+03              0.    -804.193E+03
           19774     230.436E+03    -6.15405E+03              0.    -801.514E+03
           19775     230.475E+03    -8.48671E+03              0.    -799.006E+03
           19776     230.380E+03    -10.6656E+03              0.    -796.662E+03
           19777     230.149E+03    -12.6859E+03              0.    -794.473E+03
           19778     229.774E+03    -14.5425E+03              0.    -792.430E+03
           19779     229.249E+03    -16.2304E+03              0.    -790.525E+03
           19780     228.571E+03    -17.7447E+03              0.    -788.749E+03
           19781     227.731E+03    -19.0802E+03              0.    -787.093E+03
           19782     226.725E+03    -20.2319E+03              0.    -785.546E+03
           19783     225.544E+03    -21.1944E+03              0.    -784.101E+03
           19784     224.184E+03    -21.9624E+03              0.    -782.746E+03
           19785     222.637E+03    -22.5305E+03              0.    -781.471E+03
           19786     220.896E+03    -22.8932E+03              0.    -780.266E+03
           19787     218.953E+03    -23.0447E+03              0.    -779.121E+03
           19788     216.801E+03    -22.9794E+03              0.    -778.025E+03
           19789     214.432E+03    -22.6912E+03              0.    -776.966E+03
           19790     211.837E+03    -22.1741E+03              0.    -775.933E+03
           19791     209.008E+03    -21.4218E+03              0.    -774.915E+03
           19792     205.936E+03    -20.4279E+03              0.    -773.899E+03
           19793     202.612E+03    -19.1857E+03              0.    -772.873E+03
           19794     199.026E+03    -17.6884E+03              0.    -771.824E+03
           19795     195.168E+03    -15.9290E+03              0.    -770.741E+03
           19796     191.027E+03    -13.9002E+03              0.    -769.608E+03
           19797     186.593E+03    -11.5947E+03              0.    -768.414E+03
           19798     181.855E+03    -9.00467E+03              0.    -767.143E+03
           19799     176.801E+03    -6.12214E+03              0.    -765.783E+03
           19800     171.418E+03    -2.93895E+03              0.    -764.317E+03
           19801     165.695E+03         553.385              0.    -762.732E+03
           19802     159.617E+03     4.36364E+03              0.    -761.012E+03
           19803     153.172E+03     8.50084E+03              0.    -759.140E+03
           19804     146.344E+03     12.9744E+03              0.    -757.101E+03
           19805     139.120E+03     17.7939E+03              0.    -754.879E+03
           19806     131.484E+03     22.9693E+03              0.    -752.455E+03
           19807     123.419E+03     28.5110E+03              0.    -749.813E+03
           19808     114.911E+03     34.4296E+03              0.    -746.935E+03
           19809     105.940E+03     40.7362E+03              0.    -743.802E+03
           19810     96.4899E+03     47.4421E+03              0.    -740.394E+03
           19811     86.5416E+03     54.5590E+03              0.    -736.693E+03
           19812     76.0757E+03     62.0992E+03              0.    -732.678E+03
           19813     65.0722E+03     70.0752E+03              0.    -728.328E+03
           19814     53.5104E+03     78.5000E+03              0.    -723.623E+03
           19815     41.3686E+03     87.3869E+03              0.    -718.540E+03
           19816     28.6244E+03     96.7498E+03              0.    -713.057E+03
           19817     15.2545E+03     106.603E+03              0.    -707.151E+03
           19818     1.23476E+03     116.961E+03              0.    -700.797E+03
           19819    -13.4601E+03     127.840E+03              0.    -693.973E+03
           19820    -28.8559E+03     139.254E+03              0.    -686.651E+03
           19821    -44.9799E+03     151.221E+03              0.    -678.807E+03
           19822    -61.8601E+03     163.756E+03              0.    -670.414E+03
           19823    -79.5256E+03     176.878E+03              0.    -661.444E+03
           19824    -98.0066E+03     190.603E+03              0.    -651.869E+03
           19825    -117.335E+03     204.951E+03              0.    -641.660E+03
           19826    -137.542E+03     219.940E+03              0.    -630.787E+03
           19827    -158.662E+03     235.589E+03              0.    -619.219E+03
           19828    -180.731E+03     251.920E+03              0.    -606.924E+03
           19829    -203.784E+03     268.952E+03              0.    -593.871E+03
           19830    -227.860E+03     286.706E+03              0.    -580.025E+03
           19831    -252.996E+03     305.205E+03              0.    -565.352E+03
           19832    -279.234E+03     324.471E+03              0.    -549.816E+03
           19833    -306.615E+03     344.528E+03              0.    -533.380E+03
           19834    -335.184E+03     365.399E+03              0.    -516.008E+03
           19835    -364.984E+03     387.110E+03              0.    -497.660E+03
           19836    -396.064E+03     409.684E+03              0.    -478.296E+03
           19837    -428.470E+03     433.148E+03              0.    -457.875E+03
           19838    -462.254E+03     457.529E+03              0.    -436.356E+03
           19839    -497.467E+03     482.854E+03              0.    -413.693E+03
           19840    -534.163E+03     509.152E+03              0.    -389.844E+03
           19841    -572.398E+03     536.451E+03              0.    -364.762E+03
           19842    -612.230E+03     564.781E+03              0.    -338.399E+03
           19843    -653.719E+03     594.172E+03              0.    -310.707E+03
           19844    -696.926E+03     624.656E+03              0.    -281.636E+03
           19845    -741.915E+03     656.264E+03              0.    -251.135E+03
           19846    -788.754E+03     689.029E+03              0.    -219.150E+03
           19847    -837.511E+03     722.984E+03              0.    -185.627E+03
           19848    -888.256E+03     758.165E+03              0.    -150.511E+03
           19849    -941.065E+03     794.605E+03              0.    -113.743E+03
           19850    -996.013E+03     832.342E+03              0.    -75.2658E+03
           19851    -1.05318E+06     871.410E+03              0.    -35.0176E+03
           19852    -1.11265E+06     911.849E+03              0.     7.06357E+03
           19853    -1.17450E+06     953.696E+03              0.     51.0416E+03
           19854    -1.23882E+06     996.990E+03              0.     96.9821E+03
           19855    -1.30570E+06     1.04177E+06              0.     144.953E+03
           19856    -1.37524E+06     1.08808E+06              0.     195.022E+03
           19857    -1.44754E+06     1.13596E+06              0.     247.261E+03
           19858    -1.52268E+06     1.18544E+06              0.     301.744E+03
           19859    -1.60079E+06     1.23658E+06              0.     358.543E+03
           19860    -1.68195E+06     1.28942E+06              0.     417.737E+03
           19861    -1.76629E+06     1.34400E+06              0.     479.403E+03
           19862    -1.85392E+06     1.40036E+06              0.     543.621E+03
           19863    -1.94496E+06     1.45855E+06              0.     610.475E+03
           19864    -2.03952E+06     1.51861E+06              0.     680.048E+03
           19865    -2.13774E+06     1.58060E+06              0.     752.427E+03
           19866    -2.23974E+06     1.64455E+06              0.     827.700E+03
           19867    -2.34566E+06     1.71052E+06              0.     905.957E+03
           19868    -2.45564E+06     1.77855E+06              0.     987.292E+03
           19869    -2.56981E+06     1.84869E+06              0.     1.07180E+06
           19870    -2.68834E+06     1.92098E+06              0.     1.15957E+06
           19871    -2.81137E+06     1.99547E+06              0.     1.25071E+06
           19872    -2.93906E+06     2.07221E+06              0.     1.34532E+06
           19873    -3.07157E+06     2.15125E+06              0.     1.44349E+06
           19874    -3.20906E+06     2.23263E+06              0.     1.54534E+06
           19875    -3.35172E+06     2.31640E+06              0.     1.65097E+06
           19876    -3.49972E+06     2.40260E+06              0.     1.76049E+06
           19877    -3.65324E+06     2.49127E+06              0.     1.87402E+06
           19878    -3.81247E+06     2.58247E+06              0.     1.99165E+06
           19879    -3.97760E+06     2.67622E+06              0.     2.11351E+06
           19880    -4.14884E+06     2.77258E+06              0.     2.23972E+06
           19881    -4.32640E+06     2.87158E+06              0.     2.37038E+06
           19882    -4.51047E+06     2.97325E+06              0.     2.50563E+06
           19883    -4.70129E+06     3.07763E+06              0.     2.64558E+06
           19884    -4.89907E+06     3.18475E+06              0.     2.79035E+06
           19885    -5.10405E+06     3.29464E+06              0.     2.94008E+06
           19886    -5.31646E+06     3.40732E+06              0.     3.09487E+06
           19887    -5.53655E+06     3.52281E+06              0.     3.25487E+06
           19888    -5.76456E+06     3.64114E+06              0.     3.42020E+06
           19889    -6.00075E+06     3.76230E+06              0.     3.59098E+06
           19890    -6.24538E+06     3.88632E+06              0.     3.76735E+06
           19891    -6.49872E+06     4.01318E+06              0.     3.94943E+06
           19892    -6.76106E+06     4.14288E+06              0.     4.13736E+06
           19893    -7.03266E+06     4.27541E+06              0.     4.33125E+06
           19894    -7.31381E+06     4.41075E+06              0.     4.53125E+06
           19895    -7.60482E+06     4.54886E+06              0.     4.73748E+06
           19896    -7.90599E+06     4.68971E+06              0.     4.95006E+06
           19897    -8.21761E+06     4.83324E+06              0.     5.16913E+06
           19898    -8.54000E+06     4.97940E+06              0.     5.39479E+06
           19899    -8.87350E+06     5.12811E+06              0.     5.62719E+06
           19900    -9.21841E+06     5.27927E+06              0.     5.86642E+06
           19901    -9.57506E+06     5.43280E+06              0.     6.11261E+06
           19902    -9.94381E+06     5.58856E+06              0.     6.36587E+06
           19903    -10.3250E+06     5.74643E+06              0.     6.62630E+06
           19904    -10.7189E+06     5.90623E+06              0.     6.89400E+06
           19905    -11.1260E+06     6.06780E+06              0.     7.16907E+06
           19906    -11.5466E+06     6.23094E+06              0.     7.45159E+06
           19907    -11.9810E+06     6.39542E+06              0.     7.74164E+06
           19908    -12.4296E+06     6.56099E+06              0.     8.03929E+06
           19909    -12.8927E+06     6.72737E+06              0.     8.34460E+06
           19910    -13.3708E+06     6.89425E+06              0.     8.65761E+06
           19911    -13.8642E+06     7.06127E+06              0.     8.97835E+06
           19912    -14.3732E+06     7.22807E+06              0.     9.30686E+06
           19913    -14.8983E+06     7.39421E+06              0.     9.64312E+06
           19914    -15.4397E+06     7.55923E+06              0.     9.98713E+06
           19915    -15.9979E+06     7.72263E+06              0.     10.3388E+06
           19916    -16.5733E+06     7.88384E+06              0.     10.6982E+06
           19917    -17.1660E+06     8.04224E+06              0.     11.0652E+06
           19918    -17.7766E+06     8.19718E+06              0.     11.4396E+06
           19919    -18.4053E+06     8.34791E+06              0.     11.8213E+06
           19920    -19.0525E+06     8.49364E+06              0.     12.2102E+06
           19921    -19.7185E+06     8.63349E+06              0.     12.6060E+06
           19922    -20.4036E+06     8.76653E+06              0.     13.0086E+06
           19923    -21.1080E+06     8.89171E+06              0.     13.4176E+06
           19924    -21.8321E+06     9.00792E+06              0.     13.8326E+06
           19925    -22.5760E+06     9.11393E+06              0.     14.2534E+06
           19926    -23.3401E+06     9.20845E+06              0.     14.6794E+06
           19927    -24.1245E+06     9.29004E+06              0.     15.1102E+06
           19928    -24.9294E+06     9.35716E+06              0.     15.5451E+06
           19929    -25.7549E+06     9.40814E+06              0.     15.9836E+06
           19930    -26.6012E+06     9.44117E+06              0.     16.4249E+06
           19931    -27.4682E+06     9.45431E+06              0.     16.8682E+06
           19932    -28.3561E+06     9.44546E+06              0.     17.3126E+06
           19933    -29.2647E+06     9.41235E+06              0.     17.7570E+06
           19934    -30.1942E+06     9.35254E+06              0.     18.2004E+06
           19935    -31.1442E+06     9.26340E+06              0.     18.6414E+06
           19936    -32.1146E+06     9.14210E+06              0.     19.0786E+06
           19937    -33.1052E+06     8.98560E+06              0.     19.5105E+06
           19938    -34.1157E+06     8.79062E+06              0.     19.9354E+06
           19939    -35.1456E+06     8.55366E+06              0.     20.3513E+06
           19940    -36.1945E+06     8.27095E+06              0.     20.7562E+06
           19941    -37.2617E+06     7.93844E+06              0.     21.1477E+06
           19942    -38.3467E+06     7.55180E+06              0.     21.5232E+06
           19943    -39.4487E+06     7.10637E+06              0.     21.8799E+06
           19944    -40.5668E+06     6.59720E+06              0.     22.2147E+06
           19945    -41.7000E+06     6.01895E+06              0.     22.5242E+06
           19946    -42.8471E+06     5.36595E+06              0.     22.8046E+06
           19947    -44.0070E+06     4.63210E+06              0.     23.0517E+06
           19948    -45.1782E+06     3.81093E+06              0.     23.2609E+06
           19949    -46.3591E+06     2.89551E+06              0.     23.4272E+06
           19950    -47.5481E+06     1.87846E+06              0.     23.5451E+06
           19951    -48.7433E+06     751.923E+03              0.     23.6085E+06
           19952    -49.9425E+06    -492.473E+03              0.     23.6107E+06
           19953    -51.1435E+06    -1.86360E+06              0.     23.5443E+06
           19954    -52.3438E+06    -3.37094E+06              0.     23.4012E+06
           19955    -53.5406E+06    -5.02447E+06              0.     23.1726E+06
           19956    -54.7311E+06    -6.83485E+06              0.     22.8486E+06
           19957    -55.9119E+06    -8.81330E+06              0.     22.4185E+06
           19958    -57.0796E+06    -10.9717E+06              0.     21.8704E+06
           19959    -58.2304E+06    -13.3226E+06              0.     21.1911E+06
           19960    -59.3601E+06    -15.8792E+06              0.     20.3664E+06
           19961    -60.4643E+06    -18.6555E+06              0.     19.3804E+06
           19962    -61.5382E+06    -21.6659E+06              0.     18.2155E+06
           19963    -62.5762E+06    -24.9258E+06              0.     16.8524E+06
           19964    -64.0575E+06    -28.8132E+06              0.     16.4258E+06
           19965     180.916E+03     82.6461E+03              0.    -940.321E+03
           19966     180.407E+03     77.6698E+03              0.    -938.706E+03
           19967     182.057E+03     73.6266E+03              0.    -930.085E+03
           19968     183.700E+03     69.5744E+03              0.    -921.749E+03
           19969     185.331E+03     65.5227E+03              0.    -913.698E+03
           19970     186.945E+03     61.4804E+03              0.    -905.930E+03
           19971     188.535E+03     57.4561E+03              0.    -898.443E+03
           19972     190.096E+03     53.4578E+03              0.    -891.234E+03
           19973     191.624E+03     49.4934E+03              0.    -884.301E+03
           19974     193.112E+03     45.5703E+03              0.    -877.641E+03
           19975     194.557E+03     41.6955E+03              0.    -871.250E+03
           19976     195.953E+03     37.8760E+03              0.    -865.124E+03
           19977     197.295E+03     34.1182E+03              0.    -859.259E+03
           19978     198.580E+03     30.4285E+03              0.    -853.651E+03
           19979     199.803E+03     26.8130E+03              0.    -848.295E+03
           19980     200.958E+03     23.2775E+03              0.    -843.186E+03
           19981     202.042E+03     19.8277E+03              0.    -838.319E+03
           19982     203.051E+03     16.4691E+03              0.    -833.687E+03
           19983     203.980E+03     13.2072E+03              0.    -829.286E+03
           19984     204.824E+03     10.0471E+03              0.    -825.109E+03
           19985     205.579E+03     6.99396E+03              0.    -821.150E+03
           19986     206.242E+03     4.05280E+03              0.    -817.401E+03
           19987     206.806E+03     1.22859E+03              0.    -813.857E+03
           19988     207.269E+03    -1.47388E+03              0.    -810.510E+03
           19989     207.624E+03    -4.04978E+03              0.    -807.353E+03
           19990     207.868E+03    -6.49432E+03              0.    -804.378E+03
           19991     207.996E+03    -8.80283E+03              0.    -801.578E+03
           19992     208.003E+03    -10.9705E+03              0.    -798.944E+03
           19993     207.884E+03    -12.9928E+03              0.    -796.468E+03
           19994     207.633E+03    -14.8649E+03              0.    -794.142E+03
           19995     207.247E+03    -16.5821E+03              0.    -791.957E+03
           19996     206.718E+03    -18.1396E+03              0.    -789.905E+03
           19997     206.042E+03    -19.5326E+03              0.    -787.975E+03
           19998     205.213E+03    -20.7563E+03              0.    -786.159E+03
           19999     204.224E+03    -21.8057E+03              0.    -784.447E+03
           20000     203.071E+03    -22.6758E+03              0.    -782.830E+03
           20001     201.745E+03    -23.3616E+03              0.    -781.296E+03
           20002     200.242E+03    -23.8579E+03              0.    -779.836E+03
           20003     198.554E+03    -24.1594E+03              0.    -778.439E+03
           20004     196.674E+03    -24.2606E+03              0.    -777.094E+03
           20005     194.594E+03    -24.1561E+03              0.    -775.790E+03
           20006     192.307E+03    -23.8402E+03              0.    -774.515E+03
           20007     189.806E+03    -23.3071E+03              0.    -773.259E+03
           20008     187.081E+03    -22.5507E+03              0.    -772.008E+03
           20009     184.125E+03    -21.5650E+03              0.    -770.751E+03
           20010     180.929E+03    -20.3437E+03              0.    -769.474E+03
           20011     177.483E+03    -18.8801E+03              0.    -768.166E+03
           20012     173.778E+03    -17.1677E+03              0.    -766.812E+03
           20013     169.803E+03    -15.1996E+03              0.    -765.400E+03
           20014     165.550E+03    -12.9685E+03              0.    -763.914E+03
           20015     161.006E+03    -10.4673E+03              0.    -762.342E+03
           20016     156.161E+03    -7.68816E+03              0.    -760.667E+03
           20017     151.003E+03    -4.62343E+03              0.    -758.876E+03
           20018     145.520E+03    -1.26497E+03              0.    -756.952E+03
           20019     139.700E+03     2.39556E+03              0.    -754.880E+03
           20020     133.529E+03     6.36679E+03              0.    -752.644E+03
           20021     126.995E+03     10.6577E+03              0.    -750.226E+03
           20022     120.082E+03     15.2773E+03              0.    -747.609E+03
           20023     112.777E+03     20.2354E+03              0.    -744.777E+03
           20024     105.063E+03     25.5415E+03              0.    -741.710E+03
           20025     96.9265E+03     31.2060E+03              0.    -738.390E+03
           20026     88.3497E+03     37.2394E+03              0.    -734.798E+03
           20027     79.3157E+03     43.6524E+03              0.    -730.914E+03
           20028      69.807E+03     50.4563E+03              0.    -726.718E+03
           20029     59.8051E+03     57.6627E+03              0.    -722.189E+03
           20030     49.2910E+03     65.2835E+03              0.    -717.305E+03
           20031     38.2448E+03     73.3312E+03              0.    -712.045E+03
           20032     26.6460E+03     81.8184E+03              0.    -706.386E+03
           20033     14.4731E+03     90.7584E+03              0.    -700.305E+03
           20034     1.70390E+03     100.165E+03              0.    -693.777E+03
           20035    -11.6846E+03     110.052E+03              0.    -686.778E+03
           20036    -25.7163E+03     120.433E+03              0.    -679.283E+03
           20037    -40.4161E+03     131.325E+03              0.    -671.265E+03
           20038    -55.8098E+03     142.742E+03              0.    -662.697E+03
           20039    -71.9241E+03     154.700E+03              0.    -653.553E+03
           20040    -88.7867E+03     167.216E+03              0.    -643.802E+03
           20041    -106.427E+03     180.307E+03              0.    -633.417E+03
           20042    -124.873E+03     193.990E+03              0.    -622.366E+03
           20043    -144.158E+03     208.283E+03              0.    -610.619E+03
           20044    -164.314E+03     223.205E+03              0.    -598.143E+03
           20045    -185.372E+03     238.775E+03              0.    -584.906E+03
           20046    -207.369E+03     255.013E+03              0.    -570.874E+03
           20047    -230.340E+03     271.938E+03              0.    -556.012E+03
           20048    -254.322E+03     289.573E+03              0.    -540.283E+03
           20049    -279.354E+03     307.938E+03              0.    -523.652E+03
           20050    -305.476E+03     327.055E+03              0.    -506.079E+03
           20051    -332.728E+03     346.948E+03              0.    -487.526E+03
           20052    -361.155E+03     367.639E+03              0.    -467.952E+03
           20053    -390.801E+03     389.153E+03              0.    -447.315E+03
           20054    -421.711E+03     411.515E+03              0.    -425.574E+03
           20055    -453.935E+03     434.750E+03              0.    -402.683E+03
           20056    -487.520E+03     458.885E+03              0.    -378.598E+03
           20057    -522.518E+03     483.945E+03              0.    -353.273E+03
           20058    -558.984E+03     509.959E+03              0.    -326.658E+03
           20059    -596.971E+03     536.955E+03              0.    -298.705E+03
           20060    -636.536E+03     564.961E+03              0.    -269.363E+03
           20061    -677.740E+03     594.008E+03              0.    -238.580E+03
           20062    -720.642E+03     624.126E+03              0.    -206.302E+03
           20063    -765.307E+03     655.347E+03              0.    -172.474E+03
           20064      -811.8E+03     687.702E+03              0.    -137.039E+03
           20065    -860.188E+03     721.223E+03              0.    -99.9392E+03
           20066    -910.543E+03     755.946E+03              0.    -61.1143E+03
           20067    -962.937E+03     791.903E+03              0.    -20.5026E+03
           20068    -1.01744E+06     829.129E+03              0.     21.9591E+03
           20069    -1.07414E+06     867.661E+03              0.     66.3358E+03
           20070    -1.13312E+06     907.535E+03              0.     112.695E+03
           20071    -1.19444E+06     948.787E+03              0.     161.104E+03
           20072    -1.25821E+06     991.457E+03              0.     211.634E+03
           20073    -1.32452E+06     1.03558E+06              0.     264.358E+03
           20074    -1.39344E+06     1.08120E+06              0.     319.349E+03
           20075    -1.46509E+06     1.12836E+06              0.     376.684E+03
           20076    -1.53955E+06     1.17709E+06              0.     436.441E+03
           20077    -1.61693E+06     1.22744E+06              0.     498.700E+03
           20078    -1.69734E+06     1.27944E+06              0.     563.544E+03
           20079    -1.78088E+06     1.33315E+06              0.     631.055E+03
           20080    -1.86766E+06     1.38860E+06              0.     701.322E+03
           20081    -1.95781E+06     1.44584E+06              0.     774.431E+03
           20082    -2.05145E+06     1.50491E+06              0.     850.475E+03
           20083    -2.14868E+06     1.56586E+06              0.     929.544E+03
           20084    -2.24966E+06     1.62873E+06              0.     1.01173E+06
           20085     -2.3545E+06     1.69356E+06              0.     1.09714E+06
           20086    -2.46334E+06     1.76040E+06              0.     1.18587E+06
           20087    -2.57633E+06     1.82929E+06              0.     1.27801E+06
           20088    -2.69361E+06     1.90029E+06              0.     1.37368E+06
           20089    -2.81533E+06     1.97343E+06              0.     1.47298E+06
           20090    -2.94165E+06     2.04876E+06              0.     1.57601E+06
           20091    -3.07271E+06     2.12632E+06              0.     1.68288E+06
           20092    -3.20870E+06     2.20616E+06              0.     1.79372E+06
           20093    -3.34977E+06     2.28832E+06              0.     1.90862E+06
           20094    -3.49610E+06     2.37284E+06              0.     2.02772E+06
           20095    -3.64788E+06     2.45976E+06              0.     2.15112E+06
           20096    -3.80528E+06     2.54912E+06              0.     2.27895E+06
           20097    -3.96850E+06     2.64097E+06              0.     2.41133E+06
           20098    -4.13773E+06     2.73533E+06              0.     2.54839E+06
           20099    -4.31318E+06     2.83224E+06              0.     2.69024E+06
           20100    -4.49505E+06     2.93173E+06              0.     2.83703E+06
           20101    -4.68355E+06     3.03384E+06              0.     2.98887E+06
           20102    -4.87891E+06     3.13859E+06              0.     3.14590E+06
           20103    -5.08135E+06     3.24600E+06              0.     3.30825E+06
           20104    -5.29110E+06     3.35609E+06              0.     3.47606E+06
           20105    -5.50839E+06     3.46888E+06              0.     3.64946E+06
           20106    -5.73348E+06     3.58438E+06              0.     3.82858E+06
           20107    -5.96660E+06     3.70259E+06              0.     4.01356E+06
           20108    -6.20802E+06     3.82351E+06              0.     4.20454E+06
           20109    -6.45799E+06     3.94715E+06              0.     4.40165E+06
           20110    -6.71679E+06     4.07347E+06              0.     4.60504E+06
           20111    -6.98468E+06     4.20247E+06              0.     4.81483E+06
           20112    -7.26195E+06     4.33411E+06              0.     5.03116E+06
           20113    -7.54889E+06     4.46835E+06              0.     5.25417E+06
           20114    -7.84577E+06     4.60515E+06              0.     5.48399E+06
           20115    -8.15291E+06     4.74445E+06              0.     5.72074E+06
           20116    -8.47059E+06     4.88616E+06              0.     5.96457E+06
           20117    -8.79914E+06     5.03022E+06              0.     6.21559E+06
           20118    -9.13887E+06     5.17651E+06              0.     6.47392E+06
           20119    -9.49008E+06     5.32493E+06              0.     6.73968E+06
           20120    -9.85311E+06     5.47533E+06              0.     7.01299E+06
           20121    -10.2283E+06     5.62758E+06              0.     7.29395E+06
           20122    -10.6159E+06     5.78149E+06              0.     7.58265E+06
           20123    -11.0164E+06     5.93687E+06              0.     7.87920E+06
           20124    -11.4300E+06     6.09351E+06              0.     8.18367E+06
           20125    -11.8571E+06     6.25117E+06              0.     8.49613E+06
           20126    -12.2980E+06     6.40958E+06              0.     8.81666E+06
           20127    -12.7531E+06     6.56842E+06              0.     9.14530E+06
           20128    -13.2227E+06     6.72738E+06              0.     9.48208E+06
           20129    -13.7071E+06     6.88609E+06              0.     9.82703E+06
           20130    -14.2068E+06     7.04413E+06              0.     10.1801E+06
           20131    -14.7220E+06     7.20107E+06              0.     10.5414E+06
           20132    -15.2530E+06     7.35641E+06              0.     10.9108E+06
           20133    -15.8003E+06     7.50961E+06              0.     11.2883E+06
           20134    -16.3642E+06     7.66009E+06              0.     11.6737E+06
           20135    -16.9449E+06     7.80720E+06              0.     12.0670E+06
           20136    -17.5427E+06     7.95023E+06              0.     12.4680E+06
           20137    -18.1581E+06     8.08843E+06              0.     12.8766E+06
           20138    -18.7912E+06     8.22095E+06              0.     13.2924E+06
           20139    -19.4424E+06     8.34689E+06              0.     13.7154E+06
           20140    -20.1118E+06     8.46525E+06              0.     14.1451E+06
           20141    -20.7999E+06     8.57497E+06              0.     14.5812E+06
           20142    -21.5067E+06     8.67488E+06              0.     15.0233E+06
           20143    -22.2325E+06     8.76372E+06              0.     15.4709E+06
           20144    -22.9775E+06     8.84013E+06              0.     15.9236E+06
           20145    -23.7418E+06     8.90263E+06              0.     16.3806E+06
           20146    -24.5256E+06     8.94962E+06              0.     16.8414E+06
           20147    -25.3289E+06     8.97939E+06              0.     17.3051E+06
           20148    -26.1518E+06     8.99006E+06              0.     17.7709E+06
           20149    -26.9943E+06     8.97964E+06              0.     18.2378E+06
           20150    -27.8565E+06     8.94597E+06              0.     18.7047E+06
           20151    -28.7381E+06     8.88671E+06              0.     19.1705E+06
           20152    -29.6391E+06     8.79937E+06              0.     19.6338E+06
           20153    -30.5593E+06     8.68125E+06              0.     20.0931E+06
           20154    -31.4985E+06     8.52946E+06              0.     20.5468E+06
           20155    -32.4564E+06     8.34088E+06              0.     20.9930E+06
           20156    -33.4325E+06     8.11220E+06              0.     21.4298E+06
           20157    -34.4265E+06     7.83983E+06              0.     21.8549E+06
           20158    -35.4378E+06     7.51995E+06              0.     22.2659E+06
           20159    -36.4658E+06     7.14845E+06              0.     22.6601E+06
           20160    -37.5098E+06     6.72095E+06              0.     23.0345E+06
           20161    -38.5691E+06     6.23275E+06              0.     23.3859E+06
           20162    -39.6426E+06     5.67884E+06              0.     23.7106E+06
           20163    -40.7294E+06     5.05388E+06              0.     24.0047E+06
           20164    -41.8284E+06     4.35215E+06              0.     24.2638E+06
           20165    -42.9383E+06     3.56757E+06              0.     24.4831E+06
           20166    -44.0578E+06     2.69368E+06              0.     24.6574E+06
           20167    -45.1852E+06     1.72358E+06              0.     24.7809E+06
           20168    -46.3190E+06     649.946E+03              0.     24.8472E+06
           20169    -47.4574E+06    -534.988E+03              0.     24.8494E+06
           20170    -48.5984E+06    -1.83945E+06              0.     24.7798E+06
           20171    -49.7397E+06    -3.27218E+06              0.     24.6300E+06
           20172    -50.8792E+06    -4.84239E+06              0.     24.3907E+06
           20173    -52.0144E+06    -6.55985E+06              0.     24.0518E+06
           20174    -53.1424E+06    -8.43482E+06              0.     23.6021E+06
           20175    -54.2605E+06    -10.4781E+06              0.     23.0293E+06
           20176    -55.3655E+06    -12.7011E+06              0.     22.3199E+06
           20177    -56.4541E+06    -15.1156E+06              0.     21.4590E+06
           20178    -57.5228E+06    -17.7342E+06              0.     20.4303E+06
           20179    -58.5676E+06    -20.5699E+06              0.     19.2158E+06
           20180    -59.5848E+06    -23.6362E+06              0.     17.7955E+06
           20181    -60.9910E+06    -27.2931E+06              0.     17.3600E+06
           20182     160.655E+03     73.5337E+03              0.    -941.885E+03
           20183     160.183E+03     68.9092E+03              0.    -940.268E+03
           20184     161.717E+03     65.1490E+03              0.    -931.645E+03
           20185     163.246E+03     61.3791E+03              0.    -923.301E+03
           20186     164.764E+03     57.6085E+03              0.    -915.236E+03
           20187     166.265E+03     53.8456E+03              0.    -907.448E+03
           20188     167.744E+03     50.0986E+03              0.    -899.936E+03
           20189     169.196E+03     46.3752E+03              0.    -892.697E+03
           20190     170.616E+03     42.6827E+03              0.    -885.729E+03
           20191     171.999E+03     39.0283E+03              0.    -879.028E+03
           20192     173.341E+03     35.4187E+03              0.    -872.592E+03
           20193     174.637E+03     31.8603E+03              0.    -866.417E+03
           20194     175.883E+03     28.3594E+03              0.    -860.499E+03
           20195     177.073E+03     24.9220E+03              0.    -854.833E+03
           20196     178.205E+03     21.5539E+03              0.    -849.414E+03
           20197     179.274E+03     18.2606E+03              0.    -844.238E+03
           20198     180.275E+03     15.0476E+03              0.      -839.3E+03
           20199     181.205E+03     11.9201E+03              0.    -834.593E+03
           20200     182.059E+03     8.88323E+03              0.    -830.112E+03
           20201     182.833E+03     5.94193E+03              0.    -825.851E+03
           20202     183.523E+03     3.10112E+03              0.    -821.804E+03
           20203     184.124E+03         365.501              0.    -817.963E+03
           20204     184.633E+03    -2.26017E+03              0.    -814.322E+03
           20205     185.046E+03    -4.77134E+03              0.    -810.874E+03
           20206     185.357E+03    -7.16342E+03              0.    -807.610E+03
           20207     185.562E+03    -9.43185E+03              0.    -804.525E+03
           20208     185.658E+03    -11.5722E+03              0.    -801.610E+03
           20209     185.638E+03    -13.5799E+03              0.    -798.856E+03
           20210     185.499E+03    -15.4506E+03              0.    -796.255E+03
           20211     185.236E+03    -17.1798E+03              0.    -793.799E+03
           20212     184.843E+03    -18.7629E+03              0.    -791.480E+03
           20213     184.316E+03    -20.1955E+03              0.    -789.287E+03
           20214     183.649E+03    -21.4729E+03              0.    -787.211E+03
           20215     182.837E+03    -22.5906E+03              0.    -785.244E+03
           20216     181.875E+03    -23.5439E+03              0.    -783.374E+03
           20217     180.755E+03    -24.3281E+03              0.    -781.593E+03
           20218     179.473E+03    -24.9382E+03              0.    -779.889E+03
           20219     178.022E+03    -25.3694E+03              0.    -778.253E+03
           20220     176.395E+03    -25.6167E+03              0.    -776.673E+03
           20221     174.586E+03    -25.6749E+03              0.    -775.138E+03
           20222     172.589E+03    -25.5388E+03              0.    -773.637E+03
           20223     170.395E+03    -25.2030E+03              0.    -772.157E+03
           20224     167.997E+03    -24.6620E+03              0.    -770.688E+03
           20225     165.388E+03    -23.9101E+03              0.    -769.217E+03
           20226     162.559E+03    -22.9414E+03              0.    -767.730E+03
           20227     159.502E+03    -21.7501E+03              0.    -766.216E+03
           20228     156.209E+03    -20.3298E+03              0.    -764.660E+03
           20229     152.669E+03    -18.6743E+03              0.    -763.050E+03
           20230     148.875E+03    -16.7770E+03              0.    -761.371E+03
           20231     144.815E+03    -14.6311E+03              0.    -759.609E+03
           20232     140.481E+03    -12.2297E+03              0.    -757.749E+03
           20233     135.860E+03    -9.56553E+03              0.    -755.777E+03
           20234     130.943E+03    -6.63124E+03              0.    -753.675E+03
           20235     125.718E+03    -3.41912E+03              0.    -751.430E+03
           20236     120.172E+03         78.7449              0.    -749.024E+03
           20237     114.294E+03     3.87054E+03              0.    -746.440E+03
           20238     108.071E+03     7.96476E+03              0.    -743.661E+03
           20239     101.490E+03     12.3701E+03              0.    -740.671E+03
           20240     94.5357E+03     17.0955E+03              0.    -737.449E+03
           20241     87.1948E+03     22.1505E+03              0.    -733.978E+03
           20242     79.4522E+03     27.5445E+03              0.    -730.239E+03
           20243     71.2921E+03     33.2877E+03              0.    -726.211E+03
           20244     62.6985E+03     39.3903E+03              0.    -721.874E+03
           20245     53.6547E+03     45.8628E+03              0.    -717.207E+03
           20246     44.1431E+03     52.7164E+03              0.    -712.190E+03
           20247     34.1456E+03     59.9623E+03              0.    -706.799E+03
           20248     23.6434E+03     67.6123E+03              0.    -701.011E+03
           20249     12.6170E+03     75.6785E+03              0.    -694.805E+03
           20250     1.04616E+03     84.1734E+03              0.    -688.155E+03
           20251    -11.0903E+03     93.1099E+03              0.    -681.036E+03
           20252    -23.8141E+03     102.501E+03              0.    -673.423E+03
           20253    -37.1480E+03     112.362E+03              0.    -665.290E+03
           20254    -51.1157E+03     122.705E+03              0.    -656.610E+03
           20255    -65.7414E+03     133.546E+03              0.    -647.355E+03
           20256    -81.0507E+03     144.899E+03              0.    -637.496E+03
           20257    -97.0697E+03     156.781E+03              0.    -627.003E+03
           20258    -113.826E+03     169.207E+03              0.    -615.847E+03
           20259    -131.348E+03     182.194E+03              0.    -603.996E+03
           20260    -149.664E+03     195.760E+03              0.    -591.418E+03
           20261    -168.806E+03     209.921E+03              0.    -578.079E+03
           20262    -188.806E+03     224.696E+03              0.    -563.946E+03
           20263    -209.694E+03     240.103E+03              0.    -548.983E+03
           20264    -231.507E+03     256.163E+03              0.    -533.155E+03
           20265    -254.279E+03     272.894E+03              0.    -516.423E+03
           20266    -278.047E+03     290.317E+03              0.    -498.750E+03
           20267    -302.848E+03     308.454E+03              0.    -480.096E+03
           20268    -328.723E+03     327.325E+03              0.    -460.420E+03
           20269    -355.711E+03     346.954E+03              0.    -439.680E+03
           20270    -383.855E+03     367.362E+03              0.    -417.834E+03
           20271    -413.199E+03     388.573E+03              0.    -394.837E+03
           20272    -443.787E+03     410.613E+03              0.    -370.643E+03
           20273    -475.668E+03     433.504E+03              0.    -345.205E+03
           20274    -508.890E+03     457.274E+03              0.    -318.475E+03
           20275    -543.503E+03     481.947E+03              0.    -290.403E+03
           20276    -579.559E+03     507.552E+03              0.    -260.938E+03
           20277    -617.112E+03     534.114E+03              0.    -230.027E+03
           20278    -656.220E+03     561.664E+03              0.    -197.616E+03
           20279    -696.938E+03     590.229E+03              0.    -163.649E+03
           20280    -739.329E+03     619.838E+03              0.    -128.068E+03
           20281    -783.453E+03     650.524E+03              0.    -90.8153E+03
           20282    -829.376E+03     682.316E+03              0.    -51.8292E+03
           20283    -877.163E+03     715.247E+03              0.    -11.0476E+03
           20284    -926.885E+03     749.348E+03              0.     31.5936E+03
           20285    -978.612E+03     784.654E+03              0.     76.1603E+03
           20286    -1.03242E+06     821.197E+03              0.     122.720E+03
           20287    -1.08838E+06     859.014E+03              0.     171.343E+03
           20288    -1.14658E+06     898.138E+03              0.     222.100E+03
           20289    -1.20709E+06     938.607E+03              0.     275.065E+03
           20290    -1.27000E+06     980.456E+03              0.     330.313E+03
           20291    -1.33541E+06     1.02372E+06              0.     387.922E+03
           20292    -1.40339E+06     1.06845E+06              0.     447.970E+03
           20293    -1.47404E+06     1.11466E+06              0.     510.540E+03
           20294    -1.54747E+06     1.16242E+06              0.     575.715E+03
           20295    -1.62376E+06     1.21174E+06              0.     643.581E+03
           20296    -1.70303E+06     1.26268E+06              0.     714.225E+03
           20297    -1.78537E+06     1.31528E+06              0.     787.737E+03
           20298    -1.87091E+06     1.36957E+06              0.     864.211E+03
           20299    -1.95974E+06     1.42559E+06              0.     943.739E+03
           20300    -2.05200E+06     1.48340E+06              0.     1.02642E+06
           20301    -2.14780E+06     1.54303E+06              0.     1.11235E+06
           20302    -2.24727E+06     1.60453E+06              0.     1.20164E+06
           20303    -2.35054E+06     1.66793E+06              0.     1.29438E+06
           20304    -2.45773E+06     1.73328E+06              0.     1.39068E+06
           20305    -2.56900E+06     1.80062E+06              0.     1.49065E+06
           20306    -2.68447E+06     1.87000E+06              0.     1.59441E+06
           20307    -2.80430E+06     1.94146E+06              0.     1.70206E+06
           20308    -2.92864E+06     2.01503E+06              0.     1.81371E+06
           20309    -3.05765E+06     2.09077E+06              0.     1.92950E+06
           20310    -3.19147E+06     2.16870E+06              0.     2.04953E+06
           20311    -3.33029E+06     2.24888E+06              0.     2.17393E+06
           20312    -3.47426E+06     2.33134E+06              0.     2.30282E+06
           20313    -3.62357E+06     2.41611E+06              0.     2.43633E+06
           20314    -3.77840E+06     2.50324E+06              0.     2.57458E+06
           20315    -3.93892E+06     2.59275E+06              0.     2.71771E+06
           20316    -4.10533E+06     2.68469E+06              0.     2.86586E+06
           20317    -4.27784E+06     2.77908E+06              0.     3.01914E+06
           20318    -4.45663E+06     2.87594E+06              0.     3.17771E+06
           20319    -4.64191E+06     2.97531E+06              0.     3.34169E+06
           20320    -4.83391E+06     3.07721E+06              0.     3.51123E+06
           20321    -5.03283E+06     3.18164E+06              0.     3.68646E+06
           20322    -5.23890E+06     3.28864E+06              0.     3.86753E+06
           20323    -5.45236E+06     3.39820E+06              0.     4.05459E+06
           20324    -5.67342E+06     3.51034E+06              0.     4.24776E+06
           20325    -5.90235E+06     3.62505E+06              0.      4.4472E+06
           20326    -6.13937E+06     3.74232E+06              0.     4.65305E+06
           20327    -6.38476E+06     3.86215E+06              0.     4.86545E+06
           20328    -6.63875E+06     3.98451E+06              0.     5.08455E+06
           20329    -6.90162E+06     4.10937E+06              0.     5.31049E+06
           20330    -7.17364E+06     4.23669E+06              0.     5.54341E+06
           20331    -7.45508E+06     4.36643E+06              0.     5.78345E+06
           20332    -7.74622E+06     4.49853E+06              0.     6.03075E+06
           20333    -8.04734E+06     4.63292E+06              0.     6.28544E+06
           20334    -8.35874E+06     4.76952E+06              0.     6.54766E+06
           20335    -8.68071E+06     4.90823E+06              0.     6.81753E+06
           20336    -9.01354E+06     5.04894E+06              0.     7.09517E+06
           20337    -9.35754E+06     5.19152E+06              0.     7.38071E+06
           20338    -9.71303E+06     5.33583E+06              0.     7.67426E+06
           20339    -10.0803E+06     5.48170E+06              0.     7.97591E+06
           20340    -10.4597E+06     5.62895E+06              0.     8.28577E+06
           20341    -10.8515E+06     5.77737E+06              0.     8.60393E+06
           20342    -11.2560E+06     5.92673E+06              0.     8.93047E+06
           20343    -11.6735E+06     6.07677E+06              0.     9.26544E+06
           20344    -12.1045E+06     6.22719E+06              0.     9.60890E+06
           20345    -12.5491E+06     6.37769E+06              0.     9.96090E+06
           20346    -13.0078E+06     6.52790E+06              0.     10.3214E+06
           20347    -13.4808E+06     6.67745E+06              0.     10.6906E+06
           20348    -13.9685E+06     6.82590E+06              0.     11.0682E+06
           20349    -14.4711E+06     6.97279E+06              0.     11.4544E+06
           20350    -14.9890E+06     7.11759E+06              0.     11.8489E+06
           20351    -15.5224E+06     7.25974E+06              0.     12.2519E+06
           20352    -16.0718E+06     7.39864E+06              0.     12.6631E+06
           20353    -16.6373E+06     7.53361E+06              0.     13.0823E+06
           20354    -17.2192E+06     7.66390E+06              0.     13.5095E+06
           20355    -17.8178E+06     7.78874E+06              0.     13.9443E+06
           20356    -18.4334E+06     7.90724E+06              0.     14.3865E+06
           20357    -19.0662E+06     8.01846E+06              0.     14.8358E+06
           20358    -19.7165E+06     8.12139E+06              0.     15.2918E+06
           20359    -20.3843E+06     8.21491E+06              0.     15.7541E+06
           20360    -21.0700E+06     8.29782E+06              0.     16.2221E+06
           20361    -21.7737E+06     8.36883E+06              0.     16.6954E+06
           20362    -22.4954E+06     8.42652E+06              0.     17.1733E+06
           20363    -23.2354E+06     8.46937E+06              0.      17.655E+06
           20364    -23.9937E+06     8.49576E+06              0.     18.1398E+06
           20365    -24.7703E+06     8.50390E+06              0.     18.6267E+06
           20366    -25.5653E+06     8.49191E+06              0.     19.1148E+06
           20367    -26.3786E+06     8.45772E+06              0.     19.6029E+06
           20368    -27.2101E+06     8.39913E+06              0.     20.0898E+06
           20369    -28.0598E+06     8.31376E+06              0.     20.5740E+06
           20370    -28.9274E+06     8.19908E+06              0.     21.0540E+06
           20371    -29.8126E+06     8.05234E+06              0.     21.5280E+06
           20372    -30.7154E+06     7.87061E+06              0.     21.9942E+06
           20373    -31.6352E+06     7.65074E+06              0.     22.4505E+06
           20374    -32.5717E+06     7.38937E+06              0.     22.8946E+06
           20375    -33.5243E+06     7.08288E+06              0.     23.3238E+06
           20376    -34.4926E+06     6.72743E+06              0.     23.7354E+06
           20377    -35.4759E+06     6.31889E+06              0.     24.1262E+06
           20378    -36.4735E+06     5.85288E+06              0.     24.4929E+06
           20379    -37.4846E+06     5.32468E+06              0.     24.8317E+06
           20380    -38.5082E+06     4.72932E+06              0.     25.1384E+06
           20381    -39.5434E+06     4.06147E+06              0.     25.4086E+06
           20382    -40.5891E+06     3.31547E+06              0.     25.6372E+06
           20383    -41.6441E+06     2.48530E+06              0.     25.8188E+06
           20384    -42.7070E+06     1.56460E+06              0.     25.9473E+06
           20385    -43.7765E+06     546.595E+03              0.     26.0163E+06
           20386    -44.8511E+06    -575.868E+03              0.     26.0184E+06
           20387     -45.929E+06    -1.81034E+06              0.     25.9457E+06
           20388    -47.0085E+06    -3.16483E+06              0.     25.7896E+06
           20389    -48.0877E+06    -4.64772E+06              0.     25.5404E+06
           20390    -49.1645E+06    -6.26788E+06              0.     25.1878E+06
           20391    -50.2369E+06    -8.03459E+06              0.     24.7201E+06
           20392    -51.3025E+06    -9.95755E+06              0.     24.1248E+06
           20393    -52.3589E+06    -12.0469E+06              0.     23.3880E+06
           20394    -53.4036E+06    -14.3133E+06              0.     22.4944E+06
           20395    -54.4339E+06    -16.7677E+06              0.     21.4273E+06
           20396    -55.4472E+06    -19.4215E+06              0.     20.1683E+06
           20397    -56.4404E+06    -22.2863E+06              0.     18.6971E+06
           20398    -57.7680E+06    -25.7039E+06              0.     18.2562E+06
           20399     140.413E+03     64.4296E+03              0.    -943.335E+03
           20400     139.977E+03     60.1491E+03              0.    -941.716E+03
           20401     141.398E+03     56.6660E+03              0.    -933.091E+03
           20402     142.815E+03     53.1727E+03              0.    -924.739E+03
           20403     144.222E+03     49.6776E+03              0.    -916.661E+03
           20404     145.613E+03     46.1889E+03              0.    -908.855E+03
           20405     146.983E+03     42.7141E+03              0.    -901.319E+03
           20406     148.328E+03     39.2607E+03              0.    -894.052E+03
           20407     149.644E+03     35.8354E+03              0.    -887.051E+03
           20408     150.924E+03     32.4450E+03              0.    -880.313E+03
           20409     152.166E+03     29.0960E+03              0.    -873.835E+03
           20410     153.365E+03     25.7944E+03              0.    -867.614E+03
           20411     154.516E+03     22.5461E+03              0.    -861.644E+03
           20412     155.616E+03     19.3567E+03              0.    -855.923E+03
           20413     156.660E+03     16.2318E+03              0.    -850.446E+03
           20414     157.645E+03     13.1766E+03              0.    -845.207E+03
           20415     158.566E+03     10.1962E+03              0.    -840.202E+03
           20416     159.420E+03     7.29566E+03              0.    -835.424E+03
           20417     160.202E+03     4.47968E+03              0.    -830.868E+03
           20418     160.909E+03     1.75303E+03              0.    -826.527E+03
           20419     161.537E+03        -879.662              0.    -822.396E+03
           20420     162.082E+03    -3.41396E+03              0.    -818.468E+03
           20421     162.540E+03    -5.84537E+03              0.    -814.735E+03
           20422     162.906E+03    -8.16957E+03              0.    -811.191E+03
           20423     163.177E+03    -10.3822E+03              0.    -807.828E+03
           20424     163.348E+03    -12.4791E+03              0.    -804.639E+03
           20425     163.416E+03    -14.4558E+03              0.    -801.614E+03
           20426     163.375E+03    -16.3083E+03              0.    -798.747E+03
           20427     163.221E+03    -18.0323E+03              0.    -796.029E+03
           20428     162.951E+03    -19.6234E+03              0.    -793.450E+03
           20429     162.558E+03    -21.0776E+03              0.    -791.003E+03
           20430     162.039E+03    -22.3905E+03              0.    -788.677E+03
           20431     161.387E+03    -23.5578E+03              0.    -786.463E+03
           20432     160.599E+03    -24.5752E+03              0.    -784.353E+03
           20433     159.669E+03    -25.4382E+03              0.    -782.334E+03
           20434     158.590E+03    -26.1423E+03              0.    -780.399E+03
           20435     157.359E+03    -26.6829E+03              0.    -778.534E+03
           20436     155.968E+03    -27.0555E+03              0.    -776.731E+03
           20437     154.411E+03    -27.2553E+03              0.    -774.978E+03
           20438     152.683E+03    -27.2774E+03              0.    -773.263E+03
           20439     150.776E+03    -27.1169E+03              0.    -771.575E+03
           20440     148.684E+03    -26.7686E+03              0.    -769.902E+03
           20441     146.400E+03    -26.2274E+03              0.    -768.232E+03
           20442     143.916E+03    -25.4880E+03              0.    -766.552E+03
           20443     141.225E+03    -24.5447E+03              0.    -764.848E+03
           20444     138.319E+03    -23.3920E+03              0.    -763.109E+03
           20445     135.190E+03    -22.0240E+03              0.    -761.320E+03
           20446     131.829E+03    -20.4347E+03              0.    -759.467E+03
           20447     128.227E+03    -18.6180E+03              0.    -757.536E+03
           20448     124.374E+03    -16.5674E+03              0.    -755.512E+03
           20449     120.263E+03    -14.2764E+03              0.    -753.381E+03
           20450     115.881E+03    -11.7381E+03              0.    -751.126E+03
           20451     111.220E+03    -8.94566E+03              0.    -748.731E+03
           20452     106.268E+03    -5.89171E+03              0.    -746.181E+03
           20453     101.014E+03    -2.56880E+03              0.    -743.459E+03
           20454     95.4461E+03     1.03079E+03              0.    -740.547E+03
           20455     89.5526E+03     4.91507E+03              0.    -737.428E+03
           20456     83.3208E+03     9.09222E+03              0.    -734.083E+03
           20457     76.7376E+03     13.5708E+03              0.    -730.493E+03
           20458     69.7893E+03     18.3596E+03              0.    -726.640E+03
           20459     62.4619E+03     23.4678E+03              0.    -722.503E+03
           20460     54.7407E+03     28.9047E+03              0.    -718.063E+03
           20461     46.6104E+03     34.6800E+03              0.    -713.298E+03
           20462     38.0552E+03     40.8038E+03              0.    -708.187E+03
           20463     29.0587E+03     47.2865E+03              0.    -702.707E+03
           20464     19.6037E+03     54.1387E+03              0.    -696.835E+03
           20465     9.67246E+03     61.3717E+03              0.    -690.550E+03
           20466        -753.393     68.9966E+03              0.    -683.825E+03
           20467     -11.693E+03     77.0255E+03              0.    -676.636E+03
           20468    -23.1663E+03     85.4704E+03              0.    -668.959E+03
           20469    -35.1938E+03     94.3440E+03              0.    -660.765E+03
           20470    -47.7971E+03     103.659E+03              0.    -652.029E+03
           20471    -60.9982E+03     113.430E+03              0.    -642.723E+03
           20472    -74.8204E+03     123.669E+03              0.    -632.817E+03
           20473    -89.2875E+03     134.391E+03              0.    -622.282E+03
           20474    -104.424E+03     145.611E+03              0.    -611.087E+03
           20475    -120.257E+03     157.345E+03              0.    -599.202E+03
           20476    -136.812E+03     169.607E+03              0.    -586.594E+03
           20477    -154.117E+03     182.414E+03              0.    -573.230E+03
           20478    -172.200E+03     195.782E+03              0.    -559.074E+03
           20479    -191.093E+03     209.730E+03              0.    -544.093E+03
           20480    -210.825E+03     224.273E+03              0.    -528.250E+03
           20481    -231.429E+03     239.431E+03              0.    -511.508E+03
           20482    -252.938E+03     255.223E+03              0.    -493.827E+03
           20483    -275.386E+03     271.667E+03              0.    -475.168E+03
           20484    -298.810E+03     288.783E+03              0.    -455.491E+03
           20485    -323.246E+03     306.592E+03              0.    -434.753E+03
           20486    -348.733E+03     325.115E+03              0.    -412.911E+03
           20487    -375.311E+03     344.374E+03              0.    -389.920E+03
           20488    -403.021E+03     364.390E+03              0.    -365.735E+03
           20489    -431.906E+03     385.186E+03              0.    -340.307E+03
           20490    -462.010E+03     406.786E+03              0.    -313.590E+03
           20491    -493.379E+03     429.214E+03              0.    -285.531E+03
           20492    -526.061E+03     452.495E+03              0.    -256.081E+03
           20493    -560.105E+03     476.653E+03              0.    -225.185E+03
           20494    -595.561E+03     501.716E+03              0.    -192.789E+03
           20495    -632.484E+03     527.709E+03              0.    -158.837E+03
           20496    -670.928E+03     554.660E+03              0.    -123.272E+03
           20497    -710.948E+03     582.597E+03              0.    -86.0328E+03
           20498    -752.605E+03     611.549E+03              0.    -47.0593E+03
           20499    -795.959E+03     641.544E+03              0.    -6.28836E+03
           20500    -841.072E+03     672.614E+03              0.     36.3447E+03
           20501    -888.010E+03     704.787E+03              0.     80.9064E+03
           20502    -936.841E+03     738.098E+03              0.     127.465E+03
           20503    -987.633E+03     772.576E+03              0.     176.091E+03
           20504    -1.04046E+06     808.255E+03              0.     226.857E+03
           20505    -1.09539E+06     845.168E+03              0.     279.836E+03
           20506    -1.15251E+06     883.349E+03              0.     335.105E+03
           20507    -1.21190E+06     922.833E+03              0.     392.741E+03
           20508    -1.27363E+06     963.656E+03              0.     452.827E+03
           20509    -1.33780E+06     1.00585E+06              0.     515.443E+03
           20510    -1.40449E+06     1.04946E+06              0.     580.675E+03
           20511    -1.47379E+06     1.09451E+06              0.     648.610E+03
           20512    -1.54580E+06     1.14105E+06              0.     719.335E+03
           20513    -1.62062E+06     1.18912E+06              0.     792.944E+03
           20514    -1.69833E+06     1.23874E+06              0.     869.529E+03
           20515    -1.77906E+06     1.28997E+06              0.     949.186E+03
           20516    -1.86291E+06     1.34283E+06              0.     1.03201E+06
           20517    -1.94998E+06     1.39738E+06              0.     1.11811E+06
           20518    -2.04039E+06     1.45364E+06              0.     1.20759E+06
           20519    -2.13426E+06     1.51167E+06              0.     1.30054E+06
           20520    -2.23171E+06     1.57149E+06              0.     1.39708E+06
           20521    -2.33288E+06     1.63315E+06              0.     1.49732E+06
           20522    -2.43787E+06     1.69670E+06              0.     1.60137E+06
           20523    -2.54684E+06     1.76217E+06              0.     1.70934E+06
           20524    -2.65992E+06     1.82959E+06              0.     1.82136E+06
           20525    -2.77725E+06     1.89902E+06              0.     1.93754E+06
           20526    -2.89898E+06     1.97049E+06              0.     2.05801E+06
           20527    -3.02526E+06     2.04403E+06              0.     2.18289E+06
           20528    -3.15624E+06     2.11969E+06              0.     2.31231E+06
           20529    -3.29208E+06     2.19750E+06              0.     2.44639E+06
           20530    -3.43295E+06     2.27749E+06              0.     2.58527E+06
           20531    -3.57903E+06     2.35971E+06              0.     2.72909E+06
           20532    -3.73047E+06     2.44418E+06              0.     2.87797E+06
           20533    -3.88747E+06     2.53093E+06              0.     3.03207E+06
           20534    -4.05021E+06     2.62000E+06              0.     3.19151E+06
           20535    -4.21888E+06     2.71140E+06              0.     3.35643E+06
           20536    -4.39366E+06     2.80517E+06              0.     3.52699E+06
           20537    -4.57477E+06     2.90132E+06              0.     3.70333E+06
           20538     -4.7624E+06     2.99987E+06              0.     3.88559E+06
           20539    -4.95677E+06     3.10083E+06              0.     4.07392E+06
           20540    -5.15809E+06     3.20420E+06              0.     4.26848E+06
           20541    -5.36658E+06     3.31001E+06              0.     4.46940E+06
           20542    -5.58248E+06     3.41824E+06              0.     4.67685E+06
           20543    -5.80600E+06     3.52888E+06              0.     4.89096E+06
           20544    -6.03739E+06     3.64193E+06              0.     5.11189E+06
           20545    -6.27688E+06     3.75736E+06              0.      5.3398E+06
           20546    -6.52473E+06     3.87515E+06              0.     5.57482E+06
           20547    -6.78119E+06     3.99526E+06              0.     5.81712E+06
           20548    -7.04651E+06     4.11763E+06              0.     6.06682E+06
           20549    -7.32096E+06     4.24223E+06              0.     6.32409E+06
           20550    -7.60479E+06     4.36897E+06              0.     6.58905E+06
           20551    -7.89829E+06     4.49779E+06              0.     6.86185E+06
           20552    -8.20172E+06     4.62858E+06              0.     7.14262E+06
           20553    -8.51537E+06     4.76125E+06              0.     7.43149E+06
           20554    -8.83951E+06     4.89567E+06              0.     7.72859E+06
           20555    -9.17444E+06     5.03169E+06              0.     8.03403E+06
           20556    -9.52044E+06     5.16917E+06              0.     8.34792E+06
           20557    -9.87780E+06     5.30793E+06              0.     8.67036E+06
           20558    -10.2468E+06     5.44777E+06              0.     9.00144E+06
           20559    -10.6278E+06     5.58846E+06              0.     9.34126E+06
           20560    -11.0210E+06     5.72976E+06              0.     9.68986E+06
           20561    -11.4267E+06     5.87139E+06              0.     10.0473E+06
           20562    -11.8453E+06     6.01305E+06              0.     10.4137E+06
           20563    -12.2771E+06     6.15440E+06              0.     10.7889E+06
           20564    -12.7222E+06     6.29508E+06              0.     11.1731E+06
           20565    -13.1811E+06     6.43467E+06              0.     11.5662E+06
           20566    -13.6540E+06     6.57273E+06              0.     11.9681E+06
           20567    -14.1412E+06     6.70877E+06              0.     12.3789E+06
           20568    -14.6429E+06     6.84224E+06              0.     12.7983E+06
           20569    -15.1595E+06     6.97257E+06              0.     13.2263E+06
           20570    -15.6912E+06     7.09912E+06              0.     13.6628E+06
           20571    -16.2383E+06     7.22119E+06              0.     14.1074E+06
           20572    -16.8009E+06     7.33801E+06              0.     14.5600E+06
           20573    -17.3794E+06     7.44877E+06              0.     15.0204E+06
           20574    -17.9739E+06     7.55256E+06              0.     15.4881E+06
           20575    -18.5847E+06     7.64843E+06              0.     15.9627E+06
           20576    -19.2119E+06     7.73532E+06              0.     16.4439E+06
           20577    -19.8557E+06     7.81207E+06              0.     16.9311E+06
           20578    -20.5162E+06     7.87748E+06              0.     17.4237E+06
           20579    -21.1935E+06     7.93020E+06              0.     17.9211E+06
           20580    -21.8878E+06     7.96879E+06              0.     18.4225E+06
           20581    -22.5991E+06     7.99172E+06              0.     18.9270E+06
           20582    -23.3275E+06     7.99730E+06              0.     19.4337E+06
           20583    -24.0728E+06     7.98374E+06              0.     19.9416E+06
           20584    -24.8352E+06     7.94910E+06              0.     20.4495E+06
           20585    -25.6144E+06     7.89131E+06              0.     20.9560E+06
           20586    -26.4105E+06     7.80813E+06              0.     21.4597E+06
           20587    -27.2232E+06     7.69715E+06              0.     21.9589E+06
           20588    -28.0523E+06     7.55582E+06              0.     22.4519E+06
           20589    -28.8975E+06     7.38138E+06              0.     22.9367E+06
           20590    -29.7586E+06     7.17087E+06              0.     23.4111E+06
           20591    -30.6351E+06     6.92114E+06              0.     23.8726E+06
           20592    -31.5266E+06     6.62882E+06              0.     24.3187E+06
           20593    -32.4327E+06     6.29031E+06              0.     24.7463E+06
           20594    -33.3527E+06     5.90177E+06              0.     25.1523E+06
           20595    -34.2860E+06     5.45911E+06              0.     25.5331E+06
           20596    -35.2319E+06     4.95797E+06              0.     25.8848E+06
           20597    -36.1897E+06     4.39372E+06              0.     26.2031E+06
           20598    -37.1584E+06     3.76143E+06              0.     26.4834E+06
           20599    -38.1372E+06     3.05590E+06              0.     26.7204E+06
           20600    -39.1250E+06     2.27157E+06              0.     26.9086E+06
           20601    -40.1207E+06     1.40260E+06              0.     27.0416E+06
           20602    -41.1231E+06     442.804E+03              0.     27.1129E+06
           20603    -42.1310E+06    -614.349E+03              0.     27.1148E+06
           20604    -43.1431E+06    -1.77572E+06              0.     27.0392E+06
           20605    -44.1579E+06    -3.04854E+06              0.     26.8772E+06
           20606    -45.1740E+06    -4.44039E+06              0.     26.6190E+06
           20607    -46.1898E+06    -5.95919E+06              0.     26.2538E+06
           20608    -47.2037E+06    -7.61323E+06              0.     25.7699E+06
           20609    -48.2139E+06    -9.41110E+06              0.     25.1543E+06
           20610    -49.2189E+06    -11.3618E+06              0.     24.3929E+06
           20611    -50.2169E+06    -13.4744E+06              0.     23.4701E+06
           20612    -51.2061E+06    -15.7587E+06              0.     22.3689E+06
           20613    -52.1849E+06    -18.2242E+06              0.     21.0706E+06
           20614    -53.1515E+06    -20.8808E+06              0.     19.5547E+06
           20615    -54.3970E+06    -24.0511E+06              0.     19.1119E+06
           20616     120.190E+03     55.3336E+03              0.    -944.673E+03
           20617     119.788E+03     51.3897E+03              0.    -943.053E+03
           20618     121.100E+03     48.1780E+03              0.    -934.426E+03
           20619     122.407E+03     44.9559E+03              0.    -926.067E+03
           20620     123.705E+03     41.7313E+03              0.    -917.977E+03
           20621     124.988E+03     38.5118E+03              0.    -910.153E+03
           20622     126.252E+03     35.3045E+03              0.    -902.596E+03
           20623     127.493E+03     32.1163E+03              0.    -895.302E+03
           20624     128.706E+03     28.9537E+03              0.    -888.270E+03
           20625     129.886E+03     25.8231E+03              0.    -881.497E+03
           20626     131.030E+03     22.7303E+03              0.    -874.980E+03
           20627     132.134E+03     19.6813E+03              0.    -868.715E+03
           20628     133.193E+03     16.6814E+03              0.    -862.698E+03
           20629     134.205E+03     13.7361E+03              0.    -856.926E+03
           20630     135.164E+03     10.8504E+03              0.    -851.393E+03
           20631     136.068E+03     8.02933E+03              0.    -846.095E+03
           20632     136.912E+03     5.27767E+03              0.    -841.027E+03
           20633     137.693E+03     2.60012E+03              0.    -836.182E+03
           20634     138.407E+03         1.15942              0.    -831.555E+03
           20635     139.050E+03    -2.51476E+03              0.    -827.141E+03
           20636     139.620E+03    -4.94330E+03              0.    -822.931E+03
           20637     140.111E+03    -7.28026E+03              0.    -818.921E+03
           20638     140.521E+03    -9.52144E+03              0.    -815.102E+03
           20639     140.845E+03    -11.6628E+03              0.    -811.468E+03
           20640     141.080E+03    -13.7002E+03              0.    -808.011E+03
           20641     141.221E+03    -15.6296E+03              0.    -804.723E+03
           20642     141.266E+03    -17.4472E+03              0.    -801.597E+03
           20643     141.208E+03    -19.1488E+03              0.    -798.623E+03
           20644     141.045E+03    -20.7306E+03              0.    -795.793E+03
           20645     140.772E+03    -22.1885E+03              0.    -793.100E+03
           20646     140.385E+03    -23.5186E+03              0.    -790.532E+03
           20647     139.879E+03    -24.7168E+03              0.    -788.081E+03
           20648     139.249E+03    -25.7791E+03              0.    -785.738E+03
           20649     138.491E+03    -26.7013E+03              0.    -783.493E+03
           20650     137.599E+03    -27.4794E+03              0.    -781.335E+03
           20651     136.569E+03    -28.1092E+03              0.    -779.253E+03
           20652     135.395E+03    -28.5862E+03              0.    -777.238E+03
           20653     134.071E+03    -28.9063E+03              0.    -775.278E+03
           20654     132.592E+03    -29.0648E+03              0.    -773.362E+03
           20655     130.952E+03    -29.0573E+03              0.    -771.478E+03
           20656     129.145E+03    -28.8791E+03              0.    -769.615E+03
           20657     127.164E+03    -28.5255E+03              0.    -767.760E+03
           20658     125.003E+03    -27.9914E+03              0.      -765.9E+03
           20659     122.654E+03    -27.2720E+03              0.    -764.023E+03
           20660     120.111E+03    -26.3620E+03              0.    -762.116E+03
           20661     117.367E+03    -25.2562E+03              0.    -760.165E+03
           20662     114.413E+03    -23.9489E+03              0.    -758.156E+03
           20663     111.241E+03    -22.4348E+03              0.    -756.075E+03
           20664     107.844E+03    -20.7078E+03              0.    -753.907E+03
           20665     104.212E+03    -18.7620E+03              0.    -751.637E+03
           20666     100.336E+03    -16.5913E+03              0.    -749.249E+03
           20667     96.2073E+03    -14.1893E+03              0.    -746.729E+03
           20668     91.8161E+03    -11.5493E+03              0.    -744.059E+03
           20669     87.1522E+03    -8.66469E+03              0.    -741.223E+03
           20670     82.2049E+03    -5.52833E+03              0.    -738.203E+03
           20671     76.9634E+03    -2.13300E+03              0.    -734.982E+03
           20672     71.4164E+03     1.52881E+03              0.    -731.542E+03
           20673     65.5519E+03     5.46480E+03              0.    -727.864E+03
           20674     59.3578E+03     9.68297E+03              0.    -723.928E+03
           20675     52.8213E+03     14.1916E+03              0.    -719.715E+03
           20676     45.9291E+03     18.9992E+03              0.    -715.205E+03
           20677     38.6674E+03     24.1147E+03              0.    -710.377E+03
           20678     31.0220E+03     29.5470E+03              0.    -705.209E+03
           20679     22.9780E+03     35.3057E+03              0.    -699.679E+03
           20680     14.5200E+03     41.4005E+03              0.    -693.764E+03
           20681     5.63186E+03     47.8414E+03              0.    -687.441E+03
           20682    -3.70298E+03     54.6389E+03              0.    -680.686E+03
           20683    -13.5019E+03     61.8036E+03              0.    -673.474E+03
           20684    -23.7827E+03     69.3465E+03              0.    -665.779E+03
           20685    -34.5641E+03     77.2793E+03              0.    -657.576E+03
           20686    -45.8655E+03     85.6137E+03              0.    -648.836E+03
           20687    -57.7070E+03     94.3617E+03              0.    -639.532E+03
           20688    -70.1094E+03     103.536E+03              0.    -629.636E+03
           20689    -83.0944E+03     113.150E+03              0.    -619.118E+03
           20690    -96.6843E+03     123.216E+03              0.    -607.947E+03
           20691    -110.903E+03     133.749E+03              0.    -596.093E+03
           20692    -125.773E+03     144.763E+03              0.    -583.522E+03
           20693    -141.322E+03     156.273E+03              0.    -570.201E+03
           20694    -157.574E+03     168.293E+03              0.    -556.097E+03
           20695    -174.557E+03     180.839E+03              0.    -541.174E+03
           20696    -192.298E+03     193.927E+03              0.    -525.395E+03
           20697    -210.827E+03     207.575E+03              0.    -508.724E+03
           20698    -230.174E+03     221.798E+03              0.    -491.121E+03
           20699    -250.370E+03     236.615E+03              0.    -472.547E+03
           20700    -271.447E+03     252.044E+03              0.    -452.961E+03
           20701    -293.439E+03     268.103E+03              0.    -432.321E+03
           20702    -316.381E+03     284.812E+03              0.    -410.584E+03
           20703    -340.309E+03     302.189E+03              0.    -387.704E+03
           20704    -365.260E+03     320.256E+03              0.    -363.636E+03
           20705    -391.272E+03     339.034E+03              0.    -338.333E+03
           20706    -418.387E+03     358.543E+03              0.    -311.745E+03
           20707    -446.646E+03     378.805E+03              0.    -283.823E+03
           20708    -476.092E+03     399.844E+03              0.    -254.515E+03
           20709    -506.768E+03     421.683E+03              0.    -223.767E+03
           20710    -538.723E+03     444.344E+03              0.    -191.525E+03
           20711    -572.003E+03     467.854E+03              0.    -157.732E+03
           20712    -606.658E+03     492.235E+03              0.    -122.331E+03
           20713    -642.739E+03     517.516E+03              0.    -85.2612E+03
           20714    -680.300E+03     543.720E+03              0.    -46.4616E+03
           20715    -719.396E+03     570.877E+03              0.    -5.86910E+03
           20716    -760.083E+03     599.012E+03              0.     36.5814E+03
           20717    -802.421E+03     628.155E+03              0.     80.9568E+03
           20718    -846.471E+03     658.333E+03              0.     127.326E+03
           20719    -892.296E+03     689.577E+03              0.     175.759E+03
           20720    -939.960E+03     721.917E+03              0.     226.329E+03
           20721    -989.533E+03     755.384E+03              0.     279.111E+03
           20722    -1.04108E+06     790.007E+03              0.     334.181E+03
           20723    -1.09468E+06     825.821E+03              0.     391.618E+03
           20724    -1.15041E+06     862.856E+03              0.     451.503E+03
           20725    -1.20834E+06     901.147E+03              0.     513.920E+03
           20726    -1.26855E+06     940.727E+03              0.     578.953E+03
           20727    -1.33112E+06     981.630E+03              0.     646.690E+03
           20728    -1.39614E+06     1.02389E+06              0.     717.221E+03
           20729    -1.46371E+06     1.06755E+06              0.     790.639E+03
           20730    -1.53390E+06     1.11263E+06              0.     867.037E+03
           20731    -1.60682E+06     1.15918E+06              0.     946.513E+03
           20732    -1.68256E+06     1.20723E+06              0.     1.02917E+06
           20733    -1.76122E+06     1.25682E+06              0.     1.11510E+06
           20734    -1.84291E+06     1.30798E+06              0.     1.20442E+06
           20735    -1.92773E+06     1.36076E+06              0.     1.29722E+06
           20736    -2.01579E+06     1.41519E+06              0.     1.39363E+06
           20737    -2.10722E+06     1.47131E+06              0.     1.49374E+06
           20738    -2.20211E+06     1.52915E+06              0.     1.59769E+06
           20739    -2.30061E+06     1.58876E+06              0.     1.70557E+06
           20740    -2.40283E+06     1.65017E+06              0.     1.81752E+06
           20741    -2.50889E+06     1.71342E+06              0.     1.93365E+06
           20742    -2.61895E+06     1.77855E+06              0.     2.05409E+06
           20743    -2.73312E+06     1.84559E+06              0.     2.17897E+06
           20744    -2.85156E+06     1.91458E+06              0.     2.30841E+06
           20745    -2.97441E+06     1.98555E+06              0.     2.44255E+06
           20746    -3.10181E+06     2.05854E+06              0.     2.58152E+06
           20747    -3.23393E+06     2.13358E+06              0.     2.72546E+06
           20748    -3.37092E+06     2.21071E+06              0.     2.87451E+06
           20749    -3.51294E+06     2.28994E+06              0.     3.02880E+06
           20750    -3.66016E+06     2.37132E+06              0.     3.18849E+06
           20751    -3.81276E+06     2.45487E+06              0.     3.35372E+06
           20752    -3.97091E+06     2.54061E+06              0.     3.52464E+06
           20753    -4.13479E+06     2.62856E+06              0.     3.70138E+06
           20754    -4.30458E+06     2.71874E+06              0.     3.88412E+06
           20755    -4.48049E+06     2.81117E+06              0.     4.07299E+06
           20756    -4.66270E+06     2.90587E+06              0.     4.26815E+06
           20757    -4.85142E+06     3.00283E+06              0.     4.46976E+06
           20758    -5.04685E+06     3.10206E+06              0.     4.67798E+06
           20759    -5.24921E+06     3.20356E+06              0.     4.89295E+06
           20760    -5.45870E+06     3.30732E+06              0.     5.11483E+06
           20761    -5.67555E+06     3.41333E+06              0.     5.34379E+06
           20762    -5.89998E+06     3.52157E+06              0.     5.57997E+06
           20763    -6.13222E+06     3.63201E+06              0.     5.82354E+06
           20764    -6.37250E+06     3.74461E+06              0.     6.07464E+06
           20765    -6.62107E+06     3.85934E+06              0.     6.33344E+06
           20766    -6.87817E+06     3.97614E+06              0.     6.60007E+06
           20767    -7.14404E+06     4.09494E+06              0.     6.87468E+06
           20768    -7.41893E+06     4.21567E+06              0.     7.15743E+06
           20769    -7.70310E+06     4.33824E+06              0.     7.44844E+06
           20770    -7.99680E+06     4.46254E+06              0.     7.74786E+06
           20771    -8.30030E+06     4.58847E+06              0.     8.05581E+06
           20772    -8.61386E+06     4.71589E+06              0.     8.37241E+06
           20773    -8.93774E+06     4.84465E+06              0.     8.69779E+06
           20774    -9.27222E+06     4.97458E+06              0.     9.03203E+06
           20775    -9.61756E+06     5.10550E+06              0.     9.37525E+06
           20776    -9.97404E+06     5.23718E+06              0.     9.72752E+06
           20777    -10.3419E+06     5.36940E+06              0.     10.0889E+06
           20778    -10.7215E+06     5.50189E+06              0.     10.4595E+06
           20779    -11.1130E+06     5.63437E+06              0.     10.8393E+06
           20780    -11.5167E+06     5.76652E+06              0.     11.2284E+06
           20781    -11.9330E+06     5.89798E+06              0.     11.6267E+06
           20782    -12.3619E+06     6.02837E+06              0.     12.0342E+06
           20783    -12.8039E+06     6.15726E+06              0.     12.4509E+06
           20784    -13.2592E+06     6.28419E+06              0.     12.8768E+06
           20785    -13.7280E+06     6.40866E+06              0.     13.3116E+06
           20786    -14.2105E+06     6.53010E+06              0.     13.7554E+06
           20787    -14.7071E+06     6.64792E+06              0.     14.2079E+06
           20788    -15.2179E+06     6.76145E+06              0.     14.6689E+06
           20789    -15.7431E+06     6.86997E+06              0.     15.1382E+06
           20790    -16.2830E+06     6.97271E+06              0.     15.6154E+06
           20791    -16.8377E+06     7.06882E+06              0.     16.1003E+06
           20792    -17.4074E+06     7.15739E+06              0.     16.5924E+06
           20793    -17.9924E+06     7.23741E+06              0.     17.0912E+06
           20794    -18.5926E+06     7.30783E+06              0.     17.5962E+06
           20795    -19.2083E+06     7.36747E+06              0.     18.1068E+06
           20796    -19.8395E+06     7.41509E+06              0.     18.6224E+06
           20797    -20.4863E+06     7.44933E+06              0.     19.1420E+06
           20798    -21.1488E+06     7.46874E+06              0.     19.6648E+06
           20799    -21.8270E+06     7.47174E+06              0.     20.1899E+06
           20800    -22.5208E+06     7.45666E+06              0.     20.7162E+06
           20801    -23.2303E+06     7.42167E+06              0.     21.2423E+06
           20802    -23.9553E+06     7.36483E+06              0.     21.7670E+06
           20803    -24.6957E+06     7.28405E+06              0.     22.2887E+06
           20804    -25.4514E+06     7.17708E+06              0.     22.8057E+06
           20805    -26.2221E+06     7.04153E+06              0.     23.3162E+06
           20806    -27.0077E+06     6.87482E+06              0.     23.8180E+06
           20807    -27.8078E+06     6.67422E+06              0.     24.3091E+06
           20808    -28.6221E+06     6.43679E+06              0.     24.7867E+06
           20809    -29.4502E+06     6.15940E+06              0.     25.2482E+06
           20810    -30.2917E+06     5.83871E+06              0.     25.6905E+06
           20811    -31.1461E+06     5.47117E+06              0.     26.1103E+06
           20812    -32.0127E+06     5.05301E+06              0.     26.5040E+06
           20813    -32.8911E+06     4.58022E+06              0.     26.8674E+06
           20814    -33.7805E+06     4.04852E+06              0.     27.1962E+06
           20815    -34.6803E+06     3.45343E+06              0.     27.4856E+06
           20816    -35.5896E+06     2.79016E+06              0.     27.7302E+06
           20817    -36.5076E+06     2.05367E+06              0.     27.9242E+06
           20818    -37.4335E+06     1.23865E+06              0.     28.0613E+06
           20819    -38.3663E+06     339.488E+03              0.     28.1345E+06
           20820    -39.3050E+06    -649.688E+03              0.     28.1361E+06
           20821    -40.2487E+06    -1.73504E+06              0.     28.0578E+06
           20822    -41.1962E+06    -2.92303E+06              0.     27.8904E+06
           20823    -42.1465E+06    -4.22037E+06              0.     27.6240E+06
           20824    -43.0986E+06    -5.63409E+06              0.     27.2475E+06
           20825    -44.0513E+06    -7.17143E+06              0.     26.7490E+06
           20826    -45.0036E+06    -8.83986E+06              0.     26.1153E+06
           20827    -45.9545E+06    -10.6471E+06              0.     25.3321E+06
           20828    -46.9029E+06    -12.6011E+06              0.     24.3837E+06
           20829    -47.8481E+06    -14.7098E+06              0.     23.2527E+06
           20830    -48.7892E+06    -16.9813E+06              0.     21.9203E+06
           20831    -49.7255E+06    -19.4237E+06              0.     20.3658E+06
           20832    -50.8850E+06    -22.3392E+06              0.     19.9240E+06
           20833     99.9844E+03     46.2453E+03              0.    -945.902E+03
           20834     99.6178E+03     42.6312E+03              0.     -944.28E+03
           20835     100.822E+03     39.6857E+03              0.    -935.652E+03
           20836     102.021E+03     36.7297E+03              0.    -927.287E+03
           20837     103.212E+03     33.7707E+03              0.    -919.185E+03
           20838     104.390E+03     30.8157E+03              0.    -911.346E+03
           20839     105.550E+03     27.8713E+03              0.    -903.768E+03
           20840     106.688E+03     24.9440E+03              0.    -896.450E+03
           20841     107.801E+03     22.0399E+03              0.    -889.389E+03
           20842     108.883E+03     19.1649E+03              0.    -882.583E+03
           20843     109.932E+03     16.3245E+03              0.    -876.029E+03
           20844     110.943E+03     13.5241E+03              0.    -869.724E+03
           20845     111.913E+03     10.7688E+03              0.    -863.663E+03
           20846     112.838E+03     8.06372E+03              0.    -857.843E+03
           20847     113.715E+03     5.41351E+03              0.    -852.259E+03
           20848     114.540E+03     2.82289E+03              0.    -846.905E+03
           20849     115.310E+03         296.263              0.    -841.778E+03
           20850     116.021E+03    -2.16195E+03              0.    -836.871E+03
           20851     116.669E+03    -4.54757E+03              0.    -832.178E+03
           20852     117.253E+03    -6.85645E+03              0.    -827.694E+03
           20853     117.767E+03    -9.08453E+03              0.    -823.412E+03
           20854     118.208E+03    -11.2279E+03              0.    -819.325E+03
           20855     118.574E+03    -13.2826E+03              0.    -815.426E+03
           20856     118.859E+03    -15.2450E+03              0.    -811.707E+03
           20857     119.062E+03    -17.1110E+03              0.    -808.163E+03
           20858     119.177E+03    -18.8771E+03              0.    -804.783E+03
           20859     119.202E+03    -20.5395E+03              0.    -801.561E+03
           20860     119.133E+03    -22.0945E+03              0.    -798.488E+03
           20861     118.965E+03    -23.5383E+03              0.    -795.555E+03
           20862     118.695E+03    -24.8674E+03              0.    -792.753E+03
           20863     118.318E+03    -26.0778E+03              0.    -790.073E+03
           20864     117.830E+03    -27.1660E+03              0.    -787.506E+03
           20865     117.227E+03    -28.1281E+03              0.    -785.042E+03
           20866     116.505E+03    -28.9602E+03              0.    -782.670E+03
           20867     115.658E+03    -29.6586E+03              0.    -780.381E+03
           20868     114.682E+03    -30.2193E+03              0.    -778.164E+03
           20869     113.572E+03    -30.6382E+03              0.    -776.008E+03
           20870     112.323E+03    -30.9114E+03              0.    -773.901E+03
           20871     110.929E+03    -31.0346E+03              0.    -771.833E+03
           20872     109.385E+03    -31.0036E+03              0.    -769.791E+03
           20873     107.685E+03    -30.8141E+03              0.    -767.763E+03
           20874     105.824E+03    -30.4617E+03              0.    -765.738E+03
           20875     103.794E+03    -29.9416E+03              0.    -763.701E+03
           20876     101.590E+03    -29.2493E+03              0.    -761.641E+03
           20877     99.2047E+03    -28.3800E+03              0.    -759.543E+03
           20878     96.6314E+03    -27.3287E+03              0.    -757.394E+03
           20879     93.8629E+03    -26.0902E+03              0.    -755.179E+03
           20880     90.8917E+03    -24.6594E+03              0.    -752.885E+03
           20881     87.7100E+03    -23.0308E+03              0.    -750.495E+03
           20882     84.3098E+03    -21.1988E+03              0.    -747.995E+03
           20883     80.6826E+03    -19.1578E+03              0.    -745.369E+03
           20884     76.8196E+03    -16.9016E+03              0.    -742.600E+03
           20885     72.7120E+03    -14.4243E+03              0.    -739.672E+03
           20886     68.3501E+03    -11.7194E+03              0.    -736.569E+03
           20887     63.7243E+03    -8.78046E+03              0.    -733.271E+03
           20888     58.8242E+03    -5.60069E+03              0.    -729.761E+03
           20889     53.6394E+03    -2.17309E+03              0.    -726.021E+03
           20890     48.1588E+03     1.50951E+03              0.    -722.031E+03
           20891     42.3711E+03     5.45459E+03              0.    -717.772E+03
           20892     36.2642E+03     9.66985E+03              0.    -713.223E+03
           20893     29.8258E+03     14.1632E+03              0.    -708.364E+03
           20894     23.0432E+03     18.9430E+03              0.    -703.173E+03
           20895     15.9029E+03     24.0176E+03              0.    -697.628E+03
           20896     8.39121E+03     29.3958E+03              0.    -691.706E+03
           20897         493.670     35.0867E+03              0.    -685.385E+03
           20898    -7.80468E+03     41.0997E+03              0.    -678.640E+03
           20899    -16.5193E+03     47.4445E+03              0.    -671.446E+03
           20900    -25.6664E+03     54.1310E+03              0.    -663.778E+03
           20901    -35.2626E+03     61.1696E+03              0.     -655.61E+03
           20902    -45.3253E+03     68.5709E+03              0.    -646.915E+03
           20903    -55.8726E+03     76.3459E+03              0.    -637.664E+03
           20904    -66.9232E+03     84.5061E+03              0.    -627.830E+03
           20905    -78.4965E+03     93.0631E+03              0.    -617.383E+03
           20906    -90.6127E+03     102.029E+03              0.    -606.293E+03
           20907    -103.293E+03     111.416E+03              0.    -594.527E+03
           20908    -116.558E+03     121.238E+03              0.    -582.055E+03
           20909    -130.432E+03     131.507E+03              0.    -568.843E+03
           20910    -144.937E+03     142.238E+03              0.    -554.856E+03
           20911    -160.098E+03     153.444E+03              0.    -540.061E+03
           20912    -175.939E+03     165.140E+03              0.    -524.419E+03
           20913    -192.488E+03     177.341E+03              0.    -507.895E+03
           20914    -209.770E+03     190.062E+03              0.    -490.449E+03
           20915    -227.815E+03     203.320E+03              0.    -472.042E+03
           20916    -246.651E+03     217.130E+03              0.    -452.633E+03
           20917    -266.308E+03     231.510E+03              0.    -432.180E+03
           20918    -286.818E+03     246.477E+03              0.    -410.640E+03
           20919    -308.213E+03     262.048E+03              0.    -387.968E+03
           20920    -330.526E+03     278.243E+03              0.    -364.118E+03
           20921    -353.793E+03     295.080E+03              0.    -339.043E+03
           20922    -378.050E+03     312.579E+03              0.    -312.695E+03
           20923    -403.333E+03     330.759E+03              0.    -285.022E+03
           20924    -429.682E+03     349.641E+03              0.    -255.974E+03
           20925    -457.137E+03     369.246E+03              0.    -225.496E+03
           20926    -485.739E+03     389.595E+03              0.    -193.536E+03
           20927    -515.532E+03     410.712E+03              0.    -160.035E+03
           20928    -546.560E+03     432.618E+03              0.    -124.935E+03
           20929    -578.869E+03     455.337E+03              0.    -88.1786E+03
           20930    -612.508E+03     478.893E+03              0.    -49.7023E+03
           20931    -647.525E+03     503.310E+03              0.    -9.44344E+03
           20932    -683.972E+03     528.613E+03              0.     32.6631E+03
           20933    -721.901E+03     554.829E+03              0.     76.6843E+03
           20934    -761.369E+03     581.983E+03              0.     122.689E+03
           20935    -802.432E+03     610.103E+03              0.     170.748E+03
           20936    -845.148E+03     639.215E+03              0.     220.934E+03
           20937    -889.578E+03     669.348E+03              0.     273.323E+03
           20938    -935.786E+03     700.531E+03              0.     327.990E+03
           20939    -983.837E+03     732.792E+03              0.     385.015E+03
           20940    -1.03380E+06     766.162E+03              0.     444.480E+03
           20941    -1.08574E+06      800.67E+03              0.     506.468E+03
           20942    -1.13973E+06     836.348E+03              0.     571.064E+03
           20943    -1.19584E+06     873.227E+03              0.     638.358E+03
           20944    -1.25416E+06     911.340E+03              0.     708.438E+03
           20945    -1.31477E+06     950.718E+03              0.     781.398E+03
           20946    -1.37773E+06     991.394E+03              0.     857.332E+03
           20947    -1.44315E+06     1.03340E+06              0.     936.340E+03
           20948    -1.51110E+06     1.07678E+06              0.     1.01852E+06
           20949    -1.58169E+06     1.12155E+06              0.     1.10398E+06
           20950    -1.65499E+06     1.16775E+06              0.     1.19281E+06
           20951    -1.73111E+06     1.21543E+06              0.     1.28514E+06
           20952    -1.81015E+06     1.26461E+06              0.     1.38106E+06
           20953    -1.89220E+06     1.31533E+06              0.     1.48069E+06
           20954    -1.97739E+06     1.36762E+06              0.     1.58415E+06
           20955    -2.06581E+06     1.42152E+06              0.     1.69156E+06
           20956    -2.15758E+06     1.47706E+06              0.     1.80303E+06
           20957    -2.25281E+06     1.53428E+06              0.     1.91870E+06
           20958    -2.35163E+06     1.59322E+06              0.     2.03867E+06
           20959    -2.45416E+06     1.65390E+06              0.     2.16310E+06
           20960    -2.56052E+06     1.71637E+06              0.     2.29209E+06
           20961    -2.67085E+06     1.78065E+06              0.     2.42580E+06
           20962    -2.78529E+06     1.84678E+06              0.     2.56436E+06
           20963    -2.90396E+06     1.91479E+06              0.     2.70790E+06
           20964    -3.02702E+06     1.98471E+06              0.     2.85657E+06
           20965    -3.15461E+06     2.05657E+06              0.     3.01051E+06
           20966    -3.28688E+06     2.13040E+06              0.     3.16986E+06
           20967    -3.42399E+06     2.20622E+06              0.     3.33478E+06
           20968    -3.56609E+06     2.28406E+06              0.     3.50542E+06
           20969    -3.71336E+06     2.36394E+06              0.     3.68193E+06
           20970    -3.86595E+06     2.44588E+06              0.     3.86447E+06
           20971    -4.02404E+06     2.52989E+06              0.     4.05318E+06
           20972    -4.18782E+06     2.61600E+06              0.     4.24823E+06
           20973    -4.35745E+06     2.70421E+06              0.     4.44978E+06
           20974    -4.53312E+06     2.79453E+06              0.     4.65798E+06
           20975    -4.71503E+06     2.88696E+06              0.     4.87300E+06
           20976    -4.90337E+06     2.98150E+06              0.     5.09501E+06
           20977    -5.09834E+06     3.07814E+06              0.     5.32415E+06
           20978    -5.30014E+06     3.17687E+06              0.     5.56060E+06
           20979    -5.50897E+06     3.27766E+06              0.     5.80452E+06
           20980    -5.72505E+06     3.38050E+06              0.     6.05606E+06
           20981    -5.94860E+06     3.48534E+06              0.     6.31539E+06
           20982    -6.17983E+06     3.59216E+06              0.     6.58267E+06
           20983    -6.41896E+06     3.70088E+06              0.     6.85804E+06
           20984    -6.66623E+06     3.81146E+06              0.     7.14167E+06
           20985    -6.92185E+06     3.92382E+06              0.     7.43370E+06
           20986    -7.18607E+06     4.03787E+06              0.     7.73427E+06
           20987    -7.45913E+06     4.15353E+06              0.     8.04352E+06
           20988    -7.74125E+06     4.27068E+06              0.     8.36160E+06
           20989    -8.03268E+06     4.38919E+06              0.     8.68862E+06
           20990    -8.33367E+06     4.50892E+06              0.     9.02470E+06
           20991    -8.64445E+06     4.62971E+06              0.     9.36995E+06
           20992    -8.96527E+06     4.75139E+06              0.     9.72447E+06
           20993    -9.29639E+06     4.87375E+06              0.     10.0883E+06
           20994    -9.63804E+06     4.99658E+06              0.     10.4617E+06
           20995    -9.99048E+06     5.11961E+06              0.     10.8445E+06
           20996    -10.3539E+06     5.24259E+06              0.     11.2368E+06
           20997    -10.7287E+06     5.36521E+06              0.     11.6387E+06
           20998    -11.1149E+06     5.48714E+06              0.     12.0501E+06
           20999    -11.5129E+06     5.60801E+06              0.     12.4711E+06
           21000    -11.9229E+06     5.72743E+06              0.     12.9016E+06
           21001    -12.3451E+06     5.84496E+06              0.     13.3415E+06
           21002    -12.7798E+06     5.96011E+06              0.     13.7907E+06
           21003    -13.2271E+06     6.07238E+06              0.     14.2490E+06
           21004    -13.6873E+06     6.18118E+06              0.     14.7164E+06
           21005    -14.1605E+06     6.28589E+06              0.     15.1926E+06
           21006     -14.647E+06     6.38586E+06              0.     15.6773E+06
           21007    -15.1469E+06     6.48033E+06              0.     16.1702E+06
           21008    -15.6605E+06     6.56853E+06              0.     16.6710E+06
           21009    -16.1878E+06     6.64959E+06              0.     17.1792E+06
           21010    -16.7289E+06     6.72257E+06              0.     17.6943E+06
           21011    -17.2841E+06     6.78649E+06              0.     18.2158E+06
           21012    -17.8534E+06     6.84024E+06              0.     18.7431E+06
           21013    -18.4369E+06     6.88265E+06              0.     19.2753E+06
           21014    -19.0346E+06     6.91248E+06              0.     19.8118E+06
           21015    -19.6466E+06     6.92834E+06              0.     20.3515E+06
           21016    -20.2729E+06     6.92879E+06              0.     20.8935E+06
           21017    -20.9134E+06     6.91224E+06              0.     21.4366E+06
           21018    -21.5682E+06     6.87702E+06              0.     21.9795E+06
           21019    -22.2371E+06     6.82131E+06              0.     22.5209E+06
           21020    -22.9200E+06     6.74316E+06              0.     23.0591E+06
           21021    -23.6167E+06     6.64050E+06              0.     23.5924E+06
           21022    -24.3272E+06     6.51111E+06              0.     24.1188E+06
           21023    -25.0511E+06     6.35261E+06              0.     24.6363E+06
           21024    -25.7882E+06     6.16247E+06              0.     25.1424E+06
           21025    -26.5383E+06     5.93797E+06              0.     25.6347E+06
           21026    -27.3008E+06     5.67625E+06              0.     26.1102E+06
           21027    -28.0756E+06     5.37424E+06              0.     26.5658E+06
           21028    -28.8621E+06     5.02869E+06              0.     26.9981E+06
           21029    -29.6599E+06     4.63614E+06              0.     27.4033E+06
           21030    -30.4686E+06     4.19293E+06              0.     27.7772E+06
           21031    -31.2874E+06     3.69519E+06              0.     28.1155E+06
           21032    -32.1159E+06     3.13883E+06              0.     28.4129E+06
           21033    -32.9535E+06     2.51954E+06              0.     28.6642E+06
           21034    -33.7995E+06     1.83278E+06              0.     28.8634E+06
           21035    -34.6532E+06     1.07378E+06              0.     29.0040E+06
           21036    -35.5139E+06     237.535E+03              0.     29.0788E+06
           21037    -36.3811E+06    -681.181E+03              0.     29.0800E+06
           21038    -37.2539E+06    -1.68781E+06              0.     28.9991E+06
           21039    -38.1317E+06    -2.78804E+06              0.     28.8269E+06
           21040    -39.0138E+06    -3.98772E+06              0.     28.5531E+06
           21041    -39.8997E+06    -5.29294E+06              0.     28.1666E+06
           21042    -40.7887E+06    -6.70992E+06              0.     27.6553E+06
           21043    -41.6804E+06    -8.24502E+06              0.     27.0058E+06
           21044    -42.5745E+06    -9.90473E+06              0.     26.2037E+06
           21045    -43.4708E+06    -11.6956E+06              0.     25.2330E+06
           21046    -44.3692E+06    -13.6241E+06              0.     24.0765E+06
           21047    -45.2699E+06    -15.6968E+06              0.     22.7151E+06
           21048    -46.1735E+06    -17.9200E+06              0.     21.1281E+06
           21049    -47.2451E+06    -20.5755E+06              0.     20.6902E+06
           21050     79.7966E+03     37.1644E+03              0.    -947.024E+03
           21051     79.4638E+03     33.8737E+03              0.    -945.400E+03
           21052     80.5618E+03     31.1894E+03              0.    -936.771E+03
           21053     81.6561E+03     28.4948E+03              0.    -928.400E+03
           21054     82.7425E+03     25.7969E+03              0.    -920.288E+03
           21055     83.8167E+03     23.1020E+03              0.    -912.434E+03
           21056     84.8747E+03     20.4164E+03              0.    -904.838E+03
           21057     85.9125E+03     17.7460E+03              0.    -897.497E+03
           21058     86.9265E+03     15.0964E+03              0.    -890.410E+03
           21059     87.9129E+03     12.4731E+03              0.    -883.574E+03
           21060     88.8683E+03     9.88131E+03              0.    -876.986E+03
           21061     89.7890E+03     7.32588E+03              0.    -870.643E+03
           21062     90.6717E+03     4.81168E+03              0.    -864.541E+03
           21063     91.5131E+03     2.34325E+03              0.    -858.677E+03
           21064     92.3099E+03        -74.9525              0.    -853.044E+03
           21065     93.0588E+03    -2.43861E+03              0.     -847.64E+03
           21066     93.7567E+03    -4.74363E+03              0.    -842.458E+03
           21067     94.4003E+03    -6.98593E+03              0.    -837.493E+03
           21068     94.9865E+03    -9.16164E+03              0.    -832.740E+03
           21069     95.5120E+03    -11.2669E+03              0.    -828.191E+03
           21070     95.9737E+03    -13.2980E+03              0.    -823.841E+03
           21071     96.3684E+03    -15.2513E+03              0.    -819.683E+03
           21072     96.6927E+03    -17.1231E+03              0.    -815.709E+03
           21073     96.9435E+03    -18.9100E+03              0.    -811.913E+03
           21074     97.1173E+03    -20.6084E+03              0.    -808.287E+03
           21075     97.2108E+03    -22.2148E+03              0.    -804.822E+03
           21076     97.2205E+03    -23.7259E+03              0.    -801.512E+03
           21077     97.1428E+03    -25.1381E+03              0.    -798.346E+03
           21078     96.9742E+03    -26.4480E+03              0.    -795.317E+03
           21079     96.7110E+03    -27.6522E+03              0.    -792.415E+03
           21080     96.3492E+03    -28.7473E+03              0.    -789.631E+03
           21081     95.8851E+03    -29.7298E+03              0.    -786.956E+03
           21082     95.3145E+03    -30.5961E+03              0.    -784.379E+03
           21083     94.6332E+03    -31.3428E+03              0.    -781.890E+03
           21084     93.8371E+03    -31.9662E+03              0.    -779.480E+03
           21085     92.9215E+03    -32.4628E+03              0.    -777.137E+03
           21086     91.8820E+03    -32.8287E+03              0.    -774.849E+03
           21087     90.7137E+03    -33.0603E+03              0.    -772.607E+03
           21088     89.4116E+03    -33.1537E+03              0.    -770.397E+03
           21089     87.9708E+03    -33.1050E+03              0.    -768.209E+03
           21090     86.3858E+03    -32.9101E+03              0.    -766.029E+03
           21091     84.6512E+03    -32.5649E+03              0.    -763.845E+03
           21092     82.7612E+03    -32.0653E+03              0.    -761.645E+03
           21093     80.7099E+03    -31.4068E+03              0.    -759.414E+03
           21094     78.4911E+03     -30.585E+03              0.    -757.139E+03
           21095     76.0985E+03    -29.5953E+03              0.    -754.806E+03
           21096     73.5253E+03    -28.4331E+03              0.    -752.401E+03
           21097     70.7646E+03    -27.0933E+03              0.    -749.908E+03
           21098     67.8093E+03    -25.5712E+03              0.    -747.313E+03
           21099     64.6518E+03    -23.8613E+03              0.    -744.599E+03
           21100     61.2845E+03    -21.9586E+03              0.    -741.751E+03
           21101     57.6992E+03    -19.8573E+03              0.    -738.752E+03
           21102     53.8875E+03    -17.5520E+03              0.    -735.585E+03
           21103     49.8408E+03    -15.0366E+03              0.    -732.232E+03
           21104     45.5499E+03    -12.3052E+03              0.    -728.677E+03
           21105     41.0055E+03    -9.35153E+03              0.    -724.899E+03
           21106     36.1977E+03    -6.16907E+03              0.    -720.880E+03
           21107     31.1164E+03    -2.75123E+03              0.    -716.601E+03
           21108     25.7509E+03         908.931              0.    -712.041E+03
           21109     20.0903E+03     4.81853E+03              0.    -707.181E+03
           21110     14.1232E+03     8.98491E+03              0.    -701.997E+03
           21111     7.83775E+03     13.4157E+03              0.    -696.469E+03
           21112     1.22153E+03     18.1188E+03              0.    -690.575E+03
           21113    -5.73822E+03     23.1022E+03              0.    -684.290E+03
           21114    -13.0548E+03     28.3744E+03              0.    -677.591E+03
           21115    -20.7420E+03     33.9440E+03              0.    -670.454E+03
           21116    -28.8143E+03     39.8201E+03              0.    -662.853E+03
           21117    -37.2864E+03     46.0117E+03              0.    -654.762E+03
           21118    -46.1740E+03     52.5285E+03              0.    -646.154E+03
           21119    -55.4929E+03     59.3804E+03              0.    -637.003E+03
           21120    -65.2600E+03     66.5775E+03              0.    -627.278E+03
           21121    -75.4925E+03     74.1304E+03              0.    -616.951E+03
           21122    -86.2085E+03     82.0498E+03              0.    -605.993E+03
           21123    -97.4265E+03     90.3471E+03              0.    -594.371E+03
           21124    -109.166E+03     99.0336E+03              0.    -582.054E+03
           21125    -121.447E+03     108.121E+03              0.    -569.008E+03
           21126     -134.29E+03     117.623E+03              0.    -555.201E+03
           21127    -147.717E+03     127.550E+03              0.    -540.596E+03
           21128    -161.751E+03     137.917E+03              0.    -525.158E+03
           21129    -176.414E+03     148.737E+03              0.    -508.850E+03
           21130    -191.731E+03     160.023E+03              0.    -491.633E+03
           21131    -207.727E+03     171.790E+03              0.    -473.468E+03
           21132    -224.427E+03     184.053E+03              0.    -454.314E+03
           21133    -241.859E+03     196.826E+03              0.    -434.130E+03
           21134    -260.051E+03     210.126E+03              0.    -412.872E+03
           21135    -279.031E+03     223.968E+03              0.    -390.497E+03
           21136    -298.830E+03     238.370E+03              0.    -366.957E+03
           21137    -319.478E+03     253.347E+03              0.    -342.207E+03
           21138    -341.007E+03     268.918E+03              0.    -316.197E+03
           21139    -363.452E+03     285.100E+03              0.    -288.878E+03
           21140    -386.846E+03     301.912E+03              0.    -260.198E+03
           21141    -411.226E+03     319.373E+03              0.    -230.104E+03
           21142    -436.628E+03     337.502E+03              0.    -198.541E+03
           21143    -463.092E+03     356.320E+03              0.    -165.454E+03
           21144    -490.656E+03     375.846E+03              0.    -130.784E+03
           21145    -519.362E+03     396.103E+03              0.    -94.4725E+03
           21146    -549.252E+03     417.110E+03              0.    -56.4570E+03
           21147    -580.372E+03     438.892E+03              0.    -16.6749E+03
           21148    -612.766E+03     461.470E+03              0.     24.9389E+03
           21149    -646.482E+03     484.867E+03              0.     68.4511E+03
           21150    -681.570E+03     509.108E+03              0.     113.931E+03
           21151    -718.079E+03     534.216E+03              0.     161.448E+03
           21152    -756.062E+03     560.217E+03              0.     211.076E+03
           21153    -795.574E+03     587.136E+03              0.     262.890E+03
           21154    -836.671E+03     614.999E+03              0.     316.967E+03
           21155    -879.411E+03     643.831E+03              0.     373.385E+03
           21156    -923.854E+03     673.662E+03              0.     432.226E+03
           21157    -970.062E+03     704.517E+03              0.     493.573E+03
           21158    -1.01810E+06     736.425E+03              0.     557.513E+03
           21159    -1.06803E+06     769.415E+03              0.     624.134E+03
           21160    -1.11993E+06     803.515E+03              0.     693.525E+03
           21161    -1.17387E+06     838.756E+03              0.     765.781E+03
           21162    -1.22991E+06     875.167E+03              0.     840.995E+03
           21163    -1.28814E+06     912.778E+03              0.     919.268E+03
           21164    -1.34863E+06     951.621E+03              0.     1.00070E+06
           21165    -1.41147E+06     991.726E+03              0.     1.08539E+06
           21166    -1.47674E+06     1.03312E+06              0.     1.17345E+06
           21167    -1.54452E+06     1.07585E+06              0.     1.26498E+06
           21168    -1.61490E+06     1.11993E+06              0.     1.36009E+06
           21169    -1.68798E+06     1.16541E+06              0.     1.45891E+06
           21170    -1.76384E+06     1.21230E+06              0.     1.56154E+06
           21171    -1.84260E+06     1.26065E+06              0.     1.66811E+06
           21172    -1.92434E+06     1.31049E+06              0.     1.77873E+06
           21173    -2.00918E+06     1.36185E+06              0.     1.89353E+06
           21174    -2.09721E+06     1.41476E+06              0.     2.01264E+06
           21175    -2.18856E+06     1.46925E+06              0.     2.13619E+06
           21176    -2.28333E+06     1.52536E+06              0.     2.26431E+06
           21177    -2.38164E+06     1.58312E+06              0.     2.39714E+06
           21178    -2.48361E+06     1.64255E+06              0.     2.53481E+06
           21179    -2.58937E+06     1.70369E+06              0.     2.67746E+06
           21180    -2.69904E+06     1.76657E+06              0.     2.82524E+06
           21181    -2.81276E+06     1.83121E+06              0.     2.97830E+06
           21182    -2.93065E+06     1.89765E+06              0.     3.13678E+06
           21183    -3.05287E+06     1.96590E+06              0.     3.30083E+06
           21184    -3.17955E+06     2.03600E+06              0.     3.47061E+06
           21185    -3.31083E+06     2.10796E+06              0.     3.64627E+06
           21186    -3.44687E+06     2.18180E+06              0.     3.82797E+06
           21187    -3.58783E+06     2.25754E+06              0.     4.01587E+06
           21188    -3.73385E+06     2.33521E+06              0.     4.21012E+06
           21189    -3.88511E+06     2.41480E+06              0.     4.41090E+06
           21190    -4.04177E+06     2.49633E+06              0.     4.61837E+06
           21191    -4.20399E+06     2.57980E+06              0.     4.83269E+06
           21192    -4.37195E+06     2.66522E+06              0.     5.05403E+06
           21193    -4.54584E+06     2.75258E+06              0.     5.28256E+06
           21194    -4.72582E+06     2.84188E+06              0.     5.51844E+06
           21195    -4.91209E+06     2.93309E+06              0.     5.76183E+06
           21196    -5.10484E+06     3.02622E+06              0.     6.01292E+06
           21197    -5.30425E+06     3.12121E+06              0.     6.27186E+06
           21198    -5.51052E+06     3.21806E+06              0.     6.53881E+06
           21199    -5.72386E+06     3.31670E+06              0.     6.81394E+06
           21200    -5.94446E+06     3.41711E+06              0.     7.09742E+06
           21201    -6.17254E+06     3.51921E+06              0.     7.38939E+06
           21202    -6.40829E+06     3.62293E+06              0.     7.69001E+06
           21203    -6.65193E+06     3.72821E+06              0.     7.99943E+06
           21204    -6.90367E+06     3.83495E+06              0.     8.31780E+06
           21205    -7.16374E+06     3.94303E+06              0.     8.64524E+06
           21206    -7.43234E+06     4.05236E+06              0.     8.98190E+06
           21207    -7.70969E+06     4.16278E+06              0.     9.32788E+06
           21208    -7.99603E+06     4.27416E+06              0.     9.68331E+06
           21209    -8.29156E+06     4.38631E+06              0.     10.0483E+06
           21210    -8.59651E+06     4.49906E+06              0.     10.4229E+06
           21211    -8.91109E+06     4.61220E+06              0.     10.8072E+06
           21212    -9.23554E+06     4.72549E+06              0.     11.2013E+06
           21213    -9.57007E+06     4.83868E+06              0.     11.6052E+06
           21214    -9.91489E+06     4.95149E+06              0.     12.0189E+06
           21215    -10.2702E+06     5.06360E+06              0.     12.4425E+06
           21216    -10.6363E+06     5.17467E+06              0.     12.8759E+06
           21217    -11.0133E+06     5.28433E+06              0.     13.3190E+06
           21218    -11.4014E+06     5.39217E+06              0.     13.7718E+06
           21219    -11.8008E+06     5.49775E+06              0.     14.2342E+06
           21220    -12.2118E+06     5.60057E+06              0.     14.7061E+06
           21221    -12.6344E+06     5.70011E+06              0.     15.1872E+06
           21222    -13.0689E+06     5.79578E+06              0.     15.6773E+06
           21223    -13.5155E+06     5.88695E+06              0.     16.1762E+06
           21224    -13.9742E+06     5.97295E+06              0.     16.6835E+06
           21225    -14.4453E+06     6.05304E+06              0.     17.1989E+06
           21226    -14.9288E+06     6.12641E+06              0.     17.7218E+06
           21227    -15.4249E+06     6.19221E+06              0.     18.2519E+06
           21228    -15.9336E+06     6.24948E+06              0.     18.7885E+06
           21229    -16.4551E+06     6.29724E+06              0.     19.3309E+06
           21230    -16.9894E+06     6.33439E+06              0.     19.8785E+06
           21231    -17.5365E+06     6.35975E+06              0.     20.4303E+06
           21232    -18.0965E+06     6.37208E+06              0.     20.9854E+06
           21233    -18.6693E+06     6.37001E+06              0.     21.5428E+06
           21234    -19.2549E+06     6.35209E+06              0.     22.1013E+06
           21235    -19.8533E+06     6.31677E+06              0.     22.6595E+06
           21236    -20.4644E+06     6.26238E+06              0.     23.2160E+06
           21237    -21.0881E+06     6.18712E+06              0.     23.7691E+06
           21238    -21.7242E+06     6.08909E+06              0.     24.3171E+06
           21239    -22.3726E+06     5.96625E+06              0.     24.8580E+06
           21240    -23.0330E+06     5.81642E+06              0.     25.3895E+06
           21241    -23.7053E+06     5.63728E+06              0.     25.9093E+06
           21242    -24.3892E+06     5.42637E+06              0.     26.4146E+06
           21243    -25.0843E+06     5.18105E+06              0.     26.9027E+06
           21244    -25.7905E+06     4.89856E+06              0.     27.3702E+06
           21245    -26.5072E+06     4.57593E+06              0.     27.8136E+06
           21246    -27.2342E+06     4.21005E+06              0.     28.2291E+06
           21247     -27.971E+06     3.79762E+06              0.     28.6124E+06
           21248    -28.7172E+06     3.33516E+06              0.     28.9589E+06
           21249    -29.4725E+06     2.81901E+06              0.     29.2635E+06
           21250    -30.2362E+06     2.24532E+06              0.     29.5206E+06
           21251    -31.0080E+06     1.61006E+06              0.     29.7242E+06
           21252    -31.7874E+06     909.023E+03              0.     29.8677E+06
           21253    -32.5740E+06     137.805E+03              0.     29.9438E+06
           21254    -33.3674E+06    -708.157E+03              0.     29.9446E+06
           21255    -34.1671E+06    -1.63359E+06              0.     29.8613E+06
           21256    -34.9730E+06    -2.64338E+06              0.     29.6848E+06
           21257    -35.7846E+06    -3.74253E+06              0.     29.4044E+06
           21258    -36.6019E+06    -4.93618E+06              0.     29.0092E+06
           21259    -37.4249E+06    -6.22954E+06              0.     28.4868E+06
           21260    -38.2536E+06    -7.62782E+06              0.     27.8238E+06
           21261    -39.0884E+06    -9.13631E+06              0.     27.0056E+06
           21262    -39.9299E+06    -10.7602E+06              0.     26.0163E+06
           21263    -40.7788E+06    -12.5045E+06              0.     24.8385E+06
           21264    -41.6364E+06    -14.3741E+06              0.     23.4532E+06
           21265    -42.5040E+06    -16.3736E+06              0.     21.8398E+06
           21266    -43.4852E+06    -18.7651E+06              0.     21.4088E+06
           21267     59.6253E+03     28.0905E+03              0.    -948.040E+03
           21268     59.3256E+03     25.1172E+03              0.    -946.415E+03
           21269     60.3197E+03     22.6896E+03              0.    -937.785E+03
           21270     61.3105E+03     20.2521E+03              0.    -929.409E+03
           21271     62.2941E+03     17.8110E+03              0.    -921.288E+03
           21272     63.2667E+03     15.3722E+03              0.    -913.420E+03
           21273     64.2244E+03     12.9415E+03              0.    -905.807E+03
           21274     65.1638E+03     10.5242E+03              0.    -898.446E+03
           21275     66.0814E+03     8.12549E+03              0.    -891.334E+03
           21276     66.9738E+03     5.75041E+03              0.    -884.470E+03
           21277     67.8377E+03     3.40372E+03              0.    -877.851E+03
           21278       68.67E+03     1.08990E+03              0.    -871.474E+03
           21279     69.4676E+03    -1.18659E+03              0.    -865.335E+03
           21280     70.2273E+03    -3.42160E+03              0.    -859.429E+03
           21281     70.9462E+03    -5.61103E+03              0.    -853.753E+03
           21282     71.6213E+03    -7.75091E+03              0.    -848.302E+03
           21283     72.2497E+03    -9.83751E+03              0.    -843.070E+03
           21284     72.8284E+03    -11.8671E+03              0.    -838.052E+03
           21285     73.3544E+03    -13.8360E+03              0.    -833.242E+03
           21286      73.825E+03    -15.7409E+03              0.    -828.634E+03
           21287     74.2371E+03    -17.5782E+03              0.    -824.222E+03
           21288     74.5878E+03    -19.3446E+03              0.    -819.998E+03
           21289     74.8741E+03    -21.0368E+03              0.    -815.956E+03
           21290     75.0930E+03    -22.6516E+03              0.    -812.088E+03
           21291     75.2414E+03    -24.1856E+03              0.    -808.387E+03
           21292     75.3162E+03    -25.6359E+03              0.    -804.845E+03
           21293     75.3143E+03    -26.9991E+03              0.    -801.452E+03
           21294     75.2323E+03    -28.2721E+03              0.    -798.202E+03
           21295     75.0670E+03    -29.4518E+03              0.    -795.084E+03
           21296     74.8150E+03    -30.5350E+03              0.     -792.09E+03
           21297     74.4727E+03    -31.5186E+03              0.    -789.210E+03
           21298     74.0366E+03    -32.3994E+03              0.    -786.435E+03
           21299     73.5029E+03    -33.1742E+03              0.    -783.755E+03
           21300     72.8679E+03    -33.8396E+03              0.    -781.159E+03
           21301     72.1276E+03    -34.3926E+03              0.    -778.637E+03
           21302     71.2778E+03    -34.8296E+03              0.    -776.177E+03
           21303     70.3144E+03    -35.1473E+03              0.    -773.769E+03
           21304     69.2330E+03    -35.3422E+03              0.    -771.402E+03
           21305     68.0291E+03    -35.4109E+03              0.    -769.062E+03
           21306     66.6980E+03    -35.3496E+03              0.    -766.739E+03
           21307     65.2347E+03    -35.1548E+03              0.    -764.419E+03
           21308     63.6343E+03    -34.8227E+03              0.    -762.090E+03
           21309     61.8915E+03    -34.3493E+03              0.    -759.738E+03
           21310     60.0009E+03    -33.7307E+03              0.    -757.350E+03
           21311     57.9567E+03    -32.9628E+03              0.    -754.912E+03
           21312     55.7532E+03    -32.0415E+03              0.    -752.410E+03
           21313     53.3843E+03    -30.9622E+03              0.    -749.829E+03
           21314     50.8434E+03    -29.7208E+03              0.    -747.154E+03
           21315     48.1242E+03    -28.3124E+03              0.    -744.369E+03
           21316     45.2198E+03    -26.7324E+03              0.    -741.459E+03
           21317     42.1229E+03    -24.9760E+03              0.    -738.407E+03
           21318     38.8263E+03    -23.0380E+03              0.    -735.196E+03
           21319     35.3222E+03    -20.9133E+03              0.    -731.808E+03
           21320     31.6026E+03    -18.5964E+03              0.    -728.227E+03
           21321     27.6593E+03    -16.0820E+03              0.    -724.434E+03
           21322     23.4835E+03    -13.3641E+03              0.    -720.409E+03
           21323     19.0663E+03    -10.4369E+03              0.    -716.134E+03
           21324     14.3984E+03    -7.29436E+03              0.    -711.589E+03
           21325     9.47015E+03    -3.93005E+03              0.    -706.753E+03
           21326     4.27136E+03        -337.477              0.    -701.604E+03
           21327    -1.20840E+03     3.49010E+03              0.    -696.123E+03
           21328    -6.97999E+03     7.55971E+03              0.    -690.285E+03
           21329    -13.0547E+03     11.8785E+03              0.    -684.068E+03
           21330    -19.4443E+03     16.4538E+03              0.    -677.449E+03
           21331    -26.1610E+03     21.2936E+03              0.    -670.403E+03
           21332    -33.2174E+03     26.4055E+03              0.    -662.904E+03
           21333    -40.6268E+03     31.7980E+03              0.    -654.928E+03
           21334    -48.4026E+03     37.4794E+03              0.    -646.448E+03
           21335    -56.5592E+03     43.4585E+03              0.    -637.436E+03
           21336    -65.1112E+03     49.7443E+03              0.    -627.864E+03
           21337    -74.0740E+03     56.3463E+03              0.    -617.703E+03
           21338    -83.4634E+03     63.2739E+03              0.    -606.923E+03
           21339    -93.2958E+03     70.5372E+03              0.    -595.493E+03
           21340    -103.588E+03     78.1464E+03              0.    -583.382E+03
           21341    -114.359E+03     86.1122E+03              0.    -570.557E+03
           21342    -125.626E+03     94.4453E+03              0.    -556.983E+03
           21343    -137.408E+03     103.157E+03              0.    -542.628E+03
           21344    -149.725E+03     112.259E+03              0.    -527.454E+03
           21345    -162.599E+03     121.764E+03              0.    -511.425E+03
           21346    -176.049E+03     131.683E+03              0.    -494.502E+03
           21347    -190.098E+03     142.029E+03              0.    -476.648E+03
           21348    -204.770E+03     152.816E+03              0.    -457.821E+03
           21349    -220.088E+03     164.057E+03              0.    -437.980E+03
           21350    -236.076E+03     175.766E+03              0.    -417.082E+03
           21351    -252.760E+03     187.957E+03              0.    -395.083E+03
           21352    -270.166E+03     200.644E+03              0.    -371.938E+03
           21353    -288.323E+03     213.844E+03              0.    -347.600E+03
           21354    -307.258E+03     227.572E+03              0.    -322.020E+03
           21355    -327.002E+03     241.843E+03              0.    -295.150E+03
           21356    -347.584E+03     256.674E+03              0.    -266.937E+03
           21357    -369.036E+03     272.082E+03              0.    -237.329E+03
           21358    -391.391E+03     288.085E+03              0.    -206.272E+03
           21359    -414.683E+03     304.700E+03              0.    -173.711E+03
           21360    -438.947E+03     321.945E+03              0.    -139.587E+03
           21361    -464.220E+03     339.840E+03              0.    -103.841E+03
           21362    -490.539E+03     358.404E+03              0.    -66.4118E+03
           21363    -517.944E+03     377.656E+03              0.    -27.2375E+03
           21364    -546.475E+03     397.618E+03              0.     13.7470E+03
           21365    -576.173E+03     418.308E+03              0.     56.6084E+03
           21366    -607.083E+03     439.750E+03              0.     101.415E+03
           21367    -639.249E+03     461.965E+03              0.     148.237E+03
           21368    -672.718E+03     484.974E+03              0.     197.148E+03
           21369    -707.537E+03     508.801E+03              0.     248.221E+03
           21370    -743.757E+03     533.469E+03              0.     301.533E+03
           21371    -781.428E+03     559.003E+03              0.     357.164E+03
           21372    -820.604E+03     585.425E+03              0.     415.194E+03
           21373    -861.340E+03     612.761E+03              0.     475.707E+03
           21374    -903.694E+03     641.037E+03              0.     538.788E+03
           21375    -947.723E+03     670.277E+03              0.     604.525E+03
           21376    -993.488E+03     700.509E+03              0.     673.010E+03
           21377    -1.04105E+06     731.758E+03              0.     744.333E+03
           21378    -1.09048E+06     764.052E+03              0.     818.591E+03
           21379    -1.14184E+06     797.418E+03              0.     895.882E+03
           21380    -1.19520E+06     831.884E+03              0.     976.307E+03
           21381    -1.25064E+06     867.478E+03              0.     1.05997E+06
           21382    -1.30822E+06     904.230E+03              0.     1.14697E+06
           21383    -1.36802E+06     942.167E+03              0.     1.23742E+06
           21384    -1.43012E+06     981.318E+03              0.     1.33143E+06
           21385    -1.49461E+06     1.02171E+06              0.     1.42912E+06
           21386    -1.56156E+06     1.06338E+06              0.     1.53060E+06
           21387    -1.63107E+06     1.10636E+06              0.     1.63599E+06
           21388    -1.70322E+06     1.15066E+06              0.     1.74542E+06
           21389    -1.77810E+06     1.19633E+06              0.     1.85900E+06
           21390    -1.85581E+06     1.24339E+06              0.     1.97687E+06
           21391    -1.93645E+06     1.29187E+06              0.     2.09915E+06
           21392    -2.02011E+06     1.34180E+06              0.     2.22599E+06
           21393    -2.10691E+06     1.39322E+06              0.     2.35751E+06
           21394    -2.19694E+06     1.44614E+06              0.     2.49386E+06
           21395    -2.29032E+06     1.50059E+06              0.     2.63517E+06
           21396    -2.38717E+06     1.55661E+06              0.     2.78160E+06
           21397    -2.48759E+06     1.61422E+06              0.     2.93328E+06
           21398    -2.59170E+06     1.67345E+06              0.     3.09038E+06
           21399    -2.69964E+06     1.73431E+06              0.     3.25303E+06
           21400    -2.81152E+06     1.79684E+06              0.     3.42140E+06
           21401    -2.92747E+06     1.86106E+06              0.     3.59565E+06
           21402    -3.04763E+06     1.92697E+06              0.     3.77593E+06
           21403    -3.17214E+06     1.99461E+06              0.     3.96241E+06
           21404    -3.30113E+06     2.06399E+06              0.     4.15524E+06
           21405    -3.43475E+06     2.13512E+06              0.      4.3546E+06
           21406    -3.57314E+06     2.20802E+06              0.     4.56065E+06
           21407    -3.71645E+06     2.28268E+06              0.     4.77356E+06
           21408    -3.86484E+06     2.35912E+06              0.     4.99351E+06
           21409    -4.01847E+06     2.43734E+06              0.     5.22065E+06
           21410    -4.17749E+06     2.51732E+06              0.     5.45517E+06
           21411    -4.34207E+06     2.59908E+06              0.     5.69724E+06
           21412    -4.51238E+06     2.68258E+06              0.     5.94702E+06
           21413    -4.68858E+06     2.76781E+06              0.     6.20469E+06
           21414    -4.87085E+06     2.85476E+06              0.     6.47042E+06
           21415    -5.05937E+06     2.94337E+06              0.     6.74438E+06
           21416    -5.25431E+06     3.03363E+06              0.     7.02673E+06
           21417    -5.45585E+06     3.12548E+06              0.     7.31764E+06
           21418    -5.66419E+06     3.21887E+06              0.     7.61727E+06
           21419    -5.87950E+06     3.31372E+06              0.     7.92578E+06
           21420    -6.10198E+06     3.40998E+06              0.     8.24332E+06
           21421    -6.33181E+06     3.50755E+06              0.     8.57004E+06
           21422    -6.56919E+06     3.60633E+06              0.     8.90608E+06
           21423    -6.81432E+06     3.70621E+06              0.     9.25157E+06
           21424    -7.06738E+06     3.80707E+06              0.     9.60663E+06
           21425    -7.32857E+06     3.90877E+06              0.     9.97138E+06
           21426    -7.59809E+06     4.01115E+06              0.     10.3459E+06
           21427    -7.87613E+06     4.11403E+06              0.     10.7304E+06
           21428    -8.16289E+06     4.21722E+06              0.     11.1248E+06
           21429    -8.45856E+06     4.32050E+06              0.     11.5292E+06
           21430    -8.76333E+06     4.42364E+06              0.     11.9436E+06
           21431    -9.07739E+06     4.52637E+06              0.     12.3682E+06
           21432    -9.40094E+06     4.62840E+06              0.     12.8028E+06
           21433    -9.73414E+06     4.72942E+06              0.     13.2475E+06
           21434    -10.0772E+06     4.82908E+06              0.     13.7022E+06
           21435    -10.4302E+06     4.92700E+06              0.     14.1669E+06
           21436    -10.7935E+06     5.02276E+06              0.     14.6413E+06
           21437    -11.1671E+06     5.11591E+06              0.     15.1255E+06
           21438    -11.5512E+06     5.20596E+06              0.     15.6190E+06
           21439    -11.9459E+06     5.29237E+06              0.     16.1219E+06
           21440    -12.3514E+06     5.37457E+06              0.     16.6336E+06
           21441    -12.7678E+06     5.45191E+06              0.     17.1540E+06
           21442    -13.1952E+06     5.52373E+06              0.     17.6826E+06
           21443    -13.6338E+06     5.58927E+06              0.     18.2190E+06
           21444    -14.0835E+06     5.64775E+06              0.     18.7626E+06
           21445    -14.5446E+06     5.69829E+06              0.     19.3129E+06
           21446    -15.0169E+06     5.73998E+06              0.     19.8691E+06
           21447    -15.5007E+06     5.77182E+06              0.     20.4305E+06
           21448    -15.9958E+06     5.79272E+06              0.     20.9962E+06
           21449    -16.5024E+06     5.80153E+06              0.     21.5652E+06
           21450    -17.0203E+06     5.79701E+06              0.     22.1364E+06
           21451    -17.5496E+06     5.77784E+06              0.     22.7087E+06
           21452    -18.0902E+06     5.74258E+06              0.     23.2806E+06
           21453    -18.6420E+06     5.68972E+06              0.     23.8507E+06
           21454    -19.2049E+06     5.61762E+06              0.     24.4172E+06
           21455    -19.7788E+06     5.52455E+06              0.     24.9783E+06
           21456    -20.3635E+06     5.40865E+06              0.     25.5320E+06
           21457    -20.9589E+06     5.26796E+06              0.     26.0761E+06
           21458    -21.5647E+06     5.10037E+06              0.     26.6079E+06
           21459    -22.1807E+06     4.90366E+06              0.     27.1249E+06
           21460    -22.8067E+06     4.67547E+06              0.     27.6241E+06
           21461    -23.4425E+06     4.41330E+06              0.      28.102E+06
           21462    -24.0877E+06     4.11451E+06              0.     28.5552E+06
           21463    -24.7421E+06     3.77633E+06              0.     28.9796E+06
           21464    -25.4053E+06     3.39581E+06              0.     29.3710E+06
           21465    -26.0771E+06     2.96988E+06              0.     29.7247E+06
           21466    -26.7572E+06     2.49531E+06              0.     30.0354E+06
           21467    -27.4452E+06     1.96873E+06              0.     30.2975E+06
           21468    -28.1410E+06     1.38663E+06              0.     30.5049E+06
           21469    -28.8442E+06     745.353E+03              0.     30.6508E+06
           21470    -29.5547E+06     41.1094E+03              0.     30.7278E+06
           21471    -30.2723E+06    -729.999E+03              0.     30.7280E+06
           21472    -30.9970E+06    -1.57197E+06              0.     30.6427E+06
           21473    -31.7288E+06    -2.48891E+06              0.     30.4622E+06
           21474    -32.4678E+06    -3.48496E+06              0.     30.1763E+06
           21475    -33.2144E+06    -4.56432E+06              0.     29.7736E+06
           21476    -33.9691E+06    -5.73116E+06              0.     29.2418E+06
           21477    -34.7325E+06    -6.98961E+06              0.     28.5675E+06
           21478    -35.5056E+06    -8.34372E+06              0.     27.7361E+06
           21479    -36.2897E+06    -9.79734E+06              0.     26.7317E+06
           21480    -37.0865E+06    -11.3541E+06              0.      25.537E+06
           21481    -37.8981E+06    -13.0173E+06              0.     24.1331E+06
           21482     -38.727E+06    -14.7898E+06              0.     22.4994E+06
           21483    -39.6161E+06    -16.9138E+06              0.     22.0781E+06
           21484     39.4693E+03     19.0231E+03              0.    -948.952E+03
           21485     39.2022E+03     16.3617E+03              0.    -947.327E+03
           21486     40.0942E+03     14.1867E+03              0.    -938.696E+03
           21487     40.9832E+03     12.0023E+03              0.    -930.315E+03
           21488     41.8658E+03     9.81415E+03              0.    -922.185E+03
           21489     42.7384E+03     7.62780E+03              0.    -914.307E+03
           21490     43.5976E+03     5.44832E+03              0.    -906.678E+03
           21491     44.4403E+03     3.28068E+03              0.    -899.297E+03
           21492     45.2632E+03     1.12954E+03              0.    -892.164E+03
           21493     46.0633E+03    -1.00058E+03              0.    -885.275E+03
           21494     46.8376E+03    -3.10533E+03              0.    -878.628E+03
           21495     47.5833E+03    -5.18063E+03              0.    -872.219E+03
           21496     48.2976E+03    -7.22247E+03              0.    -866.046E+03
           21497     48.9776E+03    -9.22704E+03              0.    -860.103E+03
           21498     49.6206E+03    -11.1907E+03              0.    -854.387E+03
           21499     50.2240E+03    -13.1097E+03              0.    -848.893E+03
           21500     50.7850E+03    -14.9808E+03              0.    -843.615E+03
           21501     51.3010E+03    -16.8005E+03              0.    -838.549E+03
           21502     51.7693E+03    -18.5657E+03              0.    -833.688E+03
           21503     52.1873E+03    -20.2730E+03              0.    -829.026E+03
           21504     52.5523E+03    -21.9195E+03              0.    -824.557E+03
           21505     52.8617E+03    -23.5020E+03              0.    -820.274E+03
           21506     53.1127E+03    -25.0175E+03              0.    -816.169E+03
           21507     53.3026E+03    -26.4632E+03              0.    -812.236E+03
           21508     53.4286E+03    -27.8361E+03              0.    -808.467E+03
           21509     53.4880E+03    -29.1332E+03              0.    -804.853E+03
           21510     53.4777E+03    -30.3518E+03              0.    -801.386E+03
           21511     53.3949E+03    -31.4890E+03              0.    -798.058E+03
           21512     53.2365E+03    -32.5418E+03              0.     -794.86E+03
           21513     52.9995E+03    -33.5076E+03              0.    -791.782E+03
           21514     52.6807E+03    -34.3833E+03              0.    -788.815E+03
           21515     52.2769E+03    -35.1661E+03              0.    -785.949E+03
           21516     51.7846E+03    -35.8530E+03              0.    -783.175E+03
           21517     51.2003E+03    -36.4412E+03              0.    -780.481E+03
           21518     50.5206E+03    -36.9276E+03              0.    -777.857E+03
           21519     49.7417E+03    -37.3093E+03              0.    -775.291E+03
           21520     48.8597E+03    -37.5831E+03              0.    -772.774E+03
           21521     47.8707E+03    -37.7459E+03              0.    -770.292E+03
           21522     46.7707E+03    -37.7944E+03              0.    -767.834E+03
           21523     45.5552E+03    -37.7256E+03              0.    -765.387E+03
           21524     44.2200E+03    -37.5359E+03              0.    -762.939E+03
           21525     42.7604E+03    -37.2219E+03              0.    -760.478E+03
           21526     41.1717E+03    -36.7802E+03              0.    -757.988E+03
           21527     39.4489E+03    -36.2071E+03              0.    -755.457E+03
           21528     37.5869E+03    -35.4990E+03              0.    -752.871E+03
           21529     35.5804E+03    -34.6520E+03              0.    -750.215E+03
           21530     33.4238E+03    -33.6621E+03              0.    -747.474E+03
           21531     31.1114E+03    -32.5254E+03              0.    -744.632E+03
           21532     28.6372E+03    -31.2377E+03              0.    -741.675E+03
           21533     25.9950E+03    -29.7947E+03              0.    -738.585E+03
           21534     23.1784E+03    -28.1919E+03              0.    -735.347E+03
           21535     20.1805E+03    -26.4248E+03              0.    -731.943E+03
           21536     16.9945E+03    -24.4887E+03              0.    -728.354E+03
           21537     13.6132E+03    -22.3786E+03              0.    -724.565E+03
           21538     10.0288E+03    -20.0896E+03              0.    -720.555E+03
           21539     6.23374E+03    -17.6165E+03              0.    -716.305E+03
           21540     2.21972E+03    -14.9539E+03              0.    -711.796E+03
           21541    -2.02168E+03    -12.0962E+03              0.    -707.008E+03
           21542    -6.49924E+03    -9.03779E+03              0.    -701.920E+03
           21543    -11.2221E+03    -5.77264E+03              0.    -696.510E+03
           21544    -16.1998E+03    -2.29468E+03              0.    -690.756E+03
           21545    -21.4421E+03     1.40247E+03              0.    -684.635E+03
           21546    -26.9594E+03     5.32526E+03              0.    -678.125E+03
           21547    -32.7622E+03     9.48048E+03              0.    -671.201E+03
           21548    -38.8616E+03     13.8751E+03              0.    -663.838E+03
           21549    -45.2692E+03     18.5163E+03              0.    -656.010E+03
           21550    -51.9967E+03     23.4117E+03              0.    -647.693E+03
           21551    -59.0567E+03     28.5687E+03              0.    -638.857E+03
           21552    -66.4620E+03     33.9954E+03              0.    -629.476E+03
           21553    -74.2258E+03     39.7000E+03              0.    -619.521E+03
           21554    -82.3622E+03     45.6909E+03              0.    -608.962E+03
           21555    -90.8854E+03     51.9769E+03              0.    -597.768E+03
           21556    -99.8104E+03     58.5671E+03              0.    -585.909E+03
           21557    -109.153E+03     65.4706E+03              0.    -573.352E+03
           21558    -118.928E+03     72.6971E+03              0.    -560.063E+03
           21559    -129.154E+03     80.2566E+03              0.    -546.009E+03
           21560    -139.847E+03     88.1592E+03              0.    -531.154E+03
           21561    -151.026E+03     96.4155E+03              0.    -515.461E+03
           21562    -162.708E+03     105.036E+03              0.    -498.892E+03
           21563    -174.914E+03     114.033E+03              0.    -481.411E+03
           21564    -187.663E+03     123.417E+03              0.    -462.975E+03
           21565    -200.976E+03     133.200E+03              0.    -443.544E+03
           21566    -214.875E+03     143.394E+03              0.    -423.076E+03
           21567    -229.382E+03     154.012E+03              0.    -401.528E+03
           21568    -244.520E+03     165.068E+03              0.    -378.853E+03
           21569    -260.314E+03     176.573E+03              0.    -355.007E+03
           21570    -276.787E+03     188.543E+03              0.    -329.940E+03
           21571    -293.966E+03     200.991E+03              0.    -303.604E+03
           21572    -311.878E+03     213.932E+03              0.    -275.949E+03
           21573    -330.550E+03     227.380E+03              0.    -246.921E+03
           21574    -350.011E+03     241.351E+03              0.    -216.468E+03
           21575    -370.290E+03     255.862E+03              0.    -184.533E+03
           21576    -391.419E+03     270.927E+03              0.    -151.061E+03
           21577    -413.430E+03     286.564E+03              0.    -115.991E+03
           21578    -436.355E+03     302.789E+03              0.    -79.2636E+03
           21579    -460.228E+03     319.621E+03              0.    -40.8166E+03
           21580    -485.085E+03     337.077E+03              0.        -585.628
           21581    -510.963E+03     355.176E+03              0.     41.4953E+03
           21582    -537.899E+03     373.936E+03              0.     85.4941E+03
           21583    -565.934E+03     393.377E+03              0.     131.481E+03
           21584    -595.106E+03     413.518E+03              0.     179.527E+03
           21585    -625.459E+03     434.380E+03              0.     229.708E+03
           21586    -657.036E+03     455.983E+03              0.     282.098E+03
           21587    -689.883E+03     478.349E+03              0.     336.777E+03
           21588    -724.044E+03     501.498E+03              0.     393.825E+03
           21589    -759.569E+03     525.454E+03              0.     453.325E+03
           21590    -796.508E+03     550.239E+03              0.     515.362E+03
           21591    -834.911E+03     575.875E+03              0.     580.024E+03
           21592    -874.833E+03     602.385E+03              0.     647.400E+03
           21593    -916.327E+03     629.794E+03              0.     717.583E+03
           21594    -959.452E+03     658.125E+03              0.     790.668E+03
           21595    -1.00426E+06     687.404E+03              0.     866.752E+03
           21596    -1.05083E+06     717.655E+03              0.     945.936E+03
           21597    -1.09920E+06     748.902E+03              0.     1.02832E+06
           21598    -1.14945E+06     781.173E+03              0.     1.11402E+06
           21599    -1.20164E+06     814.492E+03              0.     1.20313E+06
           21600    -1.25585E+06     848.885E+03              0.     1.29576E+06
           21601    -1.31214E+06     884.380E+03              0.     1.39204E+06
           21602    -1.37058E+06     921.002E+03              0.     1.49207E+06
           21603    -1.43126E+06     958.778E+03              0.     1.59598E+06
           21604    -1.49425E+06     997.736E+03              0.     1.70388E+06
           21605    -1.55963E+06     1.03790E+06              0.     1.81591E+06
           21606    -1.62748E+06      1.0793E+06              0.     1.93219E+06
           21607    -1.69789E+06     1.12196E+06              0.     2.05286E+06
           21608    -1.77095E+06     1.16591E+06              0.     2.17803E+06
           21609    -1.84674E+06     1.21117E+06              0.     2.30786E+06
           21610    -1.92537E+06     1.25778E+06              0.     2.44249E+06
           21611    -2.00692E+06     1.30574E+06              0.     2.58204E+06
           21612    -2.09150E+06     1.35511E+06              0.     2.72668E+06
           21613    -2.17921E+06     1.40588E+06              0.     2.87654E+06
           21614    -2.27014E+06     1.45810E+06              0.     3.03178E+06
           21615    -2.36442E+06     1.51177E+06              0.     3.19255E+06
           21616    -2.46215E+06     1.56693E+06              0.     3.35901E+06
           21617    -2.56343E+06     1.62360E+06              0.     3.53132E+06
           21618    -2.66840E+06     1.68179E+06              0.     3.70963E+06
           21619    -2.77716E+06     1.74152E+06              0.     3.89412E+06
           21620    -2.88985E+06     1.80281E+06              0.     4.08494E+06
           21621    -3.00657E+06     1.86567E+06              0.     4.28227E+06
           21622    -3.12748E+06     1.93011E+06              0.     4.48628E+06
           21623    -3.25268E+06     1.99614E+06              0.     4.69713E+06
           21624    -3.38232E+06     2.06378E+06              0.     4.91499E+06
           21625    -3.51654E+06     2.13301E+06              0.     5.14005E+06
           21626    -3.65547E+06     2.20385E+06              0.     5.37248E+06
           21627    -3.79925E+06     2.27628E+06              0.     5.61246E+06
           21628    -3.94804E+06     2.35030E+06              0.     5.86015E+06
           21629    -4.10199E+06     2.42590E+06              0.     6.11573E+06
           21630    -4.26123E+06     2.50305E+06              0.     6.37939E+06
           21631    -4.42593E+06     2.58174E+06              0.     6.65130E+06
           21632    -4.59624E+06     2.66194E+06              0.     6.93162E+06
           21633    -4.77232E+06     2.74360E+06              0.     7.22053E+06
           21634    -4.95433E+06     2.82669E+06              0.     7.51820E+06
           21635    -5.14244E+06     2.91115E+06              0.     7.82479E+06
           21636    -5.33680E+06     2.99692E+06              0.     8.14046E+06
           21637    -5.53758E+06     3.08393E+06              0.     8.46537E+06
           21638    -5.74495E+06     3.17211E+06              0.     8.79967E+06
           21639    -5.95909E+06     3.26136E+06              0.     9.14350E+06
           21640    -6.18014E+06     3.35157E+06              0.     9.49700E+06
           21641    -6.40830E+06     3.44264E+06              0.     9.86030E+06
           21642    -6.64372E+06     3.53443E+06              0.     10.2335E+06
           21643    -6.88658E+06     3.62680E+06              0.     10.6167E+06
           21644    -7.13704E+06     3.71957E+06              0.     11.0101E+06
           21645    -7.39528E+06     3.81258E+06              0.     11.4136E+06
           21646    -7.66146E+06     3.90563E+06              0.     11.8273E+06
           21647    -7.93573E+06     3.99848E+06              0.     12.2514E+06
           21648    -8.21828E+06     4.09091E+06              0.     12.6857E+06
           21649    -8.50924E+06     4.18264E+06              0.     13.1304E+06
           21650    -8.80879E+06     4.27339E+06              0.     13.5853E+06
           21651    -9.11706E+06     4.36282E+06              0.     14.0504E+06
           21652    -9.43421E+06     4.45060E+06              0.     14.5257E+06
           21653    -9.76037E+06     4.53634E+06              0.     15.0110E+06
           21654    -10.0957E+06     4.61963E+06              0.     15.5062E+06
           21655    -10.4402E+06     4.70000E+06              0.     16.0110E+06
           21656    -10.7942E+06     4.77698E+06              0.     16.5253E+06
           21657    -11.1577E+06     4.85003E+06              0.     17.0486E+06
           21658    -11.5307E+06     4.91858E+06              0.     17.5807E+06
           21659    -11.9135E+06     4.98199E+06              0.     18.1212E+06
           21660    -12.3060E+06     5.03959E+06              0.     18.6696E+06
           21661    -12.7083E+06     5.09066E+06              0.     19.2254E+06
           21662    -13.1205E+06     5.13441E+06              0.     19.7878E+06
           21663    -13.5426E+06     5.16999E+06              0.     20.3563E+06
           21664    -13.9747E+06     5.19650E+06              0.     20.9301E+06
           21665    -14.4166E+06     5.21295E+06              0.     21.5081E+06
           21666    -14.8686E+06     5.21831E+06              0.     22.0895E+06
           21667    -15.3304E+06     5.21143E+06              0.     22.6730E+06
           21668    -15.8020E+06     5.19113E+06              0.     23.2575E+06
           21669    -16.2835E+06     5.15612E+06              0.     23.8416E+06
           21670    -16.7746E+06     5.10501E+06              0.     24.4236E+06
           21671    -17.2754E+06     5.03635E+06              0.     25.0019E+06
           21672    -17.7857E+06     4.94857E+06              0.     25.5746E+06
           21673    -18.3053E+06     4.84002E+06              0.     26.1396E+06
           21674    -18.8341E+06     4.70893E+06              0.     26.6945E+06
           21675    -19.3720E+06     4.55343E+06              0.     27.2370E+06
           21676    -19.9187E+06     4.37154E+06              0.     27.7641E+06
           21677    -20.4741E+06     4.16116E+06              0.     28.2728E+06
           21678    -21.0380E+06     3.92010E+06              0.     28.7597E+06
           21679    -21.6101E+06     3.64603E+06              0.     29.2213E+06
           21680    -22.1903E+06     3.33651E+06              0.     29.6534E+06
           21681    -22.7784E+06     2.98897E+06              0.     30.0517E+06
           21682    -23.3742E+06     2.60075E+06              0.     30.4114E+06
           21683    -23.9775E+06     2.16906E+06              0.     30.7273E+06
           21684    -24.5882E+06     1.69100E+06              0.     30.9935E+06
           21685    -25.2063E+06     1.16358E+06              0.     31.2039E+06
           21686    -25.8316E+06     583.708E+03              0.     31.3517E+06
           21687    -26.4642E+06    -51.7877E+03              0.     31.4294E+06
           21688    -27.1044E+06    -746.142E+03              0.     31.4290E+06
           21689    -27.7522E+06    -1.50263E+06              0.     31.3417E+06
           21690    -28.4081E+06    -2.32457E+06              0.     31.1579E+06
           21691    -29.0726E+06    -3.21524E+06              0.     30.8673E+06
           21692    -29.7465E+06    -4.17792E+06              0.     30.4584E+06
           21693    -30.4308E+06    -5.21576E+06              0.     29.9190E+06
           21694    -31.1266E+06    -6.33180E+06              0.     29.2357E+06
           21695    -31.8357E+06    -7.52887E+06              0.     28.3939E+06
           21696    -32.5599E+06    -8.80954E+06              0.     27.3778E+06
           21697    -33.3017E+06    -10.1760E+06              0.     26.1703E+06
           21698     -34.064E+06    -11.6301E+06              0.     24.7528E+06
           21699    -34.8506E+06    -13.1730E+06              0.     23.1049E+06
           21700    -35.6452E+06    -15.0262E+06              0.     22.6963E+06
           21701     19.3276E+03     9.96175E+03              0.    -949.764E+03
           21702     19.0926E+03     7.60736E+03              0.    -948.137E+03
           21703     19.8840E+03     5.68105E+03              0.    -939.505E+03
           21704     20.6728E+03     3.74605E+03              0.    -931.120E+03
           21705     21.4559E+03     1.80746E+03              0.    -922.983E+03
           21706     22.2301E+03        -129.829              0.    -915.094E+03
           21707     22.9924E+03    -2.06126E+03              0.    -907.451E+03
           21708     23.7398E+03    -3.98238E+03              0.    -900.054E+03
           21709     24.4696E+03    -5.88902E+03              0.    -892.901E+03
           21710     25.1791E+03    -7.77712E+03              0.    -885.989E+03
           21711     25.8655E+03    -9.64281E+03              0.    -879.317E+03
           21712     26.5263E+03    -11.4824E+03              0.    -872.880E+03
           21713     27.1589E+03    -13.2924E+03              0.    -866.676E+03
           21714     27.7610E+03    -15.0692E+03              0.    -860.700E+03
           21715     28.3299E+03    -16.8097E+03              0.    -854.948E+03
           21716     28.8634E+03    -18.5106E+03              0.    -849.415E+03
           21717     29.3590E+03    -20.1688E+03              0.    -844.096E+03
           21718     29.8143E+03    -21.7813E+03              0.    -838.987E+03
           21719     30.2270E+03    -23.3453E+03              0.    -834.080E+03
           21720     30.5946E+03    -24.8578E+03              0.    -829.369E+03
           21721     30.9149E+03    -26.3160E+03              0.    -824.849E+03
           21722     31.1853E+03    -27.7173E+03              0.    -820.512E+03
           21723     31.4035E+03    -29.0590E+03              0.    -816.352E+03
           21724     31.5671E+03    -30.3383E+03              0.    -812.360E+03
           21725     31.6735E+03    -31.5528E+03              0.    -808.529E+03
           21726     31.7202E+03    -32.6998E+03              0.    -804.851E+03
           21727     31.7046E+03    -33.7767E+03              0.    -801.317E+03
           21728     31.6241E+03    -34.7809E+03              0.    -797.920E+03
           21729     31.4760E+03    -35.7100E+03              0.    -794.649E+03
           21730     31.2575E+03    -36.5614E+03              0.    -791.495E+03
           21731     30.9658E+03    -37.3324E+03              0.    -788.450E+03
           21732     30.5979E+03    -38.0206E+03              0.    -785.502E+03
           21733     30.1509E+03    -38.6232E+03              0.    -782.643E+03
           21734     29.6216E+03    -39.1376E+03              0.    -779.860E+03
           21735     29.0069E+03    -39.5613E+03              0.    -777.144E+03
           21736     28.3033E+03    -39.8914E+03              0.    -774.484E+03
           21737     27.5075E+03    -40.1252E+03              0.    -771.867E+03
           21738     26.6160E+03    -40.2599E+03              0.    -769.282E+03
           21739     25.6250E+03    -40.2926E+03              0.    -766.718E+03
           21740     24.5307E+03    -40.2205E+03              0.    -764.160E+03
           21741     23.3292E+03    -40.0404E+03              0.    -761.597E+03
           21742     22.0164E+03    -39.7494E+03              0.    -759.016E+03
           21743     20.5879E+03    -39.3443E+03              0.    -756.402E+03
           21744     19.0395E+03    -38.8218E+03              0.    -753.743E+03
           21745     17.3665E+03    -38.1787E+03              0.    -751.023E+03
           21746     15.5640E+03    -37.4116E+03              0.    -748.228E+03
           21747     13.6273E+03    -36.5168E+03              0.    -745.342E+03
           21748     11.5511E+03    -35.4908E+03              0.    -742.351E+03
           21749     9.33000E+03    -34.3299E+03              0.    -739.238E+03
           21750     6.95853E+03    -33.0302E+03              0.    -735.987E+03
           21751     4.43088E+03    -31.5877E+03              0.    -732.581E+03
           21752     1.74104E+03    -29.9984E+03              0.    -729.002E+03
           21753    -1.11723E+03    -28.2581E+03              0.    -725.233E+03
           21754    -4.15044E+03    -26.3623E+03              0.    -721.255E+03
           21755    -7.36531E+03    -24.3066E+03              0.    -717.050E+03
           21756    -10.7689E+03    -22.0864E+03              0.    -712.598E+03
           21757    -14.3684E+03    -19.6967E+03              0.    -707.879E+03
           21758    -18.1715E+03    -17.1327E+03              0.    -702.872E+03
           21759    -22.1861E+03    -14.3891E+03              0.    -697.556E+03
           21760    -26.4202E+03    -11.4609E+03              0.     -691.91E+03
           21761    -30.8824E+03    -8.34231E+03              0.    -685.911E+03
           21762    -35.5816E+03    -5.02781E+03              0.    -679.536E+03
           21763    -40.5269E+03    -1.51157E+03              0.    -672.761E+03
           21764    -45.7278E+03     2.21249E+03              0.    -665.562E+03
           21765    -51.1943E+03     6.15061E+03              0.    -657.914E+03
           21766    -56.9365E+03     10.3092E+03              0.    -649.790E+03
           21767    -62.9653E+03     14.6951E+03              0.    -641.164E+03
           21768    -69.2916E+03     19.3149E+03              0.    -632.008E+03
           21769    -75.9270E+03     24.1759E+03              0.    -622.295E+03
           21770    -82.8835E+03     29.2855E+03              0.    -611.994E+03
           21771    -90.1734E+03     34.6511E+03              0.    -601.076E+03
           21772    -97.8096E+03     40.2806E+03              0.    -589.510E+03
           21773    -105.806E+03     46.1821E+03              0.    -577.264E+03
           21774    -114.175E+03     52.3639E+03              0.    -564.305E+03
           21775    -122.932E+03     58.8346E+03              0.    -550.599E+03
           21776    -132.093E+03     65.6031E+03              0.    -536.111E+03
           21777    -141.671E+03     72.6785E+03              0.    -520.806E+03
           21778    -151.684E+03     80.0703E+03              0.    -504.645E+03
           21779    -162.149E+03     87.7882E+03              0.    -487.591E+03
           21780    -173.081E+03     95.8421E+03              0.    -469.605E+03
           21781    -184.500E+03     104.243E+03              0.    -450.645E+03
           21782    -196.424E+03     113.000E+03              0.    -430.671E+03
           21783    -208.872E+03     122.126E+03              0.    -409.638E+03
           21784    -221.864E+03     131.630E+03              0.    -387.503E+03
           21785    -235.421E+03     141.526E+03              0.    -364.220E+03
           21786    -249.564E+03     151.825E+03              0.    -339.741E+03
           21787    -264.317E+03     162.539E+03              0.    -314.018E+03
           21788    -279.700E+03     173.680E+03              0.    -287.001E+03
           21789    -295.740E+03     185.263E+03              0.    -258.638E+03
           21790    -312.459E+03     197.300E+03              0.    -228.876E+03
           21791    -329.885E+03     209.804E+03              0.    -197.661E+03
           21792    -348.043E+03     222.791E+03              0.    -164.936E+03
           21793    -366.961E+03     236.275E+03              0.    -130.642E+03
           21794    -386.668E+03     250.270E+03              0.    -94.7201E+03
           21795    -407.193E+03     264.792E+03              0.    -57.1087E+03
           21796    -428.567E+03     279.856E+03              0.    -17.7441E+03
           21797    -450.820E+03     295.478E+03              0.     23.4389E+03
           21798    -473.987E+03     311.676E+03              0.     66.5077E+03
           21799    -498.101E+03     328.466E+03              0.     111.532E+03
           21800    -523.197E+03     345.864E+03              0.     158.582E+03
           21801    -549.311E+03     363.890E+03              0.     207.731E+03
           21802    -576.480E+03     382.560E+03              0.     259.056E+03
           21803    -604.745E+03     401.894E+03              0.     312.634E+03
           21804    -634.144E+03     421.909E+03              0.     368.544E+03
           21805    -664.719E+03     442.627E+03              0.     426.869E+03
           21806    -696.514E+03     464.066E+03              0.     487.693E+03
           21807    -729.572E+03     486.246E+03              0.     551.103E+03
           21808    -763.940E+03     509.188E+03              0.     617.189E+03
           21809    -799.665E+03     532.912E+03              0.     686.041E+03
           21810    -836.796E+03     557.441E+03              0.     757.755E+03
           21811    -875.384E+03     582.794E+03              0.     832.427E+03
           21812    -915.480E+03     608.996E+03              0.     910.157E+03
           21813    -957.140E+03     636.066E+03              0.     991.046E+03
           21814    -1.00042E+06     664.029E+03              0.     1.07520E+06
           21815    -1.04537E+06     692.907E+03              0.     1.16272E+06
           21816    -1.09206E+06     722.722E+03              0.     1.25373E+06
           21817    -1.14055E+06     753.499E+03              0.     1.34833E+06
           21818    -1.19090E+06     785.261E+03              0.     1.44665E+06
           21819    -1.24317E+06     818.031E+03              0.     1.54879E+06
           21820    -1.29744E+06     851.833E+03              0.     1.65489E+06
           21821    -1.35376E+06     886.692E+03              0.     1.76506E+06
           21822    -1.41222E+06     922.630E+03              0.     1.87943E+06
           21823    -1.47289E+06     959.672E+03              0.     1.99814E+06
           21824    -1.53584E+06     997.841E+03              0.     2.12132E+06
           21825    -1.60116E+06     1.03716E+06              0.     2.24911E+06
           21826    -1.66891E+06     1.07766E+06              0.     2.38163E+06
           21827    -1.73919E+06     1.11935E+06              0.     2.51904E+06
           21828    -1.81208E+06     1.16226E+06              0.     2.66149E+06
           21829    -1.88766E+06     1.20642E+06              0.     2.80911E+06
           21830    -1.96603E+06     1.25184E+06              0.     2.96207E+06
           21831    -2.04728E+06     1.29855E+06              0.     3.12051E+06
           21832    -2.13150E+06     1.34656E+06              0.     3.28459E+06
           21833    -2.21879E+06     1.39589E+06              0.     3.45448E+06
           21834    -2.30926E+06     1.44657E+06              0.     3.63033E+06
           21835    -2.40299E+06     1.49861E+06              0.     3.81230E+06
           21836    -2.50011E+06     1.55202E+06              0.     4.00057E+06
           21837    -2.60071E+06     1.60682E+06              0.     4.19531E+06
           21838    -2.70491E+06     1.66302E+06              0.     4.39668E+06
           21839    -2.81281E+06     1.72063E+06              0.     4.60485E+06
           21840    -2.92454E+06     1.77966E+06              0.     4.82002E+06
           21841    -3.04020E+06     1.84011E+06              0.     5.04234E+06
           21842    -3.15993E+06     1.90199E+06              0.     5.27200E+06
           21843    -3.28384E+06     1.96529E+06              0.     5.50918E+06
           21844    -3.41206E+06     2.03000E+06              0.     5.75405E+06
           21845    -3.54471E+06     2.09613E+06              0.     6.00679E+06
           21846    -3.68193E+06     2.16365E+06              0.     6.26760E+06
           21847    -3.82384E+06     2.23255E+06              0.     6.53663E+06
           21848    -3.97058E+06     2.30282E+06              0.     6.81408E+06
           21849    -4.12229E+06     2.37441E+06              0.     7.10011E+06
           21850    -4.27909E+06     2.44729E+06              0.     7.39490E+06
           21851    -4.44114E+06     2.52143E+06              0.     7.69863E+06
           21852    -4.60857E+06     2.59677E+06              0.     8.01146E+06
           21853    -4.78152E+06     2.67327E+06              0.     8.33356E+06
           21854    -4.96013E+06     2.75084E+06              0.     8.66507E+06
           21855    -5.14455E+06     2.82943E+06              0.     9.00616E+06
           21856    -5.33492E+06     2.90895E+06              0.     9.35698E+06
           21857    -5.53139E+06     2.98930E+06              0.     9.71765E+06
           21858    -5.73409E+06     3.07037E+06              0.     10.0883E+06
           21859    -5.94318E+06     3.15205E+06              0.     10.4691E+06
           21860    -6.15879E+06     3.23420E+06              0.     10.8600E+06
           21861    -6.38108E+06     3.31667E+06              0.     11.2613E+06
           21862    -6.61017E+06     3.39929E+06              0.     11.6730E+06
           21863    -6.84621E+06     3.48189E+06              0.     12.0951E+06
           21864    -7.08933E+06     3.56427E+06              0.     12.5277E+06
           21865    -7.33967E+06     3.64619E+06              0.     12.9707E+06
           21866    -7.59736E+06     3.72743E+06              0.     13.4243E+06
           21867    -7.86252E+06     3.80770E+06              0.     13.8883E+06
           21868    -8.13528E+06     3.88673E+06              0.     14.3628E+06
           21869    -8.41574E+06     3.96419E+06              0.     14.8475E+06
           21870    -8.70403E+06     4.03974E+06              0.     15.3425E+06
           21871    -9.00025E+06     4.11299E+06              0.     15.8474E+06
           21872    -9.30448E+06     4.18354E+06              0.     16.3622E+06
           21873    -9.61683E+06     4.25095E+06              0.     16.8866E+06
           21874    -9.93737E+06     4.31472E+06              0.     17.4202E+06
           21875    -10.2662E+06     4.37434E+06              0.     17.9627E+06
           21876    -10.6033E+06     4.42925E+06              0.     18.5137E+06
           21877    -10.9488E+06     4.47884E+06              0.     19.0727E+06
           21878    -11.3027E+06     4.52244E+06              0.     19.6391E+06
           21879    -11.6651E+06     4.55935E+06              0.     20.2123E+06
           21880    -12.0360E+06     4.58881E+06              0.     20.7916E+06
           21881    -12.4153E+06     4.61000E+06              0.     21.3761E+06
           21882    -12.8030E+06     4.62206E+06              0.     21.9650E+06
           21883    -13.1992E+06     4.62403E+06              0.     22.5571E+06
           21884    -13.6037E+06     4.61491E+06              0.     23.1514E+06
           21885    -14.0167E+06     4.59364E+06              0.     23.7466E+06
           21886    -14.4378E+06     4.55906E+06              0.     24.3411E+06
           21887    -14.8672E+06     4.50995E+06              0.     24.9336E+06
           21888    -15.3046E+06     4.44502E+06              0.     25.5221E+06
           21889    -15.7501E+06     4.36288E+06              0.     26.1047E+06
           21890    -16.2034E+06     4.26207E+06              0.     26.6794E+06
           21891    -16.6645E+06     4.14105E+06              0.     27.2437E+06
           21892    -17.1331E+06     3.99816E+06              0.     27.7951E+06
           21893    -17.6093E+06     3.83168E+06              0.     28.3308E+06
           21894    -18.0928E+06     3.63980E+06              0.     28.8476E+06
           21895    -18.5834E+06     3.42059E+06              0.     29.3422E+06
           21896    -19.0812E+06     3.17206E+06              0.     29.8107E+06
           21897    -19.5859E+06     2.89212E+06              0.     30.2492E+06
           21898    -20.0975E+06     2.57857E+06              0.     30.6532E+06
           21899    -20.6158E+06     2.22916E+06              0.     31.0178E+06
           21900    -21.1410E+06     1.84153E+06              0.     31.3378E+06
           21901    -21.6730E+06     1.41329E+06              0.     31.6073E+06
           21902    -22.2118E+06     941.940E+03              0.     31.8201E+06
           21903    -22.7578E+06     424.973E+03              0.     31.9692E+06
           21904    -23.3111E+06    -140.180E+03              0.     32.0473E+06
           21905    -23.8721E+06    -756.085E+03              0.     32.0463E+06
           21906    -24.4415E+06    -1.42530E+06              0.     31.9573E+06
           21907    -25.0199E+06    -2.15035E+06              0.     31.7707E+06
           21908    -25.6082E+06    -2.93368E+06              0.     31.4762E+06
           21909    -26.2075E+06    -3.77764E+06              0.     31.0624E+06
           21910    -26.8195E+06    -4.68438E+06              0.     30.5171E+06
           21911    -27.4457E+06    -5.65586E+06              0.     29.8269E+06
           21912    -28.0885E+06    -6.69375E+06              0.     28.9775E+06
           21913    -28.7503E+06    -7.79932E+06              0.     27.9532E+06
           21914    -29.4344E+06    -8.97341E+06              0.     26.7370E+06
           21915    -30.1444E+06    -10.2163E+06              0.     25.3106E+06
           21916    -30.8844E+06    -11.5273E+06              0.     23.6539E+06
           21917    -31.5819E+06    -13.1075E+06              0.     23.2598E+06
           21918        -801.122         905.777              0.    -950.474E+03
           21919    -1.00469E+03    -1.14602E+03              0.    -948.847E+03
           21920        -312.362    -2.82699E+03              0.    -940.215E+03
           21921         377.746    -4.51581E+03              0.    -931.827E+03
           21922     1.06277E+03    -6.20799E+03              0.    -923.683E+03
           21923     1.73996E+03    -7.89923E+03              0.    -915.784E+03
           21924     2.40665E+03    -9.58552E+03              0.    -908.129E+03
           21925     3.06030E+03    -11.2629E+03              0.    -900.717E+03
           21926     3.69841E+03    -12.9278E+03              0.    -893.546E+03
           21927     4.31860E+03    -14.5765E+03              0.    -886.615E+03
           21928     4.91852E+03    -16.2057E+03              0.    -879.919E+03
           21929     5.49589E+03    -17.8122E+03              0.    -873.458E+03
           21930     6.04849E+03    -19.3927E+03              0.    -867.226E+03
           21931     6.57412E+03    -20.9443E+03              0.    -861.221E+03
           21932     7.07063E+03    -22.4640E+03              0.    -855.437E+03
           21933     7.53590E+03    -23.9491E+03              0.    -849.870E+03
           21934     7.96781E+03    -25.3968E+03              0.    -844.515E+03
           21935     8.36426E+03    -26.8045E+03              0.    -839.367E+03
           21936     8.72317E+03    -28.1697E+03              0.    -834.419E+03
           21937     9.04243E+03    -29.4897E+03              0.    -829.666E+03
           21938     9.31996E+03    -30.7621E+03              0.    -825.100E+03
           21939     9.55363E+03    -31.9846E+03              0.    -820.716E+03
           21940     9.74133E+03    -33.1548E+03              0.    -816.505E+03
           21941     9.88086E+03    -34.2703E+03              0.    -812.461E+03
           21942     9.97006E+03    -35.3289E+03              0.    -808.576E+03
           21943     10.0067E+03    -36.3282E+03              0.    -804.841E+03
           21944     9.98848E+03    -37.2660E+03              0.    -801.248E+03
           21945     9.91311E+03    -38.1401E+03              0.    -797.788E+03
           21946     9.77819E+03    -38.9481E+03              0.    -794.453E+03
           21947     9.58130E+03    -39.6879E+03              0.    -791.232E+03
           21948     9.31992E+03    -40.3572E+03              0.    -788.117E+03
           21949     8.99148E+03    -40.9537E+03              0.    -785.097E+03
           21950     8.59332E+03    -41.4750E+03              0.    -782.162E+03
           21951     8.12271E+03    -41.9190E+03              0.    -779.301E+03
           21952     7.57681E+03    -42.2831E+03              0.    -776.504E+03
           21953     6.95272E+03    -42.5651E+03              0.    -773.759E+03
           21954     6.24739E+03    -42.7624E+03              0.    -771.054E+03
           21955     5.45772E+03    -42.8727E+03              0.    -768.378E+03
           21956     4.58044E+03    -42.8934E+03              0.    -765.719E+03
           21957     3.61221E+03    -42.8218E+03              0.    -763.063E+03
           21958     2.54954E+03    -42.6555E+03              0.    -760.398E+03
           21959     1.38881E+03    -42.3917E+03              0.    -757.710E+03
           21960         126.265    -42.0275E+03              0.    -754.986E+03
           21961    -1.24198E+03    -41.5602E+03              0.    -752.212E+03
           21962    -2.71998E+03    -40.9869E+03              0.    -749.374E+03
           21963    -4.31194E+03    -40.3045E+03              0.    -746.455E+03
           21964    -6.02222E+03    -39.5099E+03              0.    -743.442E+03
           21965    -7.85536E+03    -38.5999E+03              0.    -740.318E+03
           21966    -9.81607E+03    -37.5713E+03              0.    -737.066E+03
           21967    -11.9093E+03    -36.4207E+03              0.    -733.672E+03
           21968    -14.1400E+03    -35.1445E+03              0.    -730.117E+03
           21969    -16.5136E+03    -33.7393E+03              0.    -726.383E+03
           21970    -19.0356E+03    -32.2012E+03              0.    -722.454E+03
           21971    -21.7117E+03    -30.5264E+03              0.    -718.309E+03
           21972    -24.5478E+03    -28.7109E+03              0.    -713.930E+03
           21973    -27.5501E+03    -26.7507E+03              0.    -709.298E+03
           21974    -30.7251E+03    -24.6415E+03              0.    -704.392E+03
           21975    -34.0793E+03    -22.3789E+03              0.    -699.191E+03
           21976    -37.6198E+03    -19.9585E+03              0.    -693.673E+03
           21977    -41.3537E+03    -17.3755E+03              0.    -687.818E+03
           21978    -45.2885E+03    -14.6251E+03              0.    -681.601E+03
           21979    -49.4321E+03    -11.7024E+03              0.    -675.000E+03
           21980    -53.7924E+03    -8.60217E+03              0.    -667.990E+03
           21981    -58.3779E+03    -5.31911E+03              0.    -660.547E+03
           21982    -63.1973E+03    -1.84771E+03              0.    -652.645E+03
           21983    -68.2597E+03     1.81769E+03              0.    -644.258E+03
           21984    -73.5744E+03     5.68302E+03              0.    -635.358E+03
           21985    -79.1512E+03     9.75425E+03              0.    -625.919E+03
           21986    -85.0002E+03     14.0377E+03              0.     -615.91E+03
           21987    -91.1320E+03     18.5398E+03              0.    -605.303E+03
           21988    -97.5575E+03     23.2673E+03              0.    -594.067E+03
           21989    -104.288E+03     28.2270E+03              0.    -582.170E+03
           21990    -111.335E+03     33.4261E+03              0.    -569.580E+03
           21991    -118.712E+03     38.8718E+03              0.    -556.264E+03
           21992    -126.430E+03     44.5718E+03              0.    -542.187E+03
           21993    -134.503E+03     50.5339E+03              0.    -527.314E+03
           21994    -142.944E+03     56.7661E+03              0.    -511.608E+03
           21995    -151.768E+03     63.2768E+03              0.    -495.033E+03
           21996    -160.989E+03     70.0744E+03              0.    -477.547E+03
           21997    -170.623E+03     77.1679E+03              0.    -459.113E+03
           21998    -180.685E+03     84.5663E+03              0.    -439.688E+03
           21999    -191.191E+03     92.2790E+03              0.    -419.231E+03
           22000    -202.160E+03     100.316E+03              0.    -397.697E+03
           22001    -213.607E+03     108.686E+03              0.    -375.041E+03
           22002    -225.552E+03     117.401E+03              0.    -351.217E+03
           22003    -238.013E+03     126.470E+03              0.    -326.176E+03
           22004     -251.01E+03     135.905E+03              0.    -299.871E+03
           22005    -264.563E+03     145.717E+03              0.    -272.248E+03
           22006    -278.693E+03     155.916E+03              0.    -243.257E+03
           22007    -293.423E+03     166.516E+03              0.    -212.844E+03
           22008    -308.774E+03     177.527E+03              0.    -180.952E+03
           22009    -324.769E+03     188.963E+03              0.    -147.524E+03
           22010    -341.434E+03     200.836E+03              0.    -112.501E+03
           22011    -358.793E+03     213.159E+03              0.    -75.8223E+03
           22012    -376.871E+03     225.946E+03              0.    -37.4256E+03
           22013    -395.697E+03     239.211E+03              0.     2.75379E+03
           22014    -415.297E+03     252.967E+03              0.     44.7823E+03
           22015    -435.701E+03     267.230E+03              0.     88.7285E+03
           22016    -456.938E+03     282.013E+03              0.     134.662E+03
           22017    -479.039E+03     297.333E+03              0.     182.657E+03
           22018    -502.036E+03     313.204E+03              0.     232.786E+03
           22019    -525.961E+03     329.644E+03              0.     285.127E+03
           22020    -550.850E+03     346.667E+03              0.     339.759E+03
           22021    -576.736E+03     364.291E+03              0.     396.762E+03
           22022    -603.657E+03     382.532E+03              0.     456.221E+03
           22023    -631.650E+03     401.409E+03              0.     518.221E+03
           22024    -660.755E+03     420.938E+03              0.     582.851E+03
           22025    -691.010E+03     441.137E+03              0.     650.201E+03
           22026    -722.459E+03     462.026E+03              0.     720.364E+03
           22027    -755.143E+03     483.622E+03              0.     793.437E+03
           22028    -789.108E+03     505.944E+03              0.     869.518E+03
           22029    -824.399E+03     529.012E+03              0.     948.708E+03
           22030    -861.062E+03     552.846E+03              0.     1.03111E+06
           22031    -899.148E+03     577.464E+03              0.     1.11683E+06
           22032    -938.706E+03     602.888E+03              0.     1.20598E+06
           22033    -979.788E+03     629.136E+03              0.     1.29868E+06
           22034    -1.02245E+06     656.231E+03              0.     1.39503E+06
           22035    -1.06674E+06     684.192E+03              0.     1.49515E+06
           22036    -1.11273E+06      713.04E+03              0.     1.59916E+06
           22037    -1.16046E+06     742.796E+03              0.     1.70720E+06
           22038    -1.21000E+06     773.481E+03              0.     1.81938E+06
           22039    -1.26141E+06     805.115E+03              0.     1.93584E+06
           22040    -1.31476E+06     837.720E+03              0.     2.05671E+06
           22041    -1.37011E+06     871.316E+03              0.     2.18212E+06
           22042    -1.42753E+06     905.924E+03              0.     2.31221E+06
           22043    -1.48709E+06     941.564E+03              0.     2.44713E+06
           22044    -1.54886E+06     978.257E+03              0.     2.58702E+06
           22045    -1.61292E+06     1.01602E+06              0.     2.73202E+06
           22046    -1.67933E+06     1.05488E+06              0.     2.88230E+06
           22047    -1.74819E+06     1.09485E+06              0.     3.03800E+06
           22048    -1.81956E+06     1.13594E+06              0.     3.19928E+06
           22049    -1.89354E+06     1.17818E+06              0.     3.36629E+06
           22050    -1.97020E+06     1.22158E+06              0.     3.53921E+06
           22051    -2.04963E+06     1.26616E+06              0.     3.71820E+06
           22052    -2.13193E+06     1.31194E+06              0.     3.90342E+06
           22053    -2.21717E+06     1.35891E+06              0.     4.09504E+06
           22054    -2.30546E+06     1.40711E+06              0.     4.29324E+06
           22055    -2.39688E+06     1.45652E+06              0.     4.49819E+06
           22056    -2.49154E+06     1.50718E+06              0.     4.71007E+06
           22057    -2.58953E+06     1.55907E+06              0.     4.92905E+06
           22058    -2.69095E+06     1.61220E+06              0.     5.15531E+06
           22059    -2.79592E+06     1.66658E+06              0.     5.38905E+06
           22060    -2.90452E+06     1.72220E+06              0.     5.63042E+06
           22061    -3.01687E+06     1.77906E+06              0.     5.87963E+06
           22062    -3.13307E+06     1.83715E+06              0.     6.13685E+06
           22063    -3.25325E+06     1.89645E+06              0.     6.40226E+06
           22064    -3.37749E+06     1.95694E+06              0.     6.67605E+06
           22065    -3.50593E+06     2.01862E+06              0.     6.95839E+06
           22066    -3.63868E+06     2.08145E+06              0.     7.24947E+06
           22067    -3.77584E+06     2.14539E+06              0.     7.54946E+06
           22068    -3.91754E+06     2.21042E+06              0.     7.85854E+06
           22069    -4.06390E+06     2.27648E+06              0.     8.17687E+06
           22070    -4.21502E+06     2.34353E+06              0.     8.50463E+06
           22071    -4.37104E+06     2.41150E+06              0.     8.84197E+06
           22072    -4.53207E+06     2.48033E+06              0.     9.18905E+06
           22073    -4.69823E+06     2.54994E+06              0.     9.54601E+06
           22074    -4.86964E+06     2.62025E+06              0.     9.91300E+06
           22075    -5.04641E+06     2.69115E+06              0.     10.2901E+06
           22076    -5.22867E+06     2.76254E+06              0.     10.6776E+06
           22077    -5.41652E+06     2.83429E+06              0.     11.0754E+06
           22078    -5.61010E+06     2.90628E+06              0.     11.4836E+06
           22079    -5.80950E+06     2.97835E+06              0.     11.9024E+06
           22080    -6.01484E+06     3.05033E+06              0.     12.3318E+06
           22081    -6.22622E+06     3.12205E+06              0.     12.7719E+06
           22082    -6.44376E+06     3.19330E+06              0.     13.2226E+06
           22083    -6.66756E+06     3.26388E+06              0.     13.6840E+06
           22084    -6.89770E+06     3.33353E+06              0.     14.1560E+06
           22085    -7.13428E+06     3.40199E+06              0.     14.6386E+06
           22086    -7.37740E+06     3.46898E+06              0.     15.1316E+06
           22087    -7.62712E+06     3.53419E+06              0.     15.6349E+06
           22088    -7.88354E+06     3.59728E+06              0.     16.1484E+06
           22089    -8.14670E+06     3.65789E+06              0.     16.6719E+06
           22090    -8.41669E+06     3.71560E+06              0.     17.2050E+06
           22091    -8.69354E+06     3.77001E+06              0.     17.7476E+06
           22092    -8.97731E+06     3.82063E+06              0.     18.2991E+06
           22093    -9.26803E+06     3.86696E+06              0.     18.8592E+06
           22094    -9.56572E+06     3.90847E+06              0.     19.4273E+06
           22095    -9.87041E+06     3.94458E+06              0.     20.0029E+06
           22096    -10.1821E+06     3.97464E+06              0.     20.5854E+06
           22097    -10.5008E+06     3.99800E+06              0.     21.1740E+06
           22098    -10.8264E+06     4.01392E+06              0.     21.7678E+06
           22099    -11.1590E+06     4.02164E+06              0.     22.3659E+06
           22100    -11.4986E+06     4.02033E+06              0.     22.9673E+06
           22101    -11.8449E+06     4.00911E+06              0.     23.5707E+06
           22102    -12.1981E+06     3.98703E+06              0.     24.1749E+06
           22103    -12.5580E+06     3.95309E+06              0.     24.7784E+06
           22104    -12.9246E+06     3.90624E+06              0.     25.3796E+06
           22105    -13.2977E+06     3.84533E+06              0.     25.9766E+06
           22106    -13.6773E+06     3.76918E+06              0.     26.5676E+06
           22107    -14.0633E+06     3.67652E+06              0.     27.1504E+06
           22108    -14.4556E+06     3.56601E+06              0.     27.7225E+06
           22109    -14.8540E+06     3.43625E+06              0.     28.2814E+06
           22110    -15.2585E+06     3.28577E+06              0.     28.8241E+06
           22111    -15.6689E+06     3.11301E+06              0.     29.3476E+06
           22112    -16.0853E+06     2.91637E+06              0.     29.8483E+06
           22113    -16.5076E+06     2.69417E+06              0.     30.3225E+06
           22114    -16.9356E+06     2.44466E+06              0.     30.7661E+06
           22115    -17.3696E+06     2.16603E+06              0.     31.1745E+06
           22116    -17.8094E+06     1.85644E+06              0.     31.5430E+06
           22117    -18.2552E+06     1.51398E+06              0.     31.8661E+06
           22118    -18.7072E+06     1.13672E+06              0.     32.1380E+06
           22119    -19.1657E+06     722.704E+03              0.     32.3524E+06
           22120    -19.6310E+06     269.975E+03              0.     32.5025E+06
           22121    -20.1037E+06    -223.420E+03              0.     32.5807E+06
           22122    -20.5844E+06    -759.388E+03              0.     32.5790E+06
           22123    -21.0739E+06    -1.33977E+06              0.     32.4885E+06
           22124    -21.5732E+06    -1.96633E+06              0.     32.2996E+06
           22125    -22.0837E+06    -2.64065E+06              0.     32.0021E+06
           22126    -22.6070E+06    -3.36419E+06              0.     31.5847E+06
           22127    -23.1448E+06    -4.13813E+06              0.     31.0352E+06
           22128    -23.6996E+06    -4.96335E+06              0.     30.3404E+06
           22129    -24.2740E+06    -5.84039E+06              0.     29.4861E+06
           22130    -24.8712E+06    -6.76927E+06              0.     28.4568E+06
           22131    -25.4951E+06    -7.74952E+06              0.     27.2358E+06
           22132    -26.1503E+06    -8.77996E+06              0.     25.8052E+06
           22133    -26.8424E+06    -9.85869E+06              0.     24.1453E+06
           22134    -27.4435E+06    -11.1664E+06              0.     23.7681E+06
           22135    -20.9183E+03    -8.14537E+03              0.    -951.087E+03
           22136    -21.0908E+03    -9.89848E+03              0.    -949.458E+03
           22137    -20.4962E+03    -11.3371E+03              0.    -940.826E+03
           22138    -19.9037E+03    -12.7826E+03              0.    -932.434E+03
           22139    -19.3155E+03    -14.2311E+03              0.    -924.285E+03
           22140    -18.7341E+03    -15.6790E+03              0.    -916.378E+03
           22141    -18.1617E+03    -17.1226E+03              0.    -908.712E+03
           22142    -17.6006E+03    -18.5588E+03              0.    -901.288E+03
           22143    -17.0530E+03    -19.9843E+03              0.    -894.101E+03
           22144    -16.5208E+03    -21.3960E+03              0.    -887.153E+03
           22145    -16.0060E+03    -22.7909E+03              0.    -880.438E+03
           22146    -15.5108E+03    -24.1664E+03              0.    -873.955E+03
           22147    -15.0369E+03    -25.5197E+03              0.    -867.699E+03
           22148    -14.5863E+03    -26.8482E+03              0.    -861.668E+03
           22149    -14.1608E+03    -28.1493E+03              0.    -855.856E+03
           22150    -13.7622E+03    -29.4207E+03              0.     -850.26E+03
           22151    -13.3925E+03    -30.6601E+03              0.    -844.874E+03
           22152    -13.0533E+03    -31.8650E+03              0.    -839.691E+03
           22153    -12.7465E+03    -33.0334E+03              0.    -834.708E+03
           22154    -12.4739E+03    -34.1630E+03              0.    -829.917E+03
           22155    -12.2373E+03    -35.2517E+03              0.    -825.312E+03
           22156    -12.0385E+03    -36.2975E+03              0.    -820.886E+03
           22157    -11.8793E+03    -37.2983E+03              0.    -816.633E+03
           22158    -11.7618E+03    -38.2522E+03              0.    -812.543E+03
           22159    -11.6876E+03    -39.1571E+03              0.    -808.610E+03
           22160    -11.6587E+03    -40.0110E+03              0.    -804.825E+03
           22161    -11.6772E+03    -40.8121E+03              0.    -801.181E+03
           22162    -11.7450E+03    -41.5583E+03              0.    -797.667E+03
           22163    -11.8641E+03    -42.2478E+03              0.    -794.276E+03
           22164    -12.0367E+03    -42.8785E+03              0.    -790.997E+03
           22165    -12.2649E+03    -43.4486E+03              0.    -787.821E+03
           22166    -12.5509E+03    -43.9560E+03              0.    -784.738E+03
           22167    -12.8971E+03    -44.3988E+03              0.    -781.737E+03
           22168    -13.3058E+03    -44.7750E+03              0.    -778.808E+03
           22169    -13.7794E+03    -45.0825E+03              0.    -775.939E+03
           22170    -14.3204E+03    -45.3193E+03              0.    -773.120E+03
           22171    -14.9315E+03    -45.4833E+03              0.    -770.339E+03
           22172    -15.6154E+03    -45.5724E+03              0.    -767.584E+03
           22173    -16.3748E+03    -45.5843E+03              0.    -764.841E+03
           22174    -17.2127E+03    -45.5169E+03              0.    -762.100E+03
           22175    -18.1321E+03    -45.3679E+03              0.    -759.346E+03
           22176    -19.1360E+03    -45.1349E+03              0.    -756.566E+03
           22177    -20.2277E+03    -44.8156E+03              0.    -753.746E+03
           22178    -21.4107E+03    -44.4075E+03              0.    -750.872E+03
           22179    -22.6883E+03    -43.9081E+03              0.    -747.930E+03
           22180    -24.0642E+03    -43.3147E+03              0.    -744.904E+03
           22181    -25.5421E+03    -42.6248E+03              0.    -741.779E+03
           22182    -27.1261E+03    -41.8355E+03              0.    -738.539E+03
           22183    -28.8200E+03    -40.9441E+03              0.    -735.167E+03
           22184    -30.6283E+03    -39.9476E+03              0.    -731.647E+03
           22185    -32.5552E+03    -38.8430E+03              0.    -727.962E+03
           22186    -34.6054E+03    -37.6272E+03              0.    -724.094E+03
           22187    -36.7836E+03    -36.2970E+03              0.    -720.024E+03
           22188    -39.0946E+03    -34.8491E+03              0.    -715.734E+03
           22189    -41.5438E+03    -33.2800E+03              0.    -711.205E+03
           22190    -44.1363E+03    -31.5862E+03              0.    -706.415E+03
           22191    -46.8777E+03    -29.7641E+03              0.    -701.346E+03
           22192    -49.7737E+03    -27.8099E+03              0.    -695.976E+03
           22193    -52.8305E+03    -25.7196E+03              0.    -690.282E+03
           22194    -56.0541E+03    -23.4894E+03              0.    -684.244E+03
           22195    -59.4510E+03    -21.1150E+03              0.    -677.837E+03
           22196    -63.0279E+03    -18.5920E+03              0.    -671.039E+03
           22197    -66.7919E+03    -15.9161E+03              0.    -663.824E+03
           22198    -70.7501E+03    -13.0827E+03              0.    -656.169E+03
           22199    -74.9100E+03    -10.0871E+03              0.    -648.046E+03
           22200    -79.2795E+03    -6.92422E+03              0.    -639.429E+03
           22201    -83.8667E+03    -3.58912E+03              0.    -630.291E+03
           22202    -88.6800E+03        -76.5800              0.    -620.603E+03
           22203    -93.7281E+03     3.61882E+03              0.    -610.337E+03
           22204    -99.0201E+03     7.50266E+03              0.    -599.463E+03
           22205    -104.565E+03     11.5807E+03              0.    -587.949E+03
           22206    -110.374E+03     15.8589E+03              0.    -575.764E+03
           22207    -116.456E+03     20.3433E+03              0.    -562.874E+03
           22208    -122.821E+03     25.0404E+03              0.    -549.247E+03
           22209    -129.481E+03     29.9566E+03              0.    -534.847E+03
           22210    -136.447E+03     35.0986E+03              0.    -519.638E+03
           22211    -143.731E+03     40.4735E+03              0.    -503.584E+03
           22212    -151.345E+03     46.0884E+03              0.    -486.646E+03
           22213    -159.302E+03     51.9506E+03              0.    -468.784E+03
           22214    -167.614E+03     58.0679E+03              0.    -449.960E+03
           22215    -176.296E+03     64.4480E+03              0.    -430.129E+03
           22216    -185.361E+03     71.0989E+03              0.    -409.251E+03
           22217    -194.824E+03     78.0292E+03              0.    -387.279E+03
           22218    -204.700E+03     85.2472E+03              0.    -364.169E+03
           22219    -215.005E+03     92.7619E+03              0.    -339.873E+03
           22220    -225.755E+03     100.582E+03              0.    -314.344E+03
           22221    -236.967E+03     108.718E+03              0.    -287.530E+03
           22222    -248.659E+03     117.178E+03              0.    -259.380E+03
           22223    -260.848E+03     125.973E+03              0.    -229.841E+03
           22224    -273.553E+03     135.112E+03              0.    -198.859E+03
           22225    -286.794E+03     144.607E+03              0.    -166.377E+03
           22226    -300.591E+03     154.467E+03              0.    -132.336E+03
           22227    -314.965E+03     164.704E+03              0.     -96.678E+03
           22228    -329.936E+03     175.330E+03              0.    -59.3399E+03
           22229    -345.528E+03     186.355E+03              0.    -20.2586E+03
           22230    -361.764E+03     197.792E+03              0.     20.6312E+03
           22231    -378.667E+03     209.653E+03              0.     63.3968E+03
           22232    -396.261E+03     221.950E+03              0.     108.108E+03
           22233    -414.574E+03     234.696E+03              0.     154.835E+03
           22234    -433.631E+03     247.905E+03              0.     203.653E+03
           22235    -453.459E+03     261.589E+03              0.     254.636E+03
           22236    -474.087E+03     275.763E+03              0.     307.863E+03
           22237    -495.543E+03     290.440E+03              0.     363.414E+03
           22238    -517.860E+03     305.634E+03              0.     421.370E+03
           22239    -541.066E+03     321.361E+03              0.     481.817E+03
           22240    -565.195E+03     337.636E+03              0.     544.842E+03
           22241    -590.281E+03     354.472E+03              0.     610.534E+03
           22242    -616.356E+03     371.887E+03              0.     678.986E+03
           22243    -643.458E+03     389.895E+03              0.     750.292E+03
           22244    -671.623E+03     408.513E+03              0.     824.550E+03
           22245    -700.889E+03     427.757E+03              0.     901.858E+03
           22246    -731.295E+03     447.643E+03              0.     982.321E+03
           22247    -762.881E+03     468.189E+03              0.     1.06604E+06
           22248    -795.689E+03     489.411E+03              0.     1.15313E+06
           22249    -829.763E+03     511.326E+03              0.     1.24370E+06
           22250    -865.145E+03     533.953E+03              0.     1.33786E+06
           22251    -901.883E+03     557.308E+03              0.     1.43573E+06
           22252    -940.023E+03     581.408E+03              0.     1.53743E+06
           22253    -979.614E+03     606.273E+03              0.     1.64308E+06
           22254    -1.02071E+06     631.919E+03              0.     1.75280E+06
           22255    -1.06335E+06     658.364E+03              0.     1.86674E+06
           22256    -1.10760E+06     685.627E+03              0.     1.98501E+06
           22257    -1.15351E+06     713.725E+03              0.     2.10775E+06
           22258    -1.20113E+06     742.676E+03              0.     2.23510E+06
           22259    -1.25053E+06     772.497E+03              0.     2.36721E+06
           22260    -1.30176E+06     803.206E+03              0.     2.50421E+06
           22261    -1.35488E+06     834.819E+03              0.     2.64625E+06
           22262    -1.40996E+06     867.355E+03              0.     2.79349E+06
           22263    -1.46706E+06     900.828E+03              0.     2.94607E+06
           22264    -1.52625E+06     935.254E+03              0.     3.10416E+06
           22265    -1.58759E+06     970.649E+03              0.     3.26790E+06
           22266    -1.65115E+06     1.00703E+06              0.     3.43747E+06
           22267    -1.71700E+06     1.04440E+06              0.     3.61303E+06
           22268    -1.78522E+06     1.08279E+06              0.     3.79475E+06
           22269    -1.85588E+06     1.12220E+06              0.     3.98278E+06
           22270    -1.92906E+06     1.16264E+06              0.     4.17732E+06
           22271    -2.00483E+06     1.20412E+06              0.     4.37853E+06
           22272    -2.08327E+06     1.24665E+06              0.     4.58659E+06
           22273    -2.16447E+06     1.29023E+06              0.     4.80168E+06
           22274    -2.24849E+06     1.33487E+06              0.     5.02398E+06
           22275    -2.33544E+06     1.38058E+06              0.     5.25367E+06
           22276    -2.42540E+06     1.42734E+06              0.     5.49093E+06
           22277    -2.51844E+06     1.47516E+06              0.     5.73595E+06
           22278    -2.61466E+06     1.52404E+06              0.     5.98892E+06
           22279    -2.71415E+06     1.57395E+06              0.     6.25001E+06
           22280    -2.81700E+06     1.62490E+06              0.     6.51942E+06
           22281    -2.92329E+06     1.67686E+06              0.     6.79732E+06
           22282    -3.03313E+06     1.72982E+06              0.     7.08391E+06
           22283     -3.1466E+06     1.78375E+06              0.     7.37936E+06
           22284    -3.26380E+06     1.83862E+06              0.     7.68385E+06
           22285    -3.38482E+06     1.89439E+06              0.     7.99755E+06
           22286    -3.50976E+06     1.95103E+06              0.     8.32065E+06
           22287    -3.63871E+06     2.00849E+06              0.     8.65330E+06
           22288    -3.77177E+06     2.06671E+06              0.     8.99567E+06
           22289    -3.90903E+06     2.12563E+06              0.     9.34792E+06
           22290    -4.05058E+06     2.18519E+06              0.     9.71019E+06
           22291    -4.19652E+06     2.24530E+06              0.     10.0826E+06
           22292    -4.34694E+06     2.30588E+06              0.     10.4654E+06
           22293    -4.50194E+06     2.36683E+06              0.     10.8585E+06
           22294    -4.66160E+06     2.42805E+06              0.     11.2622E+06
           22295    -4.82600E+06     2.48940E+06              0.     11.6764E+06
           22296    -4.99524E+06     2.55077E+06              0.     12.1014E+06
           22297    -5.16939E+06     2.61199E+06              0.     12.5371E+06
           22298    -5.34854E+06     2.67291E+06              0.     12.9835E+06
           22299    -5.53276E+06     2.73336E+06              0.     13.4408E+06
           22300    -5.72213E+06     2.79314E+06              0.     13.9089E+06
           22301    -5.91671E+06     2.85203E+06              0.     14.3877E+06
           22302    -6.11656E+06     2.90981E+06              0.     14.8772E+06
           22303    -6.32175E+06     2.96621E+06              0.     15.3772E+06
           22304    -6.53232E+06     3.02098E+06              0.     15.8878E+06
           22305    -6.74833E+06     3.07381E+06              0.     16.4085E+06
           22306    -6.96981E+06     3.12437E+06              0.     16.9394E+06
           22307    -7.19679E+06     3.17232E+06              0.     17.4800E+06
           22308    -7.42931E+06     3.21729E+06              0.     18.0300E+06
           22309    -7.66737E+06     3.25885E+06              0.     18.5891E+06
           22310    -7.91100E+06     3.29658E+06              0.     19.1569E+06
           22311    -8.16018E+06     3.32999E+06              0.     19.7328E+06
           22312    -8.41492E+06     3.35859E+06              0.     20.3161E+06
           22313    -8.67520E+06     3.38183E+06              0.     20.9064E+06
           22314    -8.94098E+06     3.39912E+06              0.     21.5027E+06
           22315    -9.21225E+06     3.40984E+06              0.     22.1042E+06
           22316    -9.48894E+06     3.41332E+06              0.     22.7100E+06
           22317    -9.77103E+06     3.40885E+06              0.     23.3190E+06
           22318    -10.0584E+06     3.39567E+06              0.     23.9300E+06
           22319    -10.3511E+06     3.37298E+06              0.     24.5417E+06
           22320    -10.6489E+06     3.33991E+06              0.     25.1525E+06
           22321    -10.9519E+06     3.29557E+06              0.     25.7608E+06
           22322    -11.2599E+06     3.23900E+06              0.     26.3648E+06
           22323    -11.5728E+06     3.16918E+06              0.     26.9626E+06
           22324    -11.8906E+06     3.08506E+06              0.     27.5518E+06
           22325    -12.2132E+06     2.98551E+06              0.     28.1301E+06
           22326    -12.5404E+06     2.86938E+06              0.     28.6949E+06
           22327    -12.8724E+06     2.73544E+06              0.     29.2432E+06
           22328    -13.2090E+06     2.58242E+06              0.     29.7718E+06
           22329    -13.5502E+06     2.40902E+06              0.     30.2772E+06
           22330    -13.8960E+06     2.21387E+06              0.     30.7557E+06
           22331    -14.2466E+06     1.99558E+06              0.     31.2031E+06
           22332    -14.6019E+06     1.75274E+06              0.     31.6149E+06
           22333    -14.9622E+06     1.48389E+06              0.     31.9861E+06
           22334    -15.3278E+06     1.18758E+06              0.     32.3114E+06
           22335    -15.6989E+06     862.362E+03              0.     32.5849E+06
           22336    -16.0759E+06     506.793E+03              0.     32.8004E+06
           22337    -16.4596E+06     119.476E+03              0.     32.9508E+06
           22338    -16.8506E+06    -300.933E+03              0.     33.0289E+06
           22339    -17.2498E+06    -755.689E+03              0.     33.0264E+06
           22340    -17.6582E+06    -1.24593E+06              0.     32.9347E+06
           22341    -18.0774E+06    -1.77264E+06              0.     32.7441E+06
           22342    -18.5088E+06    -2.33661E+06              0.     32.4445E+06
           22343    -18.9544E+06    -2.93838E+06              0.     32.0246E+06
           22344    -19.4166E+06    -3.57819E+06              0.     31.4725E+06
           22345    -19.8981E+06    -4.25588E+06              0.     30.7752E+06
           22346    -20.4021E+06    -4.97088E+06              0.     29.9186E+06
           22347    -20.9326E+06    -5.72202E+06              0.     28.8876E+06
           22348    -21.4939E+06    -6.50751E+06              0.     27.6657E+06
           22349    -22.0912E+06    -7.32476E+06              0.     26.2355E+06
           22350    -22.7304E+06     -8.1701E+06              0.     24.5778E+06
           22351    -23.2326E+06    -9.20464E+06              0.     24.2195E+06
           22352    -41.0253E+03    -17.1924E+03              0.    -951.601E+03
           22353    -41.1671E+03    -18.6501E+03              0.    -949.972E+03
           22354    -40.6693E+03    -19.8490E+03              0.    -941.339E+03
           22355    -40.1731E+03    -21.0536E+03              0.    -932.946E+03
           22356    -39.6807E+03    -22.2609E+03              0.    -924.792E+03
           22357    -39.1940E+03    -23.4676E+03              0.    -916.878E+03
           22358    -38.7150E+03    -24.6709E+03              0.    -909.203E+03
           22359    -38.2454E+03    -25.8679E+03              0.    -901.767E+03
           22360    -37.7871E+03    -27.0560E+03              0.    -894.568E+03
           22361    -37.3418E+03    -28.2327E+03              0.    -887.604E+03
           22362    -36.9112E+03    -29.3954E+03              0.    -880.873E+03
           22363    -36.4969E+03    -30.5419E+03              0.    -874.371E+03
           22364    -36.1006E+03    -31.6698E+03              0.    -868.096E+03
           22365    -35.7238E+03    -32.7770E+03              0.    -862.043E+03
           22366    -35.3681E+03    -33.8614E+03              0.    -856.208E+03
           22367    -35.0350E+03    -34.9209E+03              0.    -850.586E+03
           22368     -34.726E+03    -35.9536E+03              0.    -845.172E+03
           22369    -34.4427E+03    -36.9576E+03              0.    -839.962E+03
           22370    -34.1866E+03    -37.9310E+03              0.    -834.948E+03
           22371    -33.9591E+03    -38.8720E+03              0.    -830.125E+03
           22372    -33.7619E+03    -39.7788E+03              0.    -825.487E+03
           22373    -33.5963E+03    -40.6498E+03              0.    -821.026E+03
           22374    -33.4641E+03    -41.4831E+03              0.    -816.735E+03
           22375    -33.3666E+03    -42.2772E+03              0.    -812.607E+03
           22376    -33.3056E+03    -43.0303E+03              0.    -808.634E+03
           22377    -33.2826E+03    -43.7408E+03              0.    -804.807E+03
           22378    -33.2993E+03    -44.4070E+03              0.    -801.118E+03
           22379    -33.3573E+03    -45.0275E+03              0.    -797.559E+03
           22380    -33.4584E+03    -45.6004E+03              0.    -794.120E+03
           22381    -33.6043E+03    -46.1242E+03              0.    -790.791E+03
           22382    -33.7969E+03    -46.5973E+03              0.    -787.563E+03
           22383    -34.0380E+03    -47.0179E+03              0.    -784.426E+03
           22384    -34.3294E+03    -47.3845E+03              0.    -781.370E+03
           22385    -34.6734E+03    -47.6954E+03              0.    -778.382E+03
           22386    -35.0717E+03    -47.9488E+03              0.    -775.453E+03
           22387    -35.5266E+03    -48.1430E+03              0.    -772.572E+03
           22388    -36.0403E+03    -48.2764E+03              0.    -769.726E+03
           22389    -36.6149E+03    -48.3470E+03              0.    -766.902E+03
           22390    -37.2530E+03    -48.3530E+03              0.    -764.090E+03
           22391    -37.9568E+03    -48.2927E+03              0.    -761.275E+03
           22392    -38.7290E+03    -48.1641E+03              0.    -758.445E+03
           22393    -39.5720E+03    -47.9652E+03              0.    -755.587E+03
           22394    -40.4888E+03    -47.6940E+03              0.    -752.685E+03
           22395    -41.4820E+03    -47.3485E+03              0.    -749.727E+03
           22396    -42.5545E+03    -46.9266E+03              0.    -746.696E+03
           22397    -43.7095E+03    -46.4261E+03              0.    -743.579E+03
           22398    -44.9501E+03    -45.8447E+03              0.    -740.359E+03
           22399    -46.2796E+03    -45.1802E+03              0.    -737.020E+03
           22400    -47.7014E+03    -44.4302E+03              0.    -733.546E+03
           22401    -49.2190E+03    -43.5921E+03              0.    -729.920E+03
           22402    -50.8361E+03    -42.6636E+03              0.    -726.124E+03
           22403    -52.5566E+03    -41.6420E+03              0.    -722.141E+03
           22404    -54.3844E+03    -40.5246E+03              0.    -717.952E+03
           22405    -56.3237E+03    -39.3086E+03              0.    -713.539E+03
           22406    -58.3787E+03    -37.9911E+03              0.    -708.880E+03
           22407    -60.5540E+03    -36.5693E+03              0.    -703.957E+03
           22408    -62.8542E+03    -35.0399E+03              0.    -698.749E+03
           22409    -65.2841E+03    -33.4000E+03              0.    -693.235E+03
           22410    -67.8487E+03    -31.6462E+03              0.    -687.392E+03
           22411    -70.5533E+03    -29.7751E+03              0.    -681.198E+03
           22412    -73.4032E+03    -27.7832E+03              0.    -674.630E+03
           22413    -76.4041E+03    -25.6669E+03              0.    -667.664E+03
           22414    -79.5618E+03    -23.4226E+03              0.    -660.275E+03
           22415    -82.8825E+03    -21.0463E+03              0.    -652.438E+03
           22416    -86.3723E+03    -18.5341E+03              0.    -644.127E+03
           22417    -90.0378E+03    -15.8819E+03              0.    -635.315E+03
           22418    -93.8859E+03    -13.0854E+03              0.    -625.974E+03
           22419    -97.9236E+03    -10.1402E+03              0.    -616.076E+03
           22420    -102.158E+03    -7.04190E+03              0.    -605.591E+03
           22421    -106.597E+03    -3.78571E+03              0.    -594.489E+03
           22422    -111.249E+03        -366.818              0.    -582.738E+03
           22423    -116.121E+03     3.21973E+03              0.    -570.308E+03
           22424    -121.222E+03     6.97910E+03              0.    -557.163E+03
           22425    -126.562E+03     10.9166E+03              0.    -543.271E+03
           22426    -132.148E+03     15.0377E+03              0.    -528.596E+03
           22427    -137.991E+03     19.3480E+03              0.    -513.102E+03
           22428    -144.100E+03     23.8534E+03              0.    -496.751E+03
           22429    -150.486E+03     28.5599E+03              0.    -479.504E+03
           22430    -157.159E+03     33.4736E+03              0.    -461.323E+03
           22431    -164.131E+03     38.6010E+03              0.    -442.166E+03
           22432    -171.411E+03     43.9486E+03              0.    -421.990E+03
           22433    -179.014E+03     49.5233E+03              0.    -400.753E+03
           22434    -186.950E+03     55.3319E+03              0.    -378.410E+03
           22435    -195.232E+03     61.3817E+03              0.    -354.913E+03
           22436    -203.873E+03     67.6801E+03              0.    -330.216E+03
           22437    -212.888E+03     74.2347E+03              0.    -304.270E+03
           22438    -222.289E+03     81.0533E+03              0.    -277.024E+03
           22439    -232.093E+03     88.1439E+03              0.    -248.425E+03
           22440    -242.313E+03     95.5149E+03              0.    -218.420E+03
           22441    -252.966E+03     103.175E+03              0.    -186.955E+03
           22442    -264.067E+03     111.132E+03              0.    -153.970E+03
           22443    -275.634E+03     119.396E+03              0.    -119.409E+03
           22444    -287.684E+03     127.976E+03              0.    -83.2093E+03
           22445    -300.234E+03     136.881E+03              0.    -45.3099E+03
           22446    -313.304E+03     146.122E+03              0.    -5.64619E+03
           22447    -326.913E+03     155.707E+03              0.     35.8480E+03
           22448    -341.080E+03     165.647E+03              0.     79.2408E+03
           22449    -355.827E+03     175.953E+03              0.     124.602E+03
           22450    -371.174E+03     186.635E+03              0.     172.005E+03
           22451    -387.144E+03     197.705E+03              0.     221.523E+03
           22452    -403.759E+03     209.173E+03              0.     273.233E+03
           22453    -421.043E+03     221.051E+03              0.     327.213E+03
           22454    -439.021E+03     233.351E+03              0.     383.545E+03
           22455    -457.716E+03     246.084E+03              0.     442.312E+03
           22456    -477.157E+03     259.263E+03              0.     503.600E+03
           22457    -497.368E+03     272.901E+03              0.     567.496E+03
           22458    -518.378E+03     287.010E+03              0.     634.093E+03
           22459    -540.216E+03     301.603E+03              0.     703.482E+03
           22460    -562.911E+03     316.693E+03              0.     775.759E+03
           22461    -586.494E+03     332.294E+03              0.     851.024E+03
           22462    -610.996E+03     348.418E+03              0.     929.377E+03
           22463    -636.449E+03     365.081E+03              0.     1.01092E+06
           22464    -662.887E+03     382.296E+03              0.     1.09576E+06
           22465    -690.344E+03     400.076E+03              0.     1.18402E+06
           22466    -718.857E+03     418.438E+03              0.     1.27579E+06
           22467    -748.461E+03     437.394E+03              0.     1.37120E+06
           22468    -779.194E+03     456.959E+03              0.     1.47036E+06
           22469    -811.096E+03     477.149E+03              0.     1.57339E+06
           22470    -844.205E+03     497.977E+03              0.     1.68043E+06
           22471    -878.564E+03     519.459E+03              0.     1.79159E+06
           22472    -914.215E+03     541.609E+03              0.     1.90701E+06
           22473    -951.200E+03     564.442E+03              0.     2.02682E+06
           22474    -989.566E+03     587.974E+03              0.     2.15116E+06
           22475    -1.02936E+06     612.217E+03              0.     2.28016E+06
           22476    -1.07062E+06     637.188E+03              0.     2.41398E+06
           22477    -1.11341E+06     662.900E+03              0.     2.55275E+06
           22478    -1.15776E+06     689.367E+03              0.     2.69662E+06
           22479    -1.20374E+06     716.602E+03              0.     2.84575E+06
           22480    -1.25140E+06     744.620E+03              0.     3.00029E+06
           22481    -1.30078E+06     773.433E+03              0.     3.16040E+06
           22482    -1.35194E+06     803.053E+03              0.     3.32624E+06
           22483    -1.40494E+06     833.491E+03              0.     3.49797E+06
           22484    -1.45984E+06     864.760E+03              0.     3.67577E+06
           22485    -1.51669E+06     896.868E+03              0.     3.85979E+06
           22486    -1.57556E+06     929.826E+03              0.     4.05022E+06
           22487    -1.63650E+06      963.64E+03              0.     4.24723E+06
           22488    -1.69958E+06     998.318E+03              0.     4.45099E+06
           22489    -1.76486E+06     1.03387E+06              0.     4.66168E+06
           22490    -1.83241E+06     1.07029E+06              0.     4.87949E+06
           22491    -1.90228E+06     1.10759E+06              0.     5.10459E+06
           22492    -1.97455E+06     1.14576E+06              0.     5.33717E+06
           22493    -2.04929E+06     1.18481E+06              0.     5.57742E+06
           22494    -2.12656E+06     1.22473E+06              0.     5.82553E+06
           22495    -2.20643E+06     1.26552E+06              0.     6.08167E+06
           22496    -2.28897E+06     1.30716E+06              0.     6.34604E+06
           22497    -2.37425E+06     1.34965E+06              0.     6.61882E+06
           22498    -2.46235E+06     1.39296E+06              0.     6.90020E+06
           22499    -2.55333E+06     1.43709E+06              0.     7.19036E+06
           22500    -2.64726E+06     1.48200E+06              0.     7.48949E+06
           22501    -2.74423E+06     1.52768E+06              0.     7.79777E+06
           22502    -2.84429E+06     1.57408E+06              0.     8.11537E+06
           22503    -2.94752E+06     1.62118E+06              0.     8.44247E+06
           22504    -3.05399E+06     1.66892E+06              0.     8.77924E+06
           22505    -3.16378E+06     1.71727E+06              0.     9.12584E+06
           22506    -3.27694E+06     1.76617E+06              0.     9.48242E+06
           22507    -3.39356E+06     1.81555E+06              0.     9.84914E+06
           22508    -3.51370E+06     1.86535E+06              0.     10.2261E+06
           22509    -3.63742E+06     1.91549E+06              0.     10.6136E+06
           22510    -3.76478E+06     1.96588E+06              0.     11.0115E+06
           22511    -3.89586E+06     2.01644E+06              0.     11.4200E+06
           22512    -4.03071E+06     2.06704E+06              0.     11.8393E+06
           22513    -4.16939E+06     2.11758E+06              0.     12.2694E+06
           22514    -4.31195E+06     2.16793E+06              0.     12.7103E+06
           22515    -4.45844E+06     2.21795E+06              0.     13.1622E+06
           22516    -4.60892E+06     2.26748E+06              0.     13.6249E+06
           22517    -4.76341E+06     2.31636E+06              0.     14.0985E+06
           22518    -4.92197E+06     2.36440E+06              0.     14.5829E+06
           22519    -5.08463E+06     2.41140E+06              0.     15.0781E+06
           22520    -5.25141E+06     2.45713E+06              0.     15.5840E+06
           22521    -5.42234E+06     2.50138E+06              0.     16.1005E+06
           22522    -5.59744E+06     2.54387E+06              0.     16.6272E+06
           22523    -5.77672E+06     2.58434E+06              0.     17.1641E+06
           22524    -5.96018E+06     2.62248E+06              0.     17.7108E+06
           22525    -6.14783E+06     2.65796E+06              0.     18.2670E+06
           22526    -6.33964E+06     2.69045E+06              0.     18.8323E+06
           22527    -6.53562E+06     2.71956E+06              0.     19.4063E+06
           22528    -6.73573E+06     2.74489E+06              0.     19.9884E+06
           22529    -6.93994E+06     2.76601E+06              0.     20.5781E+06
           22530    -7.14822E+06     2.78247E+06              0.     21.1745E+06
           22531    -7.36052E+06     2.79376E+06              0.     21.7771E+06
           22532    -7.57678E+06     2.79936E+06              0.     22.3848E+06
           22533    -7.79696E+06     2.79872E+06              0.     22.9968E+06
           22534    -8.02099E+06     2.79123E+06              0.     23.6118E+06
           22535    -8.24879E+06     2.77626E+06              0.     24.2288E+06
           22536    -8.48030E+06     2.75315E+06              0.     24.8462E+06
           22537    -8.71543E+06     2.72119E+06              0.     25.4628E+06
           22538    -8.95413E+06     2.67963E+06              0.     26.0766E+06
           22539    -9.19630E+06     2.62770E+06              0.     26.6860E+06
           22540    -9.44188E+06     2.56456E+06              0.     27.2889E+06
           22541    -9.69082E+06     2.48936E+06              0.     27.8830E+06
           22542    -9.94306E+06     2.40121E+06              0.     28.4660E+06
           22543    -10.1986E+06     2.29918E+06              0.     29.0351E+06
           22544    -10.4573E+06     2.18231E+06              0.     29.5874E+06
           22545    -10.7193E+06     2.04960E+06              0.     30.1197E+06
           22546    -10.9847E+06     1.90006E+06              0.     30.6285E+06
           22547    -11.2534E+06     1.73264E+06              0.     31.1099E+06
           22548    -11.5257E+06     1.54631E+06              0.     31.5599E+06
           22549    -11.8018E+06     1.34003E+06              0.     31.9738E+06
           22550    -12.0818E+06     1.11275E+06              0.     32.3467E+06
           22551    -12.3664E+06     863.476E+03              0.     32.6732E+06
           22552    -12.6558E+06     591.223E+03              0.     32.9475E+06
           22553    -12.9507E+06     295.069E+03              0.     33.1634E+06
           22554    -13.2519E+06    -25.8261E+03              0.     33.3138E+06
           22555    -13.5603E+06    -372.210E+03              0.     33.3915E+06
           22556    -13.8771E+06    -744.691E+03              0.     33.3883E+06
           22557    -14.2036E+06    -1.14371E+06              0.     33.2955E+06
           22558    -14.5414E+06    -1.56951E+06              0.     33.1037E+06
           22559    -14.8925E+06    -2.02207E+06              0.     32.8028E+06
           22560    -15.2593E+06    -2.50106E+06              0.     32.3818E+06
           22561    -15.6444E+06    -3.00580E+06              0.     31.8287E+06
           22562    -16.0511E+06    -3.53512E+06              0.     31.1309E+06
           22563    -16.4831E+06    -4.08736E+06              0.     30.2746E+06
           22564    -16.9447E+06    -4.66022E+06              0.     29.2449E+06
           22565    -17.4410E+06    -5.25066E+06              0.     28.0259E+06
           22566    -17.9779E+06    -5.85477E+06              0.     26.6004E+06
           22567    -18.5623E+06    -6.46773E+06              0.     24.9500E+06
           22568    -18.9660E+06    -7.23058E+06              0.     24.6122E+06
           22569    -61.1237E+03    -26.2359E+03              0.    -952.019E+03
           22570    -61.2351E+03    -27.4011E+03              0.    -950.389E+03
           22571    -60.8330E+03    -28.3623E+03              0.    -941.757E+03
           22572    -60.4324E+03    -29.3282E+03              0.    -933.361E+03
           22573    -60.0349E+03    -30.2961E+03              0.    -925.203E+03
           22574    -59.6421E+03    -31.2636E+03              0.    -917.283E+03
           22575    -59.2554E+03    -32.2284E+03              0.    -909.601E+03
           22576    -58.8765E+03    -33.1881E+03              0.    -902.156E+03
           22577    -58.5066E+03    -34.1406E+03              0.    -894.947E+03
           22578    -58.1473E+03    -35.0839E+03              0.    -887.971E+03
           22579    -57.7999E+03    -36.0160E+03              0.    -881.226E+03
           22580    -57.4657E+03    -36.9350E+03              0.    -874.709E+03
           22581    -57.1459E+03    -37.8392E+03              0.    -868.417E+03
           22582    -56.8419E+03    -38.7266E+03              0.    -862.346E+03
           22583    -56.5549E+03    -39.5958E+03              0.    -856.491E+03
           22584    -56.2862E+03    -40.4449E+03              0.    -850.849E+03
           22585    -56.0370E+03    -41.2725E+03              0.    -845.414E+03
           22586    -55.8084E+03    -42.0770E+03              0.    -840.179E+03
           22587    -55.6017E+03    -42.8570E+03              0.    -835.141E+03
           22588    -55.4182E+03    -43.6109E+03              0.    -830.292E+03
           22589    -55.2590E+03    -44.3373E+03              0.    -825.626E+03
           22590    -55.1253E+03    -45.0350E+03              0.    -821.136E+03
           22591    -55.0185E+03    -45.7023E+03              0.    -816.815E+03
           22592    -54.9398E+03    -46.3382E+03              0.    -812.655E+03
           22593    -54.8903E+03    -46.9411E+03              0.    -808.648E+03
           22594    -54.8715E+03    -47.5098E+03              0.    -804.787E+03
           22595    -54.8847E+03    -48.0430E+03              0.    -801.062E+03
           22596    -54.9312E+03    -48.5393E+03              0.    -797.465E+03
           22597    -55.0124E+03    -48.9974E+03              0.    -793.987E+03
           22598    -55.1297E+03    -49.4161E+03              0.    -790.617E+03
           22599    -55.2845E+03     -49.794E+03              0.    -787.347E+03
           22600    -55.4785E+03    -50.1298E+03              0.    -784.165E+03
           22601    -55.7130E+03    -50.4221E+03              0.    -781.063E+03
           22602    -55.9898E+03    -50.6697E+03              0.    -778.028E+03
           22603    -56.3104E+03    -50.8711E+03              0.    -775.049E+03
           22604    -56.6766E+03    -51.0249E+03              0.    -772.116E+03
           22605    -57.0901E+03    -51.1298E+03              0.    -769.216E+03
           22606    -57.5527E+03    -51.1843E+03              0.    -766.337E+03
           22607    -58.0664E+03    -51.1869E+03              0.    -763.467E+03
           22608    -58.6331E+03    -51.1361E+03              0.    -760.593E+03
           22609    -59.2548E+03    -51.0305E+03              0.    -757.701E+03
           22610    -59.9336E+03    -50.8683E+03              0.    -754.777E+03
           22611    -60.6718E+03    -50.6481E+03              0.    -751.808E+03
           22612    -61.4715E+03    -50.3682E+03              0.    -748.780E+03
           22613    -62.3352E+03    -50.0268E+03              0.    -745.677E+03
           22614    -63.2653E+03    -49.6222E+03              0.    -742.484E+03
           22615    -64.2643E+03    -49.1526E+03              0.    -739.186E+03
           22616    -65.3349E+03    -48.6162E+03              0.    -735.766E+03
           22617    -66.4798E+03    -48.0110E+03              0.    -732.208E+03
           22618    -67.7020E+03    -47.3351E+03              0.    -728.495E+03
           22619    -69.0043E+03    -46.5865E+03              0.    -724.608E+03
           22620    -70.3898E+03    -45.7629E+03              0.    -720.531E+03
           22621    -71.8618E+03    -44.8624E+03              0.    -716.244E+03
           22622    -73.4236E+03    -43.8826E+03              0.    -711.728E+03
           22623    -75.0787E+03    -42.8212E+03              0.    -706.964E+03
           22624    -76.8306E+03    -41.6759E+03              0.    -701.931E+03
           22625    -78.6831E+03    -40.4442E+03              0.    -696.609E+03
           22626    -80.6401E+03    -39.1234E+03              0.    -690.976E+03
           22627    -82.7056E+03    -37.7111E+03              0.    -685.010E+03
           22628    -84.8838E+03    -36.2045E+03              0.    -678.688E+03
           22629    -87.1791E+03    -34.6008E+03              0.    -671.987E+03
           22630    -89.5961E+03    -32.8970E+03              0.    -664.883E+03
           22631    -92.1393E+03    -31.0903E+03              0.    -657.351E+03
           22632    -94.8138E+03    -29.1774E+03              0.    -649.365E+03
           22633    -97.6245E+03    -27.1551E+03              0.    -640.899E+03
           22634    -100.577E+03    -25.0203E+03              0.    -631.927E+03
           22635    -103.676E+03    -22.7694E+03              0.    -622.419E+03
           22636    -106.928E+03    -20.3989E+03              0.    -612.347E+03
           22637    -110.339E+03    -17.9052E+03              0.    -601.682E+03
           22638    -113.914E+03    -15.2845E+03              0.    -590.393E+03
           22639    -117.660E+03    -12.5329E+03              0.    -578.448E+03
           22640    -121.584E+03    -9.64642E+03              0.    -565.815E+03
           22641    -125.693E+03    -6.62092E+03              0.    -552.461E+03
           22642    -129.993E+03    -3.45212E+03              0.    -538.351E+03
           22643    -134.492E+03        -135.616              0.    -523.449E+03
           22644    -139.198E+03     3.33316E+03              0.    -507.720E+03
           22645    -144.118E+03     6.95888E+03              0.    -491.125E+03
           22646    -149.261E+03     10.7464E+03              0.    -473.625E+03
           22647    -154.635E+03     14.7007E+03              0.    -455.180E+03
           22648    -160.249E+03     18.8269E+03              0.    -435.750E+03
           22649    -166.112E+03     23.1303E+03              0.    -415.290E+03
           22650    -172.234E+03     27.6163E+03              0.    -393.758E+03
           22651    -178.625E+03     32.2907E+03              0.    -371.109E+03
           22652    -185.294E+03     37.1591E+03              0.    -347.294E+03
           22653    -192.252E+03     42.2275E+03              0.    -322.268E+03
           22654    -199.510E+03     47.5021E+03              0.    -295.979E+03
           22655    -207.080E+03     52.9891E+03              0.    -268.376E+03
           22656    -214.972E+03     58.6950E+03              0.    -239.409E+03
           22657    -223.200E+03     64.6265E+03              0.    -209.021E+03
           22658    -231.776E+03     70.7905E+03              0.    -177.157E+03
           22659    -240.713E+03     77.1939E+03              0.    -143.759E+03
           22660    -250.023E+03     83.8441E+03              0.    -108.769E+03
           22661    -259.722E+03     90.7483E+03              0.    -72.1249E+03
           22662    -269.824E+03     97.9143E+03              0.    -33.7638E+03
           22663    -280.342E+03     105.350E+03              0.     6.37901E+03
           22664    -291.294E+03     113.063E+03              0.     48.3703E+03
           22665    -302.694E+03     121.062E+03              0.     92.2789E+03
           22666    -314.559E+03     129.355E+03              0.     138.176E+03
           22667    -326.907E+03     137.950E+03              0.     186.133E+03
           22668    -339.754E+03     146.857E+03              0.     236.227E+03
           22669    -353.119E+03     156.085E+03              0.     288.534E+03
           22670    -367.021E+03     165.643E+03              0.     343.134E+03
           22671    -381.479E+03     175.540E+03              0.     400.109E+03
           22672    -396.512E+03     185.785E+03              0.     459.543E+03
           22673    -412.143E+03     196.389E+03              0.     521.521E+03
           22674    -428.392E+03     207.362E+03              0.     586.135E+03
           22675    -445.280E+03     218.714E+03              0.     653.474E+03
           22676    -462.832E+03     230.454E+03              0.     723.633E+03
           22677    -481.069E+03     242.595E+03              0.     796.709E+03
           22678    -500.017E+03     255.145E+03              0.     872.801E+03
           22679    -519.700E+03     268.117E+03              0.     952.012E+03
           22680    -540.144E+03     281.521E+03              0.     1.03445E+06
           22681    -561.375E+03     295.368E+03              0.     1.12021E+06
           22682    -583.421E+03     309.671E+03              0.     1.20942E+06
           22683    -606.309E+03     324.439E+03              0.     1.30218E+06
           22684    -630.068E+03     339.685E+03              0.     1.39861E+06
           22685    -654.728E+03     355.419E+03              0.     1.49883E+06
           22686    -680.320E+03     371.655E+03              0.     1.60297E+06
           22687    -706.874E+03     388.403E+03              0.     1.71114E+06
           22688    -734.424E+03     405.676E+03              0.     1.82348E+06
           22689    -763.001E+03     423.484E+03              0.     1.94013E+06
           22690    -792.641E+03     441.840E+03              0.     2.06120E+06
           22691    -823.377E+03     460.755E+03              0.     2.18684E+06
           22692    -855.246E+03     480.240E+03              0.     2.31720E+06
           22693    -888.284E+03     500.308E+03              0.     2.45241E+06
           22694    -922.529E+03     520.968E+03              0.     2.59263E+06
           22695    -958.019E+03     542.232E+03              0.     2.73800E+06
           22696    -994.793E+03     564.111E+03              0.     2.88868E+06
           22697    -1.03289E+06     586.614E+03              0.     3.04483E+06
           22698    -1.07236E+06     609.752E+03              0.     3.20659E+06
           22699    -1.11323E+06     633.533E+03              0.     3.37415E+06
           22700    -1.15555E+06     657.967E+03              0.     3.54766E+06
           22701    -1.19937E+06     683.063E+03              0.     3.72728E+06
           22702    -1.24473E+06     708.826E+03              0.     3.91320E+06
           22703    -1.29167E+06     735.264E+03              0.     4.10558E+06
           22704    -1.34023E+06     762.382E+03              0.     4.30460E+06
           22705    -1.39048E+06     790.185E+03              0.     4.51045E+06
           22706    -1.44245E+06     818.677E+03              0.     4.72329E+06
           22707    -1.49619E+06      847.86E+03              0.     4.94332E+06
           22708    -1.55175E+06     877.734E+03              0.     5.17071E+06
           22709    -1.60918E+06     908.299E+03              0.     5.40565E+06
           22710    -1.66853E+06     939.552E+03              0.     5.64834E+06
           22711    -1.72985E+06     971.488E+03              0.     5.89895E+06
           22712    -1.79318E+06     1.00410E+06              0.     6.15768E+06
           22713    -1.85858E+06     1.03738E+06              0.     6.42471E+06
           22714    -1.92611E+06     1.07132E+06              0.     6.70023E+06
           22715    -1.99580E+06      1.1059E+06              0.     6.98444E+06
           22716    -2.06771E+06     1.14110E+06              0.     7.27750E+06
           22717    -2.14189E+06     1.17691E+06              0.     7.57962E+06
           22718    -2.21840E+06     1.21330E+06              0.     7.89097E+06
           22719    -2.29726E+06     1.25024E+06              0.     8.21173E+06
           22720    -2.37855E+06     1.28770E+06              0.     8.54207E+06
           22721    -2.46230E+06     1.32564E+06              0.     8.88217E+06
           22722    -2.54856E+06     1.36402E+06              0.     9.23218E+06
           22723    -2.63737E+06     1.40280E+06              0.     9.59227E+06
           22724    -2.72878E+06     1.44191E+06              0.     9.96258E+06
           22725    -2.82283E+06     1.48130E+06              0.     10.3432E+06
           22726    -2.91956E+06     1.52090E+06              0.     10.7344E+06
           22727    -3.01901E+06     1.56065E+06              0.     11.1362E+06
           22728    -3.12121E+06     1.60045E+06              0.     11.5487E+06
           22729    -3.22619E+06     1.64021E+06              0.     11.9720E+06
           22730    -3.33399E+06     1.67985E+06              0.     12.4062E+06
           22731    -3.44462E+06     1.71924E+06              0.     12.8513E+06
           22732    -3.55812E+06     1.75827E+06              0.     13.3073E+06
           22733     -3.6745E+06     1.79681E+06              0.     13.7744E+06
           22734    -3.79377E+06     1.83471E+06              0.     14.2524E+06
           22735    -3.91595E+06     1.87183E+06              0.     14.7413E+06
           22736    -4.04104E+06     1.90798E+06              0.     15.2411E+06
           22737    -4.16904E+06     1.94300E+06              0.     15.7515E+06
           22738    -4.29994E+06     1.97668E+06              0.     16.2726E+06
           22739    -4.43373E+06      2.0088E+06              0.     16.8040E+06
           22740    -4.57041E+06     2.03914E+06              0.     17.3456E+06
           22741    -4.70993E+06     2.06744E+06              0.     17.8971E+06
           22742    -4.85229E+06     2.09344E+06              0.     18.4581E+06
           22743    -4.99743E+06     2.11686E+06              0.     19.0282E+06
           22744    -5.14532E+06     2.13737E+06              0.     19.6070E+06
           22745    -5.29591E+06     2.15465E+06              0.     20.1939E+06
           22746    -5.44916E+06     2.16836E+06              0.     20.7883E+06
           22747    -5.60499E+06     2.17810E+06              0.     21.3895E+06
           22748    -5.76335E+06     2.18348E+06              0.     21.9967E+06
           22749    -5.92416E+06     2.18408E+06              0.     22.6091E+06
           22750    -6.08735E+06     2.17944E+06              0.     23.2256E+06
           22751    -6.25285E+06     2.16909E+06              0.     23.8451E+06
           22752    -6.42059E+06     2.15253E+06              0.     24.4665E+06
           22753    -6.59047E+06     2.12921E+06              0.     25.0882E+06
           22754    -6.76242E+06     2.09860E+06              0.     25.7088E+06
           22755    -6.93638E+06     2.06009E+06              0.     26.3266E+06
           22756    -7.11227E+06     2.01310E+06              0.     26.9397E+06
           22757    -7.29004E+06     1.95698E+06              0.     27.5461E+06
           22758    -7.46965E+06     1.89109E+06              0.     28.1436E+06
           22759    -7.65107E+06     1.81475E+06              0.     28.7296E+06
           22760    -7.83430E+06     1.72727E+06              0.     29.3016E+06
           22761    -8.01937E+06     1.62796E+06              0.     29.8564E+06
           22762    -8.20635E+06     1.51610E+06              0.     30.3910E+06
           22763    -8.39534E+06     1.39099E+06              0.     30.9017E+06
           22764    -8.58650E+06     1.25192E+06              0.     31.3848E+06
           22765    -8.78007E+06     1.09821E+06              0.     31.8361E+06
           22766    -8.97634E+06     929.176E+03              0.     32.2509E+06
           22767    -9.17572E+06     744.208E+03              0.     32.6245E+06
           22768    -9.37869E+06     542.730E+03              0.     32.9513E+06
           22769    -9.58590E+06     324.239E+03              0.     33.2257E+06
           22770    -9.79810E+06     88.3234E+03              0.     33.4413E+06
           22771    -10.0162E+06    -165.311E+03              0.     33.5913E+06
           22772    -10.2415E+06    -436.821E+03              0.     33.6683E+06
           22773    -10.4751E+06    -726.180E+03              0.     33.6643E+06
           22774    -10.7188E+06    -1.03315E+06              0.     33.5707E+06
           22775    -10.9745E+06    -1.35724E+06              0.     33.3783E+06
           22776    -11.2445E+06    -1.69764E+06              0.     33.0770E+06
           22777    -11.5313E+06    -2.05319E+06              0.     32.6559E+06
           22778    -11.8382E+06    -2.42228E+06              0.     32.1035E+06
           22779    -12.1686E+06    -2.80279E+06              0.     31.4073E+06
           22780    -12.5268E+06    -3.19203E+06              0.     30.5537E+06
           22781    -12.9177E+06    -3.58657E+06              0.     29.5283E+06
           22782    -13.3468E+06    -3.98220E+06              0.     28.3156E+06
           22783    -13.8205E+06    -4.37373E+06              0.     26.8989E+06
           22784    -14.3461E+06    -4.75484E+06              0.     25.2605E+06
           22785    -14.6499E+06    -5.24731E+06              0.     24.9448E+06
           22786    -81.2151E+03    -35.2766E+03              0.    -952.342E+03
           22787    -81.2962E+03    -36.1516E+03              0.    -950.711E+03
           22788    -80.9893E+03    -36.8769E+03              0.    -942.078E+03
           22789    -80.6835E+03    -37.6057E+03              0.    -933.681E+03
           22790    -80.3802E+03    -38.3359E+03              0.    -925.520E+03
           22791    -80.0804E+03    -39.0657E+03              0.    -917.596E+03
           22792    -79.7855E+03    -39.7934E+03              0.    -909.908E+03
           22793    -79.4964E+03    -40.5172E+03              0.    -902.456E+03
           22794    -79.2143E+03    -41.2355E+03              0.    -895.238E+03
           22795    -78.9403E+03    -41.9468E+03              0.    -888.253E+03
           22796    -78.6753E+03    -42.6496E+03              0.    -881.497E+03
           22797    -78.4203E+03    -43.3425E+03              0.    -874.969E+03
           22798    -78.1764E+03    -44.0241E+03              0.    -868.664E+03
           22799    -77.9444E+03    -44.6930E+03              0.    -862.578E+03
           22800    -77.7253E+03    -45.3481E+03              0.    -856.709E+03
           22801    -77.5201E+03    -45.9881E+03              0.    -851.050E+03
           22802    -77.3296E+03    -46.6118E+03              0.    -845.597E+03
           22803    -77.1549E+03    -47.2181E+03              0.    -840.345E+03
           22804    -76.9967E+03    -47.8058E+03              0.    -835.287E+03
           22805    -76.8561E+03    -48.3738E+03              0.    -830.418E+03
           22806    -76.7339E+03    -48.9211E+03              0.    -825.730E+03
           22807    -76.6311E+03    -49.4466E+03              0.    -821.218E+03
           22808    -76.5485E+03    -49.9493E+03              0.    -816.873E+03
           22809    -76.4872E+03    -50.4282E+03              0.    -812.688E+03
           22810    -76.4481E+03    -50.8822E+03              0.    -808.655E+03
           22811    -76.4322E+03    -51.3104E+03              0.    -804.767E+03
           22812    -76.4405E+03    -51.7118E+03              0.    -801.014E+03
           22813    -76.4740E+03    -52.0854E+03              0.    -797.388E+03
           22814    -76.5338E+03    -52.4301E+03              0.    -793.878E+03
           22815    -76.6209E+03    -52.7451E+03              0.    -790.477E+03
           22816    -76.7364E+03    -53.0294E+03              0.    -787.173E+03
           22817    -76.8814E+03    -53.2818E+03              0.    -783.958E+03
           22818    -77.0572E+03    -53.5015E+03              0.    -780.819E+03
           22819    -77.2650E+03    -53.6873E+03              0.    -777.747E+03
           22820    -77.5059E+03    -53.8384E+03              0.    -774.730E+03
           22821    -77.7812E+03    -53.9536E+03              0.    -771.756E+03
           22822    -78.0924E+03    -54.0318E+03              0.    -768.814E+03
           22823    -78.4407E+03     -54.072E+03              0.    -765.892E+03
           22824    -78.8277E+03    -54.0731E+03              0.    -762.976E+03
           22825    -79.2547E+03    -54.0339E+03              0.    -760.055E+03
           22826    -79.7233E+03    -53.9533E+03              0.    -757.114E+03
           22827    -80.2352E+03    -53.8301E+03              0.    -754.140E+03
           22828    -80.7919E+03    -53.6631E+03              0.    -751.119E+03
           22829    -81.3952E+03    -53.4510E+03              0.    -748.036E+03
           22830    -82.0468E+03    -53.1925E+03              0.    -744.876E+03
           22831    -82.7487E+03    -52.8864E+03              0.    -741.625E+03
           22832    -83.5028E+03    -52.5312E+03              0.    -738.265E+03
           22833    -84.3110E+03    -52.1256E+03              0.    -734.782E+03
           22834    -85.1754E+03    -51.6681E+03              0.    -731.158E+03
           22835    -86.0982E+03    -51.1573E+03              0.    -727.376E+03
           22836    -87.0817E+03    -50.5915E+03              0.    -723.418E+03
           22837    -88.1281E+03    -49.9693E+03              0.    -719.267E+03
           22838    -89.2399E+03    -49.2889E+03              0.    -714.904E+03
           22839    -90.4196E+03    -48.5487E+03              0.    -710.308E+03
           22840    -91.6699E+03    -47.7470E+03              0.    -705.462E+03
           22841    -92.9935E+03    -46.8819E+03              0.    -700.343E+03
           22842    -94.3931E+03    -45.9515E+03              0.    -694.932E+03
           22843    -95.8718E+03    -44.9541E+03              0.    -689.206E+03
           22844    -97.4325E+03    -43.8874E+03              0.    -683.144E+03
           22845    -99.0786E+03    -42.7496E+03              0.    -676.722E+03
           22846    -100.813E+03    -41.5385E+03              0.    -669.917E+03
           22847    -102.640E+03    -40.2519E+03              0.    -662.705E+03
           22848    -104.562E+03    -38.8875E+03              0.    -655.060E+03
           22849    -106.583E+03    -37.4431E+03              0.    -646.958E+03
           22850    -108.708E+03    -35.9160E+03              0.    -638.371E+03
           22851    -110.939E+03    -34.3039E+03              0.    -629.272E+03
           22852    -113.282E+03    -32.6042E+03              0.    -619.634E+03
           22853    -115.740E+03    -30.8143E+03              0.    -609.426E+03
           22854    -118.318E+03    -28.9313E+03              0.    -598.620E+03
           22855    -121.021E+03    -26.9524E+03              0.    -587.184E+03
           22856    -123.853E+03    -24.8746E+03              0.    -575.087E+03
           22857    -126.819E+03    -22.6950E+03              0.    -562.297E+03
           22858    -129.925E+03    -20.4105E+03              0.    -548.779E+03
           22859    -133.176E+03    -18.0177E+03              0.    -534.498E+03
           22860    -136.577E+03    -15.5133E+03              0.    -519.420E+03
           22861    -140.134E+03    -12.8940E+03              0.    -503.506E+03
           22862    -143.853E+03    -10.1562E+03              0.    -486.720E+03
           22863    -147.741E+03    -7.29610E+03              0.    -469.022E+03
           22864    -151.804E+03    -4.31010E+03              0.    -450.371E+03
           22865    -156.047E+03    -1.19426E+03              0.    -430.727E+03
           22866    -160.479E+03     2.05543E+03              0.    -410.045E+03
           22867    -165.107E+03     5.44307E+03              0.    -388.282E+03
           22868    -169.937E+03     8.97293E+03              0.    -365.393E+03
           22869    -174.977E+03     12.6493E+03              0.    -341.330E+03
           22870    -180.236E+03     16.4768E+03              0.    -316.045E+03
           22871    -185.721E+03     20.4600E+03              0.    -289.488E+03
           22872    -191.442E+03     24.6037E+03              0.    -261.608E+03
           22873    -197.406E+03     28.9127E+03              0.    -232.351E+03
           22874    -203.623E+03     33.3921E+03              0.    -201.663E+03
           22875    -210.103E+03     38.0470E+03              0.    -169.488E+03
           22876    -216.854E+03     42.8828E+03              0.    -135.767E+03
           22877    -223.888E+03     47.9049E+03              0.    -100.442E+03
           22878    -231.214E+03     53.1189E+03              0.    -63.4495E+03
           22879    -238.843E+03     58.5305E+03              0.    -24.7274E+03
           22880    -246.787E+03     64.1457E+03              0.     15.7901E+03
           22881    -255.056E+03     69.9705E+03              0.     58.1702E+03
           22882    -263.664E+03     76.0109E+03              0.     102.482E+03
           22883    -272.621E+03     82.2735E+03              0.     148.797E+03
           22884    -281.941E+03     88.7646E+03              0.     197.189E+03
           22885    -291.637E+03     95.4909E+03              0.     247.733E+03
           22886    -301.723E+03     102.459E+03              0.     300.507E+03
           22887    -312.211E+03     109.676E+03              0.     355.592E+03
           22888    -323.117E+03     117.149E+03              0.     413.069E+03
           22889    -334.455E+03     124.886E+03              0.     473.023E+03
           22890    -346.242E+03     132.893E+03              0.     535.542E+03
           22891    -358.491E+03     141.177E+03              0.     600.715E+03
           22892    -371.221E+03     149.748E+03              0.     668.635E+03
           22893    -384.447E+03     158.612E+03              0.     739.396E+03
           22894    -398.186E+03     167.777E+03              0.     813.095E+03
           22895    -412.457E+03     177.251E+03              0.     889.834E+03
           22896    -427.278E+03     187.043E+03              0.     969.715E+03
           22897    -442.667E+03     197.160E+03              0.     1.05284E+06
           22898    -458.644E+03     207.612E+03              0.     1.13933E+06
           22899    -475.229E+03     218.405E+03              0.     1.22928E+06
           22900    -492.441E+03     229.550E+03              0.     1.32281E+06
           22901    -510.303E+03     241.053E+03              0.     1.42004E+06
           22902    -528.835E+03     252.925E+03              0.     1.52109E+06
           22903    -548.060E+03     265.173E+03              0.     1.62609E+06
           22904    -568.000E+03     277.806E+03              0.     1.73515E+06
           22905    -588.679E+03     290.833E+03              0.     1.84841E+06
           22906    -610.119E+03     304.262E+03              0.     1.96600E+06
           22907    -632.346E+03     318.102E+03              0.     2.08806E+06
           22908    -655.385E+03     332.361E+03              0.     2.21472E+06
           22909    -679.260E+03     347.048E+03              0.     2.34613E+06
           22910    -703.998E+03     362.170E+03              0.     2.48244E+06
           22911    -729.625E+03     377.736E+03              0.     2.62378E+06
           22912    -756.169E+03     393.753E+03              0.     2.77032E+06
           22913    -783.657E+03     410.229E+03              0.     2.92220E+06
           22914    -812.116E+03     427.170E+03              0.     3.07959E+06
           22915    -841.576E+03     444.585E+03              0.     3.24265E+06
           22916    -872.066E+03     462.479E+03              0.     3.41153E+06
           22917    -903.614E+03     480.858E+03              0.     3.58642E+06
           22918    -936.251E+03     499.728E+03              0.     3.76746E+06
           22919    -970.008E+03     519.092E+03              0.     3.95485E+06
           22920    -1.00491E+06     538.956E+03              0.     4.14874E+06
           22921    -1.04100E+06     559.322E+03              0.     4.34933E+06
           22922    -1.07830E+06     580.193E+03              0.     4.55678E+06
           22923    -1.11684E+06     601.570E+03              0.     4.77129E+06
           22924    -1.15665E+06     623.454E+03              0.     4.99303E+06
           22925    -1.19777E+06     645.843E+03              0.     5.22219E+06
           22926    -1.24023E+06     668.736E+03              0.     5.45896E+06
           22927    -1.28405E+06     692.129E+03              0.     5.70352E+06
           22928    -1.32928E+06     716.016E+03              0.     5.95607E+06
           22929    -1.37593E+06     740.391E+03              0.     6.21678E+06
           22930    -1.42405E+06     765.244E+03              0.     6.48586E+06
           22931    -1.47366E+06     790.565E+03              0.     6.76349E+06
           22932    -1.52479E+06     816.340E+03              0.     7.04986E+06
           22933    -1.57747E+06     842.554E+03              0.     7.34516E+06
           22934    -1.63173E+06     869.188E+03              0.     7.64956E+06
           22935    -1.68759E+06     896.220E+03              0.     7.96326E+06
           22936    -1.74509E+06     923.626E+03              0.     8.28643E+06
           22937    -1.80424E+06     951.377E+03              0.     8.61924E+06
           22938    -1.86508E+06     979.443E+03              0.     8.96187E+06
           22939    -1.92761E+06     1.00779E+06              0.     9.31448E+06
           22940    -1.99187E+06     1.03637E+06              0.     9.67722E+06
           22941    -2.05786E+06     1.06514E+06              0.     10.0502E+06
           22942    -2.12561E+06     1.09405E+06              0.     10.4337E+06
           22943    -2.19513E+06     1.12306E+06              0.     10.8277E+06
           22944    -2.26643E+06     1.15208E+06              0.     11.2324E+06
           22945    -2.33952E+06     1.18107E+06              0.     11.6478E+06
           22946    -2.41440E+06     1.20993E+06              0.     12.0741E+06
           22947    -2.49107E+06     1.23860E+06              0.     12.5114E+06
           22948    -2.56953E+06     1.26698E+06              0.     12.9596E+06
           22949    -2.64978E+06     1.29497E+06              0.     13.4188E+06
           22950    -2.73181E+06     1.32247E+06              0.     13.8891E+06
           22951    -2.81559E+06     1.34936E+06              0.     14.3703E+06
           22952    -2.90111E+06     1.37552E+06              0.     14.8625E+06
           22953    -2.98836E+06     1.40080E+06              0.     15.3656E+06
           22954    -3.07729E+06     1.42507E+06              0.     15.8794E+06
           22955    -3.16787E+06     1.44816E+06              0.     16.4038E+06
           22956    -3.26007E+06     1.46991E+06              0.     16.9387E+06
           22957    -3.35385E+06     1.49012E+06              0.     17.4837E+06
           22958    -3.44914E+06     1.50860E+06              0.     18.0385E+06
           22959    -3.54590E+06     1.52515E+06              0.     18.6029E+06
           22960    -3.64406E+06     1.53952E+06              0.     19.1764E+06
           22961    -3.74356E+06     1.55148E+06              0.     19.7585E+06
           22962    -3.84433E+06     1.56078E+06              0.     20.3488E+06
           22963    -3.94629E+06     1.56714E+06              0.     20.9465E+06
           22964    -4.04936E+06     1.57026E+06              0.     21.5509E+06
           22965    -4.15346E+06     1.56985E+06              0.     22.1613E+06
           22966    -4.25851E+06     1.56558E+06              0.     22.7768E+06
           22967    -4.36440E+06     1.55710E+06              0.     23.3963E+06
           22968    -4.47107E+06     1.54407E+06              0.     24.0187E+06
           22969    -4.57841E+06     1.52609E+06              0.     24.6428E+06
           22970    -4.68636E+06     1.50280E+06              0.     25.2671E+06
           22971    -4.79482E+06     1.47377E+06              0.     25.8902E+06
           22972    -4.90374E+06     1.43860E+06              0.     26.5103E+06
           22973    -5.01305E+06     1.39686E+06              0.     27.1256E+06
           22974    -5.12271E+06     1.34809E+06              0.     27.7340E+06
           22975     -5.2327E+06     1.29187E+06              0.     28.3333E+06
           22976    -5.34302E+06     1.22773E+06              0.     28.9209E+06
           22977    -5.45370E+06     1.15524E+06              0.     29.4941E+06
           22978    -5.56481E+06     1.07394E+06              0.     30.0501E+06
           22979    -5.67646E+06     983.424E+03              0.     30.5855E+06
           22980    -5.78882E+06     883.268E+03              0.     31.0968E+06
           22981    -5.90213E+06     773.098E+03              0.     31.5802E+06
           22982    -6.01670E+06     652.572E+03              0.     32.0316E+06
           22983    -6.13291E+06     521.406E+03              0.     32.4463E+06
           22984    -6.25127E+06     379.377E+03              0.     32.8195E+06
           22985    -6.37240E+06     226.347E+03              0.     33.1458E+06
           22986    -6.49707E+06     62.2831E+03              0.     33.4194E+06
           22987    -6.62620E+06    -112.725E+03              0.     33.6342E+06
           22988    -6.76090E+06    -298.431E+03              0.     33.7833E+06
           22989    -6.90251E+06    -494.411E+03              0.     33.8594E+06
           22990    -7.05259E+06    -700.019E+03              0.     33.8547E+06
           22991    -7.21301E+06    -914.349E+03              0.     33.7606E+06
           22992    -7.38594E+06    -1.13620E+06              0.     33.5680E+06
           22993    -7.57394E+06    -1.36399E+06              0.     33.2670E+06
           22994    -7.77998E+06    -1.59575E+06              0.     32.8471E+06
           22995    -8.00750E+06    -1.82900E+06              0.     32.2969E+06
           22996    -8.26049E+06    -2.06068E+06              0.     31.6041E+06
           22997    -8.54353E+06    -2.28711E+06              0.     30.7555E+06
           22998    -8.86193E+06    -2.50380E+06              0.     29.7373E+06
           22999    -9.22175E+06    -2.70541E+06              0.     28.5343E+06
           23000    -9.62995E+06    -2.88558E+06              0.     27.1304E+06
           23001    -10.0945E+06    -3.03682E+06              0.     25.5086E+06
           23002    -10.2992E+06    -3.26195E+06              0.     25.2159E+06
           23003    -101.301E+03    -44.3152E+03              0.    -952.569E+03
           23004    -101.352E+03    -44.9017E+03              0.    -950.938E+03
           23005    -101.140E+03    -45.3924E+03              0.    -942.305E+03
           23006    -100.928E+03    -45.8853E+03              0.    -933.906E+03
           23007    -100.719E+03    -46.3790E+03              0.    -925.743E+03
           23008    -100.511E+03    -46.8723E+03              0.    -917.816E+03
           23009    -100.308E+03    -47.3641E+03              0.    -910.124E+03
           23010    -100.108E+03    -47.8530E+03              0.    -902.667E+03
           23011    -99.9130E+03    -48.3382E+03              0.    -895.443E+03
           23012    -99.7236E+03    -48.8185E+03              0.    -888.451E+03
           23013    -99.5405E+03     -49.293E+03              0.    -881.688E+03
           23014    -99.3642E+03    -49.7607E+03              0.    -875.151E+03
           23015    -99.1955E+03    -50.2207E+03              0.    -868.837E+03
           23016    -99.0349E+03    -50.6721E+03              0.    -862.741E+03
           23017    -98.8831E+03    -51.1141E+03              0.    -856.861E+03
           23018    -98.7408E+03    -51.5459E+03              0.    -851.191E+03
           23019    -98.6085E+03    -51.9666E+03              0.    -845.725E+03
           23020    -98.4868E+03    -52.3755E+03              0.    -840.460E+03
           23021    -98.3764E+03    -52.7719E+03              0.    -835.388E+03
           23022    -98.2779E+03    -53.1549E+03              0.    -830.504E+03
           23023    -98.1919E+03    -53.5240E+03              0.    -825.801E+03
           23024    -98.1191E+03    -53.8783E+03              0.    -821.272E+03
           23025    -98.0599E+03    -54.2173E+03              0.    -816.910E+03
           23026    -98.0152E+03    -54.5401E+03              0.    -812.708E+03
           23027    -97.9855E+03    -54.8462E+03              0.    -808.657E+03
           23028    -97.9715E+03    -55.1349E+03              0.    -804.749E+03
           23029    -97.9739E+03    -55.4055E+03              0.    -800.975E+03
           23030    -97.9934E+03    -55.6573E+03              0.    -797.327E+03
           23031    -98.0305E+03    -55.8898E+03              0.    -793.796E+03
           23032    -98.0862E+03    -56.1022E+03              0.    -790.372E+03
           23033    -98.1611E+03    -56.2938E+03              0.    -787.044E+03
           23034     -98.256E+03    -56.4641E+03              0.    -783.804E+03
           23035    -98.3717E+03    -56.6123E+03              0.    -780.639E+03
           23036    -98.5089E+03    -56.7377E+03              0.    -777.540E+03
           23037    -98.6686E+03    -56.8396E+03              0.    -774.495E+03
           23038    -98.8516E+03    -56.9175E+03              0.    -771.493E+03
           23039    -99.0587E+03    -56.9704E+03              0.    -768.521E+03
           23040    -99.2910E+03    -56.9977E+03              0.    -765.567E+03
           23041    -99.5494E+03    -56.9987E+03              0.    -762.619E+03
           23042    -99.8349E+03    -56.9726E+03              0.    -759.664E+03
           23043    -100.148E+03    -56.9187E+03              0.    -756.688E+03
           23044    -100.491E+03    -56.8360E+03              0.    -753.678E+03
           23045    -100.864E+03    -56.7239E+03              0.    -750.619E+03
           23046    -101.269E+03    -56.5814E+03              0.    -747.496E+03
           23047    -101.706E+03    -56.4077E+03              0.    -744.296E+03
           23048    -102.178E+03    -56.2019E+03              0.    -741.002E+03
           23049    -102.684E+03    -55.9631E+03              0.    -737.599E+03
           23050    -103.227E+03    -55.6903E+03              0.     -734.07E+03
           23051    -103.808E+03    -55.3827E+03              0.    -730.399E+03
           23052    -104.429E+03    -55.0391E+03              0.    -726.567E+03
           23053    -105.090E+03    -54.6585E+03              0.    -722.559E+03
           23054    -105.795E+03    -54.2399E+03              0.    -718.354E+03
           23055    -106.543E+03    -53.7822E+03              0.    -713.936E+03
           23056    -107.337E+03    -53.2842E+03              0.    -709.283E+03
           23057    -108.179E+03    -52.7448E+03              0.    -704.377E+03
           23058    -109.070E+03    -52.1627E+03              0.    -699.196E+03
           23059    -110.013E+03    -51.5367E+03              0.    -693.721E+03
           23060    -111.010E+03    -50.8654E+03              0.    -687.928E+03
           23061    -112.061E+03    -50.1477E+03              0.    -681.797E+03
           23062    -113.171E+03    -49.3819E+03              0.    -675.303E+03
           23063    -114.340E+03    -48.5668E+03              0.    -668.423E+03
           23064    -115.571E+03    -47.7009E+03              0.    -661.133E+03
           23065    -116.867E+03    -46.7825E+03              0.    -653.408E+03
           23066    -118.230E+03    -45.8102E+03              0.    -645.222E+03
           23067    -119.663E+03    -44.7823E+03              0.    -636.548E+03
           23068    -121.168E+03    -43.6971E+03              0.    -627.359E+03
           23069    -122.748E+03    -42.5529E+03              0.    -617.626E+03
           23070    -124.407E+03    -41.3479E+03              0.    -607.321E+03
           23071    -126.146E+03    -40.0801E+03              0.    -596.413E+03
           23072    -127.969E+03    -38.7478E+03              0.    -584.872E+03
           23073    -129.880E+03    -37.3488E+03              0.    -572.666E+03
           23074    -131.881E+03    -35.8813E+03              0.    -559.761E+03
           23075    -133.977E+03    -34.3429E+03              0.    -546.125E+03
           23076    -136.171E+03    -32.7317E+03              0.    -531.722E+03
           23077    -138.466E+03    -31.0452E+03              0.    -516.516E+03
           23078    -140.866E+03    -29.2813E+03              0.    -500.470E+03
           23079    -143.376E+03    -27.4374E+03              0.    -483.546E+03
           23080    -145.999E+03    -25.5113E+03              0.    -465.705E+03
           23081    -148.740E+03    -23.5002E+03              0.    -446.906E+03
           23082    -151.604E+03    -21.4016E+03              0.    -427.108E+03
           23083    -154.594E+03    -19.2127E+03              0.    -406.266E+03
           23084    -157.716E+03    -16.9309E+03              0.    -384.338E+03
           23085    -160.975E+03    -14.5533E+03              0.    -361.276E+03
           23086    -164.375E+03    -12.0768E+03              0.    -337.034E+03
           23087    -167.923E+03    -9.49847E+03              0.    -311.563E+03
           23088    -171.623E+03    -6.81521E+03              0.    -284.813E+03
           23089    -175.481E+03    -4.02379E+03              0.    -256.732E+03
           23090    -179.503E+03    -1.12092E+03              0.    -227.268E+03
           23091    -183.695E+03     1.89678E+03              0.    -196.364E+03
           23092    -188.063E+03     5.03280E+03              0.    -163.965E+03
           23093    -192.614E+03     8.29071E+03              0.    -130.012E+03
           23094    -197.355E+03     11.6742E+03              0.    -94.4451E+03
           23095    -202.292E+03     15.1869E+03              0.    -57.2027E+03
           23096    -207.432E+03     18.8329E+03              0.    -18.2208E+03
           23097    -212.783E+03     22.6160E+03              0.     22.5662E+03
           23098    -218.353E+03     26.5402E+03              0.     65.2258E+03
           23099    -224.148E+03     30.6097E+03              0.     109.828E+03
           23100    -230.178E+03     34.8289E+03              0.     156.444E+03
           23101    -236.450E+03     39.2019E+03              0.     205.148E+03
           23102    -242.973E+03     43.7332E+03              0.     256.015E+03
           23103    -249.756E+03     48.4274E+03              0.     309.125E+03
           23104    -256.808E+03     53.2892E+03              0.     364.558E+03
           23105    -264.138E+03     58.3231E+03              0.     422.396E+03
           23106    -271.756E+03     63.5340E+03              0.     482.724E+03
           23107    -279.671E+03     68.9268E+03              0.     545.631E+03
           23108    -287.895E+03     74.5065E+03              0.     611.206E+03
           23109    -296.437E+03     80.2782E+03              0.     679.543E+03
           23110    -305.308E+03     86.2469E+03              0.     750.735E+03
           23111    -314.519E+03     92.4180E+03              0.     824.883E+03
           23112    -324.081E+03     98.7966E+03              0.     902.085E+03
           23113    -334.007E+03     105.388E+03              0.     982.446E+03
           23114    -344.307E+03     112.198E+03              0.     1.06607E+06
           23115    -354.995E+03     119.232E+03              0.     1.15307E+06
           23116    -366.082E+03     126.495E+03              0.     1.24356E+06
           23117    -377.581E+03     133.992E+03              0.     1.33764E+06
           23118    -389.506E+03     141.730E+03              0.     1.43545E+06
           23119    -401.869E+03     149.714E+03              0.     1.53709E+06
           23120    -414.684E+03     157.950E+03              0.     1.64270E+06
           23121    -427.965E+03     166.442E+03              0.     1.75239E+06
           23122    -441.727E+03     175.196E+03              0.     1.86631E+06
           23123    -455.983E+03     184.219E+03              0.     1.98458E+06
           23124    -470.748E+03     193.514E+03              0.     2.10734E+06
           23125    -486.038E+03     203.088E+03              0.     2.23473E+06
           23126    -501.866E+03     212.946E+03              0.     2.36690E+06
           23127    -518.249E+03     223.092E+03              0.     2.50398E+06
           23128    -535.202E+03     233.531E+03              0.     2.64613E+06
           23129    -552.740E+03     244.269E+03              0.     2.79349E+06
           23130    -570.879E+03     255.308E+03              0.     2.94624E+06
           23131    -589.635E+03     266.654E+03              0.     3.10451E+06
           23132    -609.024E+03     278.311E+03              0.     3.26848E+06
           23133    -629.062E+03     290.281E+03              0.     3.43831E+06
           23134    -649.765E+03     302.568E+03              0.     3.61417E+06
           23135    -671.149E+03     315.174E+03              0.     3.79622E+06
           23136    -693.231E+03     328.101E+03              0.     3.98465E+06
           23137    -716.024E+03     341.351E+03              0.     4.17961E+06
           23138    -739.546E+03     354.925E+03              0.     4.38130E+06
           23139    -763.812E+03     368.822E+03              0.     4.58990E+06
           23140    -788.837E+03     383.043E+03              0.     4.80557E+06
           23141    -814.635E+03     397.585E+03              0.     5.02852E+06
           23142    -841.221E+03     412.446E+03              0.     5.25893E+06
           23143    -868.610E+03     427.622E+03              0.     5.49697E+06
           23144    -896.813E+03      443.11E+03              0.     5.74285E+06
           23145    -925.845E+03     458.903E+03              0.     5.99675E+06
           23146    -955.716E+03     474.993E+03              0.     6.25886E+06
           23147    -986.438E+03     491.372E+03              0.     6.52937E+06
           23148    -1.01802E+06     508.030E+03              0.     6.80846E+06
           23149    -1.05047E+06     524.953E+03              0.     7.09634E+06
           23150    -1.08380E+06     542.129E+03              0.     7.39318E+06
           23151    -1.11802E+06     559.541E+03              0.     7.69917E+06
           23152    -1.15312E+06     577.169E+03              0.     8.01448E+06
           23153    -1.18911E+06     594.995E+03              0.     8.33931E+06
           23154    -1.22600E+06     612.992E+03              0.     8.67382E+06
           23155    -1.26378E+06     631.136E+03              0.     9.01819E+06
           23156    -1.30245E+06     649.396E+03              0.     9.37257E+06
           23157    -1.34201E+06     667.740E+03              0.     9.73712E+06
           23158    -1.38244E+06     686.130E+03              0.     10.1120E+06
           23159    -1.42374E+06     704.528E+03              0.     10.4973E+06
           23160    -1.46590E+06     722.887E+03              0.     10.8932E+06
           23161    -1.50889E+06     741.160E+03              0.     11.2998E+06
           23162    -1.55271E+06     759.293E+03              0.     11.7173E+06
           23163    -1.59732E+06     777.227E+03              0.     12.1456E+06
           23164    -1.64270E+06     794.899E+03              0.     12.5848E+06
           23165    -1.68882E+06     812.239E+03              0.     13.0351E+06
           23166    -1.73564E+06     829.171E+03              0.     13.4964E+06
           23167    -1.78314E+06     845.614E+03              0.     13.9687E+06
           23168    -1.83125E+06     861.479E+03              0.     14.4521E+06
           23169    -1.87994E+06     876.671E+03              0.     14.9464E+06
           23170    -1.92916E+06     891.086E+03              0.     15.4515E+06
           23171    -1.97884E+06     904.613E+03              0.     15.9675E+06
           23172    -2.02892E+06     917.135E+03              0.     16.4940E+06
           23173    -2.07935E+06     928.522E+03              0.     17.0309E+06
           23174    -2.13003E+06     938.639E+03              0.     17.5780E+06
           23175    -2.18090E+06     947.341E+03              0.     18.1349E+06
           23176    -2.23188E+06     954.473E+03              0.     18.7013E+06
           23177    -2.28288E+06     959.871E+03              0.     19.2767E+06
           23178    -2.33380E+06     963.361E+03              0.     19.8608E+06
           23179    -2.38456E+06     964.760E+03              0.     20.4529E+06
           23180    -2.43506E+06     963.873E+03              0.     21.0524E+06
           23181    -2.48520E+06     960.499E+03              0.     21.6586E+06
           23182    -2.53486E+06     954.424E+03              0.     22.2706E+06
           23183    -2.58397E+06     945.428E+03              0.     22.8876E+06
           23184    -2.63240E+06     933.281E+03              0.     23.5085E+06
           23185    -2.68007E+06     917.746E+03              0.     24.1323E+06
           23186    -2.72688E+06     898.579E+03              0.     24.7576E+06
           23187    -2.77274E+06     875.531E+03              0.     25.3830E+06
           23188    -2.81757E+06     848.351E+03              0.      26.007E+06
           23189    -2.86131E+06     816.785E+03              0.     26.6279E+06
           23190    -2.90391E+06     780.581E+03              0.     27.2438E+06
           23191    -2.94534E+06     739.493E+03              0.     27.8526E+06
           23192    -2.98560E+06     693.281E+03              0.     28.4520E+06
           23193    -3.02471E+06     641.721E+03              0.     29.0397E+06
           23194    -3.06274E+06     584.606E+03              0.     29.6128E+06
           23195    -3.09979E+06     521.753E+03              0.     30.1684E+06
           23196    -3.13604E+06     453.013E+03              0.     30.7032E+06
           23197    -3.17171E+06     378.278E+03              0.     31.2138E+06
           23198    -3.20709E+06     297.492E+03              0.     31.6963E+06
           23199    -3.24257E+06     210.663E+03              0.     32.1466E+06
           23200    -3.27864E+06     117.877E+03              0.     32.5600E+06
           23201    -3.31591E+06     19.3119E+03              0.     32.9319E+06
           23202    -3.35511E+06    -84.7392E+03              0.     33.2568E+06
           23203    -3.39713E+06    -193.848E+03              0.     33.5290E+06
           23204    -3.44305E+06    -307.432E+03              0.     33.7423E+06
           23205    -3.49414E+06    -424.714E+03              0.     33.8901E+06
           23206    -3.55192E+06    -544.703E+03              0.     33.9652E+06
           23207    -3.61816E+06    -666.147E+03              0.     33.9597E+06
           23208    -3.69494E+06    -787.491E+03              0.     33.8653E+06
           23209    -3.78468E+06    -906.837E+03              0.     33.6731E+06
           23210    -3.89020E+06    -1.02188E+06              0.     33.3733E+06
           23211    -4.01476E+06    -1.12983E+06              0.     32.9557E+06
           23212    -4.16213E+06    -1.22740E+06              0.     32.4090E+06
           23213    -4.33662E+06    -1.31062E+06              0.     31.7215E+06
           23214    -4.54321E+06    -1.37486E+06              0.     30.8803E+06
           23215    -4.78758E+06    -1.41464E+06              0.     29.8719E+06
           23216    -5.07625E+06    -1.42354E+06              0.     28.6818E+06
           23217    -5.41665E+06    -1.39408E+06              0.     27.2944E+06
           23218    -5.81718E+06    -1.31752E+06              0.     25.6934E+06
           23219    -5.92260E+06    -1.27852E+06              0.     25.4249E+06
           23220    -121.383E+03    -53.3526E+03              0.    -952.701E+03
           23221    -121.404E+03    -53.6516E+03              0.    -951.070E+03
           23222    -121.286E+03    -53.9087E+03              0.    -942.437E+03
           23223    -121.169E+03    -54.1665E+03              0.    -934.038E+03
           23224    -121.052E+03    -54.4246E+03              0.    -925.873E+03
           23225    -120.937E+03    -54.6821E+03              0.    -917.944E+03
           23226    -120.824E+03    -54.9386E+03              0.    -910.250E+03
           23227    -120.713E+03    -55.1935E+03              0.    -902.790E+03
           23228    -120.605E+03    -55.4462E+03              0.    -895.562E+03
           23229    -120.500E+03    -55.6962E+03              0.    -888.566E+03
           23230    -120.399E+03    -55.9430E+03              0.    -881.798E+03
           23231    -120.301E+03    -56.1862E+03              0.    -875.256E+03
           23232    -120.207E+03    -56.4253E+03              0.    -868.936E+03
           23233    -120.117E+03    -56.6598E+03              0.    -862.835E+03
           23234    -120.032E+03    -56.8893E+03              0.    -856.948E+03
           23235    -119.952E+03    -57.1135E+03              0.    -851.270E+03
           23236    -119.878E+03    -57.3318E+03              0.    -845.798E+03
           23237    -119.809E+03    -57.5440E+03              0.    -840.524E+03
           23238    -119.746E+03    -57.7496E+03              0.    -835.444E+03
           23239    -119.689E+03    -57.9483E+03              0.    -830.551E+03
           23240    -119.639E+03    -58.1397E+03              0.    -825.838E+03
           23241    -119.595E+03    -58.3235E+03              0.    -821.300E+03
           23242    -119.559E+03    -58.4993E+03              0.    -816.928E+03
           23243    -119.530E+03    -58.6667E+03              0.    -812.714E+03
           23244    -119.509E+03    -58.8256E+03              0.    -808.652E+03
           23245    -119.496E+03    -58.9754E+03              0.    -804.732E+03
           23246    -119.492E+03    -59.1159E+03              0.    -800.946E+03
           23247    -119.497E+03    -59.2467E+03              0.    -797.286E+03
           23248    -119.511E+03    -59.3675E+03              0.    -793.741E+03
           23249    -119.534E+03    -59.4780E+03              0.    -790.303E+03
           23250    -119.567E+03    -59.5779E+03              0.    -786.961E+03
           23251    -119.611E+03    -59.6667E+03              0.    -783.706E+03
           23252    -119.666E+03    -59.7442E+03              0.    -780.525E+03
           23253    -119.732E+03    -59.8100E+03              0.     -777.41E+03
           23254    -119.809E+03    -59.8637E+03              0.    -774.348E+03
           23255    -119.899E+03    -59.9050E+03              0.    -771.328E+03
           23256    -120.001E+03    -59.9336E+03              0.    -768.338E+03
           23257    -120.116E+03    -59.9490E+03              0.    -765.365E+03
           23258    -120.244E+03    -59.9509E+03              0.    -762.397E+03
           23259    -120.387E+03    -59.9389E+03              0.    -759.422E+03
           23260    -120.544E+03    -59.9126E+03              0.    -756.424E+03
           23261    -120.717E+03    -59.8716E+03              0.    -753.392E+03
           23262    -120.905E+03    -59.8154E+03              0.    -750.310E+03
           23263    -121.109E+03    -59.7437E+03              0.    -747.164E+03
           23264    -121.331E+03    -59.6560E+03              0.    -743.939E+03
           23265    -121.570E+03    -59.5518E+03              0.    -740.619E+03
           23266    -121.827E+03    -59.4307E+03              0.    -737.189E+03
           23267    -122.103E+03    -59.2922E+03              0.    -733.633E+03
           23268    -122.399E+03    -59.1358E+03              0.    -729.933E+03
           23269    -122.715E+03    -58.9609E+03              0.    -726.071E+03
           23270    -123.053E+03    -58.7671E+03              0.    -722.032E+03
           23271    -123.412E+03    -58.5538E+03              0.    -717.795E+03
           23272    -123.795E+03    -58.3204E+03              0.    -713.343E+03
           23273    -124.201E+03    -58.0664E+03              0.    -708.655E+03
           23274    -124.633E+03    -57.7910E+03              0.    -703.713E+03
           23275    -125.089E+03    -57.4938E+03              0.    -698.495E+03
           23276    -125.573E+03    -57.1740E+03              0.    -692.980E+03
           23277    -126.084E+03    -56.8311E+03              0.    -687.147E+03
           23278    -126.624E+03    -56.4642E+03              0.    -680.973E+03
           23279    -127.194E+03    -56.0727E+03              0.    -674.436E+03
           23280    -127.794E+03    -55.6559E+03              0.    -667.510E+03
           23281    -128.427E+03    -55.2130E+03              0.    -660.173E+03
           23282    -129.094E+03    -54.7431E+03              0.    -652.399E+03
           23283    -129.795E+03    -54.2455E+03              0.    -644.162E+03
           23284    -130.532E+03    -53.7194E+03              0.    -635.435E+03
           23285    -131.307E+03    -53.1639E+03              0.    -626.191E+03
           23286    -132.121E+03    -52.5780E+03              0.    -616.401E+03
           23287    -132.975E+03    -51.9608E+03              0.    -606.036E+03
           23288    -133.871E+03    -51.3114E+03              0.    -595.067E+03
           23289    -134.811E+03    -50.6288E+03              0.    -583.462E+03
           23290    -135.796E+03    -49.9120E+03              0.    -571.188E+03
           23291    -136.827E+03    -49.1598E+03              0.    -558.215E+03
           23292    -137.908E+03    -48.3713E+03              0.    -544.506E+03
           23293    -139.039E+03    -47.5453E+03              0.    -530.029E+03
           23294    -140.222E+03    -46.6806E+03              0.    -514.745E+03
           23295    -141.460E+03    -45.7760E+03              0.    -498.619E+03
           23296    -142.754E+03    -44.8304E+03              0.    -481.611E+03
           23297    -144.107E+03    -43.8423E+03              0.    -463.683E+03
           23298    -145.521E+03    -42.8106E+03              0.    -444.794E+03
           23299    -146.997E+03    -41.7339E+03              0.    -424.902E+03
           23300    -148.539E+03    -40.6107E+03              0.    -403.963E+03
           23301    -150.149E+03    -39.4397E+03              0.    -381.933E+03
           23302    -151.828E+03    -38.2193E+03              0.    -358.767E+03
           23303    -153.581E+03    -36.9482E+03              0.    -334.416E+03
           23304    -155.409E+03    -35.6246E+03              0.    -308.832E+03
           23305    -157.315E+03    -34.2470E+03              0.    -281.964E+03
           23306    -159.302E+03    -32.8137E+03              0.    -253.762E+03
           23307    -161.373E+03    -31.3232E+03              0.    -224.171E+03
           23308    -163.531E+03    -29.7735E+03              0.    -193.136E+03
           23309    -165.778E+03    -28.1630E+03              0.    -160.600E+03
           23310    -168.119E+03    -26.4898E+03              0.    -126.506E+03
           23311    -170.556E+03    -24.7521E+03              0.    -90.7928E+03
           23312    -173.092E+03    -22.9479E+03              0.    -53.3983E+03
           23313    -175.732E+03    -21.0752E+03              0.    -14.2585E+03
           23314    -178.478E+03    -19.1321E+03              0.     26.6922E+03
           23315    -181.335E+03    -17.1165E+03              0.     69.5217E+03
           23316    -184.306E+03    -15.0263E+03              0.     114.300E+03
           23317    -187.394E+03    -12.8594E+03              0.     161.098E+03
           23318    -190.604E+03    -10.6135E+03              0.     209.992E+03
           23319    -193.940E+03    -8.28641E+03              0.     261.056E+03
           23320    -197.406E+03    -5.87589E+03              0.     314.369E+03
           23321    -201.005E+03    -3.37960E+03              0.     370.013E+03
           23322    -204.743E+03        -795.194              0.     428.069E+03
           23323    -208.624E+03     1.87972E+03              0.     488.624E+03
           23324    -212.651E+03     4.64759E+03              0.     551.766E+03
           23325    -216.831E+03     7.51084E+03              0.     617.585E+03
           23326    -221.167E+03     10.4720E+03              0.     686.173E+03
           23327    -225.663E+03     13.5335E+03              0.     757.628E+03
           23328    -230.326E+03     16.6980E+03              0.     832.045E+03
           23329    -235.159E+03     19.9679E+03              0.     909.528E+03
           23330    -240.167E+03     23.3459E+03              0.     990.179E+03
           23331    -245.356E+03     26.8346E+03              0.     1.07410E+06
           23332    -250.731E+03     30.4364E+03              0.     1.16141E+06
           23333    -256.295E+03     34.1540E+03              0.     1.25222E+06
           23334    -262.056E+03     37.9899E+03              0.     1.34664E+06
           23335    -268.017E+03     41.9467E+03              0.     1.44479E+06
           23336    -274.184E+03     46.0269E+03              0.     1.54679E+06
           23337    -280.562E+03     50.2329E+03              0.     1.65276E+06
           23338    -287.155E+03     54.5672E+03              0.     1.76284E+06
           23339    -293.969E+03     59.0321E+03              0.     1.87715E+06
           23340    -301.010E+03     63.6299E+03              0.     1.99583E+06
           23341    -308.281E+03     68.3628E+03              0.     2.11901E+06
           23342    -315.787E+03     73.2329E+03              0.     2.24684E+06
           23343    -323.534E+03     78.2421E+03              0.     2.37945E+06
           23344    -331.525E+03     83.3923E+03              0.     2.51699E+06
           23345    -339.766E+03     88.6851E+03              0.     2.65962E+06
           23346    -348.260E+03      94.122E+03              0.     2.80748E+06
           23347    -357.010E+03     99.7043E+03              0.     2.96073E+06
           23348    -366.022E+03     105.433E+03              0.     3.11953E+06
           23349    -375.297E+03     111.309E+03              0.     3.28404E+06
           23350    -384.840E+03     117.332E+03              0.     3.45443E+06
           23351    -394.652E+03     123.504E+03              0.     3.63086E+06
           23352    -404.736E+03     129.823E+03              0.     3.81350E+06
           23353    -415.092E+03     136.289E+03              0.     4.00253E+06
           23354    -425.724E+03     142.901E+03              0.     4.19813E+06
           23355    -436.630E+03     149.657E+03              0.     4.40046E+06
           23356    -447.810E+03     156.555E+03              0.     4.60972E+06
           23357    -459.264E+03     163.594E+03              0.     4.82607E+06
           23358    -470.989E+03     170.768E+03              0.     5.04972E+06
           23359    -482.984E+03     178.075E+03              0.     5.28084E+06
           23360    -495.243E+03     185.510E+03              0.     5.51962E+06
           23361    -507.763E+03     193.066E+03              0.     5.76625E+06
           23362    -520.537E+03     200.738E+03              0.     6.02092E+06
           23363    -533.558E+03     208.518E+03              0.     6.28382E+06
           23364    -546.818E+03     216.397E+03              0.     6.55514E+06
           23365    -560.305E+03     224.365E+03              0.     6.83506E+06
           23366    -574.009E+03     232.411E+03              0.     7.12378E+06
           23367    -587.916E+03     240.524E+03              0.     7.42147E+06
           23368    -602.010E+03     248.689E+03              0.     7.72834E+06
           23369    -616.274E+03     256.890E+03              0.     8.04455E+06
           23370    -630.689E+03     265.111E+03              0.     8.37028E+06
           23371    -645.232E+03     273.333E+03              0.     8.70571E+06
           23372    -659.879E+03     281.534E+03              0.     9.05101E+06
           23373    -674.604E+03     289.691E+03              0.     9.40634E+06
           23374    -689.375E+03     297.779E+03              0.     9.77185E+06
           23375    -704.162E+03     305.771E+03              0.     10.1477E+06
           23376    -718.927E+03     313.637E+03              0.     10.5340E+06
           23377    -733.631E+03     321.342E+03              0.     10.9309E+06
           23378    -748.233E+03     328.851E+03              0.     11.3385E+06
           23379    -762.685E+03     336.126E+03              0.     11.7569E+06
           23380    -776.938E+03     343.124E+03              0.     12.1862E+06
           23381    -790.937E+03     349.800E+03              0.     12.6264E+06
           23382    -804.624E+03     356.104E+03              0.     13.0777E+06
           23383    -817.937E+03     361.983E+03              0.     13.5399E+06
           23384    -830.809E+03     367.382E+03              0.     14.0132E+06
           23385    -843.167E+03     372.238E+03              0.     14.4975E+06
           23386    -854.937E+03     376.487E+03              0.     14.9927E+06
           23387    -866.037E+03     380.060E+03              0.     15.4988E+06
           23388    -876.382E+03     382.882E+03              0.     16.0156E+06
           23389    -885.882E+03     384.875E+03              0.     16.5429E+06
           23390    -894.441E+03     385.956E+03              0.     17.0806E+06
           23391    -901.961E+03     386.038E+03              0.     17.6284E+06
           23392    -908.338E+03     385.027E+03              0.     18.1860E+06
           23393    -913.465E+03     382.827E+03              0.     18.7531E+06
           23394    -917.229E+03     379.338E+03              0.     19.3291E+06
           23395    -919.517E+03     374.453E+03              0.     19.9136E+06
           23396    -920.212E+03     368.065E+03              0.     20.5062E+06
           23397    -919.195E+03     360.059E+03              0.     21.1060E+06
           23398    -916.346E+03     350.322E+03              0.     21.7124E+06
           23399    -911.548E+03     338.737E+03              0.     22.3246E+06
           23400    -904.681E+03     325.186E+03              0.     22.9416E+06
           23401    -895.631E+03     309.551E+03              0.     23.5624E+06
           23402    -884.291E+03     291.716E+03              0.     24.1860E+06
           23403    -870.558E+03     271.570E+03              0.     24.8109E+06
           23404    -854.342E+03     249.004E+03              0.     25.4358E+06
           23405    -835.563E+03     223.920E+03              0.     26.0592E+06
           23406    -814.161E+03     196.229E+03              0.     26.6793E+06
           23407    -790.096E+03     165.860E+03              0.     27.2942E+06
           23408    -763.351E+03     132.755E+03              0.     27.9019E+06
           23409    -733.944E+03     96.8842E+03              0.     28.5000E+06
           23410    -701.927E+03     58.2450E+03              0.     29.0862E+06
           23411    -667.396E+03     16.8696E+03              0.     29.6577E+06
           23412    -630.502E+03    -27.1651E+03              0.     30.2115E+06
           23413    -591.454E+03    -73.7318E+03              0.     30.7445E+06
           23414    -550.535E+03    -122.640E+03              0.     31.2530E+06
           23415    -508.111E+03    -173.625E+03              0.     31.7334E+06
           23416    -464.642E+03    -226.337E+03              0.     32.1814E+06
           23417    -420.704E+03    -280.321E+03              0.     32.5926E+06
           23418    -376.998E+03    -335.003E+03              0.     32.9621E+06
           23419    -334.373E+03    -389.667E+03              0.     33.2847E+06
           23420    -293.848E+03    -443.433E+03              0.     33.5548E+06
           23421    -256.633E+03    -495.231E+03              0.     33.7662E+06
           23422    -224.160E+03    -543.769E+03              0.     33.9123E+06
           23423    -198.108E+03    -587.501E+03              0.     33.9861E+06
           23424    -180.442E+03    -624.583E+03              0.     33.9799E+06
           23425    -173.448E+03    -652.834E+03              0.     33.8855E+06
           23426    -179.774E+03    -669.682E+03              0.     33.6941E+06
           23427    -202.483E+03    -672.105E+03              0.     33.3963E+06
           23428    -245.096E+03    -656.571E+03              0.     32.9819E+06
           23429    -311.662E+03    -618.960E+03              0.     32.4403E+06
           23430    -406.818E+03     -554.48E+03              0.     31.7598E+06
           23431    -535.858E+03    -457.577E+03              0.     30.9281E+06
           23432    -704.829E+03    -321.825E+03              0.     29.9321E+06
           23433    -920.609E+03    -139.806E+03              0.     28.7579E+06
           23434    -1.19101E+06     97.0255E+03              0.     27.3905E+06
           23435    -1.52490E+06     398.478E+03              0.     25.8143E+06
           23436    -1.53154E+06     697.805E+03              0.     25.5706E+06
           23437    -141.463E+03    -62.3894E+03              0.    -952.740E+03
           23438    -141.455E+03    -62.4016E+03              0.    -951.109E+03
           23439    -141.430E+03    -62.4254E+03              0.    -942.475E+03
           23440    -141.406E+03    -62.4486E+03              0.    -934.076E+03
           23441    -141.383E+03    -62.4714E+03              0.    -925.911E+03
           23442    -141.360E+03    -62.4936E+03              0.    -917.981E+03
           23443    -141.338E+03    -62.5152E+03              0.    -910.285E+03
           23444    -141.316E+03    -62.5364E+03              0.    -902.824E+03
           23445    -141.295E+03    -62.5570E+03              0.    -895.596E+03
           23446    -141.274E+03    -62.5770E+03              0.    -888.598E+03
           23447    -141.253E+03    -62.5966E+03              0.    -881.828E+03
           23448    -141.233E+03    -62.6155E+03              0.    -875.284E+03
           23449    -141.214E+03    -62.6340E+03              0.    -868.962E+03
           23450    -141.195E+03    -62.6519E+03              0.    -862.859E+03
           23451    -141.177E+03    -62.6692E+03              0.    -856.970E+03
           23452    -141.159E+03    -62.6861E+03              0.     -851.29E+03
           23453    -141.142E+03    -62.7023E+03              0.    -845.815E+03
           23454    -141.126E+03    -62.7181E+03              0.    -840.538E+03
           23455    -141.110E+03    -62.7332E+03              0.    -835.455E+03
           23456    -141.094E+03    -62.7479E+03              0.    -830.559E+03
           23457    -141.079E+03    -62.7620E+03              0.    -825.843E+03
           23458    -141.065E+03    -62.7755E+03              0.    -821.301E+03
           23459    -141.051E+03    -62.7885E+03              0.    -816.926E+03
           23460    -141.038E+03    -62.8009E+03              0.    -812.708E+03
           23461    -141.025E+03    -62.8128E+03              0.    -808.642E+03
           23462    -141.014E+03    -62.8241E+03              0.    -804.718E+03
           23463    -141.002E+03    -62.8348E+03              0.    -800.928E+03
           23464    -140.992E+03    -62.8449E+03              0.    -797.263E+03
           23465    -140.982E+03    -62.8545E+03              0.    -793.714E+03
           23466    -140.973E+03    -62.8635E+03              0.    -790.271E+03
           23467    -140.964E+03    -62.8719E+03              0.    -786.924E+03
           23468    -140.957E+03    -62.8797E+03              0.    -783.663E+03
           23469    -140.950E+03    -62.8869E+03              0.    -780.478E+03
           23470    -140.944E+03    -62.8934E+03              0.    -777.356E+03
           23471    -140.938E+03    -62.8994E+03              0.    -774.289E+03
           23472    -140.934E+03    -62.9047E+03              0.    -771.262E+03
           23473    -140.930E+03    -62.9093E+03              0.    -768.266E+03
           23474    -140.927E+03    -62.9133E+03              0.    -765.287E+03
           23475    -140.926E+03    -62.9166E+03              0.    -762.312E+03
           23476    -140.925E+03    -62.9192E+03              0.    -759.329E+03
           23477    -140.925E+03    -62.9211E+03              0.    -756.324E+03
           23478    -140.926E+03    -62.9223E+03              0.    -753.284E+03
           23479    -140.929E+03    -62.9227E+03              0.    -750.194E+03
           23480    -140.932E+03    -62.9224E+03              0.    -747.040E+03
           23481    -140.937E+03    -62.9213E+03              0.    -743.806E+03
           23482    -140.943E+03    -62.9193E+03              0.    -740.477E+03
           23483    -140.950E+03    -62.9166E+03              0.    -737.038E+03
           23484    -140.958E+03     -62.913E+03              0.    -733.471E+03
           23485    -140.968E+03    -62.9085E+03              0.    -729.761E+03
           23486    -140.979E+03    -62.9032E+03              0.    -725.890E+03
           23487    -140.991E+03    -62.8969E+03              0.    -721.839E+03
           23488    -141.006E+03    -62.8896E+03              0.    -717.591E+03
           23489    -141.021E+03    -62.8814E+03              0.    -713.127E+03
           23490    -141.039E+03    -62.8722E+03              0.    -708.427E+03
           23491    -141.058E+03    -62.8619E+03              0.    -703.472E+03
           23492    -141.078E+03    -62.8505E+03              0.    -698.240E+03
           23493    -141.101E+03    -62.8380E+03              0.    -692.712E+03
           23494    -141.126E+03    -62.8243E+03              0.    -686.865E+03
           23495    -141.152E+03    -62.8094E+03              0.    -680.676E+03
           23496    -141.181E+03    -62.7933E+03              0.    -674.123E+03
           23497    -141.212E+03    -62.7759E+03              0.    -667.181E+03
           23498    -141.245E+03    -62.7572E+03              0.    -659.827E+03
           23499    -141.280E+03    -62.7371E+03              0.    -652.036E+03
           23500    -141.317E+03    -62.7155E+03              0.    -643.780E+03
           23501    -141.358E+03    -62.6925E+03              0.    -635.035E+03
           23502    -141.400E+03    -62.6680E+03              0.    -625.771E+03
           23503    -141.445E+03    -62.6419E+03              0.    -615.961E+03
           23504    -141.493E+03    -62.6141E+03              0.    -605.575E+03
           23505    -141.544E+03    -62.5846E+03              0.    -594.584E+03
           23506    -141.597E+03    -62.5534E+03              0.    -582.956E+03
           23507    -141.654E+03    -62.5203E+03              0.    -570.659E+03
           23508    -141.713E+03    -62.4854E+03              0.    -557.661E+03
           23509    -141.776E+03    -62.4485E+03              0.    -543.927E+03
           23510    -141.842E+03    -62.4096E+03              0.    -529.423E+03
           23511    -141.911E+03    -62.3686E+03              0.    -514.111E+03
           23512    -141.983E+03    -62.3255E+03              0.    -497.957E+03
           23513    -142.059E+03    -62.2801E+03              0.    -480.920E+03
           23514    -142.138E+03    -62.2324E+03              0.    -462.961E+03
           23515    -142.221E+03    -62.1823E+03              0.    -444.039E+03
           23516    -142.307E+03    -62.1298E+03              0.    -424.114E+03
           23517    -142.397E+03    -62.0747E+03              0.    -403.141E+03
           23518    -142.490E+03    -62.0170E+03              0.    -381.075E+03
           23519    -142.587E+03    -61.9565E+03              0.    -357.871E+03
           23520    -142.688E+03    -61.8933E+03              0.    -333.482E+03
           23521    -142.792E+03    -61.8273E+03              0.    -307.858E+03
           23522    -142.900E+03    -61.7582E+03              0.    -280.949E+03
           23523    -143.012E+03    -61.6862E+03              0.    -252.703E+03
           23524    -143.127E+03    -61.6110E+03              0.    -223.067E+03
           23525    -143.245E+03    -61.5326E+03              0.    -191.986E+03
           23526    -143.367E+03    -61.4510E+03              0.    -159.402E+03
           23527    -143.492E+03    -61.3659E+03              0.    -125.258E+03
           23528    -143.620E+03    -61.2775E+03              0.    -89.4928E+03
           23529    -143.751E+03    -61.1855E+03              0.    -52.0445E+03
           23530    -143.884E+03    -61.0900E+03              0.    -12.8492E+03
           23531    -144.020E+03    -60.9908E+03              0.     28.1591E+03
           23532    -144.157E+03    -60.8879E+03              0.     71.0483E+03
           23533    -144.296E+03    -60.7812E+03              0.     115.888E+03
           23534    -144.437E+03    -60.6708E+03              0.     162.751E+03
           23535    -144.578E+03    -60.5565E+03              0.     211.711E+03
           23536    -144.719E+03    -60.4383E+03              0.     262.844E+03
           23537    -144.860E+03    -60.3162E+03              0.     316.228E+03
           23538    -145.000E+03    -60.1903E+03              0.     371.945E+03
           23539    -145.137E+03    -60.0605E+03              0.     430.078E+03
           23540    -145.272E+03    -59.9268E+03              0.     490.712E+03
           23541    -145.403E+03    -59.7893E+03              0.     553.935E+03
           23542    -145.529E+03    -59.6480E+03              0.     619.838E+03
           23543    -145.649E+03    -59.5031E+03              0.     688.513E+03
           23544    -145.762E+03    -59.3547E+03              0.     760.057E+03
           23545    -145.865E+03    -59.2029E+03              0.     834.568E+03
           23546    -145.959E+03    -59.0478E+03              0.     912.147E+03
           23547    -146.039E+03    -58.8898E+03              0.     992.897E+03
           23548    -146.106E+03    -58.7290E+03              0.     1.07692E+06
           23549    -146.155E+03    -58.5658E+03              0.     1.16434E+06
           23550    -146.186E+03    -58.4004E+03              0.     1.25526E+06
           23551    -146.196E+03    -58.2334E+03              0.     1.34979E+06
           23552    -146.180E+03    -58.0651E+03              0.     1.44805E+06
           23553    -146.138E+03    -57.8961E+03              0.     1.55017E+06
           23554    -146.064E+03    -57.7270E+03              0.     1.65627E+06
           23555    -145.955E+03    -57.5584E+03              0.     1.76647E+06
           23556    -145.808E+03    -57.3911E+03              0.     1.88091E+06
           23557    -145.617E+03    -57.2260E+03              0.     1.99972E+06
           23558    -145.379E+03    -57.0641E+03              0.     2.12304E+06
           23559    -145.086E+03    -56.9063E+03              0.     2.25101E+06
           23560    -144.735E+03    -56.7540E+03              0.     2.38376E+06
           23561    -144.318E+03    -56.6085E+03              0.     2.52145E+06
           23562    -143.828E+03    -56.4711E+03              0.     2.66423E+06
           23563    -143.260E+03    -56.3437E+03              0.     2.81225E+06
           23564    -142.603E+03    -56.2279E+03              0.     2.96566E+06
           23565    -141.851E+03    -56.1259E+03              0.     3.12462E+06
           23566    -140.993E+03    -56.0398E+03              0.     3.28929E+06
           23567    -140.020E+03    -55.9721E+03              0.     3.45985E+06
           23568    -138.920E+03    -55.9254E+03              0.     3.63645E+06
           23569    -137.682E+03    -55.9028E+03              0.     3.81927E+06
           23570    -136.293E+03    -55.9074E+03              0.     4.00848E+06
           23571    -134.740E+03    -55.9428E+03              0.     4.20425E+06
           23572    -133.007E+03    -56.0130E+03              0.     4.40677E+06
           23573    -131.079E+03    -56.1220E+03              0.     4.61621E+06
           23574    -128.938E+03    -56.2747E+03              0.     4.83275E+06
           23575    -126.566E+03     -56.476E+03              0.     5.05658E+06
           23576    -123.944E+03    -56.7314E+03              0.     5.28789E+06
           23577    -121.049E+03    -57.0471E+03              0.     5.52686E+06
           23578    -117.860E+03    -57.4294E+03              0.     5.77368E+06
           23579    -114.351E+03    -57.8855E+03              0.     6.02854E+06
           23580    -110.496E+03    -58.4230E+03              0.     6.29162E+06
           23581    -106.266E+03    -59.0503E+03              0.     6.56313E+06
           23582    -101.632E+03    -59.7765E+03              0.     6.84323E+06
           23583    -96.5610E+03    -60.6112E+03              0.     7.13213E+06
           23584    -91.0181E+03    -61.5650E+03              0.     7.43000E+06
           23585    -84.9662E+03    -62.6493E+03              0.     7.73703E+06
           23586    -78.3658E+03    -63.8764E+03              0.      8.0534E+06
           23587    -71.1746E+03    -65.2594E+03              0.     8.37929E+06
           23588    -63.3474E+03    -66.8127E+03              0.     8.71487E+06
           23589    -54.8360E+03    -68.5513E+03              0.     9.06030E+06
           23590    -45.5894E+03    -70.4916E+03              0.     9.41575E+06
           23591    -35.5530E+03    -72.6512E+03              0.     9.78136E+06
           23592    -24.6689E+03    -75.0489E+03              0.     10.1573E+06
           23593    -12.8757E+03    -77.7045E+03              0.     10.5437E+06
           23594        -108.223    -80.6394E+03              0.     10.9406E+06
           23595     13.7026E+03    -83.8763E+03              0.     11.3482E+06
           23596     28.6299E+03    -87.4392E+03              0.     11.7667E+06
           23597     44.7508E+03    -91.3536E+03              0.     12.1959E+06
           23598     62.1467E+03    -95.6466E+03              0.     12.6361E+06
           23599     80.9036E+03    -100.347E+03              0.     13.0873E+06
           23600     101.112E+03    -105.483E+03              0.     13.5494E+06
           23601     122.866E+03    -111.089E+03              0.     14.0225E+06
           23602     146.266E+03    -117.195E+03              0.     14.5066E+06
           23603     171.415E+03    -123.836E+03              0.     15.0015E+06
           23604     198.423E+03    -131.048E+03              0.     15.5073E+06
           23605     227.402E+03    -138.867E+03              0.     16.0237E+06
           23606     258.471E+03    -147.331E+03              0.     16.5506E+06
           23607     291.750E+03    -156.478E+03              0.     17.0878E+06
           23608     327.367E+03    -166.346E+03              0.     17.6351E+06
           23609     365.450E+03    -176.974E+03              0.     18.1920E+06
           23610     406.133E+03    -188.401E+03              0.     18.7583E+06
           23611     449.550E+03    -200.665E+03              0.     19.3335E+06
           23612     495.841E+03    -213.801E+03              0.     19.9171E+06
           23613     545.143E+03    -227.843E+03              0.     20.5086E+06
           23614     597.595E+03    -242.822E+03              0.     21.1073E+06
           23615     653.337E+03    -258.764E+03              0.     21.7125E+06
           23616     712.504E+03    -275.690E+03              0.     22.3233E+06
           23617     775.228E+03    -293.615E+03              0.     22.9388E+06
           23618     841.637E+03    -312.543E+03              0.     23.5581E+06
           23619     911.848E+03    -332.468E+03              0.     24.1798E+06
           23620     985.970E+03    -353.372E+03              0.     24.8029E+06
           23621     1.06410E+06    -375.219E+03              0.     25.4257E+06
           23622     1.14631E+06    -397.957E+03              0.     26.0469E+06
           23623     1.23266E+06    -421.506E+03              0.     26.6647E+06
           23624     1.32318E+06    -445.764E+03              0.     27.2771E+06
           23625     1.41787E+06    -470.593E+03              0.     27.8822E+06
           23626     1.51670E+06    -495.819E+03              0.     28.4776E+06
           23627     1.61959E+06    -521.222E+03              0.     29.0609E+06
           23628     1.72641E+06    -546.532E+03              0.     29.6293E+06
           23629     1.83697E+06    -571.414E+03              0.     30.1800E+06
           23630     1.95101E+06    -595.468E+03              0.     30.7097E+06
           23631     2.06821E+06    -618.207E+03              0.     31.2149E+06
           23632     2.18812E+06    -639.050E+03              0.     31.6919E+06
           23633     2.31021E+06    -657.309E+03              0.     32.1366E+06
           23634     2.43384E+06    -672.165E+03              0.     32.5445E+06
           23635     2.55819E+06    -682.655E+03              0.     32.9108E+06
           23636     2.68232E+06    -687.649E+03              0.     33.2304E+06
           23637     2.80509E+06    -685.823E+03              0.     33.4976E+06
           23638     2.92516E+06    -675.633E+03              0.     33.7065E+06
           23639     3.04096E+06    -655.282E+03              0.     33.8506E+06
           23640     3.15063E+06    -622.685E+03              0.     33.9229E+06
           23641     3.25205E+06    -575.425E+03              0.      33.916E+06
           23642     3.34275E+06    -510.712E+03              0.     33.8218E+06
           23643     3.41985E+06    -425.327E+03              0.     33.6317E+06
           23644     3.48009E+06    -315.562E+03              0.     33.3366E+06
           23645     3.51970E+06    -177.157E+03              0.     32.9267E+06
           23646     3.53437E+06    -5.22298E+03              0.     32.3913E+06
           23647     3.51920E+06     205.839E+03              0.     31.7195E+06
           23648     3.46859E+06     462.442E+03              0.     30.8993E+06
           23649     3.37621E+06     771.904E+03              0.     29.9181E+06
           23650     3.23486E+06     1.14259E+06              0.     28.7626E+06
           23651     3.03640E+06     1.58401E+06              0.     27.4184E+06
           23652     2.77161E+06     2.10702E+06              0.     25.8707E+06
           23653     2.86304E+06     2.66221E+06              0.     25.6522E+06
           23654    -161.543E+03    -71.4264E+03              0.    -952.684E+03
           23655    -161.505E+03    -71.1518E+03              0.    -951.053E+03
           23656    -161.574E+03    -70.9423E+03              0.    -942.419E+03
           23657    -161.644E+03    -70.7310E+03              0.    -934.020E+03
           23658    -161.714E+03    -70.5184E+03              0.    -925.855E+03
           23659    -161.783E+03    -70.3053E+03              0.    -917.926E+03
           23660    -161.851E+03    -70.0921E+03              0.    -910.231E+03
           23661    -161.918E+03    -69.8795E+03              0.    -902.771E+03
           23662    -161.983E+03    -69.6680E+03              0.    -895.543E+03
           23663    -162.047E+03    -69.4581E+03              0.    -888.547E+03
           23664    -162.107E+03    -69.2504E+03              0.    -881.779E+03
           23665    -162.166E+03    -69.0451E+03              0.    -875.236E+03
           23666    -162.221E+03    -68.8430E+03              0.    -868.916E+03
           23667    -162.273E+03    -68.6443E+03              0.    -862.814E+03
           23668    -162.321E+03    -68.4495E+03              0.    -856.927E+03
           23669    -162.366E+03    -68.2590E+03              0.    -851.250E+03
           23670    -162.406E+03    -68.0732E+03              0.    -845.777E+03
           23671    -162.442E+03    -67.8925E+03              0.    -840.503E+03
           23672    -162.473E+03    -67.7172E+03              0.    -835.422E+03
           23673    -162.499E+03    -67.5478E+03              0.    -830.529E+03
           23674    -162.519E+03    -67.3846E+03              0.    -825.816E+03
           23675    -162.534E+03    -67.2279E+03              0.    -821.277E+03
           23676    -162.543E+03    -67.0780E+03              0.    -816.904E+03
           23677    -162.545E+03    -66.9354E+03              0.    -812.690E+03
           23678    -162.541E+03    -66.8003E+03              0.    -808.628E+03
           23679    -162.530E+03    -66.6731E+03              0.    -804.707E+03
           23680    -162.512E+03    -66.5541E+03              0.    -800.921E+03
           23681    -162.486E+03    -66.4435E+03              0.     -797.26E+03
           23682    -162.453E+03    -66.3419E+03              0.    -793.715E+03
           23683    -162.411E+03    -66.2493E+03              0.    -790.276E+03
           23684    -162.360E+03    -66.1663E+03              0.    -786.933E+03
           23685    -162.301E+03    -66.0931E+03              0.    -783.677E+03
           23686    -162.233E+03    -66.0300E+03              0.    -780.496E+03
           23687    -162.155E+03    -65.9773E+03              0.     -777.38E+03
           23688    -162.067E+03    -65.9355E+03              0.    -774.317E+03
           23689    -161.968E+03    -65.9047E+03              0.    -771.296E+03
           23690    -161.859E+03    -65.8854E+03              0.    -768.305E+03
           23691    -161.738E+03    -65.8780E+03              0.    -765.332E+03
           23692    -161.606E+03    -65.8827E+03              0.    -762.363E+03
           23693    -161.462E+03    -65.8999E+03              0.    -759.386E+03
           23694    -161.305E+03    -65.9300E+03              0.    -756.388E+03
           23695    -161.135E+03    -65.9734E+03              0.    -753.354E+03
           23696    -160.951E+03    -66.0304E+03              0.    -750.271E+03
           23697    -160.754E+03    -66.1015E+03              0.    -747.124E+03
           23698    -160.542E+03    -66.1870E+03              0.    -743.898E+03
           23699    -160.314E+03    -66.2874E+03              0.    -740.577E+03
           23700    -160.071E+03    -66.4030E+03              0.    -737.145E+03
           23701    -159.812E+03    -66.5344E+03              0.    -733.587E+03
           23702    -159.535E+03    -66.6819E+03              0.    -729.885E+03
           23703    -159.241E+03    -66.8461E+03              0.    -726.022E+03
           23704    -158.929E+03    -67.0273E+03              0.    -721.981E+03
           23705    -158.597E+03    -67.2262E+03              0.    -717.742E+03
           23706    -158.246E+03    -67.4431E+03              0.    -713.288E+03
           23707    -157.874E+03    -67.6787E+03              0.    -708.599E+03
           23708    -157.481E+03    -67.9335E+03              0.    -703.654E+03
           23709    -157.066E+03    -68.2080E+03              0.    -698.434E+03
           23710    -156.628E+03    -68.5027E+03              0.    -692.917E+03
           23711    -156.166E+03    -68.8184E+03              0.    -687.081E+03
           23712    -155.679E+03    -69.1556E+03              0.    -680.905E+03
           23713    -155.166E+03    -69.5148E+03              0.    -674.365E+03
           23714    -154.627E+03    -69.8969E+03              0.    -667.437E+03
           23715    -154.060E+03    -70.3024E+03              0.    -660.096E+03
           23716    -153.464E+03    -70.7321E+03              0.    -652.319E+03
           23717    -152.838E+03    -71.1866E+03              0.    -644.079E+03
           23718    -152.180E+03    -71.6668E+03              0.    -635.348E+03
           23719    -151.491E+03    -72.1733E+03              0.    -626.101E+03
           23720    -150.767E+03    -72.7070E+03              0.    -616.307E+03
           23721    -150.009E+03    -73.2687E+03              0.    -605.939E+03
           23722    -149.214E+03    -73.8592E+03              0.    -594.966E+03
           23723    -148.381E+03    -74.4794E+03              0.    -583.356E+03
           23724    -147.509E+03    -75.1302E+03              0.    -571.079E+03
           23725    -146.597E+03    -75.8125E+03              0.    -558.101E+03
           23726    -145.641E+03    -76.5273E+03              0.    -544.388E+03
           23727    -144.642E+03    -77.2756E+03              0.    -529.905E+03
           23728    -143.596E+03    -78.0583E+03              0.    -514.617E+03
           23729    -142.503E+03    -78.8766E+03              0.    -498.485E+03
           23730    -141.360E+03    -79.7316E+03              0.    -481.472E+03
           23731    -140.165E+03    -80.6243E+03              0.    -463.539E+03
           23732    -138.917E+03    -81.5559E+03              0.    -444.644E+03
           23733    -137.613E+03    -82.5276E+03              0.    -424.745E+03
           23734    -136.250E+03    -83.5407E+03              0.    -403.800E+03
           23735    -134.828E+03    -84.5963E+03              0.    -381.764E+03
           23736    -133.342E+03    -85.6959E+03              0.    -358.591E+03
           23737    -131.790E+03    -86.8407E+03              0.    -334.233E+03
           23738    -130.171E+03    -88.0322E+03              0.    -308.642E+03
           23739    -128.481E+03    -89.2718E+03              0.    -281.768E+03
           23740    -126.716E+03    -90.5610E+03              0.    -253.557E+03
           23741    -124.875E+03    -91.9012E+03              0.    -223.958E+03
           23742    -122.954E+03    -93.2941E+03              0.    -192.916E+03
           23743    -120.950E+03    -94.7414E+03              0.    -160.372E+03
           23744    -118.859E+03    -96.2445E+03              0.    -126.270E+03
           23745    -116.678E+03    -97.8054E+03              0.    -90.5477E+03
           23746    -114.403E+03    -99.4257E+03              0.    -53.1444E+03
           23747    -112.029E+03    -101.107E+03              0.    -13.9957E+03
           23748    -109.554E+03    -102.852E+03              0.     26.9640E+03
           23749    -106.973E+03    -104.662E+03              0.     69.8027E+03
           23750    -104.280E+03    -106.539E+03              0.     114.590E+03
           23751    -101.473E+03    -108.485E+03              0.     161.398E+03
           23752    -98.5448E+03    -110.502E+03              0.     210.301E+03
           23753    -95.4914E+03    -112.592E+03              0.     261.375E+03
           23754    -92.3072E+03    -114.759E+03              0.     314.698E+03
           23755    -88.9868E+03    -117.003E+03              0.     370.351E+03
           23756    -85.5241E+03    -119.328E+03              0.     428.417E+03
           23757    -81.9132E+03    -121.735E+03              0.     488.982E+03
           23758    -78.1475E+03    -124.228E+03              0.     552.133E+03
           23759    -74.2204E+03    -126.808E+03              0.     617.960E+03
           23760    -70.1248E+03    -129.479E+03              0.     686.558E+03
           23761    -65.8534E+03    -132.243E+03              0.     758.020E+03
           23762    -61.3984E+03    -135.104E+03              0.     832.447E+03
           23763    -56.7517E+03    -138.063E+03              0.     909.937E+03
           23764    -51.9048E+03    -141.125E+03              0.     990.595E+03
           23765    -46.8488E+03    -144.291E+03              0.     1.07453E+06
           23766    -41.5744E+03    -147.566E+03              0.     1.16184E+06
           23767    -36.0716E+03    -150.952E+03              0.     1.25265E+06
           23768    -30.3303E+03    -154.453E+03              0.     1.34708E+06
           23769    -24.3395E+03    -158.072E+03              0.     1.44523E+06
           23770    -18.0880E+03    -161.813E+03              0.     1.54723E+06
           23771    -11.5637E+03    -165.680E+03              0.      1.6532E+06
           23772    -4.75406E+03    -169.676E+03              0.     1.76327E+06
           23773     2.35404E+03    -173.805E+03              0.     1.87758E+06
           23774     9.77449E+03    -178.071E+03              0.     1.99625E+06
           23775     17.5219E+03    -182.478E+03              0.     2.11942E+06
           23776     25.6115E+03    -187.031E+03              0.     2.24723E+06
           23777     34.0596E+03    -191.733E+03              0.     2.37983E+06
           23778     42.8831E+03    -196.590E+03              0.     2.51735E+06
           23779     52.0997E+03    -201.606E+03              0.     2.65996E+06
           23780     61.7284E+03    -206.785E+03              0.     2.80779E+06
           23781     71.7889E+03    -212.132E+03              0.     2.96101E+06
           23782     82.3021E+03    -217.653E+03              0.     3.11977E+06
           23783     93.2898E+03    -223.353E+03              0.     3.28423E+06
           23784     104.775E+03    -229.237E+03              0.     3.45457E+06
           23785     116.782E+03    -235.311E+03              0.     3.63094E+06
           23786     129.337E+03    -241.579E+03              0.     3.81352E+06
           23787     142.467E+03    -248.049E+03              0.     4.00247E+06
           23788     156.199E+03    -254.726E+03              0.     4.19798E+06
           23789     170.565E+03    -261.616E+03              0.     4.40021E+06
           23790     185.594E+03    -268.726E+03              0.     4.60936E+06
           23791     201.322E+03    -276.061E+03              0.     4.82560E+06
           23792     217.782E+03    -283.630E+03              0.     5.04911E+06
           23793     235.012E+03    -291.439E+03              0.     5.28008E+06
           23794     253.050E+03    -299.494E+03              0.     5.51869E+06
           23795     271.937E+03    -307.804E+03              0.     5.76513E+06
           23796     291.717E+03    -316.376E+03              0.     6.01960E+06
           23797     312.435E+03    -325.218E+03              0.     6.28227E+06
           23798     334.139E+03    -334.337E+03              0.     6.55333E+06
           23799     356.878E+03    -343.742E+03              0.     6.83298E+06
           23800     380.707E+03    -353.441E+03              0.     7.12139E+06
           23801     405.680E+03    -363.443E+03              0.     7.41875E+06
           23802     431.857E+03    -373.757E+03              0.     7.72524E+06
           23803     459.299E+03    -384.391E+03              0.     8.04105E+06
           23804     488.071E+03    -395.354E+03              0.     8.36634E+06
           23805     518.241E+03    -406.657E+03              0.     8.70129E+06
           23806     549.881E+03    -418.308E+03              0.     9.04605E+06
           23807     583.066E+03    -430.316E+03              0.     9.40080E+06
           23808     617.875E+03    -442.691E+03              0.     9.76567E+06
           23809     654.391E+03    -455.444E+03              0.     10.1408E+06
           23810     692.701E+03    -468.582E+03              0.     10.5264E+06
           23811     732.895E+03    -482.116E+03              0.     10.9224E+06
           23812     775.069E+03    -496.056E+03              0.     11.3292E+06
           23813     819.323E+03    -510.409E+03              0.     11.7466E+06
           23814     865.759E+03    -525.184E+03              0.     12.1748E+06
           23815     914.487E+03    -540.391E+03              0.     12.6139E+06
           23816     965.620E+03    -556.035E+03              0.     13.0639E+06
           23817     1.01928E+06    -572.124E+03              0.     13.5249E+06
           23818     1.07558E+06    -588.664E+03              0.     13.9967E+06
           23819     1.13465E+06    -605.658E+03              0.     14.4794E+06
           23820     1.19662E+06    -623.111E+03              0.     14.9729E+06
           23821     1.26164E+06    -641.021E+03              0.     15.4772E+06
           23822     1.32984E+06     -659.39E+03              0.     15.9920E+06
           23823     1.40136E+06    -678.212E+03              0.     16.5172E+06
           23824     1.47635E+06    -697.481E+03              0.     17.0526E+06
           23825     1.55497E+06    -717.186E+03              0.     17.5980E+06
           23826     1.63737E+06    -737.312E+03              0.     18.1530E+06
           23827     1.72370E+06    -757.838E+03              0.     18.7172E+06
           23828     1.81414E+06    -778.738E+03              0.     19.2902E+06
           23829     1.90882E+06    -799.979E+03              0.     19.8715E+06
           23830     2.00793E+06    -821.519E+03              0.     20.4605E+06
           23831     2.11161E+06    -843.307E+03              0.     21.0566E+06
           23832     2.22003E+06    -865.280E+03              0.     21.6591E+06
           23833     2.33333E+06    -887.363E+03              0.     22.2670E+06
           23834     2.45166E+06    -909.466E+03              0.     22.8796E+06
           23835     2.57516E+06    -931.481E+03              0.     23.4957E+06
           23836     2.70396E+06    -953.281E+03              0.     24.1142E+06
           23837     2.83817E+06    -974.716E+03              0.     24.7338E+06
           23838     2.97789E+06    -995.609E+03              0.     25.3532E+06
           23839     3.12319E+06    -1.01575E+06              0.     25.9707E+06
           23840     3.27414E+06    -1.03491E+06              0.     26.5846E+06
           23841     3.43074E+06    -1.05279E+06              0.     27.1930E+06
           23842     3.59299E+06    -1.06907E+06              0.     27.7940E+06
           23843     3.76082E+06    -1.08337E+06              0.     28.3852E+06
           23844     3.93415E+06    -1.09526E+06              0.     28.9641E+06
           23845     4.11281E+06    -1.10421E+06              0.     29.5282E+06
           23846     4.29657E+06    -1.10966E+06              0.     30.0743E+06
           23847     4.48513E+06    -1.11092E+06              0.     30.5995E+06
           23848     4.67810E+06    -1.10721E+06              0.     31.1002E+06
           23849     4.87499E+06    -1.09764E+06              0.     31.5727E+06
           23850     5.07520E+06    -1.08120E+06              0.     32.0129E+06
           23851     5.27798E+06    -1.05670E+06              0.     32.4165E+06
           23852     5.48247E+06    -1.02281E+06              0.     32.7787E+06
           23853     5.68759E+06    -977.975E+03              0.     33.0945E+06
           23854     5.89211E+06    -920.451E+03              0.     33.3583E+06
           23855     6.09455E+06    -848.228E+03              0.     33.5642E+06
           23856     6.29321E+06    -759.018E+03              0.     33.7059E+06
           23857     6.48611E+06    -650.213E+03              0.     33.7766E+06
           23858     6.67094E+06    -518.844E+03              0.     33.7690E+06
           23859     6.84505E+06    -361.533E+03              0.     33.6752E+06
           23860     7.00541E+06    -174.435E+03              0.     33.4870E+06
           23861     7.14852E+06     46.8104E+03              0.     33.1953E+06
           23862     7.27041E+06     307.161E+03              0.     32.7906E+06
           23863     7.36656E+06     612.237E+03              0.     32.2629E+06
           23864     7.43181E+06     968.403E+03              0.     31.6014E+06
           23865     7.46033E+06     1.38288E+06              0.     30.7946E+06
           23866     7.44551E+06     1.86383E+06              0.     29.8304E+06
           23867     7.37990E+06     2.42048E+06              0.     28.6961E+06
           23868     7.25508E+06     3.06328E+06              0.     27.3781E+06
           23869     7.06157E+06     3.80400E+06              0.     25.8622E+06
           23870     7.25005E+06     4.60994E+06              0.     25.6690E+06
           23871    -181.624E+03    -80.4644E+03              0.    -952.533E+03
           23872    -181.556E+03    -79.9024E+03              0.    -950.902E+03
           23873    -181.719E+03    -79.4592E+03              0.    -942.269E+03
           23874    -181.883E+03    -79.0129E+03              0.    -933.870E+03
           23875    -182.046E+03    -78.5647E+03              0.    -925.707E+03
           23876    -182.207E+03    -78.1158E+03              0.    -917.779E+03
           23877    -182.366E+03    -77.6675E+03              0.    -910.087E+03
           23878    -182.522E+03    -77.2208E+03              0.    -902.629E+03
           23879    -182.674E+03    -76.7769E+03              0.    -895.405E+03
           23880    -182.822E+03    -76.3367E+03              0.    -888.413E+03
           23881    -182.964E+03    -75.9013E+03              0.    -881.649E+03
           23882    -183.101E+03    -75.4715E+03              0.    -875.111E+03
           23883    -183.231E+03    -75.0484E+03              0.    -868.797E+03
           23884    -183.354E+03    -74.6328E+03              0.    -862.701E+03
           23885    -183.469E+03    -74.2255E+03              0.    -856.820E+03
           23886    -183.576E+03    -73.8274E+03              0.    -851.149E+03
           23887    -183.674E+03    -73.4393E+03              0.    -845.683E+03
           23888    -183.762E+03    -73.0618E+03              0.    -840.417E+03
           23889    -183.841E+03    -72.6959E+03              0.    -835.345E+03
           23890    -183.908E+03    -72.3421E+03              0.    -830.460E+03
           23891    -183.964E+03    -72.0012E+03              0.    -825.756E+03
           23892    -184.008E+03    -71.6740E+03              0.    -821.226E+03
           23893    -184.040E+03    -71.3610E+03              0.    -816.864E+03
           23894    -184.058E+03    -71.0630E+03              0.     -812.66E+03
           23895    -184.063E+03    -70.7807E+03              0.    -808.608E+03
           23896    -184.053E+03    -70.5146E+03              0.    -804.699E+03
           23897    -184.028E+03    -70.2655E+03              0.    -800.925E+03
           23898    -183.988E+03    -70.0340E+03              0.    -797.276E+03
           23899    -183.931E+03    -69.8207E+03              0.    -793.743E+03
           23900    -183.857E+03    -69.6263E+03              0.    -790.318E+03
           23901    -183.765E+03    -69.4515E+03              0.    -786.989E+03
           23902    -183.654E+03    -69.2968E+03              0.    -783.747E+03
           23903    -183.525E+03    -69.1630E+03              0.    -780.581E+03
           23904    -183.375E+03    -69.0508E+03              0.    -777.480E+03
           23905    -183.205E+03    -68.9607E+03              0.    -774.434E+03
           23906    -183.013E+03    -68.8935E+03              0.    -771.430E+03
           23907    -182.798E+03    -68.8499E+03              0.    -768.456E+03
           23908    -182.560E+03    -68.8306E+03              0.    -765.500E+03
           23909    -182.298E+03    -68.8362E+03              0.    -762.550E+03
           23910    -182.011E+03    -68.8676E+03              0.    -759.593E+03
           23911    -181.698E+03    -68.9254E+03              0.    -756.615E+03
           23912    -181.357E+03    -69.0104E+03              0.    -753.602E+03
           23913    -180.989E+03    -69.1235E+03              0.    -750.541E+03
           23914    -180.591E+03    -69.2654E+03              0.    -747.416E+03
           23915    -180.163E+03    -69.4370E+03              0.    -744.213E+03
           23916    -179.703E+03    -69.6390E+03              0.    -740.917E+03
           23917    -179.210E+03    -69.8724E+03              0.    -737.510E+03
           23918    -178.684E+03    -70.1380E+03              0.    -733.978E+03
           23919    -178.122E+03    -70.4369E+03              0.    -730.304E+03
           23920    -177.523E+03    -70.7698E+03              0.    -726.469E+03
           23921    -176.887E+03    -71.1379E+03              0.    -722.457E+03
           23922    -176.211E+03    -71.5421E+03              0.    -718.249E+03
           23923    -175.494E+03    -71.9835E+03              0.    -713.826E+03
           23924    -174.734E+03    -72.4631E+03              0.    -709.170E+03
           23925    -173.930E+03    -72.9820E+03              0.    -704.259E+03
           23926    -173.080E+03    -73.5415E+03              0.    -699.074E+03
           23927    -172.182E+03    -74.1426E+03              0.    -693.594E+03
           23928    -171.235E+03    -74.7866E+03              0.    -687.797E+03
           23929    -170.236E+03    -75.4748E+03              0.    -681.660E+03
           23930    -169.183E+03    -76.2085E+03              0.    -675.161E+03
           23931    -168.075E+03    -76.9889E+03              0.    -668.275E+03
           23932    -166.910E+03    -77.8176E+03              0.    -660.980E+03
           23933    -165.684E+03    -78.6959E+03              0.    -653.248E+03
           23934    -164.396E+03    -79.6253E+03              0.    -645.056E+03
           23935    -163.043E+03    -80.6074E+03              0.    -636.375E+03
           23936    -161.622E+03    -81.6436E+03              0.    -627.179E+03
           23937    -160.132E+03    -82.7358E+03              0.    -617.439E+03
           23938    -158.569E+03    -83.8855E+03              0.    -607.126E+03
           23939    -156.931E+03    -85.0945E+03              0.    -596.211E+03
           23940    -155.214E+03    -86.3646E+03              0.    -584.662E+03
           23941    -153.416E+03    -87.6977E+03              0.    -572.447E+03
           23942    -151.533E+03    -89.0956E+03              0.    -559.533E+03
           23943    -149.562E+03    -90.5604E+03              0.    -545.888E+03
           23944    -147.500E+03    -92.0940E+03              0.    -531.475E+03
           23945    -145.343E+03    -93.6987E+03              0.    -516.259E+03
           23946    -143.086E+03    -95.3766E+03              0.    -500.203E+03
           23947    -140.728E+03    -97.1299E+03              0.    -483.268E+03
           23948    -138.262E+03    -98.9609E+03              0.    -465.416E+03
           23949    -135.686E+03    -100.872E+03              0.    -446.606E+03
           23950    -132.994E+03    -102.866E+03              0.    -426.795E+03
           23951    -130.183E+03    -104.945E+03              0.    -405.941E+03
           23952    -127.247E+03    -107.111E+03              0.    -384.000E+03
           23953    -124.182E+03    -109.368E+03              0.    -360.925E+03
           23954    -120.982E+03    -111.719E+03              0.    -336.669E+03
           23955    -117.643E+03    -114.165E+03              0.    -311.184E+03
           23956    -114.158E+03    -116.710E+03              0.    -284.419E+03
           23957    -110.522E+03    -119.358E+03              0.    -256.324E+03
           23958    -106.730E+03    -122.111E+03              0.    -226.843E+03
           23959    -102.774E+03    -124.972E+03              0.    -195.924E+03
           23960    -98.6480E+03    -127.945E+03              0.    -163.508E+03
           23961    -94.3460E+03    -131.033E+03              0.    -129.539E+03
           23962    -89.8607E+03    -134.239E+03              0.    -93.9549E+03
           23963    -85.1847E+03    -137.568E+03              0.    -56.6950E+03
           23964    -80.3105E+03    -141.023E+03              0.    -17.6953E+03
           23965    -75.2301E+03    -144.608E+03              0.     23.1098E+03
           23966    -69.9355E+03    -148.326E+03              0.     65.7879E+03
           23967    -64.4180E+03    -152.182E+03              0.     110.409E+03
           23968    -58.6687E+03    -156.180E+03              0.     157.044E+03
           23969    -52.6783E+03    -160.324E+03              0.     205.767E+03
           23970    -46.4373E+03    -164.619E+03              0.     256.654E+03
           23971    -39.9356E+03    -169.069E+03              0.     309.783E+03
           23972    -33.1628E+03    -173.678E+03              0.     365.234E+03
           23973    -26.1078E+03    -178.451E+03              0.     423.091E+03
           23974    -18.7594E+03    -183.394E+03              0.     483.439E+03
           23975    -11.1058E+03    -188.511E+03              0.     546.364E+03
           23976    -3.13453E+03    -193.807E+03              0.     611.958E+03
           23977     5.16715E+03    -199.288E+03              0.     680.312E+03
           23978     13.8127E+03    -204.959E+03              0.     751.522E+03
           23979     22.8160E+03    -210.824E+03              0.     825.686E+03
           23980     32.1916E+03    -216.891E+03              0.     902.904E+03
           23981     41.9548E+03    -223.165E+03              0.     983.279E+03
           23982     52.1213E+03    -229.650E+03              0.     1.06692E+06
           23983     62.7078E+03    -236.355E+03              0.     1.15393E+06
           23984     73.7313E+03    -243.284E+03              0.     1.24442E+06
           23985     85.2098E+03    -250.445E+03              0.     1.33851E+06
           23986     97.1622E+03    -257.842E+03              0.     1.43632E+06
           23987     109.608E+03    -265.484E+03              0.     1.53797E+06
           23988     122.567E+03    -273.376E+03              0.     1.64357E+06
           23989     136.062E+03    -281.526E+03              0.     1.75326E+06
           23990     150.114E+03    -289.941E+03              0.     1.86717E+06
           23991     164.747E+03    -298.627E+03              0.     1.98543E+06
           23992     179.984E+03    -307.591E+03              0.     2.10817E+06
           23993     195.852E+03    -316.842E+03              0.     2.23553E+06
           23994     212.377E+03    -326.387E+03              0.     2.36767E+06
           23995     229.585E+03    -336.232E+03              0.     2.50471E+06
           23996     247.508E+03    -346.386E+03              0.     2.64681E+06
           23997     266.173E+03    -356.858E+03              0.     2.79412E+06
           23998     285.614E+03    -367.653E+03              0.     2.94680E+06
           23999     305.862E+03    -378.782E+03              0.     3.10500E+06
           24000     326.953E+03    -390.251E+03              0.     3.26888E+06
           24001     348.923E+03    -402.069E+03              0.     3.43860E+06
           24002     371.808E+03    -414.244E+03              0.     3.61434E+06
           24003     395.649E+03    -426.785E+03              0.     3.79626E+06
           24004     420.487E+03    -439.699E+03              0.     3.98453E+06
           24005     446.365E+03    -452.996E+03              0.     4.17933E+06
           24006     473.327E+03    -466.684E+03              0.     4.38083E+06
           24007     501.421E+03    -480.771E+03              0.     4.58920E+06
           24008     530.696E+03    -495.266E+03              0.     4.80464E+06
           24009     561.204E+03    -510.176E+03              0.     5.02732E+06
           24010     592.998E+03    -525.511E+03              0.     5.25742E+06
           24011     626.134E+03    -541.279E+03              0.     5.49514E+06
           24012     660.672E+03    -557.487E+03              0.     5.74064E+06
           24013     696.672E+03    -574.144E+03              0.     5.99413E+06
           24014     734.200E+03    -591.257E+03              0.     6.25579E+06
           24015     773.322E+03    -608.833E+03              0.     6.52579E+06
           24016     814.108E+03    -626.881E+03              0.     6.80434E+06
           24017     856.632E+03    -645.407E+03              0.     7.09161E+06
           24018     900.971E+03    -664.418E+03              0.     7.38778E+06
           24019     947.204E+03    -683.919E+03              0.     7.69303E+06
           24020     995.415E+03    -703.916E+03              0.     8.00754E+06
           24021     1.04569E+06    -724.413E+03              0.     8.33149E+06
           24022     1.09812E+06    -745.416E+03              0.     8.66503E+06
           24023     1.15281E+06    -766.927E+03              0.     9.00834E+06
           24024     1.20984E+06    -788.949E+03              0.     9.36156E+06
           24025     1.26933E+06    -811.484E+03              0.     9.72485E+06
           24026     1.33138E+06    -834.530E+03              0.     10.0984E+06
           24027     1.39610E+06    -858.089E+03              0.     10.4822E+06
           24028     1.46361E+06    -882.155E+03              0.     10.8765E+06
           24029     1.53403E+06    -906.726E+03              0.     11.2813E+06
           24030     1.60748E+06    -931.795E+03              0.     11.6968E+06
           24031     1.68411E+06    -957.354E+03              0.     12.1230E+06
           24032     1.76403E+06    -983.391E+03              0.     12.5600E+06
           24033     1.84739E+06    -1.00989E+06              0.     13.0078E+06
           24034     1.93434E+06    -1.03684E+06              0.     13.4664E+06
           24035     2.02502E+06    -1.06422E+06              0.     13.9359E+06
           24036     2.11960E+06    -1.09200E+06              0.     14.4161E+06
           24037     2.21822E+06    -1.12016E+06              0.     14.9070E+06
           24038     2.32105E+06    -1.14865E+06              0.     15.4086E+06
           24039     2.42826E+06    -1.17745E+06              0.     15.9206E+06
           24040     2.54001E+06    -1.20651E+06              0.     16.4429E+06
           24041     2.65649E+06    -1.23577E+06              0.     16.9752E+06
           24042     2.77787E+06    -1.26517E+06              0.     17.5174E+06
           24043     2.90434E+06    -1.29465E+06              0.     18.0691E+06
           24044     3.03606E+06    -1.32412E+06              0.     18.6298E+06
           24045     3.17322E+06    -1.35350E+06              0.     19.1993E+06
           24046     3.31601E+06    -1.38268E+06              0.     19.7769E+06
           24047     3.46461E+06    -1.41154E+06              0.     20.3621E+06
           24048     3.61919E+06    -1.43996E+06              0.     20.9542E+06
           24049     3.77993E+06    -1.46777E+06              0.     21.5525E+06
           24050       3.947E+06    -1.49481E+06              0.     22.1562E+06
           24051     4.12055E+06    -1.52089E+06              0.     22.7643E+06
           24052     4.30074E+06    -1.54578E+06              0.     23.3758E+06
           24053     4.48770E+06    -1.56923E+06              0.     23.9896E+06
           24054     4.68155E+06    -1.59097E+06              0.     24.6043E+06
           24055     4.88239E+06    -1.61067E+06              0.     25.2186E+06
           24056     5.09030E+06    -1.62798E+06              0.     25.8309E+06
           24057     5.30532E+06    -1.64250E+06              0.     26.4395E+06
           24058     5.52747E+06    -1.65375E+06              0.     27.0425E+06
           24059     5.75671E+06    -1.66124E+06              0.     27.6379E+06
           24060     5.99298E+06    -1.66437E+06              0.     28.2235E+06
           24061     6.23615E+06    -1.66248E+06              0.     28.7967E+06
           24062     6.48602E+06    -1.65485E+06              0.     29.3550E+06
           24063     6.74233E+06    -1.64062E+06              0.     29.8954E+06
           24064     7.00475E+06    -1.61885E+06              0.     30.4148E+06
           24065     7.27282E+06    -1.58849E+06              0.     30.9097E+06
           24066     7.54599E+06    -1.54834E+06              0.     31.3766E+06
           24067     7.82361E+06    -1.49703E+06              0.     31.8113E+06
           24068     8.10485E+06    -1.43306E+06              0.     32.2097E+06
           24069     8.38875E+06    -1.35469E+06              0.     32.5669E+06
           24070     8.67416E+06    -1.26001E+06              0.     32.8781E+06
           24071     8.95973E+06    -1.14682E+06              0.     33.1378E+06
           24072     9.24387E+06    -1.01268E+06              0.     33.3403E+06
           24073     9.52475E+06    -854.816E+03              0.     33.4794E+06
           24074     9.80026E+06    -670.120E+03              0.     33.5483E+06
           24075     10.0680E+06    -455.086E+03              0.     33.5401E+06
           24076     10.3250E+06    -205.772E+03              0.     33.4470E+06
           24077     10.5682E+06     82.2642E+03              0.     33.2609E+06
           24078     10.7939E+06     414.011E+03              0.     32.9733E+06
           24079     10.9980E+06     795.088E+03              0.     32.5750E+06
           24080     11.1756E+06     1.23181E+06              0.     32.0560E+06
           24081     11.3215E+06     1.73125E+06              0.     31.4062E+06
           24082     11.4296E+06     2.30142E+06              0.     30.6146E+06
           24083     11.4931E+06     2.95123E+06              0.     29.6695E+06
           24084     11.5043E+06     3.69076E+06              0.     28.5588E+06
           24085     11.4546E+06     4.53128E+06              0.     27.2698E+06
           24086     11.3343E+06     5.48540E+06              0.     25.7888E+06
           24087     11.6185E+06     6.53643E+06              0.     25.6208E+06
           24088    -201.708E+03    -89.5041E+03              0.    -952.288E+03
           24089    -201.610E+03    -88.6536E+03              0.    -950.658E+03
           24090    -201.868E+03    -87.9759E+03              0.    -942.024E+03
           24091    -202.126E+03    -87.2938E+03              0.    -933.626E+03
           24092    -202.382E+03    -86.6091E+03              0.    -925.465E+03
           24093    -202.636E+03    -85.9237E+03              0.    -917.540E+03
           24094    -202.886E+03    -85.2395E+03              0.    -909.852E+03
           24095    -203.132E+03     -84.558E+03              0.    -902.400E+03
           24096    -203.371E+03    -83.8809E+03              0.    -895.181E+03
           24097    -203.603E+03    -83.2098E+03              0.    -888.195E+03
           24098    -203.827E+03    -82.5461E+03              0.    -881.439E+03
           24099    -204.043E+03    -81.8912E+03              0.    -874.910E+03
           24100    -204.248E+03    -81.2465E+03              0.    -868.604E+03
           24101    -204.442E+03    -80.6134E+03              0.    -862.518E+03
           24102    -204.625E+03    -79.9930E+03              0.    -856.648E+03
           24103    -204.794E+03    -79.3867E+03              0.    -850.988E+03
           24104    -204.950E+03    -78.7956E+03              0.    -845.534E+03
           24105    -205.092E+03    -78.2208E+03              0.    -840.281E+03
           24106    -205.218E+03    -77.6635E+03              0.    -835.222E+03
           24107    -205.327E+03    -77.1248E+03              0.    -830.351E+03
           24108    -205.419E+03    -76.6057E+03              0.    -825.663E+03
           24109    -205.493E+03    -76.1073E+03              0.    -821.149E+03
           24110    -205.548E+03    -75.6306E+03              0.    -816.803E+03
           24111    -205.583E+03    -75.1766E+03              0.    -812.617E+03
           24112    -205.597E+03    -74.7463E+03              0.    -808.583E+03
           24113    -205.589E+03    -74.3408E+03              0.    -804.693E+03
           24114    -205.558E+03    -73.9609E+03              0.    -800.938E+03
           24115    -205.504E+03    -73.6077E+03              0.    -797.310E+03
           24116    -205.424E+03    -73.2821E+03              0.    -793.799E+03
           24117    -205.319E+03    -72.9851E+03              0.    -790.396E+03
           24118    -205.186E+03    -72.7178E+03              0.    -787.090E+03
           24119    -205.025E+03    -72.4810E+03              0.    -783.872E+03
           24120    -204.836E+03    -72.2757E+03              0.    -780.732E+03
           24121    -204.615E+03    -72.1031E+03              0.    -777.657E+03
           24122    -204.364E+03    -71.9640E+03              0.    -774.637E+03
           24123    -204.079E+03    -71.8595E+03              0.    -771.661E+03
           24124    -203.760E+03    -71.7906E+03              0.    -768.717E+03
           24125    -203.406E+03    -71.7584E+03              0.    -765.792E+03
           24126    -203.016E+03    -71.7641E+03              0.    -762.873E+03
           24127    -202.587E+03    -71.8086E+03              0.    -759.949E+03
           24128    -202.118E+03    -71.8931E+03              0.    -757.005E+03
           24129    -201.609E+03    -72.0188E+03              0.    -754.027E+03
           24130    -201.056E+03    -72.1868E+03              0.    -751.002E+03
           24131    -200.459E+03    -72.3984E+03              0.    -747.916E+03
           24132    -199.817E+03    -72.6548E+03              0.    -744.752E+03
           24133    -199.126E+03    -72.9572E+03              0.    -741.496E+03
           24134    -198.386E+03    -73.3071E+03              0.    -738.133E+03
           24135    -197.594E+03    -73.7057E+03              0.    -734.645E+03
           24136    -196.749E+03    -74.1545E+03              0.    -731.016E+03
           24137    -195.848E+03    -74.6548E+03              0.    -727.229E+03
           24138    -194.889E+03    -75.2082E+03              0.    -723.266E+03
           24139    -193.870E+03    -75.8162E+03              0.    -719.109E+03
           24140    -192.789E+03    -76.4804E+03              0.    -714.740E+03
           24141    -191.644E+03    -77.2023E+03              0.    -710.138E+03
           24142    -190.431E+03    -77.9837E+03              0.    -705.285E+03
           24143    -189.149E+03    -78.8263E+03              0.    -700.160E+03
           24144    -187.794E+03    -79.7319E+03              0.    -694.741E+03
           24145    -186.364E+03    -80.7024E+03              0.    -689.008E+03
           24146    -184.855E+03    -81.7396E+03              0.    -682.938E+03
           24147    -183.266E+03    -82.8455E+03              0.    -676.509E+03
           24148    -181.592E+03    -84.0221E+03              0.    -669.695E+03
           24149    -179.831E+03    -85.2716E+03              0.    -662.474E+03
           24150    -177.978E+03    -86.5962E+03              0.    -654.821E+03
           24151    -176.031E+03    -87.9980E+03              0.    -646.709E+03
           24152    -173.986E+03    -89.4794E+03              0.    -638.112E+03
           24153    -171.839E+03    -91.0428E+03              0.    -629.003E+03
           24154    -169.586E+03    -92.6907E+03              0.    -619.354E+03
           24155    -167.223E+03    -94.4255E+03              0.    -609.135E+03
           24156    -164.745E+03    -96.2501E+03              0.    -598.317E+03
           24157    -162.149E+03    -98.1670E+03              0.    -586.869E+03
           24158    -159.429E+03    -100.179E+03              0.    -574.759E+03
           24159    -156.580E+03    -102.289E+03              0.    -561.955E+03
           24160    -153.598E+03    -104.501E+03              0.    -548.423E+03
           24161    -150.478E+03    -106.816E+03              0.    -534.128E+03
           24162    -147.214E+03    -109.239E+03              0.    -519.035E+03
           24163    -143.800E+03    -111.773E+03              0.    -503.106E+03
           24164    -140.231E+03    -114.420E+03              0.    -486.303E+03
           24165    -136.501E+03    -117.185E+03              0.    -468.588E+03
           24166    -132.602E+03    -120.072E+03              0.    -449.920E+03
           24167    -128.530E+03    -123.083E+03              0.    -430.258E+03
           24168    -124.276E+03    -126.223E+03              0.    -409.558E+03
           24169    -119.834E+03    -129.496E+03              0.    -387.776E+03
           24170    -115.197E+03    -132.905E+03              0.    -364.866E+03
           24171    -110.357E+03    -136.456E+03              0.    -340.783E+03
           24172    -105.305E+03    -140.152E+03              0.    -315.477E+03
           24173    -100.034E+03    -143.997E+03              0.    -288.898E+03
           24174    -94.5352E+03    -147.997E+03              0.    -260.995E+03
           24175    -88.7996E+03    -152.156E+03              0.    -231.715E+03
           24176    -82.8179E+03    -156.479E+03              0.    -201.003E+03
           24177    -76.5805E+03    -160.971E+03              0.    -168.803E+03
           24178    -70.0774E+03    -165.637E+03              0.    -135.058E+03
           24179    -63.2983E+03    -170.482E+03              0.    -99.7065E+03
           24180    -56.2323E+03    -175.513E+03              0.    -62.6881E+03
           24181    -48.8682E+03    -180.733E+03              0.    -23.9392E+03
           24182    -41.1944E+03    -186.150E+03              0.     16.6056E+03
           24183    -33.1987E+03    -191.769E+03              0.     59.0134E+03
           24184    -24.8685E+03    -197.596E+03              0.     103.353E+03
           24185    -16.1908E+03    -203.637E+03              0.     149.697E+03
           24186    -7.15177E+03    -209.899E+03              0.     198.118E+03
           24187     2.26258E+03    -216.388E+03              0.     248.691E+03
           24188     12.0670E+03    -223.111E+03              0.     301.494E+03
           24189     22.2769E+03    -230.075E+03              0.     356.607E+03
           24190     32.9081E+03    -237.287E+03              0.     414.113E+03
           24191     43.9772E+03    -244.754E+03              0.     474.096E+03
           24192     55.5014E+03    -252.484E+03              0.     536.643E+03
           24193     67.4986E+03    -260.484E+03              0.     601.844E+03
           24194     79.9875E+03    -268.762E+03              0.     669.791E+03
           24195     92.9874E+03    -277.326E+03              0.     740.578E+03
           24196     106.518E+03    -286.184E+03              0.     814.302E+03
           24197     120.602E+03    -295.344E+03              0.     891.064E+03
           24198     135.259E+03    -304.815E+03              0.     970.966E+03
           24199     150.513E+03    -314.606E+03              0.     1.05411E+06
           24200     166.387E+03    -324.725E+03              0.     1.14061E+06
           24201     182.906E+03    -335.181E+03              0.     1.23058E+06
           24202     200.096E+03    -345.984E+03              0.     1.32412E+06
           24203     217.982E+03    -357.143E+03              0.     1.42136E+06
           24204     236.593E+03    -368.668E+03              0.     1.52242E+06
           24205     255.958E+03    -380.567E+03              0.     1.62741E+06
           24206     276.107E+03    -392.852E+03              0.     1.73646E+06
           24207     297.071E+03    -405.531E+03              0.     1.84971E+06
           24208     318.882E+03    -418.616E+03              0.     1.96728E+06
           24209     341.574E+03    -432.116E+03              0.     2.08931E+06
           24210     365.183E+03    -446.043E+03              0.     2.21594E+06
           24211     389.746E+03    -460.405E+03              0.     2.34730E+06
           24212     415.300E+03    -475.215E+03              0.     2.48355E+06
           24213     441.886E+03    -490.483E+03              0.     2.62482E+06
           24214     469.545E+03    -506.220E+03              0.     2.77128E+06
           24215     498.320E+03    -522.436E+03              0.     2.92306E+06
           24216     528.256E+03    -539.143E+03              0.     3.08034E+06
           24217     559.401E+03    -556.352E+03              0.     3.24326E+06
           24218     591.803E+03    -574.073E+03              0.     3.41200E+06
           24219     625.513E+03    -592.318E+03              0.     3.58670E+06
           24220     660.583E+03    -611.097E+03              0.     3.76755E+06
           24221     697.071E+03    -630.422E+03              0.     3.95471E+06
           24222     735.032E+03    -650.303E+03              0.     4.14835E+06
           24223     774.527E+03    -670.752E+03              0.     4.34865E+06
           24224     815.618E+03    -691.777E+03              0.     4.55579E+06
           24225     858.370E+03    -713.389E+03              0.     4.76994E+06
           24226     902.851E+03    -735.600E+03              0.     4.99128E+06
           24227     949.133E+03    -758.417E+03              0.     5.21999E+06
           24228     997.287E+03    -781.850E+03              0.     5.45626E+06
           24229     1.04739E+06    -805.908E+03              0.     5.70028E+06
           24230     1.09952E+06    -830.600E+03              0.     5.95221E+06
           24231     1.15377E+06    -855.933E+03              0.     6.21226E+06
           24232     1.21021E+06    -881.913E+03              0.     6.48059E+06
           24233     1.26894E+06    -908.548E+03              0.     6.75740E+06
           24234     1.33006E+06    -935.842E+03              0.     7.04287E+06
           24235     1.39365E+06    -963.800E+03              0.     7.33717E+06
           24236     1.45983E+06    -992.424E+03              0.     7.64049E+06
           24237     1.52868E+06    -1.02172E+06              0.     7.95299E+06
           24238     1.60034E+06    -1.05168E+06              0.     8.27484E+06
           24239     1.67490E+06    -1.08231E+06              0.     8.60622E+06
           24240     1.75249E+06    -1.11361E+06              0.     8.94728E+06
           24241     1.83323E+06    -1.14557E+06              0.     9.29817E+06
           24242     1.91724E+06    -1.17818E+06              0.     9.65904E+06
           24243     2.00466E+06    -1.21143E+06              0.     10.0300E+06
           24244     2.09562E+06    -1.24532E+06              0.     10.4112E+06
           24245     2.19027E+06    -1.27983E+06              0.     10.8028E+06
           24246     2.28876E+06    -1.31494E+06              0.     11.2049E+06
           24247     2.39122E+06    -1.35062E+06              0.     11.6174E+06
           24248     2.49782E+06    -1.38686E+06              0.     12.0406E+06
           24249     2.60873E+06    -1.42362E+06              0.     12.4745E+06
           24250     2.72410E+06    -1.46086E+06              0.     12.9191E+06
           24251     2.84410E+06    -1.49855E+06              0.     13.3743E+06
           24252     2.96892E+06    -1.53665E+06              0.     13.8403E+06
           24253     3.09874E+06    -1.57509E+06              0.     14.3169E+06
           24254     3.23374E+06    -1.61381E+06              0.     14.8041E+06
           24255     3.37410E+06    -1.65276E+06              0.     15.3017E+06
           24256     3.52002E+06    -1.69184E+06              0.     15.8097E+06
           24257     3.67170E+06    -1.73098E+06              0.     16.3279E+06
           24258     3.82934E+06    -1.77007E+06              0.     16.8560E+06
           24259     3.99314E+06    -1.80902E+06              0.     17.3937E+06
           24260     4.16331E+06    -1.84768E+06              0.     17.9407E+06
           24261     4.34004E+06    -1.88592E+06              0.     18.4968E+06
           24262     4.52354E+06    -1.92360E+06              0.     19.0613E+06
           24263     4.71402E+06    -1.96053E+06              0.     19.6338E+06
           24264     4.91168E+06    -1.99652E+06              0.     20.2138E+06
           24265     5.11670E+06    -2.03136E+06              0.     20.8005E+06
           24266     5.32930E+06    -2.06481E+06              0.     21.3932E+06
           24267     5.54963E+06    -2.09660E+06              0.     21.9912E+06
           24268     5.77789E+06    -2.12644E+06              0.     22.5934E+06
           24269     6.01422E+06    -2.15398E+06              0.     23.1989E+06
           24270     6.25878E+06    -2.17886E+06              0.     23.8064E+06
           24271     6.51168E+06    -2.20068E+06              0.     24.4148E+06
           24272     6.77303E+06    -2.21896E+06              0.     25.0226E+06
           24273     7.04290E+06    -2.23321E+06              0.     25.6283E+06
           24274     7.32133E+06    -2.24285E+06              0.     26.2302E+06
           24275     7.60833E+06    -2.24726E+06              0.     26.8263E+06
           24276     7.90385E+06    -2.24572E+06              0.     27.4148E+06
           24277     8.20781E+06    -2.23745E+06              0.     27.9933E+06
           24278     8.52004E+06    -2.22159E+06              0.     28.5595E+06
           24279     8.84033E+06    -2.19716E+06              0.     29.1107E+06
           24280     9.16839E+06    -2.16308E+06              0.     29.6440E+06
           24281     9.50382E+06    -2.11813E+06              0.     30.1564E+06
           24282     9.84613E+06    -2.06098E+06              0.     30.6445E+06
           24283     10.1947E+06    -1.99013E+06              0.     31.1047E+06
           24284     10.5489E+06    -1.90389E+06              0.     31.5329E+06
           24285     10.9077E+06    -1.80042E+06              0.     31.9251E+06
           24286     11.2701E+06    -1.67763E+06              0.     32.2766E+06
           24287     11.6349E+06    -1.53319E+06              0.     32.5825E+06
           24288     12.0006E+06    -1.36452E+06              0.     32.8376E+06
           24289     12.3656E+06    -1.16873E+06              0.     33.0362E+06
           24290     12.7279E+06    -942.593E+03              0.     33.1723E+06
           24291     13.0852E+06    -682.511E+03              0.     33.2393E+06
           24292     13.4350E+06    -384.464E+03              0.     33.2305E+06
           24293     13.7743E+06    -43.9697E+03              0.     33.1383E+06
           24294     14.0998E+06     343.986E+03              0.     32.9549E+06
           24295     14.4076E+06     784.988E+03              0.     32.6720E+06
           24296     14.6935E+06     1.28528E+06              0.     32.2808E+06
           24297     14.9525E+06     1.85184E+06              0.     31.7718E+06
           24298     15.1790E+06     2.49243E+06              0.     31.1351E+06
           24299     15.3670E+06     3.21573E+06              0.     30.3602E+06
           24300     15.5093E+06     4.03143E+06              0.     29.4362E+06
           24301     15.5982E+06     4.95034E+06              0.     28.3514E+06
           24302     15.6247E+06     5.98451E+06              0.     27.0937E+06
           24303     15.5792E+06     7.14740E+06              0.     25.6504E+06
           24304     15.9576E+06     8.43734E+06              0.     25.5074E+06
           24305    -221.796E+03    -98.5463E+03              0.    -951.949E+03
           24306    -221.668E+03    -97.4056E+03              0.    -950.318E+03
           24307    -222.021E+03    -96.4921E+03              0.    -941.684E+03
           24308    -222.374E+03    -95.5729E+03              0.    -933.288E+03
           24309    -222.725E+03    -94.6506E+03              0.    -925.130E+03
           24310    -223.072E+03    -93.7276E+03              0.    -917.209E+03
           24311    -223.413E+03    -92.8063E+03              0.    -909.527E+03
           24312    -223.748E+03    -91.8890E+03              0.    -902.081E+03
           24313    -224.075E+03    -90.9777E+03              0.    -894.871E+03
           24314    -224.393E+03    -90.0746E+03              0.    -887.894E+03
           24315    -224.699E+03    -89.1816E+03              0.    -881.148E+03
           24316    -224.994E+03    -88.3006E+03              0.    -874.631E+03
           24317    -225.275E+03    -87.4335E+03              0.    -868.338E+03
           24318    -225.541E+03    -86.5819E+03              0.    -862.265E+03
           24319    -225.792E+03    -85.7475E+03              0.    -856.410E+03
           24320    -226.025E+03    -84.9321E+03              0.    -850.766E+03
           24321    -226.239E+03    -84.1371E+03              0.    -845.329E+03
           24322    -226.435E+03    -83.3641E+03              0.    -840.094E+03
           24323    -226.609E+03    -82.6146E+03              0.    -835.054E+03
           24324    -226.761E+03    -81.8900E+03              0.    -830.204E+03
           24325    -226.891E+03    -81.1917E+03              0.    -825.536E+03
           24326    -226.995E+03    -80.5212E+03              0.    -821.044E+03
           24327    -227.074E+03    -79.8799E+03              0.    -816.722E+03
           24328    -227.127E+03    -79.2689E+03              0.    -812.560E+03
           24329    -227.151E+03    -78.6898E+03              0.    -808.551E+03
           24330    -227.146E+03    -78.1438E+03              0.    -804.688E+03
           24331    -227.110E+03    -77.6321E+03              0.    -800.961E+03
           24332    -227.042E+03    -77.1562E+03              0.    -797.362E+03
           24333    -226.941E+03    -76.7173E+03              0.    -793.881E+03
           24334    -226.805E+03    -76.3167E+03              0.    -790.509E+03
           24335    -226.633E+03    -75.9557E+03              0.    -787.236E+03
           24336    -226.423E+03    -75.6356E+03              0.    -784.052E+03
           24337    -226.175E+03    -75.3577E+03              0.    -780.946E+03
           24338    -225.885E+03    -75.1234E+03              0.    -777.909E+03
           24339    -225.554E+03    -74.9341E+03              0.    -774.927E+03
           24340    -225.178E+03    -74.7910E+03              0.    -771.990E+03
           24341    -224.757E+03    -74.6955E+03              0.    -769.087E+03
           24342    -224.288E+03    -74.6492E+03              0.    -766.204E+03
           24343    -223.771E+03    -74.6534E+03              0.    -763.330E+03
           24344    -223.202E+03    -74.7095E+03              0.    -760.451E+03
           24345    -222.580E+03    -74.8192E+03              0.    -757.555E+03
           24346    -221.903E+03    -74.9839E+03              0.    -754.627E+03
           24347    -221.169E+03    -75.2052E+03              0.    -751.653E+03
           24348    -220.376E+03    -75.4848E+03              0.     -748.62E+03
           24349    -219.521E+03    -75.8242E+03              0.    -745.512E+03
           24350    -218.602E+03    -76.2253E+03              0.    -742.313E+03
           24351    -217.616E+03    -76.6897E+03              0.    -739.010E+03
           24352    -216.561E+03    -77.2192E+03              0.    -735.583E+03
           24353    -215.435E+03    -77.8158E+03              0.    -732.019E+03
           24354    -214.235E+03    -78.4814E+03              0.    -728.299E+03
           24355    -212.957E+03    -79.2179E+03              0.    -724.405E+03
           24356    -211.598E+03    -80.0273E+03              0.    -720.320E+03
           24357    -210.157E+03    -80.9118E+03              0.    -716.026E+03
           24358    -208.629E+03    -81.8736E+03              0.    -711.502E+03
           24359    -207.011E+03    -82.9149E+03              0.    -706.729E+03
           24360    -205.300E+03    -84.0379E+03              0.    -701.688E+03
           24361    -203.492E+03    -85.2451E+03              0.    -696.356E+03
           24362    -201.583E+03    -86.5390E+03              0.    -690.714E+03
           24363    -199.569E+03    -87.9222E+03              0.    -684.737E+03
           24364    -197.447E+03    -89.3972E+03              0.    -678.405E+03
           24365    -195.212E+03    -90.9667E+03              0.    -671.693E+03
           24366    -192.860E+03    -92.6336E+03              0.    -664.577E+03
           24367    -190.386E+03    -94.4009E+03              0.    -657.032E+03
           24368    -187.785E+03    -96.2714E+03              0.    -649.034E+03
           24369    -185.053E+03    -98.2483E+03              0.    -640.555E+03
           24370    -182.185E+03    -100.335E+03              0.    -631.568E+03
           24371    -179.174E+03    -102.534E+03              0.    -622.046E+03
           24372    -176.016E+03    -104.850E+03              0.    -611.959E+03
           24373    -172.705E+03    -107.286E+03              0.    -601.278E+03
           24374    -169.236E+03    -109.845E+03              0.    -589.972E+03
           24375    -165.600E+03    -112.531E+03              0.    -578.010E+03
           24376    -161.793E+03    -115.348E+03              0.     -565.36E+03
           24377    -157.808E+03    -118.301E+03              0.    -551.987E+03
           24378    -153.638E+03    -121.393E+03              0.    -537.858E+03
           24379    -149.275E+03    -124.628E+03              0.    -522.937E+03
           24380    -144.712E+03    -128.012E+03              0.    -507.187E+03
           24381    -139.941E+03    -131.548E+03              0.    -490.570E+03
           24382    -134.954E+03    -135.241E+03              0.    -473.048E+03
           24383    -129.743E+03    -139.096E+03              0.    -454.580E+03
           24384    -124.299E+03    -143.118E+03              0.    -435.125E+03
           24385    -118.613E+03    -147.312E+03              0.    -414.641E+03
           24386    -112.676E+03    -151.684E+03              0.    -393.083E+03
           24387    -106.477E+03    -156.238E+03              0.    -370.407E+03
           24388    -100.007E+03    -160.981E+03              0.    -346.565E+03
           24389    -93.2552E+03    -165.918E+03              0.    -321.510E+03
           24390    -86.2103E+03    -171.055E+03              0.    -295.192E+03
           24391    -78.8611E+03    -176.399E+03              0.    -267.560E+03
           24392    -71.1957E+03    -181.955E+03              0.    -238.561E+03
           24393    -63.2020E+03    -187.731E+03              0.    -208.141E+03
           24394    -54.8671E+03    -193.732E+03              0.    -176.244E+03
           24395    -46.1779E+03    -199.966E+03              0.    -142.814E+03
           24396    -37.1204E+03    -206.439E+03              0.    -107.789E+03
           24397    -27.6806E+03    -213.160E+03              0.    -71.1099E+03
           24398    -17.8435E+03    -220.135E+03              0.    -32.7130E+03
           24399    -7.59364E+03    -227.372E+03              0.     7.46628E+03
           24400     3.08491E+03    -234.879E+03              0.     49.4947E+03
           24401     14.2088E+03    -242.664E+03              0.     93.4409E+03
           24402     25.7954E+03    -250.735E+03              0.     139.376E+03
           24403     37.8625E+03    -259.101E+03              0.     187.372E+03
           24404     50.4289E+03    -267.771E+03              0.     237.505E+03
           24405     63.5138E+03    -276.753E+03              0.     289.851E+03
           24406     77.1376E+03    -286.056E+03              0.     344.490E+03
           24407     91.3209E+03    -295.691E+03              0.     401.503E+03
           24408     106.086E+03    -305.666E+03              0.     460.975E+03
           24409     121.454E+03    -315.992E+03              0.     522.992E+03
           24410     137.450E+03    -326.678E+03              0.     587.643E+03
           24411     154.098E+03    -337.735E+03              0.     655.018E+03
           24412     171.423E+03    -349.173E+03              0.     725.212E+03
           24413     189.451E+03    -361.004E+03              0.     798.322E+03
           24414     208.210E+03    -373.237E+03              0.     874.446E+03
           24415     227.728E+03    -385.885E+03              0.     953.686E+03
           24416     248.035E+03    -398.958E+03              0.     1.03615E+06
           24417     269.161E+03    -412.469E+03              0.     1.12193E+06
           24418     291.138E+03    -426.428E+03              0.     1.21116E+06
           24419     313.999E+03    -440.849E+03              0.     1.30394E+06
           24420     337.779E+03    -455.744E+03              0.     1.40038E+06
           24421     362.514E+03    -471.125E+03              0.     1.50061E+06
           24422     388.240E+03    -487.004E+03              0.     1.60474E+06
           24423     414.997E+03    -503.395E+03              0.     1.71291E+06
           24424     442.824E+03    -520.310E+03              0.     1.82523E+06
           24425     471.764E+03    -537.763E+03              0.     1.94185E+06
           24426     501.859E+03    -555.768E+03              0.     2.06289E+06
           24427     533.155E+03    -574.337E+03              0.     2.18848E+06
           24428     565.699E+03    -593.484E+03              0.     2.31878E+06
           24429     599.540E+03    -613.223E+03              0.     2.45392E+06
           24430     634.728E+03    -633.567E+03              0.     2.59405E+06
           24431     671.317E+03    -654.532E+03              0.     2.73931E+06
           24432     709.359E+03    -676.129E+03              0.     2.88986E+06
           24433     748.914E+03    -698.374E+03              0.     3.04586E+06
           24434     790.040E+03    -721.279E+03              0.     3.20745E+06
           24435     832.799E+03     -744.86E+03              0.     3.37481E+06
           24436     877.254E+03    -769.129E+03              0.     3.54809E+06
           24437     923.473E+03    -794.100E+03              0.     3.72746E+06
           24438     971.524E+03    -819.785E+03              0.     3.91308E+06
           24439     1.02148E+06    -846.200E+03              0.     4.10513E+06
           24440     1.07341E+06    -873.355E+03              0.     4.30378E+06
           24441     1.12740E+06    -901.263E+03              0.     4.50920E+06
           24442     1.18353E+06    -929.938E+03              0.     4.72158E+06
           24443     1.24188E+06    -959.388E+03              0.     4.94108E+06
           24444     1.30254E+06    -989.626E+03              0.     5.16789E+06
           24445     1.36560E+06    -1.02066E+06              0.     5.40218E+06
           24446     1.43115E+06    -1.05250E+06              0.     5.64414E+06
           24447     1.49929E+06    -1.08516E+06              0.     5.89395E+06
           24448     1.57012E+06    -1.11864E+06              0.     6.15180E+06
           24449     1.64375E+06    -1.15296E+06              0.     6.41785E+06
           24450     1.72028E+06    -1.18810E+06              0.     6.69230E+06
           24451     1.79984E+06    -1.22408E+06              0.     6.97531E+06
           24452     1.88253E+06    -1.26091E+06              0.     7.26707E+06
           24453     1.96848E+06    -1.29857E+06              0.     7.56776E+06
           24454     2.05782E+06    -1.33707E+06              0.     7.87753E+06
           24455     2.15067E+06    -1.37641E+06              0.     8.19656E+06
           24456     2.24718E+06    -1.41657E+06              0.     8.52502E+06
           24457     2.34748E+06    -1.45756E+06              0.     8.86304E+06
           24458     2.45172E+06    -1.49935E+06              0.     9.21080E+06
           24459     2.56005E+06    -1.54193E+06              0.     9.56842E+06
           24460     2.67262E+06    -1.58529E+06              0.     9.93604E+06
           24461     2.78960E+06    -1.62939E+06              0.     10.3138E+06
           24462     2.91114E+06    -1.67422E+06              0.     10.7018E+06
           24463     3.03744E+06    -1.71974E+06              0.     11.1001E+06
           24464     3.16865E+06    -1.76592E+06              0.     11.5088E+06
           24465     3.30496E+06    -1.81270E+06              0.     11.9280E+06
           24466     3.44655E+06    -1.86005E+06              0.     12.3577E+06
           24467     3.59363E+06    -1.90790E+06              0.     12.7980E+06
           24468     3.74639E+06    -1.95619E+06              0.     13.2488E+06
           24469     3.90502E+06    -2.00485E+06              0.     13.7102E+06
           24470     4.06973E+06    -2.05379E+06              0.     14.1821E+06
           24471     4.24074E+06    -2.10293E+06              0.     14.6644E+06
           24472     4.41827E+06    -2.15215E+06              0.     15.1571E+06
           24473     4.60252E+06    -2.20135E+06              0.     15.6599E+06
           24474     4.79372E+06    -2.25040E+06              0.     16.1726E+06
           24475     4.99209E+06    -2.29915E+06              0.     16.6952E+06
           24476     5.19787E+06    -2.34744E+06              0.     17.2272E+06
           24477     5.41127E+06    -2.39510E+06              0.     17.7684E+06
           24478     5.63252E+06    -2.44192E+06              0.     18.3183E+06
           24479     5.86186E+06    -2.48770E+06              0.     18.8766E+06
           24480      6.0995E+06    -2.53217E+06              0.     19.4427E+06
           24481     6.34566E+06    -2.57509E+06              0.     20.0161E+06
           24482     6.60056E+06    -2.61615E+06              0.     20.5961E+06
           24483     6.86441E+06    -2.65502E+06              0.     21.1819E+06
           24484     7.13739E+06    -2.69133E+06              0.     21.7727E+06
           24485     7.41970E+06    -2.72470E+06              0.     22.3676E+06
           24486      7.7115E+06    -2.75468E+06              0.     22.9657E+06
           24487     8.01295E+06    -2.78077E+06              0.     23.5656E+06
           24488     8.32417E+06    -2.80243E+06              0.     24.1662E+06
           24489     8.64527E+06    -2.81907E+06              0.     24.7661E+06
           24490     8.97632E+06    -2.83004E+06              0.     25.3637E+06
           24491     9.31735E+06    -2.83459E+06              0.     25.9575E+06
           24492     9.66835E+06    -2.83193E+06              0.     26.5454E+06
           24493     10.0293E+06    -2.82117E+06              0.     27.1255E+06
           24494     10.4000E+06    -2.80133E+06              0.     27.6957E+06
           24495     10.7804E+06    -2.77132E+06              0.     28.2535E+06
           24496     11.1702E+06    -2.72995E+06              0.     28.7964E+06
           24497     11.5690E+06    -2.67588E+06              0.     29.3215E+06
           24498     11.9764E+06    -2.60766E+06              0.     29.8257E+06
           24499     12.3919E+06    -2.52365E+06              0.     30.3058E+06
           24500     12.8149E+06    -2.42208E+06              0.     30.7582E+06
           24501     13.2445E+06    -2.30095E+06              0.     31.1790E+06
           24502     13.6798E+06    -2.15806E+06              0.     31.5642E+06
           24503     14.1197E+06    -1.99099E+06              0.     31.9091E+06
           24504     14.5628E+06    -1.79703E+06              0.     32.2091E+06
           24505     15.0076E+06    -1.57320E+06              0.     32.4590E+06
           24506     15.4523E+06    -1.31619E+06              0.     32.6533E+06
           24507     15.8950E+06    -1.02234E+06              0.     32.7861E+06
           24508     16.3331E+06    -687.563E+03              0.     32.8512E+06
           24509     16.7641E+06    -307.361E+03              0.     32.8417E+06
           24510     17.1848E+06     123.270E+03              0.     32.7506E+06
           24511     17.5918E+06     609.887E+03              0.     32.5703E+06
           24512     17.9811E+06     1.15864E+06              0.     32.2928E+06
           24513     18.3482E+06     1.77638E+06              0.     31.9095E+06
           24514     18.6881E+06     2.47067E+06              0.     31.4114E+06
           24515     18.9952E+06     3.24994E+06              0.     30.7891E+06
           24516     19.2630E+06     4.12353E+06              0.     30.0326E+06
           24517     19.4844E+06     5.10178E+06              0.     29.1314E+06
           24518     19.6515E+06     6.19622E+06              0.     28.0745E+06
           24519     19.7554E+06     7.41959E+06              0.     26.8505E+06
           24520     19.7858E+06     8.78594E+06              0.     25.4475E+06
           24521     20.2565E+06     10.3084E+06              0.     25.3289E+06
           24522    -241.891E+03    -107.592E+03              0.    -951.513E+03
           24523    -241.732E+03    -106.159E+03              0.    -949.883E+03
           24524    -242.181E+03    -105.008E+03              0.    -941.249E+03
           24525    -242.630E+03    -103.850E+03              0.    -932.855E+03
           24526    -243.075E+03    -102.688E+03              0.    -924.700E+03
           24527    -243.516E+03    -101.526E+03              0.    -916.785E+03
           24528    -243.950E+03    -100.366E+03              0.    -909.110E+03
           24529    -244.376E+03    -99.2116E+03              0.    -901.673E+03
           24530    -244.791E+03    -98.0648E+03              0.    -894.473E+03
           24531    -245.194E+03    -96.9284E+03              0.    -887.509E+03
           24532    -245.584E+03    -95.8048E+03              0.    -880.776E+03
           24533    -245.959E+03    -94.6964E+03              0.    -874.274E+03
           24534    -246.316E+03    -93.6055E+03              0.    -867.997E+03
           24535    -246.655E+03    -92.5342E+03              0.    -861.942E+03
           24536    -246.974E+03    -91.4846E+03              0.    -856.106E+03
           24537    -247.272E+03    -90.4588E+03              0.    -850.482E+03
           24538    -247.546E+03    -89.4588E+03              0.    -845.068E+03
           24539    -247.796E+03    -88.4863E+03              0.    -839.855E+03
           24540    -248.019E+03    -87.5434E+03              0.    -834.840E+03
           24541    -248.216E+03    -86.6317E+03              0.    -830.015E+03
           24542    -248.383E+03    -85.7531E+03              0.    -825.375E+03
           24543    -248.519E+03    -84.9093E+03              0.    -820.912E+03
           24544    -248.624E+03    -84.1021E+03              0.    -816.619E+03
           24545    -248.695E+03    -83.3329E+03              0.    -812.488E+03
           24546    -248.730E+03    -82.6037E+03              0.    -808.513E+03
           24547    -248.729E+03    -81.9159E+03              0.    -804.683E+03
           24548    -248.690E+03    -81.2711E+03              0.    -800.992E+03
           24549    -248.610E+03    -80.6712E+03              0.    -797.430E+03
           24550    -248.489E+03    -80.1175E+03              0.    -793.988E+03
           24551    -248.324E+03    -79.6118E+03              0.    -790.656E+03
           24552    -248.114E+03    -79.1557E+03              0.    -787.425E+03
           24553    -247.857E+03    -78.7508E+03              0.    -784.284E+03
           24554    -247.552E+03    -78.3988E+03              0.    -781.224E+03
           24555    -247.195E+03    -78.1013E+03              0.    -778.233E+03
           24556    -246.785E+03    -77.8599E+03              0.    -775.301E+03
           24557    -246.321E+03    -77.6765E+03              0.    -772.415E+03
           24558    -245.799E+03    -77.5527E+03              0.    -769.564E+03
           24559    -245.218E+03    -77.4904E+03              0.    -766.736E+03
           24560    -244.576E+03    -77.4912E+03              0.    -763.919E+03
           24561    -243.870E+03    -77.5570E+03              0.    -761.099E+03
           24562    -243.097E+03    -77.6898E+03              0.    -758.264E+03
           24563    -242.256E+03    -77.8914E+03              0.    -755.399E+03
           24564    -241.343E+03    -78.1638E+03              0.    -752.492E+03
           24565    -240.356E+03    -78.5090E+03              0.    -749.527E+03
           24566    -239.291E+03    -78.9291E+03              0.    -746.490E+03
           24567    -238.147E+03    -79.4263E+03              0.    -743.365E+03
           24568    -236.920E+03    -80.0027E+03              0.    -740.138E+03
           24569    -235.606E+03    -80.6605E+03              0.    -736.792E+03
           24570    -234.202E+03    -81.4022E+03              0.    -733.310E+03
           24571    -232.706E+03    -82.2301E+03              0.    -729.675E+03
           24572    -231.113E+03    -83.1466E+03              0.    -725.871E+03
           24573    -229.419E+03    -84.1544E+03              0.    -721.879E+03
           24574    -227.621E+03    -85.2561E+03              0.    -717.680E+03
           24575    -225.715E+03    -86.4543E+03              0.    -713.256E+03
           24576    -223.697E+03    -87.7519E+03              0.    -708.587E+03
           24577    -221.562E+03    -89.1517E+03              0.    -703.654E+03
           24578    -219.305E+03    -90.6568E+03              0.    -698.434E+03
           24579    -216.923E+03    -92.2703E+03              0.    -692.907E+03
           24580    -214.409E+03    -93.9953E+03              0.    -687.052E+03
           24581    -211.760E+03    -95.8351E+03              0.    -680.844E+03
           24582    -208.970E+03    -97.7931E+03              0.    -674.262E+03
           24583    -206.033E+03    -99.8729E+03              0.    -667.282E+03
           24584    -202.944E+03    -102.078E+03              0.    -659.878E+03
           24585    -199.696E+03    -104.412E+03              0.    -652.025E+03
           24586    -196.284E+03    -106.880E+03              0.    -643.697E+03
           24587    -192.702E+03    -109.484E+03              0.    -634.868E+03
           24588    -188.942E+03    -112.229E+03              0.    -625.509E+03
           24589    -184.997E+03    -115.120E+03              0.    -615.592E+03
           24590    -180.861E+03    -118.161E+03              0.    -605.087E+03
           24591    -176.527E+03    -121.356E+03              0.    -593.964E+03
           24592    -171.985E+03    -124.710E+03              0.    -582.193E+03
           24593    -167.229E+03    -128.228E+03              0.    -569.740E+03
           24594    -162.250E+03    -131.915E+03              0.    -556.572E+03
           24595    -157.040E+03    -135.776E+03              0.    -542.656E+03
           24596    -151.588E+03    -139.817E+03              0.    -527.956E+03
           24597    -145.887E+03    -144.042E+03              0.    -512.436E+03
           24598    -139.926E+03    -148.458E+03              0.    -496.058E+03
           24599    -133.695E+03    -153.071E+03              0.    -478.784E+03
           24600    -127.183E+03    -157.886E+03              0.    -460.573E+03
           24601    -120.381E+03    -162.910E+03              0.    -441.386E+03
           24602    -113.276E+03    -168.149E+03              0.    -421.180E+03
           24603    -105.857E+03    -173.609E+03              0.    -399.911E+03
           24604    -98.1114E+03    -179.299E+03              0.    -377.534E+03
           24605    -90.0267E+03    -185.223E+03              0.    -354.003E+03
           24606    -81.5899E+03    -191.391E+03              0.    -329.271E+03
           24607    -72.7873E+03    -197.809E+03              0.    -303.288E+03
           24608    -63.6046E+03    -204.484E+03              0.    -276.004E+03
           24609    -54.0272E+03    -211.426E+03              0.    -247.366E+03
           24610    -44.0398E+03    -218.641E+03              0.    -217.322E+03
           24611    -33.6265E+03    -226.138E+03              0.    -185.815E+03
           24612    -22.7709E+03    -233.927E+03              0.    -152.789E+03
           24613    -11.4559E+03    -242.014E+03              0.    -118.184E+03
           24614         336.265    -250.411E+03              0.    -81.9410E+03
           24615     12.6241E+03    -259.125E+03              0.    -43.9967E+03
           24616     25.4266E+03    -268.167E+03              0.    -4.28720E+03
           24617     38.7638E+03    -277.545E+03              0.     37.2536E+03
           24618     52.6562E+03    -287.272E+03              0.     80.6937E+03
           24619     67.1252E+03    -297.356E+03              0.     126.103E+03
           24620     82.1932E+03    -307.808E+03              0.     173.554E+03
           24621     97.8832E+03    -318.639E+03              0.     223.121E+03
           24622     114.219E+03    -329.860E+03              0.     274.880E+03
           24623     131.226E+03    -341.483E+03              0.     328.909E+03
           24624     148.929E+03    -353.519E+03              0.     385.290E+03
           24625     167.357E+03    -365.981E+03              0.     444.106E+03
           24626     186.535E+03    -378.880E+03              0.     505.442E+03
           24627     206.494E+03    -392.229E+03              0.     569.386E+03
           24628     227.263E+03    -406.041E+03              0.     636.028E+03
           24629     248.874E+03    -420.328E+03              0.     705.462E+03
           24630     271.358E+03    -435.105E+03              0.     777.782E+03
           24631     294.751E+03    -450.385E+03              0.     853.087E+03
           24632     319.085E+03    -466.181E+03              0.     931.477E+03
           24633     344.399E+03    -482.508E+03              0.     1.01306E+06
           24634     370.729E+03    -499.380E+03              0.     1.09793E+06
           24635     398.114E+03    -516.812E+03              0.     1.18621E+06
           24636     426.596E+03    -534.819E+03              0.     1.27800E+06
           24637     456.215E+03    -553.416E+03              0.     1.37342E+06
           24638     487.017E+03    -572.618E+03              0.     1.47259E+06
           24639     519.046E+03    -592.441E+03              0.     1.57563E+06
           24640     552.350E+03    -612.901E+03              0.     1.68266E+06
           24641     586.978E+03    -634.014E+03              0.     1.79380E+06
           24642      622.98E+03    -655.795E+03              0.     1.90919E+06
           24643     660.410E+03    -678.262E+03              0.     2.02896E+06
           24644     699.322E+03    -701.431E+03              0.     2.15324E+06
           24645     739.773E+03    -725.317E+03              0.     2.28218E+06
           24646     781.822E+03    -749.939E+03              0.     2.41590E+06
           24647     825.532E+03    -775.313E+03              0.     2.55456E+06
           24648     870.965E+03    -801.455E+03              0.     2.69830E+06
           24649     918.189E+03    -828.382E+03              0.     2.84728E+06
           24650     967.271E+03    -856.112E+03              0.     3.00164E+06
           24651     1.01828E+06    -884.659E+03              0.     3.16154E+06
           24652     1.07130E+06    -914.042E+03              0.     3.32714E+06
           24653     1.12640E+06    -944.275E+03              0.     3.49859E+06
           24654     1.18366E+06    -975.376E+03              0.     3.67608E+06
           24655     1.24316E+06    -1.00736E+06              0.     3.85974E+06
           24656     1.30499E+06    -1.04024E+06              0.     4.04977E+06
           24657     1.36924E+06    -1.07404E+06              0.     4.24632E+06
           24658     1.43601E+06    -1.10876E+06              0.     4.44956E+06
           24659     1.50538E+06    -1.14442E+06              0.     4.65968E+06
           24660     1.57746E+06    -1.18104E+06              0.     4.87685E+06
           24661     1.65235E+06    -1.21862E+06              0.     5.10123E+06
           24662     1.73016E+06    -1.25717E+06              0.     5.33302E+06
           24663     1.81100E+06    -1.29672E+06              0.     5.57238E+06
           24664     1.89498E+06    -1.33726E+06              0.     5.81951E+06
           24665     1.98223E+06    -1.37880E+06              0.     6.07456E+06
           24666     2.07287E+06    -1.42134E+06              0.     6.33773E+06
           24667     2.16703E+06    -1.46490E+06              0.     6.60919E+06
           24668     2.26483E+06    -1.50948E+06              0.     6.88911E+06
           24669     2.36642E+06    -1.55506E+06              0.     7.17767E+06
           24670     2.47194E+06    -1.60166E+06              0.     7.47504E+06
           24671     2.58154E+06    -1.64926E+06              0.     7.78138E+06
           24672     2.69537E+06    -1.69785E+06              0.     8.09686E+06
           24673     2.81359E+06    -1.74743E+06              0.     8.42164E+06
           24674     2.93635E+06    -1.79798E+06              0.     8.75587E+06
           24675     3.06383E+06    -1.84948E+06              0.     9.09969E+06
           24676     3.19621E+06    -1.90191E+06              0.     9.45324E+06
           24677     3.33365E+06    -1.95523E+06              0.     9.81666E+06
           24678     3.47635E+06    -2.00942E+06              0.     10.1900E+06
           24679     3.62450E+06    -2.06443E+06              0.     10.5735E+06
           24680     3.77828E+06    -2.12022E+06              0.     10.9672E+06
           24681     3.93791E+06    -2.17673E+06              0.     11.3711E+06
           24682     4.10358E+06    -2.23391E+06              0.     11.7853E+06
           24683     4.27551E+06    -2.29168E+06              0.     12.2100E+06
           24684     4.45392E+06    -2.34997E+06              0.     12.6450E+06
           24685     4.63903E+06    -2.40869E+06              0.     13.0903E+06
           24686     4.83107E+06    -2.46774E+06              0.     13.5461E+06
           24687     5.03026E+06    -2.52700E+06              0.     14.0122E+06
           24688     5.23684E+06    -2.58637E+06              0.     14.4885E+06
           24689     5.45106E+06    -2.64569E+06              0.     14.9750E+06
           24690     5.67316E+06    -2.70482E+06              0.     15.4714E+06
           24691     5.90338E+06    -2.76357E+06              0.     15.9776E+06
           24692     6.14196E+06    -2.82178E+06              0.     16.4934E+06
           24693     6.38917E+06    -2.87921E+06              0.     17.0185E+06
           24694     6.64525E+06    -2.93565E+06              0.     17.5526E+06
           24695     6.91044E+06    -2.99084E+06              0.     18.0952E+06
           24696     7.18499E+06    -3.04449E+06              0.     18.6460E+06
           24697     7.46915E+06    -3.09630E+06              0.     19.2043E+06
           24698     7.76316E+06    -3.14591E+06              0.     19.7698E+06
           24699     8.06724E+06    -3.19296E+06              0.     20.3416E+06
           24700     8.38161E+06    -3.23702E+06              0.     20.9191E+06
           24701     8.70650E+06    -3.27764E+06              0.     21.5015E+06
           24702     9.04209E+06    -3.31431E+06              0.     22.0878E+06
           24703     9.38855E+06    -3.34649E+06              0.     22.6769E+06
           24704     9.74606E+06    -3.37356E+06              0.     23.2679E+06
           24705     10.1147E+06    -3.39486E+06              0.     23.8593E+06
           24706     10.4947E+06    -3.40965E+06              0.     24.4499E+06
           24707     10.8860E+06    -3.41712E+06              0.     25.0382E+06
           24708     11.2886E+06    -3.41639E+06              0.     25.6224E+06
           24709     11.7027E+06    -3.40649E+06              0.     26.2007E+06
           24710     12.1280E+06    -3.38634E+06              0.     26.7713E+06
           24711     12.5644E+06    -3.35477E+06              0.     27.3318E+06
           24712     13.0119E+06    -3.31048E+06              0.     27.8800E+06
           24713     13.4700E+06    -3.25206E+06              0.     28.4133E+06
           24714     13.9384E+06    -3.17794E+06              0.     28.9289E+06
           24715     14.4167E+06    -3.08640E+06              0.     29.4239E+06
           24716     14.9043E+06    -2.97556E+06              0.     29.8949E+06
           24717     15.4004E+06    -2.84333E+06              0.     30.3386E+06
           24718     15.9042E+06    -2.68742E+06              0.     30.7511E+06
           24719     16.4148E+06    -2.50531E+06              0.     31.1283E+06
           24720     16.9308E+06    -2.29423E+06              0.     31.4660E+06
           24721     17.4510E+06    -2.05111E+06              0.     31.7595E+06
           24722     17.9736E+06    -1.77259E+06              0.     32.0036E+06
           24723     18.4969E+06    -1.45495E+06              0.     32.1932E+06
           24724     19.0187E+06    -1.09410E+06              0.     32.3225E+06
           24725     19.5365E+06    -685.515E+03              0.     32.3854E+06
           24726     20.0475E+06    -224.216E+03              0.     32.3754E+06
           24727     20.5486E+06     295.291E+03              0.     32.2857E+06
           24728     21.0361E+06     879.079E+03              0.     32.1088E+06
           24729     21.5059E+06     1.53384E+06              0.     31.8372E+06
           24730     21.9536E+06     2.26697E+06              0.     31.4626E+06
           24731     22.3738E+06     3.08662E+06              0.     30.9765E+06
           24732     22.7610E+06     4.00182E+06              0.     30.3698E+06
           24733     23.1084E+06     5.02251E+06              0.     29.6330E+06
           24734     23.4091E+06     6.15967E+06              0.     28.7561E+06
           24735     23.6548E+06     7.42546E+06              0.     27.7289E+06
           24736     23.8368E+06     8.83328E+06              0.     26.5406E+06
           24737     23.9451E+06     10.3980E+06              0.     25.1801E+06
           24738     24.5068E+06     12.1464E+06              0.     25.0851E+06
           24739    -261.994E+03    -116.641E+03              0.    -950.981E+03
           24740    -261.804E+03    -114.913E+03              0.    -949.351E+03
           24741    -262.350E+03    -113.522E+03              0.    -940.718E+03
           24742    -262.894E+03    -112.123E+03              0.    -932.326E+03
           24743    -263.436E+03    -110.721E+03              0.    -924.176E+03
           24744    -263.971E+03    -109.317E+03              0.    -916.268E+03
           24745    -264.498E+03    -107.917E+03              0.    -908.601E+03
           24746    -265.016E+03    -106.524E+03              0.    -901.175E+03
           24747    -265.520E+03    -105.140E+03              0.    -893.988E+03
           24748    -266.010E+03    -103.768E+03              0.    -887.038E+03
           24749    -266.484E+03    -102.412E+03              0.    -880.322E+03
           24750    -266.940E+03    -101.075E+03              0.    -873.837E+03
           24751    -267.375E+03    -99.7588E+03              0.    -867.580E+03
           24752    -267.787E+03    -98.4663E+03              0.    -861.548E+03
           24753    -268.176E+03    -97.2000E+03              0.    -855.734E+03
           24754    -268.539E+03    -95.9623E+03              0.    -850.136E+03
           24755    -268.874E+03    -94.7557E+03              0.    -844.748E+03
           24756    -269.179E+03    -93.5823E+03              0.    -839.564E+03
           24757    -269.454E+03    -92.4444E+03              0.    -834.578E+03
           24758    -269.695E+03    -91.3442E+03              0.    -829.785E+03
           24759    -269.901E+03    -90.2837E+03              0.    -825.178E+03
           24760    -270.071E+03    -89.2651E+03              0.    -820.750E+03
           24761    -270.202E+03    -88.2904E+03              0.    -816.493E+03
           24762    -270.293E+03    -87.3615E+03              0.    -812.401E+03
           24763    -270.342E+03    -86.4805E+03              0.    -808.465E+03
           24764    -270.346E+03    -85.6493E+03              0.    -804.677E+03
           24765    -270.305E+03    -84.8699E+03              0.    -801.030E+03
           24766    -270.216E+03    -84.1442E+03              0.    -797.513E+03
           24767    -270.076E+03    -83.4740E+03              0.    -794.118E+03
           24768    -269.885E+03    -82.8615E+03              0.    -790.835E+03
           24769    -269.639E+03    -82.3085E+03              0.    -787.655E+03
           24770    -269.337E+03    -81.8169E+03              0.    -784.568E+03
           24771    -268.976E+03    -81.3887E+03              0.    -781.563E+03
           24772    -268.554E+03    -81.0259E+03              0.    -778.629E+03
           24773    -268.069E+03    -80.7306E+03              0.    -775.756E+03
           24774    -267.518E+03    -80.5047E+03              0.    -772.932E+03
           24775    -266.899E+03    -80.3504E+03              0.    -770.145E+03
           24776    -266.209E+03    -80.2696E+03              0.    -767.384E+03
           24777    -265.445E+03    -80.2647E+03              0.    -764.636E+03
           24778    -264.604E+03    -80.3378E+03              0.    -761.889E+03
           24779    -263.684E+03    -80.4911E+03              0.    -759.128E+03
           24780    -262.681E+03    -80.7269E+03              0.    -756.341E+03
           24781    -261.593E+03    -81.0477E+03              0.    -753.514E+03
           24782    -260.416E+03    -81.4557E+03              0.    -750.633E+03
           24783    -259.146E+03    -81.9535E+03              0.    -747.683E+03
           24784     -257.78E+03    -82.5437E+03              0.    -744.649E+03
           24785    -256.315E+03    -83.2288E+03              0.    -741.515E+03
           24786    -254.746E+03    -84.0117E+03              0.    -738.265E+03
           24787    -253.070E+03    -84.8949E+03              0.    -734.884E+03
           24788    -251.282E+03    -85.8815E+03              0.    -731.355E+03
           24789    -249.378E+03    -86.9744E+03              0.    -727.659E+03
           24790    -247.355E+03    -88.1767E+03              0.    -723.780E+03
           24791    -245.206E+03    -89.4914E+03              0.    -719.699E+03
           24792    -242.927E+03    -90.9219E+03              0.    -715.396E+03
           24793    -240.514E+03    -92.4714E+03              0.    -710.854E+03
           24794    -237.961E+03    -94.1435E+03              0.    -706.052E+03
           24795    -235.263E+03    -95.9418E+03              0.    -700.968E+03
           24796    -232.413E+03    -97.8699E+03              0.    -695.583E+03
           24797    -229.407E+03    -99.9316E+03              0.    -689.875E+03
           24798    -226.238E+03    -102.131E+03              0.    -683.820E+03
           24799    -222.900E+03    -104.472E+03              0.    -677.397E+03
           24800    -219.386E+03    -106.959E+03              0.    -670.581E+03
           24801    -215.690E+03    -109.596E+03              0.    -663.349E+03
           24802    -211.804E+03    -112.388E+03              0.    -655.674E+03
           24803    -207.721E+03    -115.339E+03              0.    -647.531E+03
           24804    -203.433E+03    -118.455E+03              0.    -638.893E+03
           24805    -198.933E+03    -121.739E+03              0.    -629.734E+03
           24806    -194.212E+03    -125.198E+03              0.    -620.024E+03
           24807    -189.261E+03    -128.836E+03              0.    -609.734E+03
           24808    -184.073E+03    -132.660E+03              0.    -598.835E+03
           24809    -178.636E+03    -136.673E+03              0.    -587.295E+03
           24810    -172.943E+03    -140.884E+03              0.    -575.084E+03
           24811    -166.982E+03    -145.296E+03              0.    -562.167E+03
           24812    -160.744E+03    -149.918E+03              0.    -548.510E+03
           24813    -154.217E+03    -154.754E+03              0.    -534.081E+03
           24814    -147.391E+03    -159.812E+03              0.    -518.841E+03
           24815    -140.254E+03    -165.098E+03              0.    -502.754E+03
           24816    -132.793E+03    -170.620E+03              0.    -485.783E+03
           24817    -124.997E+03    -176.384E+03              0.    -467.887E+03
           24818    -116.852E+03    -182.398E+03              0.    -449.026E+03
           24819    -108.345E+03    -188.670E+03              0.    -429.158E+03
           24820    -99.4615E+03    -195.208E+03              0.    -408.241E+03
           24821    -90.1871E+03    -202.019E+03              0.    -386.230E+03
           24822    -80.5068E+03    -209.113E+03              0.    -363.078E+03
           24823    -70.4047E+03    -216.497E+03              0.    -338.740E+03
           24824    -59.8647E+03    -224.182E+03              0.    -313.167E+03
           24825    -48.8697E+03    -232.175E+03              0.    -286.307E+03
           24826    -37.4023E+03    -240.486E+03              0.    -258.111E+03
           24827    -25.4441E+03    -249.126E+03              0.    -228.525E+03
           24828    -12.9763E+03    -258.103E+03              0.    -197.493E+03
           24829         20.8403    -267.429E+03              0.    -164.960E+03
           24830     13.5677E+03    -277.113E+03              0.    -130.868E+03
           24831     27.6854E+03    -287.167E+03              0.    -95.1567E+03
           24832     42.3959E+03    -297.602E+03              0.    -57.7645E+03
           24833     57.7221E+03    -308.429E+03              0.    -18.6280E+03
           24834     73.6877E+03    -319.659E+03              0.     22.3179E+03
           24835     90.3171E+03    -331.306E+03              0.     65.1407E+03
           24836     107.636E+03    -343.380E+03              0.     109.909E+03
           24837     125.671E+03    -355.896E+03              0.     156.696E+03
           24838     144.449E+03    -368.865E+03              0.     205.572E+03
           24839     163.999E+03    -382.302E+03              0.     256.615E+03
           24840     184.351E+03    -396.219E+03              0.     309.901E+03
           24841     205.534E+03    -410.631E+03              0.     365.511E+03
           24842     227.582E+03    -425.552E+03              0.     423.527E+03
           24843     250.527E+03    -440.996E+03              0.     484.033E+03
           24844     274.404E+03    -456.979E+03              0.     547.115E+03
           24845     299.248E+03    -473.515E+03              0.     612.864E+03
           24846     325.096E+03    -490.621E+03              0.     681.370E+03
           24847     351.986E+03    -508.312E+03              0.     752.729E+03
           24848     379.959E+03    -526.604E+03              0.     827.036E+03
           24849     409.056E+03    -545.514E+03              0.     904.392E+03
           24850     439.319E+03    -565.059E+03              0.     984.898E+03
           24851     470.794E+03    -585.255E+03              0.     1.06866E+06
           24852     503.526E+03    -606.121E+03              0.     1.15578E+06
           24853     537.563E+03    -627.674E+03              0.     1.24638E+06
           24854     572.955E+03    -649.931E+03              0.     1.34056E+06
           24855     609.755E+03    -672.912E+03              0.     1.43844E+06
           24856     648.014E+03    -696.635E+03              0.     1.54014E+06
           24857     687.790E+03    -721.117E+03              0.     1.64578E+06
           24858     729.139E+03    -746.380E+03              0.     1.75549E+06
           24859     772.122E+03    -772.440E+03              0.     1.86939E+06
           24860     816.801E+03    -799.318E+03              0.     1.98762E+06
           24861     863.240E+03    -827.033E+03              0.     2.11030E+06
           24862     911.506E+03    -855.605E+03              0.     2.23757E+06
           24863     961.669E+03    -885.053E+03              0.     2.36957E+06
           24864      1.0138E+06    -915.397E+03              0.     2.50645E+06
           24865     1.06797E+06    -946.656E+03              0.     2.64835E+06
           24866     1.12427E+06    -978.850E+03              0.     2.79541E+06
           24867     1.18277E+06    -1.01200E+06              0.     2.94778E+06
           24868     1.24355E+06    -1.04612E+06              0.     3.10562E+06
           24869     1.30670E+06    -1.08124E+06              0.     3.26909E+06
           24870     1.37231E+06    -1.11736E+06              0.     3.43834E+06
           24871     1.44048E+06    -1.15452E+06              0.     3.61353E+06
           24872     1.51129E+06    -1.19272E+06              0.     3.79483E+06
           24873     1.58486E+06    -1.23199E+06              0.     3.98240E+06
           24874     1.66128E+06    -1.27234E+06              0.     4.17640E+06
           24875     1.74066E+06    -1.31379E+06              0.     4.37701E+06
           24876     1.82312E+06    -1.35635E+06              0.      4.5844E+06
           24877     1.90876E+06    -1.40004E+06              0.     4.79874E+06
           24878     1.99771E+06    -1.44487E+06              0.     5.02020E+06
           24879     2.09008E+06    -1.49085E+06              0.     5.24895E+06
           24880     2.18602E+06    -1.53799E+06              0.     5.48518E+06
           24881     2.28565E+06    -1.58631E+06              0.     5.72905E+06
           24882     2.38911E+06    -1.63580E+06              0.     5.98074E+06
           24883     2.49654E+06    -1.68647E+06              0.     6.24043E+06
           24884     2.60809E+06    -1.73833E+06              0.     6.50829E+06
           24885     2.72391E+06    -1.79137E+06              0.     6.78448E+06
           24886     2.84416E+06    -1.84560E+06              0.     7.06918E+06
           24887     2.96900E+06    -1.90100E+06              0.     7.36256E+06
           24888     3.09859E+06    -1.95757E+06              0.     7.66478E+06
           24889     3.23312E+06    -2.01529E+06              0.     7.97599E+06
           24890     3.37276E+06    -2.07415E+06              0.     8.29636E+06
           24891     3.51769E+06    -2.13412E+06              0.     8.62603E+06
           24892     3.66810E+06    -2.19518E+06              0.     8.96514E+06
           24893     3.82420E+06    -2.25729E+06              0.     9.31382E+06
           24894     3.98618E+06    -2.32043E+06              0.     9.67220E+06
           24895     4.15425E+06    -2.38453E+06              0.     10.0404E+06
           24896     4.32862E+06    -2.44956E+06              0.     10.4185E+06
           24897     4.50952E+06    -2.51544E+06              0.     10.8066E+06
           24898     4.69716E+06    -2.58212E+06              0.     11.2048E+06
           24899     4.89179E+06    -2.64951E+06              0.     11.6131E+06
           24900     5.09362E+06    -2.71752E+06              0.     12.0317E+06
           24901     5.30292E+06    -2.78606E+06              0.     12.4604E+06
           24902     5.51992E+06    -2.85502E+06              0.     12.8993E+06
           24903     5.74487E+06    -2.92426E+06              0.     13.3484E+06
           24904     5.97803E+06    -2.99365E+06              0.     13.8076E+06
           24905     6.21967E+06    -3.06303E+06              0.     14.2768E+06
           24906     6.47004E+06    -3.13224E+06              0.     14.7560E+06
           24907     6.72941E+06    -3.20107E+06              0.     15.2449E+06
           24908     6.99805E+06    -3.26932E+06              0.     15.7435E+06
           24909     7.27623E+06    -3.33675E+06              0.     16.2513E+06
           24910     7.56423E+06    -3.40311E+06              0.     16.7683E+06
           24911     7.86231E+06    -3.46810E+06              0.     17.2939E+06
           24912     8.17075E+06    -3.53142E+06              0.     17.8280E+06
           24913     8.48980E+06    -3.59272E+06              0.     18.3700E+06
           24914     8.81974E+06    -3.65161E+06              0.     18.9193E+06
           24915     9.16081E+06    -3.70768E+06              0.     19.4756E+06
           24916     9.51326E+06    -3.76048E+06              0.     20.0380E+06
           24917     9.87734E+06    -3.80950E+06              0.     20.6059E+06
           24918     10.2533E+06    -3.85419E+06              0.     21.1784E+06
           24919     10.6412E+06    -3.89394E+06              0.     21.7547E+06
           24920     11.0414E+06    -3.92809E+06              0.     22.3337E+06
           24921     11.4540E+06    -3.95592E+06              0.     22.9143E+06
           24922     11.8791E+06    -3.97664E+06              0.     23.4952E+06
           24923     12.3169E+06    -3.98937E+06              0.     24.0752E+06
           24924     12.7674E+06    -3.99316E+06              0.     24.6527E+06
           24925     13.2306E+06    -3.98697E+06              0.     25.2261E+06
           24926     13.7065E+06    -3.96966E+06              0.     25.7936E+06
           24927     14.1950E+06    -3.93999E+06              0.     26.3532E+06
           24928     14.6960E+06    -3.89658E+06              0.     26.9029E+06
           24929     15.2093E+06    -3.83793E+06              0.     27.4402E+06
           24930     15.7345E+06    -3.76242E+06              0.     27.9628E+06
           24931     16.2712E+06    -3.66823E+06              0.     28.4678E+06
           24932     16.8190E+06    -3.55342E+06              0.     28.9524E+06
           24933     17.3773E+06    -3.41582E+06              0.     29.4134E+06
           24934     17.9452E+06    -3.25308E+06              0.     29.8474E+06
           24935     18.5218E+06    -3.06262E+06              0.     30.2506E+06
           24936     19.1062E+06    -2.84158E+06              0.     30.6192E+06
           24937     19.6970E+06    -2.58688E+06              0.     30.9489E+06
           24938     20.2928E+06    -2.29510E+06              0.     31.2352E+06
           24939     20.8919E+06    -1.96249E+06              0.     31.4732E+06
           24940     21.4923E+06    -1.58496E+06              0.     31.6577E+06
           24941     22.0919E+06    -1.15800E+06              0.     31.7833E+06
           24942     22.6880E+06    -676.670E+03              0.     31.8439E+06
           24943     23.2777E+06    -135.527E+03              0.     31.8334E+06
           24944     23.8579E+06     471.385E+03              0.     31.7452E+06
           24945     24.4247E+06     1.15063E+06              0.     31.5722E+06
           24946     24.9741E+06     1.90940E+06              0.     31.3070E+06
           24947     25.5013E+06     2.75562E+06              0.     30.9419E+06
           24948     26.0011E+06     3.69800E+06              0.     30.4686E+06
           24949     26.4676E+06     4.74608E+06              0.     29.8785E+06
           24950     26.8943E+06     5.91041E+06              0.     29.1626E+06
           24951     27.2740E+06     7.20253E+06              0.     28.3117E+06
           24952     27.5985E+06     8.63517E+06              0.     27.3158E+06
           24953     27.8587E+06     10.2223E+06              0.     26.1650E+06
           24954     28.0446E+06     11.9791E+06              0.     24.8488E+06
           24955     28.6943E+06     13.9459E+06              0.     24.7767E+06
           24956    -282.106E+03    -125.695E+03              0.    -950.351E+03
           24957    -281.885E+03    -123.668E+03              0.    -948.722E+03
           24958    -282.528E+03    -122.035E+03              0.    -940.089E+03
           24959    -283.171E+03    -120.393E+03              0.      -931.7E+03
           24960    -283.809E+03    -118.747E+03              0.    -923.556E+03
           24961    -284.440E+03    -117.100E+03              0.    -915.655E+03
           24962    -285.061E+03    -115.458E+03              0.    -907.999E+03
           24963    -285.671E+03    -113.823E+03              0.    -900.586E+03
           24964    -286.266E+03    -112.200E+03              0.    -893.414E+03
           24965    -286.844E+03    -110.591E+03              0.    -886.481E+03
           24966    -287.403E+03    -109.001E+03              0.    -879.784E+03
           24967    -287.940E+03    -107.433E+03              0.    -873.321E+03
           24968    -288.454E+03    -105.890E+03              0.    -867.088E+03
           24969    -288.942E+03    -104.374E+03              0.    -861.080E+03
           24970    -289.401E+03    -102.889E+03              0.    -855.295E+03
           24971    -289.831E+03    -101.438E+03              0.    -849.726E+03
           24972    -290.228E+03    -100.023E+03              0.    -844.369E+03
           24973    -290.590E+03    -98.6468E+03              0.    -839.218E+03
           24974    -290.917E+03    -97.3122E+03              0.    -834.268E+03
           24975    -291.204E+03    -96.0216E+03              0.    -829.512E+03
           24976    -291.452E+03    -94.7775E+03              0.    -824.944E+03
           24977    -291.656E+03    -93.5823E+03              0.    -820.556E+03
           24978    -291.816E+03    -92.4382E+03              0.    -816.343E+03
           24979    -291.928E+03    -91.3477E+03              0.    -812.296E+03
           24980    -291.992E+03    -90.3131E+03              0.    -808.407E+03
           24981    -292.004E+03    -89.3366E+03              0.    -804.668E+03
           24982    -291.963E+03    -88.4204E+03              0.    -801.072E+03
           24983    -291.865E+03    -87.5669E+03              0.    -797.608E+03
           24984    -291.710E+03    -86.7783E+03              0.    -794.269E+03
           24985    -291.494E+03    -86.0567E+03              0.    -791.044E+03
           24986    -291.215E+03    -85.4046E+03              0.    -787.924E+03
           24987    -290.870E+03    -84.8240E+03              0.    -784.899E+03
           24988    -290.457E+03    -84.3174E+03              0.    -781.959E+03
           24989    -289.973E+03    -83.8870E+03              0.    -779.093E+03
           24990    -289.415E+03    -83.5351E+03              0.    -776.290E+03
           24991    -288.781E+03    -83.2642E+03              0.    -773.539E+03
           24992    -288.067E+03    -83.0767E+03              0.    -770.829E+03
           24993    -287.270E+03    -82.9749E+03              0.    -768.146E+03
           24994    -286.388E+03    -82.9614E+03              0.    -765.480E+03
           24995    -285.417E+03    -83.0387E+03              0.    -762.817E+03
           24996    -284.353E+03    -83.2095E+03              0.    -760.144E+03
           24997    -283.193E+03    -83.4764E+03              0.    -757.449E+03
           24998    -281.934E+03    -83.8421E+03              0.    -754.717E+03
           24999    -280.571E+03    -84.3096E+03              0.    -751.934E+03
           25000    -279.100E+03    -84.8815E+03              0.    -749.086E+03
           25001    -277.518E+03    -85.5610E+03              0.    -746.158E+03
           25002    -275.819E+03    -86.3511E+03              0.    -743.135E+03
           25003    -274.001E+03    -87.2549E+03              0.    -740.000E+03
           25004    -272.057E+03    -88.2756E+03              0.    -736.738E+03
           25005    -269.984E+03    -89.4166E+03              0.    -733.332E+03
           25006    -267.776E+03    -90.6814E+03              0.    -729.764E+03
           25007    -265.428E+03    -92.0734E+03              0.    -726.018E+03
           25008    -262.935E+03    -93.5964E+03              0.    -722.075E+03
           25009    -260.291E+03    -95.2541E+03              0.    -717.916E+03
           25010    -257.490E+03    -97.0504E+03              0.    -713.523E+03
           25011    -254.526E+03    -98.9894E+03              0.    -708.875E+03
           25012    -251.393E+03    -101.075E+03              0.    -703.952E+03
           25013    -248.085E+03    -103.312E+03              0.    -698.734E+03
           25014    -244.594E+03    -105.704E+03              0.    -693.199E+03
           25015    -240.914E+03    -108.257E+03              0.    -687.325E+03
           25016    -237.037E+03    -110.974E+03              0.    -681.089E+03
           25017    -232.955E+03    -113.862E+03              0.    -674.467E+03
           25018    -228.661E+03    -116.924E+03              0.    -667.437E+03
           25019    -224.147E+03    -120.166E+03              0.    -659.971E+03
           25020    -219.403E+03    -123.593E+03              0.    -652.046E+03
           25021    -214.421E+03    -127.212E+03              0.    -643.635E+03
           25022    -209.193E+03    -131.027E+03              0.     -634.71E+03
           25023    -203.707E+03    -135.045E+03              0.    -625.244E+03
           25024    -197.954E+03    -139.272E+03              0.    -615.208E+03
           25025    -191.924E+03    -143.715E+03              0.    -604.572E+03
           25026    -185.606E+03    -148.379E+03              0.    -593.306E+03
           25027    -178.989E+03    -153.271E+03              0.    -581.379E+03
           25028    -172.061E+03    -158.399E+03              0.    -568.756E+03
           25029    -164.810E+03    -163.770E+03              0.    -555.407E+03
           25030    -157.224E+03    -169.391E+03              0.    -541.295E+03
           25031    -149.290E+03    -175.269E+03              0.    -526.386E+03
           25032    -140.993E+03    -181.414E+03              0.    -510.643E+03
           25033    -132.321E+03    -187.832E+03              0.    -494.028E+03
           25034    -123.258E+03    -194.532E+03              0.    -476.502E+03
           25035    -113.790E+03    -201.524E+03              0.    -458.026E+03
           25036    -103.901E+03    -208.815E+03              0.    -438.558E+03
           25037    -93.5734E+03    -216.415E+03              0.    -418.055E+03
           25038    -82.7918E+03    -224.334E+03              0.    -396.474E+03
           25039    -71.5382E+03    -232.581E+03              0.    -373.771E+03
           25040    -59.7943E+03    -241.166E+03              0.    -349.897E+03
           25041    -47.5412E+03    -250.100E+03              0.    -324.805E+03
           25042    -34.7593E+03    -259.393E+03              0.    -298.446E+03
           25043    -21.4281E+03    -269.056E+03              0.    -270.770E+03
           25044    -7.52657E+03    -279.101E+03              0.    -241.723E+03
           25045     6.96730E+03    -289.539E+03              0.    -211.251E+03
           25046     22.0763E+03    -300.382E+03              0.    -179.300E+03
           25047     37.8241E+03    -311.642E+03              0.    -145.812E+03
           25048     54.2352E+03    -323.332E+03              0.    -110.727E+03
           25049     71.3351E+03    -335.465E+03              0.    -73.9850E+03
           25050     89.1502E+03    -348.053E+03              0.    -35.5236E+03
           25051     107.708E+03    -361.112E+03              0.     4.72176E+03
           25052     127.037E+03    -374.653E+03              0.     46.8173E+03
           25053     147.167E+03    -388.693E+03              0.     90.8315E+03
           25054     168.127E+03    -403.245E+03              0.     136.834E+03
           25055     189.951E+03    -418.325E+03              0.     184.898E+03
           25056     212.672E+03    -433.947E+03              0.     235.098E+03
           25057     236.322E+03    -450.129E+03              0.     287.509E+03
           25058     260.938E+03    -466.885E+03              0.     342.211E+03
           25059     286.558E+03    -484.233E+03              0.     399.284E+03
           25060     313.218E+03    -502.189E+03              0.     458.813E+03
           25061     340.958E+03    -520.771E+03              0.     520.881E+03
           25062     369.821E+03    -539.997E+03              0.     585.578E+03
           25063     399.848E+03    -559.883E+03              0.     652.993E+03
           25064     431.084E+03    -580.450E+03              0.     723.220E+03
           25065     463.575E+03    -601.715E+03              0.     796.353E+03
           25066     497.368E+03    -623.697E+03              0.     872.491E+03
           25067     532.513E+03    -646.417E+03              0.     951.733E+03
           25068     569.061E+03    -669.894E+03              0.     1.03418E+06
           25069     607.066E+03    -694.147E+03              0.     1.11995E+06
           25070     646.582E+03    -719.198E+03              0.     1.20913E+06
           25071     687.668E+03    -745.067E+03              0.     1.30185E+06
           25072     730.381E+03    -771.776E+03              0.     1.39822E+06
           25073     774.785E+03    -799.345E+03              0.     1.49835E+06
           25074     820.942E+03    -827.796E+03              0.     1.60237E+06
           25075      868.92E+03    -857.151E+03              0.     1.71039E+06
           25076     918.786E+03    -887.431E+03              0.     1.82254E+06
           25077     970.613E+03     -918.66E+03              0.     1.93895E+06
           25078     1.02447E+06    -950.859E+03              0.     2.05975E+06
           25079     1.08044E+06    -984.051E+03              0.     2.18507E+06
           25080     1.13861E+06    -1.01826E+06              0.     2.31505E+06
           25081     1.19904E+06    -1.05350E+06              0.     2.44984E+06
           25082     1.26183E+06    -1.08981E+06              0.     2.58956E+06
           25083     1.32707E+06    -1.12719E+06              0.     2.73437E+06
           25084     1.39485E+06    -1.16568E+06              0.     2.88442E+06
           25085     1.46526E+06    -1.20530E+06              0.     3.03984E+06
           25086     1.53840E+06    -1.24606E+06              0.     3.20081E+06
           25087     1.61438E+06    -1.28800E+06              0.     3.36747E+06
           25088     1.69329E+06    -1.33112E+06              0.     3.53998E+06
           25089     1.77526E+06    -1.37545E+06              0.     3.71849E+06
           25090     1.86039E+06    -1.42101E+06              0.     3.90318E+06
           25091     1.94880E+06    -1.46782E+06              0.     4.09420E+06
           25092     2.04061E+06    -1.51590E+06              0.     4.29173E+06
           25093     2.13596E+06    -1.56525E+06              0.     4.49592E+06
           25094     2.23496E+06    -1.61591E+06              0.     4.70694E+06
           25095     2.33776E+06    -1.66787E+06              0.     4.92498E+06
           25096     2.44449E+06    -1.72116E+06              0.     5.15019E+06
           25097     2.55530E+06    -1.77579E+06              0.     5.38274E+06
           25098     2.67034E+06    -1.83175E+06              0.     5.62281E+06
           25099     2.78977E+06    -1.88907E+06              0.     5.87058E+06
           25100     2.91374E+06    -1.94774E+06              0.     6.12620E+06
           25101     3.04242E+06    -2.00776E+06              0.     6.38985E+06
           25102     3.17598E+06    -2.06914E+06              0.     6.66169E+06
           25103     3.31459E+06    -2.13186E+06              0.     6.94190E+06
           25104     3.45845E+06    -2.19592E+06              0.     7.23062E+06
           25105     3.60773E+06    -2.26130E+06              0.     7.52803E+06
           25106     3.76263E+06    -2.32799E+06              0.     7.83427E+06
           25107     3.92335E+06    -2.39597E+06              0.     8.14950E+06
           25108     4.09010E+06    -2.46520E+06              0.     8.47386E+06
           25109     4.26308E+06    -2.53565E+06              0.     8.80749E+06
           25110     4.44252E+06    -2.60728E+06              0.     9.15051E+06
           25111     4.62864E+06    -2.68005E+06              0.     9.50304E+06
           25112     4.82167E+06    -2.75389E+06              0.     9.86520E+06
           25113     5.02185E+06    -2.82874E+06              0.     10.2371E+06
           25114     5.22941E+06    -2.90453E+06              0.     10.6188E+06
           25115     5.44461E+06    -2.98117E+06              0.     11.0103E+06
           25116     5.66770E+06    -3.05857E+06              0.     11.4118E+06
           25117     5.89895E+06    -3.13662E+06              0.     11.8233E+06
           25118     6.13861E+06    -3.21519E+06              0.     12.2448E+06
           25119     6.38695E+06    -3.29416E+06              0.     12.6762E+06
           25120     6.64426E+06    -3.37338E+06              0.     13.1176E+06
           25121     6.91081E+06    -3.45266E+06              0.     13.5689E+06
           25122     7.18689E+06    -3.53184E+06              0.     14.0300E+06
           25123     7.47277E+06    -3.61069E+06              0.     14.5008E+06
           25124     7.76876E+06    -3.68899E+06              0.     14.9811E+06
           25125     8.07515E+06    -3.76649E+06              0.     15.4707E+06
           25126     8.39222E+06    -3.84291E+06              0.     15.9695E+06
           25127     8.72027E+06    -3.91794E+06              0.     16.4771E+06
           25128     9.05960E+06    -3.99124E+06              0.     16.9933E+06
           25129     9.41048E+06    -4.06244E+06              0.     17.5175E+06
           25130     9.77321E+06    -4.13113E+06              0.     18.0495E+06
           25131     10.1481E+06    -4.19686E+06              0.     18.5886E+06
           25132     10.5353E+06    -4.25915E+06              0.     19.1343E+06
           25133     10.9352E+06    -4.31745E+06              0.     19.6861E+06
           25134     11.3481E+06    -4.37118E+06              0.     20.2430E+06
           25135     11.7740E+06    -4.41970E+06              0.     20.8045E+06
           25136     12.2134E+06    -4.46229E+06              0.     21.3694E+06
           25137     12.6662E+06    -4.49820E+06              0.     21.9369E+06
           25138     13.1328E+06    -4.52657E+06              0.     22.5059E+06
           25139     13.6133E+06    -4.54650E+06              0.     23.0751E+06
           25140     14.1077E+06    -4.55698E+06              0.     23.6431E+06
           25141     14.6162E+06    -4.55692E+06              0.     24.2086E+06
           25142     15.1387E+06    -4.54512E+06              0.     24.7699E+06
           25143     15.6752E+06    -4.52028E+06              0.     25.3253E+06
           25144     16.2256E+06    -4.48097E+06              0.     25.8727E+06
           25145     16.7898E+06    -4.42564E+06              0.     26.4103E+06
           25146     17.3675E+06    -4.35260E+06              0.     26.9356E+06
           25147     17.9584E+06    -4.25999E+06              0.     27.4463E+06
           25148     18.5620E+06    -4.14580E+06              0.     27.9397E+06
           25149     19.1778E+06    -4.00781E+06              0.     28.4129E+06
           25150     19.8052E+06    -3.84363E+06              0.     28.8629E+06
           25151     20.4434E+06    -3.65062E+06              0.     29.2863E+06
           25152     21.0913E+06    -3.42591E+06              0.     29.6795E+06
           25153     21.7480E+06    -3.16635E+06              0.     30.0387E+06
           25154     22.4120E+06    -2.86854E+06              0.     30.3597E+06
           25155     23.0818E+06    -2.52870E+06              0.     30.6383E+06
           25156     23.7558E+06    -2.14276E+06              0.     30.8696E+06
           25157     24.4317E+06    -1.70624E+06              0.     31.0488E+06
           25158     25.1075E+06    -1.21423E+06              0.     31.1703E+06
           25159     25.7803E+06    -661.385E+03              0.     31.2286E+06
           25160     26.4474E+06    -41.8444E+03              0.     31.2177E+06
           25161     27.1052E+06     650.798E+03              0.     31.1312E+06
           25162     27.7500E+06     1.42357E+06              0.     30.9623E+06
           25163     28.3776E+06     2.28413E+06              0.     30.7041E+06
           25164     28.9832E+06     3.24091E+06              0.     30.3490E+06
           25165     29.5615E+06     4.30310E+06              0.     29.8894E+06
           25166     30.1066E+06     5.48078E+06              0.     29.3169E+06
           25167     30.6119E+06     6.78501E+06              0.     28.6232E+06
           25168     31.0701E+06     8.22784E+06              0.     27.7994E+06
           25169     31.4731E+06     9.82255E+06              0.     26.8363E+06
           25170     31.8120E+06     11.5837E+06              0.     25.7246E+06
           25171     32.0772E+06     13.5272E+06              0.     24.4545E+06
           25172     32.8135E+06     15.7053E+06              0.     24.4039E+06
           25173    -302.229E+03    -134.754E+03              0.    -949.623E+03
           25174    -301.976E+03    -132.425E+03              0.    -947.994E+03
           25175    -302.719E+03    -130.547E+03              0.    -939.362E+03
           25176    -303.459E+03    -128.659E+03              0.    -930.976E+03
           25177    -304.195E+03    -126.766E+03              0.    -922.838E+03
           25178    -304.923E+03    -124.874E+03              0.    -914.947E+03
           25179    -305.641E+03    -122.986E+03              0.    -907.303E+03
           25180    -306.344E+03    -121.108E+03              0.    -899.905E+03
           25181    -307.031E+03    -119.243E+03              0.    -892.750E+03
           25182    -307.698E+03    -117.395E+03              0.    -885.837E+03
           25183    -308.343E+03    -115.569E+03              0.    -879.162E+03
           25184    -308.964E+03    -113.767E+03              0.    -872.724E+03
           25185    -309.557E+03    -111.994E+03              0.    -866.518E+03
           25186    -310.121E+03    -110.254E+03              0.    -860.539E+03
           25187    -310.653E+03    -108.548E+03              0.    -854.785E+03
           25188    -311.151E+03    -106.881E+03              0.    -849.250E+03
           25189    -311.611E+03    -105.255E+03              0.    -843.929E+03
           25190    -312.033E+03    -103.675E+03              0.    -838.817E+03
           25191    -312.413E+03    -102.141E+03              0.    -833.907E+03
           25192    -312.749E+03    -100.658E+03              0.    -829.194E+03
           25193    -313.038E+03    -99.2283E+03              0.    -824.670E+03
           25194    -313.279E+03    -97.8543E+03              0.    -820.331E+03
           25195    -313.469E+03    -96.5389E+03              0.    -816.166E+03
           25196    -313.606E+03    -95.2846E+03              0.    -812.171E+03
           25197    -313.686E+03    -94.0941E+03              0.    -808.336E+03
           25198    -313.708E+03    -92.9700E+03              0.    -804.654E+03
           25199    -313.669E+03    -91.9149E+03              0.    -801.116E+03
           25200    -313.567E+03    -90.9313E+03              0.    -797.714E+03
           25201    -313.398E+03    -90.0217E+03              0.    -794.439E+03
           25202    -313.160E+03    -89.1887E+03              0.    -791.280E+03
           25203    -312.850E+03    -88.4348E+03              0.    -788.230E+03
           25204    -312.466E+03    -87.7627E+03              0.    -785.277E+03
           25205    -312.003E+03    -87.1749E+03              0.    -782.412E+03
           25206    -311.460E+03    -86.6741E+03              0.    -779.623E+03
           25207    -310.833E+03    -86.2629E+03              0.    -776.901E+03
           25208    -310.119E+03    -85.9440E+03              0.    -774.234E+03
           25209    -309.315E+03    -85.7201E+03              0.    -771.610E+03
           25210    -308.416E+03    -85.5940E+03              0.    -769.018E+03
           25211    -307.420E+03    -85.5686E+03              0.    -766.445E+03
           25212    -306.322E+03    -85.6468E+03              0.    -763.880E+03
           25213    -305.119E+03    -85.8315E+03              0.    -761.309E+03
           25214    -303.806E+03    -86.1258E+03              0.    -758.718E+03
           25215    -302.380E+03    -86.5327E+03              0.    -756.095E+03
           25216    -300.836E+03    -87.0556E+03              0.    -753.426E+03
           25217    -299.170E+03    -87.6975E+03              0.    -750.695E+03
           25218    -297.377E+03    -88.4621E+03              0.    -747.889E+03
           25219    -295.451E+03    -89.3526E+03              0.    -744.992E+03
           25220    -293.389E+03    -90.3727E+03              0.    -741.989E+03
           25221    -291.184E+03    -91.5261E+03              0.    -738.864E+03
           25222    -288.832E+03    -92.8165E+03              0.    -735.599E+03
           25223    -286.327E+03    -94.2480E+03              0.    -732.179E+03
           25224    -283.662E+03    -95.8244E+03              0.    -728.586E+03
           25225    -280.831E+03    -97.5500E+03              0.    -724.801E+03
           25226    -277.829E+03    -99.4291E+03              0.    -720.808E+03
           25227    -274.648E+03    -101.466E+03              0.    -716.586E+03
           25228    -271.283E+03    -103.666E+03              0.    -712.116E+03
           25229    -267.724E+03    -106.032E+03              0.    -707.378E+03
           25230    -263.966E+03    -108.571E+03              0.    -702.352E+03
           25231    -260.000E+03    -111.287E+03              0.    -697.016E+03
           25232    -255.818E+03    -114.186E+03              0.    -691.349E+03
           25233    -251.413E+03    -117.272E+03              0.    -685.328E+03
           25234    -246.774E+03    -120.551E+03              0.    -678.929E+03
           25235    -241.894E+03    -124.030E+03              0.    -672.130E+03
           25236    -236.763E+03    -127.714E+03              0.    -664.906E+03
           25237    -231.371E+03    -131.609E+03              0.    -657.231E+03
           25238    -225.708E+03    -135.721E+03              0.    -649.080E+03
           25239    -219.764E+03    -140.058E+03              0.    -640.425E+03
           25240    -213.527E+03    -144.625E+03              0.    -631.240E+03
           25241    -206.986E+03    -149.431E+03              0.    -621.495E+03
           25242    -200.130E+03    -154.481E+03              0.    -611.162E+03
           25243    -192.946E+03    -159.784E+03              0.    -600.210E+03
           25244    -185.422E+03    -165.347E+03              0.    -588.609E+03
           25245    -177.543E+03    -171.178E+03              0.    -576.326E+03
           25246    -169.298E+03    -177.286E+03              0.    -563.329E+03
           25247    -160.670E+03    -183.679E+03              0.    -549.583E+03
           25248    -151.646E+03    -190.364E+03              0.    -535.054E+03
           25249    -142.211E+03    -197.353E+03              0.    -519.705E+03
           25250    -132.347E+03    -204.653E+03              0.    -503.500E+03
           25251    -122.040E+03    -212.275E+03              0.    -486.400E+03
           25252    -111.270E+03    -220.227E+03              0.    -468.366E+03
           25253    -100.022E+03    -228.522E+03              0.    -449.356E+03
           25254    -88.2750E+03    -237.167E+03              0.    -429.330E+03
           25255    -76.0113E+03    -246.176E+03              0.    -408.245E+03
           25256    -63.2105E+03    -255.558E+03              0.    -386.054E+03
           25257    -49.8519E+03    -265.325E+03              0.    -362.714E+03
           25258    -35.9140E+03    -275.489E+03              0.    -338.177E+03
           25259    -21.3745E+03    -286.062E+03              0.    -312.393E+03
           25260    -6.21028E+03    -297.056E+03              0.    -285.314E+03
           25261     9.60279E+03    -308.485E+03              0.    -256.887E+03
           25262     26.0896E+03    -320.361E+03              0.    -227.059E+03
           25263     43.2760E+03    -332.698E+03              0.    -195.776E+03
           25264     61.1889E+03    -345.509E+03              0.    -162.981E+03
           25265     79.8561E+03    -358.810E+03              0.    -128.616E+03
           25266     99.3066E+03    -372.615E+03              0.    -92.6213E+03
           25267     119.570E+03    -386.938E+03              0.    -54.9354E+03
           25268     140.678E+03    -401.796E+03              0.    -15.4950E+03
           25269     162.663E+03    -417.204E+03              0.     25.7652E+03
           25270     185.558E+03    -433.178E+03              0.     68.9124E+03
           25271     209.398E+03    -449.735E+03              0.     114.016E+03
           25272     234.219E+03    -466.893E+03              0.     161.146E+03
           25273     260.058E+03    -484.668E+03              0.     210.377E+03
           25274     286.954E+03    -503.079E+03              0.     261.783E+03
           25275     314.948E+03    -522.144E+03              0.     315.442E+03
           25276     344.080E+03    -541.882E+03              0.     371.433E+03
           25277     374.396E+03    -562.311E+03              0.     429.839E+03
           25278     405.938E+03    -583.452E+03              0.     490.743E+03
           25279     438.755E+03    -605.325E+03              0.     554.232E+03
           25280     472.894E+03    -627.950E+03              0.     620.394E+03
           25281     508.405E+03    -651.347E+03              0.     689.321E+03
           25282     545.340E+03    -675.539E+03              0.     761.106E+03
           25283     583.754E+03    -700.546E+03              0.     835.846E+03
           25284     623.702E+03    -726.391E+03              0.     913.638E+03
           25285     665.242E+03    -753.096E+03              0.     994.585E+03
           25286     708.434E+03    -780.684E+03              0.     1.07879E+06
           25287     753.340E+03    -809.179E+03              0.     1.16636E+06
           25288     800.026E+03    -838.602E+03              0.     1.25740E+06
           25289     848.558E+03    -868.979E+03              0.     1.35203E+06
           25290     899.006E+03    -900.333E+03              0.     1.45036E+06
           25291     951.441E+03    -932.689E+03              0.     1.55251E+06
           25292     1.00594E+06    -966.072E+03              0.     1.65859E+06
           25293     1.06258E+06    -1.00051E+06              0.     1.76873E+06
           25294     1.12143E+06    -1.03601E+06              0.     1.88306E+06
           25295     1.18259E+06    -1.07262E+06              0.     2.00170E+06
           25296     1.24614E+06    -1.11036E+06              0.     2.12479E+06
           25297     1.31217E+06    -1.14925E+06              0.     2.25246E+06
           25298     1.38077E+06    -1.18931E+06              0.     2.38484E+06
           25299     1.45204E+06    -1.23058E+06              0.     2.52208E+06
           25300     1.52607E+06    -1.27307E+06              0.     2.66431E+06
           25301     1.60297E+06    -1.31681E+06              0.     2.81169E+06
           25302     1.68285E+06    -1.36183E+06              0.     2.96435E+06
           25303     1.76581E+06    -1.40815E+06              0.     3.12245E+06
           25304     1.85198E+06    -1.45579E+06              0.     3.28614E+06
           25305     1.94147E+06    -1.50478E+06              0.     3.45558E+06
           25306     2.03439E+06    -1.55514E+06              0.     3.63091E+06
           25307     2.13089E+06    -1.60688E+06              0.     3.81231E+06
           25308     2.23109E+06    -1.66004E+06              0.     3.99992E+06
           25309     2.33512E+06    -1.71463E+06              0.     4.19391E+06
           25310     2.44313E+06    -1.77066E+06              0.     4.39444E+06
           25311     2.55527E+06    -1.82816E+06              0.     4.60169E+06
           25312     2.67167E+06    -1.88713E+06              0.     4.81580E+06
           25313     2.79251E+06    -1.94760E+06              0.     5.03696E+06
           25314     2.91793E+06    -2.00957E+06              0.     5.26532E+06
           25315     3.04812E+06    -2.07305E+06              0.     5.50106E+06
           25316     3.18323E+06    -2.13804E+06              0.     5.74433E+06
           25317     3.32344E+06    -2.20456E+06              0.     5.99531E+06
           25318     3.46895E+06    -2.27259E+06              0.     6.25416E+06
           25319     3.61993E+06    -2.34214E+06              0.     6.52104E+06
           25320     3.77659E+06    -2.41320E+06              0.     6.79612E+06
           25321     3.93912E+06    -2.48575E+06              0.     7.07954E+06
           25322     4.10773E+06    -2.55978E+06              0.     7.37147E+06
           25323     4.28263E+06    -2.63527E+06              0.     7.67206E+06
           25324     4.46406E+06    -2.71218E+06              0.     7.98144E+06
           25325     4.65222E+06    -2.79048E+06              0.     8.29976E+06
           25326     4.84735E+06    -2.87013E+06              0.     8.62715E+06
           25327     5.04970E+06    -2.95108E+06              0.     8.96373E+06
           25328     5.25951E+06    -3.03327E+06              0.     9.30962E+06
           25329     5.47703E+06    -3.11664E+06              0.     9.66493E+06
           25330     5.70252E+06    -3.20111E+06              0.     10.0297E+06
           25331     5.93625E+06    -3.28658E+06              0.     10.4041E+06
           25332     6.17848E+06    -3.37297E+06              0.     10.7882E+06
           25333     6.42950E+06    -3.46015E+06              0.     11.1820E+06
           25334     6.68957E+06    -3.54801E+06              0.     11.5855E+06
           25335     6.95901E+06    -3.63639E+06              0.     11.9987E+06
           25336     7.23809E+06    -3.72514E+06              0.     12.4217E+06
           25337     7.52712E+06    -3.81408E+06              0.     12.8544E+06
           25338     7.82639E+06    -3.90301E+06              0.     13.2967E+06
           25339     8.13622E+06    -3.99172E+06              0.     13.7486E+06
           25340     8.45692E+06    -4.07997E+06              0.     14.2099E+06
           25341     8.78879E+06    -4.16749E+06              0.     14.6806E+06
           25342     9.13214E+06    -4.25398E+06              0.     15.1603E+06
           25343     9.48731E+06    -4.33912E+06              0.     15.6488E+06
           25344     9.85459E+06    -4.42255E+06              0.     16.1460E+06
           25345     10.2343E+06    -4.50389E+06              0.     16.6514E+06
           25346     10.6267E+06    -4.58271E+06              0.     17.1647E+06
           25347     11.0322E+06    -4.65853E+06              0.     17.6854E+06
           25348     11.4511E+06    -4.73084E+06              0.     18.2131E+06
           25349     11.8835E+06    -4.79908E+06              0.     18.7471E+06
           25350     12.3299E+06    -4.86264E+06              0.     19.2869E+06
           25351     12.7904E+06    -4.92083E+06              0.     19.8317E+06
           25352     13.2653E+06    -4.97293E+06              0.     20.3808E+06
           25353     13.7548E+06    -5.01813E+06              0.     20.9331E+06
           25354     14.2592E+06    -5.05557E+06              0.     21.4879E+06
           25355     14.7786E+06    -5.08428E+06              0.     22.0440E+06
           25356     15.3132E+06    -5.10323E+06              0.     22.6001E+06
           25357     15.8630E+06    -5.11128E+06              0.     23.1550E+06
           25358     16.4281E+06    -5.10721E+06              0.     23.7072E+06
           25359     17.0085E+06    -5.08967E+06              0.     24.2552E+06
           25360     17.6042E+06    -5.05718E+06              0.     24.7972E+06
           25361     18.2151E+06    -5.00817E+06              0.     25.3314E+06
           25362     18.8410E+06    -4.94090E+06              0.     25.8557E+06
           25363     19.4816E+06    -4.85347E+06              0.     26.3679E+06
           25364     20.1366E+06    -4.74383E+06              0.     26.8657E+06
           25365     20.8055E+06    -4.60974E+06              0.     27.3464E+06
           25366     21.4877E+06    -4.44876E+06              0.     27.8072E+06
           25367     22.1826E+06    -4.25823E+06              0.     28.2452E+06
           25368     22.8894E+06    -4.03527E+06              0.     28.6571E+06
           25369     23.6069E+06    -3.77672E+06              0.     29.0395E+06
           25370     24.3341E+06    -3.47916E+06              0.     29.3886E+06
           25371     25.0695E+06    -3.13885E+06              0.     29.7004E+06
           25372     25.8117E+06    -2.75172E+06              0.     29.9707E+06
           25373     26.5587E+06    -2.31333E+06              0.     30.1949E+06
           25374     27.3085E+06    -1.81885E+06              0.     30.3683E+06
           25375     28.0587E+06    -1.26301E+06              0.     30.4857E+06
           25376     28.8066E+06    -640.069E+03              0.     30.5416E+06
           25377     29.5492E+06     56.2403E+03              0.     30.5302E+06
           25378     30.2831E+06     832.741E+03              0.     30.4456E+06
           25379     31.0043E+06     1.69689E+06              0.     30.2812E+06
           25380     31.7087E+06     2.65681E+06              0.     30.0304E+06
           25381     32.3914E+06     3.72137E+06              0.     29.6860E+06
           25382     33.0470E+06     4.90025E+06              0.     29.2407E+06
           25383     33.6696E+06     6.20398E+06              0.     28.6868E+06
           25384     34.2526E+06     7.64410E+06              0.     28.0162E+06
           25385     34.7886E+06     9.23316E+06              0.     27.2207E+06
           25386     35.2697E+06     10.9849E+06              0.     26.2918E+06
           25387     35.6868E+06     12.9142E+06              0.     25.2206E+06
           25388     36.0297E+06     15.0374E+06              0.     23.9982E+06
           25389     36.8488E+06     17.4185E+06              0.     23.9680E+06
           25390    -322.364E+03    -143.819E+03              0.    -948.794E+03
           25391    -322.079E+03    -141.183E+03              0.    -947.167E+03
           25392    -322.922E+03    -139.056E+03              0.    -938.534E+03
           25393    -323.763E+03    -136.919E+03              0.    -930.153E+03
           25394    -324.598E+03    -134.777E+03              0.    -922.022E+03
           25395    -325.425E+03    -132.636E+03              0.    -914.142E+03
           25396    -326.239E+03    -130.500E+03              0.    -906.512E+03
           25397    -327.037E+03    -128.375E+03              0.    -899.130E+03
           25398    -327.817E+03    -126.266E+03              0.    -891.995E+03
           25399    -328.574E+03    -124.176E+03              0.    -885.104E+03
           25400    -329.308E+03    -122.111E+03              0.    -878.455E+03
           25401    -330.013E+03    -120.074E+03              0.    -872.044E+03
           25402    -330.688E+03    -118.069E+03              0.    -865.868E+03
           25403    -331.330E+03    -116.101E+03              0.    -859.923E+03
           25404    -331.936E+03    -114.172E+03              0.    -854.205E+03
           25405    -332.503E+03    -112.287E+03              0.    -848.708E+03
           25406    -333.029E+03    -110.449E+03              0.    -843.428E+03
           25407    -333.511E+03    -108.661E+03              0.    -838.358E+03
           25408    -333.946E+03    -106.926E+03              0.    -833.494E+03
           25409    -334.332E+03    -105.248E+03              0.    -828.829E+03
           25410    -334.667E+03    -103.630E+03              0.    -824.356E+03
           25411    -334.947E+03    -102.075E+03              0.    -820.070E+03
           25412    -335.169E+03    -100.586E+03              0.    -815.961E+03
           25413    -335.332E+03    -99.1653E+03              0.    -812.024E+03
           25414    -335.432E+03    -97.8165E+03              0.    -808.251E+03
           25415    -335.466E+03    -96.5423E+03              0.    -804.632E+03
           25416    -335.432E+03    -95.3455E+03              0.    -801.161E+03
           25417    -335.327E+03    -94.2291E+03              0.    -797.828E+03
           25418    -335.147E+03    -93.1958E+03              0.    -794.625E+03
           25419    -334.891E+03    -92.2485E+03              0.    -791.541E+03
           25420    -334.553E+03    -91.3901E+03              0.    -788.568E+03
           25421    -334.132E+03    -90.6235E+03              0.    -785.697E+03
           25422    -333.625E+03    -89.9515E+03              0.    -782.916E+03
           25423    -333.026E+03    -89.3771E+03              0.    -780.215E+03
           25424    -332.334E+03    -88.9032E+03              0.    -777.584E+03
           25425    -331.544E+03    -88.5329E+03              0.    -775.011E+03
           25426    -330.653E+03    -88.2692E+03              0.    -772.485E+03
           25427    -329.656E+03    -88.1153E+03              0.    -769.995E+03
           25428    -328.550E+03    -88.0742E+03              0.    -767.529E+03
           25429    -327.331E+03    -88.1493E+03              0.    -765.073E+03
           25430    -325.993E+03    -88.3439E+03              0.    -762.616E+03
           25431    -324.534E+03    -88.6613E+03              0.    -760.144E+03
           25432    -322.947E+03    -89.1051E+03              0.    -757.644E+03
           25433    -321.228E+03    -89.6788E+03              0.    -755.102E+03
           25434    -319.372E+03    -90.3861E+03              0.    -752.504E+03
           25435    -317.374E+03    -91.2308E+03              0.    -749.836E+03
           25436    -315.228E+03    -92.2167E+03              0.    -747.082E+03
           25437    -312.929E+03    -93.3479E+03              0.    -744.227E+03
           25438    -310.470E+03    -94.6285E+03              0.    -741.255E+03
           25439    -307.846E+03    -96.0626E+03              0.    -738.151E+03
           25440    -305.051E+03    -97.6548E+03              0.    -734.897E+03
           25441    -302.077E+03    -99.4095E+03              0.    -731.476E+03
           25442    -298.918E+03    -101.331E+03              0.    -727.871E+03
           25443    -295.567E+03    -103.425E+03              0.    -724.063E+03
           25444    -292.016E+03    -105.696E+03              0.    -720.034E+03
           25445    -288.257E+03    -108.149E+03              0.    -715.765E+03
           25446    -284.283E+03    -110.789E+03              0.    -711.235E+03
           25447    -280.086E+03    -113.622E+03              0.    -706.426E+03
           25448    -275.655E+03    -116.654E+03              0.    -701.314E+03
           25449    -270.984E+03    -119.889E+03              0.    -695.881E+03
           25450    -266.062E+03    -123.336E+03              0.    -690.102E+03
           25451    -260.879E+03    -126.999E+03              0.    -683.956E+03
           25452    -255.425E+03    -130.885E+03              0.    -677.418E+03
           25453    -249.691E+03    -135.000E+03              0.    -670.466E+03
           25454    -243.664E+03    -139.352E+03              0.    -663.073E+03
           25455    -237.334E+03    -143.948E+03              0.    -655.215E+03
           25456    -230.690E+03    -148.795E+03              0.    -646.865E+03
           25457    -223.717E+03    -153.901E+03              0.    -637.996E+03
           25458    -216.405E+03    -159.273E+03              0.    -628.580E+03
           25459    -208.740E+03    -164.919E+03              0.    -618.588E+03
           25460    -200.707E+03    -170.848E+03              0.    -607.991E+03
           25461    -192.294E+03    -177.069E+03              0.    -596.757E+03
           25462    -183.485E+03    -183.590E+03              0.    -584.857E+03
           25463    -174.264E+03    -190.420E+03              0.    -572.257E+03
           25464    -164.616E+03    -197.569E+03              0.    -558.924E+03
           25465    -154.524E+03    -205.047E+03              0.    -544.823E+03
           25466    -143.972E+03    -212.864E+03              0.    -529.919E+03
           25467    -132.941E+03    -221.030E+03              0.    -514.176E+03
           25468    -121.412E+03    -229.555E+03              0.    -497.556E+03
           25469    -109.367E+03    -238.451E+03              0.    -480.020E+03
           25470    -96.7859E+03    -247.730E+03              0.    -461.529E+03
           25471    -83.6473E+03    -257.402E+03              0.     -442.04E+03
           25472    -69.9300E+03    -267.481E+03              0.    -421.512E+03
           25473    -55.6118E+03    -277.977E+03              0.    -399.902E+03
           25474    -40.6694E+03    -288.905E+03              0.    -377.163E+03
           25475    -25.0789E+03    -300.277E+03              0.    -353.250E+03
           25476    -8.81532E+03    -312.107E+03              0.    -328.115E+03
           25477     8.14724E+03    -324.408E+03              0.    -301.709E+03
           25478     25.8356E+03    -337.196E+03              0.    -273.981E+03
           25479     44.2777E+03    -350.484E+03              0.    -244.879E+03
           25480     63.5024E+03    -364.288E+03              0.    -214.349E+03
           25481     83.5396E+03    -378.624E+03              0.    -182.336E+03
           25482     104.421E+03    -393.507E+03              0.    -148.783E+03
           25483     126.178E+03    -408.954E+03              0.    -113.631E+03
           25484     148.844E+03    -424.981E+03              0.    -76.8195E+03
           25485     172.455E+03    -441.606E+03              0.    -38.2866E+03
           25486     197.046E+03    -458.847E+03              0.     2.03187E+03
           25487     222.654E+03    -476.722E+03              0.     44.2018E+03
           25488     249.319E+03    -495.250E+03              0.     88.2909E+03
           25489     277.081E+03    -514.448E+03              0.     134.369E+03
           25490     305.981E+03    -534.338E+03              0.     182.508E+03
           25491     336.062E+03    -554.939E+03              0.     232.781E+03
           25492     367.370E+03    -576.272E+03              0.     285.265E+03
           25493     399.951E+03    -598.357E+03              0.     340.037E+03
           25494     433.854E+03    -621.216E+03              0.     397.177E+03
           25495     469.128E+03    -644.870E+03              0.     456.769E+03
           25496     505.824E+03    -669.343E+03              0.     518.897E+03
           25497     543.998E+03    -694.657E+03              0.     583.647E+03
           25498     583.705E+03    -720.835E+03              0.     651.110E+03
           25499     625.003E+03    -747.900E+03              0.     721.376E+03
           25500     667.951E+03    -775.878E+03              0.     794.540E+03
           25501     712.612E+03    -804.792E+03              0.     870.699E+03
           25502     759.050E+03    -834.668E+03              0.     949.952E+03
           25503     807.333E+03    -865.531E+03              0.     1.03240E+06
           25504     857.529E+03    -897.406E+03              0.     1.11815E+06
           25505      909.71E+03    -930.319E+03              0.     1.20730E+06
           25506     963.951E+03    -964.298E+03              0.     1.29997E+06
           25507     1.02033E+06    -999.369E+03              0.     1.39627E+06
           25508     1.07892E+06    -1.03556E+06              0.     1.49632E+06
           25509     1.13982E+06    -1.07289E+06              0.     1.60022E+06
           25510     1.20310E+06    -1.11140E+06              0.     1.70810E+06
           25511     1.26885E+06    -1.15111E+06              0.     1.82009E+06
           25512     1.33717E+06    -1.19205E+06              0.     1.93631E+06
           25513     1.40816E+06    -1.23425E+06              0.     2.05688E+06
           25514     1.48190E+06    -1.27773E+06              0.     2.18194E+06
           25515     1.55851E+06    -1.32252E+06              0.     2.31162E+06
           25516     1.63809E+06    -1.36866E+06              0.     2.44606E+06
           25517     1.72075E+06    -1.41616E+06              0.     2.58540E+06
           25518     1.80660E+06    -1.46505E+06              0.     2.72977E+06
           25519     1.89577E+06    -1.51537E+06              0.     2.87932E+06
           25520     1.98836E+06    -1.56714E+06              0.     3.03420E+06
           25521     2.08452E+06    -1.62038E+06              0.     3.19456E+06
           25522     2.18437E+06    -1.67512E+06              0.     3.36054E+06
           25523     2.28805E+06    -1.73138E+06              0.     3.53230E+06
           25524     2.39569E+06    -1.78919E+06              0.     3.70999E+06
           25525     2.50744E+06    -1.84856E+06              0.     3.89377E+06
           25526     2.62345E+06    -1.90953E+06              0.     4.08379E+06
           25527     2.74388E+06    -1.97210E+06              0.     4.28022E+06
           25528     2.86889E+06    -2.03631E+06              0.     4.48322E+06
           25529     2.99863E+06    -2.10215E+06              0.     4.69293E+06
           25530     3.13329E+06    -2.16964E+06              0.     4.90954E+06
           25531     3.27304E+06    -2.23881E+06              0.      5.1332E+06
           25532     3.41806E+06    -2.30964E+06              0.     5.36407E+06
           25533     3.56854E+06    -2.38216E+06              0.     5.60231E+06
           25534     3.72467E+06    -2.45636E+06              0.     5.84809E+06
           25535     3.88666E+06    -2.53223E+06              0.     6.10156E+06
           25536     4.05471E+06    -2.60978E+06              0.     6.36288E+06
           25537     4.22903E+06    -2.68899E+06              0.     6.63221E+06
           25538     4.40985E+06    -2.76985E+06              0.     6.90970E+06
           25539     4.59739E+06    -2.85233E+06              0.     7.19550E+06
           25540     4.79189E+06    -2.93641E+06              0.     7.48975E+06
           25541     4.99358E+06    -3.02206E+06              0.     7.79259E+06
           25542     5.20271E+06    -3.10923E+06              0.     8.10415E+06
           25543     5.41953E+06    -3.19786E+06              0.     8.42458E+06
           25544     5.64430E+06    -3.28792E+06              0.     8.75397E+06
           25545     5.87730E+06    -3.37932E+06              0.     9.09244E+06
           25546     6.11878E+06    -3.47199E+06              0.     9.44010E+06
           25547     6.36904E+06    -3.56584E+06              0.     9.79702E+06
           25548     6.62836E+06    -3.66076E+06              0.     10.1633E+06
           25549     6.89704E+06    -3.75665E+06              0.     10.5390E+06
           25550     7.17536E+06    -3.85337E+06              0.     10.9241E+06
           25551     7.46365E+06    -3.95077E+06              0.     11.3187E+06
           25552     7.76220E+06    -4.04870E+06              0.     11.7228E+06
           25553     8.07133E+06    -4.14696E+06              0.     12.1364E+06
           25554     8.39136E+06    -4.24537E+06              0.     12.5594E+06
           25555     8.72263E+06    -4.34368E+06              0.     12.9918E+06
           25556     9.06544E+06    -4.44166E+06              0.     13.4335E+06
           25557     9.42015E+06    -4.53903E+06              0.     13.8843E+06
           25558     9.78708E+06    -4.63548E+06              0.     14.3442E+06
           25559     10.1666E+06    -4.73068E+06              0.     14.8129E+06
           25560     10.5589E+06    -4.82426E+06              0.     15.2901E+06
           25561     10.9645E+06    -4.91583E+06              0.     15.7757E+06
           25562     11.3837E+06    -5.00493E+06              0.     16.2693E+06
           25563     11.8167E+06    -5.09108E+06              0.     16.7704E+06
           25564     12.2639E+06    -5.17376E+06              0.     17.2787E+06
           25565     12.7257E+06    -5.25238E+06              0.     17.7938E+06
           25566     13.2022E+06    -5.32631E+06              0.     18.3149E+06
           25567     13.6939E+06    -5.39485E+06              0.     18.8416E+06
           25568     14.2009E+06    -5.45725E+06              0.     19.3730E+06
           25569     14.7236E+06    -5.51269E+06              0.     19.9085E+06
           25570     15.2621E+06    -5.56027E+06              0.     20.4471E+06
           25571     15.8167E+06    -5.59902E+06              0.     20.9879E+06
           25572     16.3876E+06    -5.62786E+06              0.     21.5298E+06
           25573     16.9748E+06    -5.64565E+06              0.     22.0717E+06
           25574     17.5786E+06    -5.65112E+06              0.     22.6122E+06
           25575     18.1989E+06    -5.64290E+06              0.     23.1500E+06
           25576     18.8358E+06    -5.61950E+06              0.     23.6835E+06
           25577     19.4892E+06    -5.57931E+06              0.     24.2110E+06
           25578     20.1589E+06    -5.52057E+06              0.     24.7308E+06
           25579     20.8449E+06    -5.44135E+06              0.     25.2407E+06
           25580     21.5468E+06    -5.33959E+06              0.     25.7387E+06
           25581     22.2642E+06    -5.21303E+06              0.     26.2225E+06
           25582     22.9966E+06    -5.05922E+06              0.     26.6895E+06
           25583     23.7435E+06    -4.87548E+06              0.     27.1371E+06
           25584     24.5041E+06    -4.65894E+06              0.     27.5623E+06
           25585     25.2776E+06    -4.40644E+06              0.     27.9619E+06
           25586     26.0629E+06    -4.11456E+06              0.     28.3327E+06
           25587     26.8587E+06    -3.77961E+06              0.     28.6710E+06
           25588     27.6637E+06    -3.39754E+06              0.     28.9729E+06
           25589     28.4763E+06    -2.96398E+06              0.     29.2345E+06
           25590     29.2945E+06    -2.47417E+06              0.     29.4512E+06
           25591     30.1162E+06    -1.92293E+06              0.     29.6186E+06
           25592     30.9390E+06    -1.30464E+06              0.     29.7315E+06
           25593     31.7601E+06    -613.177E+03              0.     29.7849E+06
           25594     32.5765E+06     158.092E+03              0.     29.7733E+06
           25595     33.3846E+06     1.01639E+06              0.     29.6907E+06
           25596     34.1806E+06     1.96958E+06              0.     29.5311E+06
           25597     34.9601E+06     3.02621E+06              0.     29.2881E+06
           25598     35.7182E+06     4.19557E+06              0.     28.9549E+06
           25599     36.4497E+06     5.48776E+06              0.     28.5247E+06
           25600     37.1485E+06     6.91376E+06              0.     27.9901E+06
           25601     37.8080E+06     8.48555E+06              0.     27.3436E+06
           25602     38.4210E+06     10.2161E+06              0.     26.5775E+06
           25603     38.9795E+06     12.1196E+06              0.     25.6837E+06
           25604     39.4748E+06     14.2114E+06              0.     24.6542E+06
           25605     39.8972E+06     16.5082E+06              0.     23.4807E+06
           25606     40.7982E+06     19.0856E+06              0.     23.4696E+06
           25607    -342.512E+03    -152.891E+03              0.    -947.865E+03
           25608    -342.195E+03    -149.943E+03              0.    -946.237E+03
           25609    -343.140E+03    -147.564E+03              0.    -937.606E+03
           25610    -344.082E+03    -145.174E+03              0.    -929.229E+03
           25611    -345.019E+03    -142.779E+03              0.    -921.106E+03
           25612    -345.945E+03    -140.385E+03              0.    -913.238E+03
           25613    -346.857E+03    -137.998E+03              0.    -905.623E+03
           25614    -347.752E+03    -135.624E+03              0.    -898.260E+03
           25615    -348.627E+03    -133.267E+03              0.    -891.146E+03
           25616    -349.477E+03    -130.933E+03              0.    -884.281E+03
           25617    -350.299E+03    -128.625E+03              0.    -877.659E+03
           25618    -351.091E+03    -126.350E+03              0.    -871.280E+03
           25619    -351.849E+03    -124.111E+03              0.    -865.138E+03
           25620    -352.571E+03    -121.912E+03              0.    -859.230E+03
           25621    -353.252E+03    -119.757E+03              0.    -853.551E+03
           25622    -353.891E+03    -117.652E+03              0.    -848.097E+03
           25623    -354.484E+03    -115.598E+03              0.    -842.862E+03
           25624    -355.029E+03    -113.600E+03              0.    -837.840E+03
           25625    -355.522E+03    -111.662E+03              0.    -833.027E+03
           25626    -355.960E+03    -109.786E+03              0.    -828.416E+03
           25627    -356.341E+03    -107.978E+03              0.    -824.000E+03
           25628    -356.662E+03    -106.239E+03              0.    -819.772E+03
           25629    -356.920E+03    -104.573E+03              0.    -815.726E+03
           25630    -357.111E+03    -102.983E+03              0.    -811.853E+03
           25631    -357.233E+03    -101.473E+03              0.    -808.148E+03
           25632    -357.283E+03    -100.046E+03              0.    -804.600E+03
           25633    -357.257E+03    -98.7048E+03              0.    -801.202E+03
           25634    -357.152E+03    -97.4525E+03              0.    -797.946E+03
           25635    -356.965E+03    -96.2925E+03              0.    -794.823E+03
           25636    -356.693E+03    -95.2278E+03              0.    -791.823E+03
           25637    -356.332E+03    -94.2616E+03              0.    -788.937E+03
           25638    -355.879E+03    -93.3971E+03              0.    -786.155E+03
           25639    -355.329E+03    -92.6375E+03              0.    -783.468E+03
           25640    -354.680E+03    -91.9859E+03              0.    -780.865E+03
           25641    -353.926E+03    -91.4457E+03              0.    -778.334E+03
           25642    -353.065E+03    -91.0203E+03              0.    -775.867E+03
           25643    -352.092E+03    -90.7128E+03              0.    -773.450E+03
           25644    -351.002E+03    -90.5269E+03              0.    -771.073E+03
           25645    -349.792E+03     -90.466E+03              0.    -768.724E+03
           25646    -348.456E+03    -90.5337E+03              0.    -766.391E+03
           25647    -346.990E+03    -90.7336E+03              0.    -764.060E+03
           25648    -345.389E+03    -91.0695E+03              0.    -761.720E+03
           25649    -343.647E+03    -91.5453E+03              0.    -759.357E+03
           25650     -341.76E+03    -92.1648E+03              0.    -756.957E+03
           25651    -339.721E+03    -92.9322E+03              0.    -754.506E+03
           25652    -337.525E+03    -93.8515E+03              0.    -751.991E+03
           25653    -335.166E+03    -94.9272E+03              0.    -749.395E+03
           25654    -332.638E+03    -96.1635E+03              0.    -746.705E+03
           25655    -329.934E+03    -97.5651E+03              0.    -743.905E+03
           25656    -327.047E+03    -99.1366E+03              0.    -740.978E+03
           25657    -323.970E+03    -100.883E+03              0.    -737.909E+03
           25658    -320.696E+03    -102.809E+03              0.    -734.679E+03
           25659    -317.218E+03    -104.920E+03              0.    -731.273E+03
           25660    -313.527E+03    -107.221E+03              0.    -727.672E+03
           25661    -309.616E+03    -109.718E+03              0.    -723.858E+03
           25662    -305.476E+03    -112.416E+03              0.    -719.811E+03
           25663    -301.098E+03    -115.321E+03              0.    -715.514E+03
           25664    -296.472E+03    -118.440E+03              0.    -710.944E+03
           25665    -291.590E+03    -121.778E+03              0.    -706.083E+03
           25666    -286.441E+03    -125.342E+03              0.    -700.909E+03
           25667    -281.015E+03    -129.139E+03              0.    -695.399E+03
           25668    -275.302E+03    -133.175E+03              0.    -689.533E+03
           25669    -269.289E+03    -137.458E+03              0.    -683.286E+03
           25670    -262.966E+03    -141.994E+03              0.    -676.635E+03
           25671    -256.321E+03    -146.792E+03              0.    -669.557E+03
           25672    -249.340E+03    -151.860E+03              0.    -662.024E+03
           25673    -242.012E+03    -157.205E+03              0.    -654.012E+03
           25674    -234.322E+03    -162.836E+03              0.    -645.495E+03
           25675    -226.256E+03    -168.761E+03              0.    -636.444E+03
           25676    -217.801E+03    -174.989E+03              0.    -626.831E+03
           25677    -208.940E+03    -181.531E+03              0.    -616.628E+03
           25678    -199.658E+03    -188.394E+03              0.    -605.804E+03
           25679    -189.939E+03    -195.589E+03              0.    -594.328E+03
           25680    -179.766E+03    -203.126E+03              0.    -582.170E+03
           25681    -169.121E+03    -211.016E+03              0.    -569.295E+03
           25682    -157.986E+03    -219.268E+03              0.    -555.670E+03
           25683    -146.341E+03    -227.895E+03              0.    -541.261E+03
           25684    -134.169E+03    -236.908E+03              0.    -526.031E+03
           25685    -121.447E+03    -246.319E+03              0.    -509.944E+03
           25686    -108.154E+03    -256.139E+03              0.    -492.962E+03
           25687    -94.2697E+03    -266.381E+03              0.    -475.046E+03
           25688    -79.7698E+03    -277.059E+03              0.    -456.154E+03
           25689    -64.6309E+03    -288.185E+03              0.    -436.247E+03
           25690    -48.8285E+03    -299.773E+03              0.    -415.280E+03
           25691    -32.3369E+03    -311.837E+03              0.    -393.210E+03
           25692    -15.1298E+03    -324.392E+03              0.    -369.991E+03
           25693     2.82056E+03    -337.453E+03              0.    -345.577E+03
           25694     21.5425E+03    -351.035E+03              0.    -319.919E+03
           25695     41.0658E+03    -365.154E+03              0.    -292.968E+03
           25696     61.4210E+03    -379.826E+03              0.    -264.672E+03
           25697     82.6401E+03    -395.068E+03              0.    -234.979E+03
           25698     104.756E+03    -410.897E+03              0.    -203.834E+03
           25699     127.803E+03    -427.330E+03              0.    -171.183E+03
           25700     151.818E+03    -444.386E+03              0.    -136.966E+03
           25701     176.835E+03    -462.083E+03              0.    -101.126E+03
           25702     202.895E+03    -480.440E+03              0.    -63.6013E+03
           25703     230.037E+03    -499.478E+03              0.    -24.3289E+03
           25704     258.301E+03    -519.215E+03              0.     16.7555E+03
           25705     287.732E+03    -539.672E+03              0.     59.7183E+03
           25706     318.372E+03    -560.871E+03              0.     104.628E+03
           25707     350.268E+03    -582.833E+03              0.     151.554E+03
           25708     383.467E+03    -605.580E+03              0.     200.569E+03
           25709     418.019E+03    -629.134E+03              0.     251.747E+03
           25710     453.976E+03    -653.519E+03              0.     305.165E+03
           25711     491.389E+03    -678.759E+03              0.     360.901E+03
           25712     530.315E+03    -704.876E+03              0.     419.036E+03
           25713      570.81E+03    -731.896E+03              0.     479.652E+03
           25714     612.934E+03    -759.845E+03              0.     542.835E+03
           25715     656.747E+03    -788.747E+03              0.     608.672E+03
           25716     702.314E+03    -818.628E+03              0.     677.252E+03
           25717     749.701E+03    -849.516E+03              0.     748.668E+03
           25718     798.975E+03    -881.437E+03              0.     823.013E+03
           25719     850.207E+03    -914.418E+03              0.     900.386E+03
           25720     903.472E+03    -948.488E+03              0.     980.885E+03
           25721     958.845E+03    -983.674E+03              0.     1.06461E+06
           25722     1.01640E+06    -1.02001E+06              0.     1.15167E+06
           25723     1.07623E+06    -1.05751E+06              0.     1.24217E+06
           25724     1.13841E+06    -1.09622E+06              0.     1.33622E+06
           25725     1.20304E+06    -1.13616E+06              0.     1.43393E+06
           25726     1.27019E+06    -1.17737E+06              0.     1.53541E+06
           25727     1.33997E+06    -1.21987E+06              0.     1.64079E+06
           25728     1.41248E+06    -1.26369E+06              0.     1.75018E+06
           25729     1.48780E+06    -1.30887E+06              0.     1.86370E+06
           25730     1.56606E+06    -1.35543E+06              0.     1.98148E+06
           25731     1.64736E+06    -1.40341E+06              0.     2.10365E+06
           25732     1.73180E+06    -1.45283E+06              0.     2.23034E+06
           25733     1.81951E+06    -1.50373E+06              0.     2.36168E+06
           25734     1.91061E+06    -1.55613E+06              0.     2.49780E+06
           25735     2.00522E+06    -1.61007E+06              0.     2.63885E+06
           25736     2.10346E+06    -1.66557E+06              0.     2.78496E+06
           25737     2.20548E+06    -1.72266E+06              0.     2.93627E+06
           25738     2.31141E+06    -1.78138E+06              0.     3.09293E+06
           25739     2.42140E+06    -1.84174E+06              0.     3.25508E+06
           25740     2.53558E+06    -1.90378E+06              0.     3.42288E+06
           25741     2.65412E+06    -1.96751E+06              0.     3.59647E+06
           25742     2.77717E+06    -2.03297E+06              0.     3.77600E+06
           25743     2.90490E+06    -2.10017E+06              0.     3.96164E+06
           25744     3.03747E+06    -2.16914E+06              0.     4.15352E+06
           25745     3.17505E+06    -2.23989E+06              0.     4.35181E+06
           25746     3.31784E+06    -2.31244E+06              0.     4.55667E+06
           25747     3.46600E+06    -2.38681E+06              0.     4.76824E+06
           25748     3.61975E+06    -2.46300E+06              0.     4.98670E+06
           25749     3.77927E+06    -2.54102E+06              0.     5.21219E+06
           25750     3.94476E+06    -2.62088E+06              0.     5.44486E+06
           25751     4.11645E+06    -2.70257E+06              0.     5.68489E+06
           25752     4.29454E+06    -2.78610E+06              0.     5.93241E+06
           25753     4.47926E+06    -2.87146E+06              0.     6.18759E+06
           25754     4.67085E+06    -2.95862E+06              0.     6.45058E+06
           25755     4.86953E+06    -3.04758E+06              0.     6.72151E+06
           25756     5.07556E+06    -3.13831E+06              0.     7.00053E+06
           25757     5.28918E+06    -3.23077E+06              0.     7.28779E+06
           25758     5.51066E+06    -3.32493E+06              0.     7.58341E+06
           25759     5.74025E+06    -3.42073E+06              0.     7.88753E+06
           25760     5.97824E+06    -3.51813E+06              0.     8.20027E+06
           25761     6.22490E+06    -3.61705E+06              0.     8.52173E+06
           25762     6.48053E+06    -3.71741E+06              0.     8.85203E+06
           25763     6.74540E+06    -3.81913E+06              0.     9.19126E+06
           25764     7.01983E+06    -3.92211E+06              0.     9.53950E+06
           25765     7.30413E+06    -4.02623E+06              0.     9.89682E+06
           25766     7.59859E+06    -4.13135E+06              0.     10.2633E+06
           25767     7.90356E+06    -4.23733E+06              0.     10.6389E+06
           25768     8.21934E+06    -4.34402E+06              0.     11.0238E+06
           25769     8.54628E+06    -4.45121E+06              0.     11.4178E+06
           25770     8.88471E+06    -4.55871E+06              0.     11.8211E+06
           25771     9.23498E+06    -4.66629E+06              0.     12.2335E+06
           25772     9.59742E+06    -4.77370E+06              0.     12.6550E+06
           25773     9.97239E+06    -4.88065E+06              0.     13.0854E+06
           25774     10.3602E+06    -4.98685E+06              0.     13.5248E+06
           25775     10.7613E+06    -5.09194E+06              0.     13.9729E+06
           25776     11.1760E+06    -5.19555E+06              0.     14.4295E+06
           25777     11.6046E+06    -5.29728E+06              0.     14.8944E+06
           25778     12.0475E+06    -5.39668E+06              0.     15.3673E+06
           25779     12.5050E+06    -5.49325E+06              0.     15.8479E+06
           25780     12.9776E+06    -5.58645E+06              0.     16.3358E+06
           25781     13.4654E+06    -5.67570E+06              0.     16.8306E+06
           25782     13.9689E+06    -5.76034E+06              0.     17.3319E+06
           25783     14.4884E+06    -5.83968E+06              0.     17.8390E+06
           25784     15.0241E+06    -5.91294E+06              0.     18.3514E+06
           25785     15.5764E+06    -5.97929E+06              0.     18.8683E+06
           25786     16.1455E+06    -6.03783E+06              0.      19.389E+06
           25787     16.7317E+06    -6.08756E+06              0.     19.9127E+06
           25788     17.3351E+06    -6.12740E+06              0.     20.4383E+06
           25789     17.9560E+06    -6.15619E+06              0.     20.9650E+06
           25790     18.5945E+06    -6.17264E+06              0.     21.4914E+06
           25791     19.2507E+06    -6.17538E+06              0.     22.0164E+06
           25792     19.9246E+06    -6.16291E+06              0.     22.5386E+06
           25793     20.6163E+06    -6.13358E+06              0.     23.0565E+06
           25794     21.3257E+06    -6.08564E+06              0.     23.5684E+06
           25795     22.0527E+06    -6.01716E+06              0.     24.0726E+06
           25796     22.7970E+06    -5.92606E+06              0.     24.5672E+06
           25797     23.5583E+06    -5.81008E+06              0.     25.0500E+06
           25798     24.3363E+06    -5.66677E+06              0.     25.5188E+06
           25799     25.1305E+06    -5.49347E+06              0.     25.9712E+06
           25800     25.9402E+06    -5.28730E+06              0.     26.4046E+06
           25801     26.7646E+06    -5.04513E+06              0.     26.8161E+06
           25802     27.6028E+06    -4.76359E+06              0.     27.2027E+06
           25803     28.4538E+06    -4.43899E+06              0.     27.5612E+06
           25804     29.3163E+06    -4.06737E+06              0.     27.8880E+06
           25805     30.1889E+06    -3.64440E+06              0.     28.1796E+06
           25806     31.0698E+06    -3.16540E+06              0.     28.4319E+06
           25807     31.9571E+06    -2.62532E+06              0.     28.6408E+06
           25808     32.8487E+06    -2.01865E+06              0.     28.8018E+06
           25809     33.7420E+06    -1.33943E+06              0.     28.9103E+06
           25810     34.6343E+06    -581.199E+03              0.     28.9611E+06
           25811     35.5225E+06     263.047E+03              0.     28.9491E+06
           25812     36.4029E+06     1.20090E+06              0.     28.8687E+06
           25813     37.2717E+06     2.24060E+06              0.     28.7141E+06
           25814     38.1245E+06     3.39108E+06              0.     28.4793E+06
           25815     38.9564E+06     4.66204E+06              0.     28.1580E+06
           25816     39.7620E+06     6.06397E+06              0.     27.7434E+06
           25817     40.5355E+06     7.60825E+06              0.     27.2288E+06
           25818     41.2702E+06     9.30726E+06              0.     26.6072E+06
           25819     41.9589E+06     11.1744E+06              0.     25.8713E+06
           25820     42.5938E+06     13.2241E+06              0.     25.0137E+06
           25821     43.1662E+06     15.4722E+06              0.     24.0268E+06
           25822     43.6666E+06     17.9357E+06              0.     22.9031E+06
           25823     44.6456E+06     20.7005E+06              0.     22.9090E+06
           25824    -362.675E+03    -161.969E+03              0.    -946.832E+03
           25825    -362.325E+03    -158.704E+03              0.    -945.205E+03
           25826    -363.373E+03    -156.069E+03              0.    -936.575E+03
           25827    -364.419E+03    -153.422E+03              0.    -928.203E+03
           25828    -365.458E+03    -150.770E+03              0.    -920.089E+03
           25829    -366.486E+03    -148.120E+03              0.    -912.234E+03
           25830    -367.499E+03    -145.479E+03              0.    -904.636E+03
           25831    -368.492E+03    -142.852E+03              0.    -897.293E+03
           25832    -369.463E+03    -140.244E+03              0.    -890.204E+03
           25833    -370.406E+03    -137.661E+03              0.    -883.365E+03
           25834    -371.320E+03    -135.109E+03              0.    -876.775E+03
           25835    -372.200E+03    -132.592E+03              0.    -870.430E+03
           25836    -373.044E+03    -130.115E+03              0.    -864.325E+03
           25837    -373.847E+03    -127.683E+03              0.    -858.458E+03
           25838    -374.606E+03    -125.300E+03              0.    -852.823E+03
           25839    -375.318E+03    -122.970E+03              0.    -847.415E+03
           25840    -375.981E+03    -120.698E+03              0.    -842.230E+03
           25841    -376.590E+03    -118.488E+03              0.    -837.261E+03
           25842    -377.143E+03    -116.343E+03              0.    -832.504E+03
           25843    -377.636E+03    -114.267E+03              0.    -827.951E+03
           25844    -378.067E+03    -112.265E+03              0.    -823.597E+03
           25845    -378.431E+03    -110.339E+03              0.    -819.434E+03
           25846    -378.727E+03    -108.493E+03              0.    -815.456E+03
           25847    -378.950E+03    -106.732E+03              0.    -811.655E+03
           25848    -379.097E+03    -105.057E+03              0.    -808.024E+03
           25849    -379.165E+03    -103.474E+03              0.    -804.554E+03
           25850    -379.150E+03    -101.985E+03              0.    -801.238E+03
           25851    -379.050E+03    -100.594E+03              0.    -798.066E+03
           25852    -378.859E+03    -99.3036E+03              0.    -795.031E+03
           25853    -378.575E+03    -98.1181E+03              0.    -792.122E+03
           25854    -378.194E+03    -97.0405E+03              0.    -789.331E+03
           25855    -377.712E+03    -96.0745E+03              0.    -786.649E+03
           25856    -377.125E+03    -95.2234E+03              0.    -784.064E+03
           25857    -376.429E+03    -94.4908E+03              0.    -781.568E+03
           25858    -375.620E+03    -93.8803E+03              0.    -779.149E+03
           25859    -374.692E+03    -93.3954E+03              0.    -776.796E+03
           25860    -373.642E+03    -93.0399E+03              0.    -774.499E+03
           25861    -372.465E+03    -92.8176E+03              0.    -772.247E+03
           25862    -371.156E+03    -92.7322E+03              0.    -770.027E+03
           25863    -369.710E+03    -92.7876E+03              0.    -767.827E+03
           25864    -368.122E+03    -92.9879E+03              0.    -765.636E+03
           25865    -366.386E+03    -93.3371E+03              0.    -763.440E+03
           25866    -364.496E+03    -93.8394E+03              0.    -761.227E+03
           25867    -362.447E+03    -94.4992E+03              0.    -758.983E+03
           25868    -360.233E+03    -95.3208E+03              0.    -756.694E+03
           25869    -357.847E+03    -96.3088E+03              0.    -754.346E+03
           25870    -355.283E+03    -97.4679E+03              0.    -751.925E+03
           25871    -352.534E+03    -98.8030E+03              0.    -749.416E+03
           25872    -349.592E+03    -100.319E+03              0.    -746.804E+03
           25873    -346.451E+03    -102.021E+03              0.    -744.072E+03
           25874    -343.103E+03    -103.914E+03              0.    -741.205E+03
           25875    -339.540E+03    -106.004E+03              0.    -738.187E+03
           25876    -335.753E+03    -108.296E+03              0.    -734.999E+03
           25877    -331.734E+03    -110.796E+03              0.    -731.625E+03
           25878    -327.474E+03    -113.510E+03              0.    -728.046E+03
           25879    -322.964E+03    -116.445E+03              0.    -724.244E+03
           25880    -318.193E+03    -119.606E+03              0.    -720.201E+03
           25881    -313.153E+03    -123.001E+03              0.    -715.895E+03
           25882    -307.832E+03    -126.635E+03              0.    -711.308E+03
           25883    -302.220E+03    -130.517E+03              0.    -706.419E+03
           25884    -296.305E+03    -134.653E+03              0.    -701.205E+03
           25885    -290.076E+03    -139.052E+03              0.    -695.646E+03
           25886    -283.520E+03    -143.719E+03              0.    -689.718E+03
           25887    -276.626E+03    -148.665E+03              0.    -683.399E+03
           25888    -269.378E+03    -153.897E+03              0.    -676.665E+03
           25889    -261.765E+03    -159.423E+03              0.     -669.49E+03
           25890    -253.772E+03    -165.252E+03              0.    -661.850E+03
           25891    -245.383E+03    -171.394E+03              0.    -653.718E+03
           25892    -236.585E+03    -177.858E+03              0.    -645.068E+03
           25893    -227.360E+03    -184.654E+03              0.    -635.872E+03
           25894    -217.692E+03    -191.792E+03              0.    -626.101E+03
           25895    -207.565E+03    -199.281E+03              0.    -615.726E+03
           25896    -196.960E+03    -207.134E+03              0.    -604.717E+03
           25897    -185.859E+03    -215.360E+03              0.    -593.043E+03
           25898    -174.242E+03    -223.972E+03              0.    -580.671E+03
           25899    -162.090E+03    -232.980E+03              0.    -567.569E+03
           25900    -149.382E+03    -242.398E+03              0.    -553.703E+03
           25901    -136.097E+03    -252.238E+03              0.    -539.037E+03
           25902    -122.211E+03    -262.512E+03              0.    -523.536E+03
           25903    -107.703E+03    -273.234E+03              0.    -507.162E+03
           25904    -92.5477E+03    -284.417E+03              0.    -489.877E+03
           25905    -76.7203E+03    -296.076E+03              0.    -471.641E+03
           25906    -60.1951E+03    -308.225E+03              0.    -452.414E+03
           25907    -42.9452E+03    -320.880E+03              0.    -432.154E+03
           25908    -24.9426E+03    -334.054E+03              0.    -410.818E+03
           25909    -6.15846E+03    -347.765E+03              0.    -388.361E+03
           25910     13.4373E+03    -362.029E+03              0.    -364.738E+03
           25911     33.8756E+03    -376.862E+03              0.    -339.901E+03
           25912     55.1891E+03    -392.282E+03              0.    -313.802E+03
           25913     77.4110E+03    -408.306E+03              0.    -286.391E+03
           25914     100.576E+03    -424.952E+03              0.    -257.617E+03
           25915     124.721E+03    -442.240E+03              0.    -227.426E+03
           25916     149.882E+03    -460.189E+03              0.    -195.764E+03
           25917     176.099E+03    -478.817E+03              0.    -162.575E+03
           25918     203.412E+03    -498.146E+03              0.    -127.801E+03
           25919     231.862E+03    -518.196E+03              0.    -91.3818E+03
           25920     261.493E+03    -538.989E+03              0.    -53.2575E+03
           25921      292.35E+03    -560.546E+03              0.    -13.3644E+03
           25922     324.479E+03    -582.890E+03              0.     28.3622E+03
           25923     357.929E+03    -606.044E+03              0.     71.9890E+03
           25924     392.749E+03    -630.031E+03              0.     117.584E+03
           25925     428.992E+03    -654.875E+03              0.     165.219E+03
           25926     466.711E+03    -680.601E+03              0.     214.965E+03
           25927     505.962E+03    -707.234E+03              0.     266.897E+03
           25928     546.803E+03    -734.800E+03              0.     321.092E+03
           25929     589.293E+03    -763.324E+03              0.     377.628E+03
           25930     633.496E+03    -792.834E+03              0.     436.586E+03
           25931     679.475E+03    -823.357E+03              0.     498.049E+03
           25932     727.297E+03    -854.921E+03              0.     562.102E+03
           25933     777.032E+03    -887.554E+03              0.     628.833E+03
           25934     828.750E+03    -921.285E+03              0.     698.331E+03
           25935     882.528E+03    -956.143E+03              0.     770.688E+03
           25936     938.440E+03    -992.158E+03              0.     845.999E+03
           25937     996.567E+03    -1.02936E+06              0.     924.360E+03
           25938     1.05699E+06    -1.06778E+06              0.     1.00587E+06
           25939     1.11980E+06    -1.10745E+06              0.     1.09063E+06
           25940     1.18508E+06    -1.14840E+06              0.     1.17875E+06
           25941     1.25293E+06    -1.19067E+06              0.     1.27033E+06
           25942     1.32343E+06    -1.23428E+06              0.     1.36548E+06
           25943     1.39670E+06    -1.27926E+06              0.     1.46431E+06
           25944     1.47282E+06    -1.32566E+06              0.     1.56694E+06
           25945     1.55191E+06    -1.37350E+06              0.     1.67348E+06
           25946     1.63408E+06    -1.42281E+06              0.     1.78405E+06
           25947     1.71943E+06    -1.47364E+06              0.     1.89878E+06
           25948     1.80809E+06    -1.52600E+06              0.     2.01778E+06
           25949     1.90018E+06    -1.57994E+06              0.     2.14119E+06
           25950     1.99583E+06    -1.63549E+06              0.     2.26913E+06
           25951     2.09516E+06    -1.69267E+06              0.     2.40173E+06
           25952     2.19830E+06    -1.75153E+06              0.     2.53913E+06
           25953     2.30541E+06    -1.81209E+06              0.     2.68147E+06
           25954     2.41662E+06    -1.87438E+06              0.     2.82887E+06
           25955     2.53208E+06    -1.93843E+06              0.     2.98148E+06
           25956     2.65195E+06    -2.00428E+06              0.     3.13945E+06
           25957     2.77638E+06    -2.07195E+06              0.     3.30291E+06
           25958     2.90555E+06    -2.14146E+06              0.     3.47201E+06
           25959     3.03961E+06    -2.21285E+06              0.     3.64690E+06
           25960     3.17876E+06    -2.28613E+06              0.     3.82773E+06
           25961     3.32316E+06    -2.36133E+06              0.     4.01464E+06
           25962     3.47301E+06    -2.43846E+06              0.     4.20779E+06
           25963     3.62850E+06    -2.51755E+06              0.     4.40732E+06
           25964     3.78984E+06    -2.59861E+06              0.     4.61340E+06
           25965     3.95722E+06    -2.68164E+06              0.     4.82616E+06
           25966     4.13087E+06    -2.76665E+06              0.     5.04576E+06
           25967     4.31099E+06    -2.85366E+06              0.     5.27236E+06
           25968     4.49783E+06    -2.94265E+06              0.     5.50610E+06
           25969     4.69161E+06    -3.03363E+06              0.     5.74713E+06
           25970     4.89257E+06    -3.12658E+06              0.      5.9956E+06
           25971     5.10097E+06    -3.22149E+06              0.     6.25165E+06
           25972     5.31705E+06    -3.31832E+06              0.     6.51542E+06
           25973     5.54108E+06    -3.41707E+06              0.     6.78706E+06
           25974     5.77332E+06    -3.51768E+06              0.     7.06669E+06
           25975     6.01407E+06    -3.62011E+06              0.     7.35444E+06
           25976     6.26359E+06    -3.72430E+06              0.     7.65043E+06
           25977     6.52218E+06    -3.83020E+06              0.     7.95478E+06
           25978     6.79014E+06    -3.93773E+06              0.     8.26760E+06
           25979     7.06778E+06    -4.04680E+06              0.     8.58899E+06
           25980     7.35542E+06    -4.15730E+06              0.     8.91904E+06
           25981     7.65336E+06    -4.26913E+06              0.     9.25782E+06
           25982     7.96194E+06    -4.38216E+06              0.     9.60539E+06
           25983     8.28149E+06    -4.49624E+06              0.     9.96182E+06
           25984     8.61236E+06    -4.61120E+06              0.     10.3271E+06
           25985     8.95489E+06    -4.72687E+06              0.     10.7014E+06
           25986     9.30943E+06    -4.84304E+06              0.     11.0845E+06
           25987     9.67634E+06    -4.95947E+06              0.     11.4765E+06
           25988     10.0560E+06    -5.07593E+06              0.     11.8774E+06
           25989     10.4487E+06    -5.19212E+06              0.     12.2870E+06
           25990     10.8549E+06    -5.30774E+06              0.     12.7054E+06
           25991     11.2750E+06    -5.42244E+06              0.     13.1323E+06
           25992     11.7092E+06    -5.53586E+06              0.     13.5676E+06
           25993     12.1581E+06    -5.64758E+06              0.     14.0111E+06
           25994     12.6219E+06    -5.75715E+06              0.     14.4626E+06
           25995     13.1010E+06    -5.86407E+06              0.     14.9218E+06
           25996     13.5958E+06    -5.96780E+06              0.     15.3884E+06
           25997     14.1067E+06    -6.06774E+06              0.     15.8620E+06
           25998     14.6340E+06    -6.16326E+06              0.     16.3423E+06
           25999     15.1780E+06    -6.25363E+06              0.     16.8286E+06
           26000     15.7391E+06    -6.33810E+06              0.     17.3206E+06
           26001     16.3176E+06    -6.41581E+06              0.     17.8176E+06
           26002     16.9137E+06    -6.48586E+06              0.     18.3188E+06
           26003     17.5279E+06    -6.54726E+06              0.     18.8237E+06
           26004     18.1602E+06    -6.59891E+06              0.     19.3313E+06
           26005     18.8110E+06    -6.63965E+06              0.     19.8407E+06
           26006     19.4803E+06    -6.66819E+06              0.     20.3509E+06
           26007     20.1685E+06    -6.68316E+06              0.     20.8608E+06
           26008     20.8755E+06    -6.68304E+06              0.     21.3692E+06
           26009     21.6014E+06    -6.66622E+06              0.     21.8747E+06
           26010     22.3462E+06    -6.63091E+06              0.     22.3759E+06
           26011     23.1098E+06    -6.57521E+06              0.     22.8712E+06
           26012     23.8922E+06    -6.49704E+06              0.     23.3588E+06
           26013     24.6929E+06    -6.39415E+06              0.     23.8370E+06
           26014     25.5119E+06    -6.26410E+06              0.     24.3036E+06
           26015     26.3485E+06    -6.10427E+06              0.     24.7566E+06
           26016     27.2024E+06    -5.91178E+06              0.     25.1935E+06
           26017     28.0728E+06    -5.68356E+06              0.     25.6118E+06
           26018     28.9589E+06    -5.41625E+06              0.     26.0088E+06
           26019     29.8598E+06    -5.10625E+06              0.     26.3817E+06
           26020     30.7745E+06    -4.74963E+06              0.     26.7272E+06
           26021     31.7015E+06    -4.34215E+06              0.     27.0421E+06
           26022     32.6394E+06    -3.87924E+06              0.     27.3227E+06
           26023     33.5865E+06    -3.35593E+06              0.     27.5654E+06
           26024     34.5408E+06    -2.76686E+06              0.     27.7661E+06
           26025     35.5000E+06    -2.10623E+06              0.     27.9205E+06
           26026     36.4617E+06    -1.36776E+06              0.     28.0242E+06
           26027     37.4230E+06    -544.663E+03              0.     28.0724E+06
           26028     38.3807E+06     370.412E+03              0.     28.0601E+06
           26029     39.3313E+06     1.38540E+06              0.     27.9821E+06
           26030     40.2709E+06     2.50890E+06              0.     27.8328E+06
           26031     41.1950E+06     3.75020E+06              0.     27.6065E+06
           26032     42.0987E+06     5.11936E+06              0.     27.2974E+06
           26033     42.9767E+06     6.62725E+06              0.     26.8990E+06
           26034     43.8231E+06     8.28561E+06              0.     26.4051E+06
           26035     44.6314E+06     10.1072E+06              0.     25.8091E+06
           26036     45.3943E+06     12.1057E+06              0.     25.1043E+06
           26037     46.1042E+06     14.2960E+06              0.     24.2836E+06
           26038     46.7524E+06     16.6941E+06              0.     23.3403E+06
           26039     47.3294E+06     19.3173E+06              0.     22.2672E+06
           26040     48.3830E+06     22.2606E+06              0.     22.2889E+06
           26041    -382.854E+03    -171.055E+03              0.    -945.693E+03
           26042    -382.470E+03    -167.467E+03              0.    -944.068E+03
           26043    -383.624E+03    -164.570E+03              0.    -935.438E+03
           26044    -384.775E+03    -161.662E+03              0.    -927.072E+03
           26045    -385.919E+03    -158.750E+03              0.    -918.969E+03
           26046    -387.050E+03    -155.840E+03              0.    -911.128E+03
           26047    -388.164E+03     -152.94E+03              0.    -903.548E+03
           26048    -389.258E+03    -150.056E+03              0.    -896.228E+03
           26049    -390.327E+03    -147.194E+03              0.    -889.165E+03
           26050    -391.366E+03    -144.359E+03              0.    -882.357E+03
           26051    -392.373E+03    -141.559E+03              0.    -875.800E+03
           26052    -393.344E+03    -138.797E+03              0.    -869.492E+03
           26053    -394.274E+03    -136.079E+03              0.    -863.428E+03
           26054    -395.161E+03    -133.410E+03              0.    -857.605E+03
           26055    -396.000E+03    -130.795E+03              0.    -852.017E+03
           26056    -396.788E+03    -128.239E+03              0.    -846.660E+03
           26057    -397.522E+03    -125.745E+03              0.    -841.529E+03
           26058    -398.199E+03    -123.319E+03              0.    -836.618E+03
           26059    -398.814E+03    -120.964E+03              0.    -831.922E+03
           26060    -399.365E+03    -118.685E+03              0.    -827.433E+03
           26061    -399.847E+03    -116.485E+03              0.    -823.146E+03
           26062    -400.259E+03    -114.369E+03              0.    -819.054E+03
           26063    -400.595E+03    -112.341E+03              0.    -815.150E+03
           26064    -400.852E+03    -110.404E+03              0.    -811.427E+03
           26065    -401.028E+03    -108.562E+03              0.    -807.877E+03
           26066    -401.118E+03    -106.820E+03              0.    -804.491E+03
           26067    -401.118E+03    -105.179E+03              0.    -801.263E+03
           26068    -401.025E+03    -103.645E+03              0.    -798.183E+03
           26069    -400.835E+03    -102.221E+03              0.    -795.244E+03
           26070    -400.544E+03    -100.911E+03              0.    -792.435E+03
           26071    -400.147E+03    -99.7183E+03              0.    -789.747E+03
           26072    -399.641E+03    -98.6466E+03              0.    -787.172E+03
           26073    -399.022E+03    -97.7000E+03              0.    -784.700E+03
           26074    -398.284E+03    -96.8821E+03              0.    -782.319E+03
           26075    -397.423E+03    -96.1968E+03              0.    -780.021E+03
           26076    -396.435E+03    -95.6480E+03              0.    -777.794E+03
           26077    -395.314E+03    -95.2398E+03              0.    -775.627E+03
           26078    -394.055E+03    -94.9761E+03              0.    -773.510E+03
           26079    -392.654E+03    -94.8611E+03              0.    -771.431E+03
           26080    -391.104E+03    -94.8991E+03              0.    -769.377E+03
           26081    -389.400E+03    -95.0943E+03              0.    -767.337E+03
           26082    -387.536E+03    -95.4511E+03              0.    -765.298E+03
           26083    -385.506E+03    -95.9741E+03              0.    -763.248E+03
           26084    -383.303E+03    -96.6680E+03              0.    -761.173E+03
           26085    -380.922E+03    -97.5376E+03              0.    -759.060E+03
           26086    -378.354E+03    -98.5877E+03              0.    -756.895E+03
           26087    -375.594E+03    -99.8234E+03              0.    -754.663E+03
           26088    -372.633E+03    -101.250E+03              0.    -752.351E+03
           26089    -369.465E+03    -102.873E+03              0.    -749.943E+03
           26090    -366.080E+03    -104.697E+03              0.    -747.423E+03
           26091    -362.470E+03    -106.729E+03              0.    -744.777E+03
           26092    -358.628E+03    -108.974E+03              0.    -741.986E+03
           26093    -354.544E+03    -111.439E+03              0.    -739.036E+03
           26094    -350.209E+03    -114.129E+03              0.    -735.909E+03
           26095    -345.613E+03    -117.052E+03              0.    -732.586E+03
           26096    -340.745E+03    -120.213E+03              0.    -729.051E+03
           26097    -335.596E+03    -123.621E+03              0.    -725.283E+03
           26098    -330.155E+03    -127.281E+03              0.    -721.265E+03
           26099    -324.410E+03    -131.201E+03              0.    -716.976E+03
           26100    -318.350E+03    -135.389E+03              0.    -712.396E+03
           26101    -311.962E+03    -139.854E+03              0.    -707.504E+03
           26102    -305.234E+03    -144.602E+03              0.    -702.279E+03
           26103    -298.153E+03    -149.642E+03              0.    -696.698E+03
           26104    -290.704E+03    -154.983E+03              0.    -690.740E+03
           26105    -282.874E+03    -160.634E+03              0.    -684.379E+03
           26106    -274.647E+03    -166.605E+03              0.    -677.593E+03
           26107    -266.009E+03    -172.904E+03              0.    -670.357E+03
           26108    -256.944E+03    -179.542E+03              0.    -662.645E+03
           26109    -247.434E+03    -186.529E+03              0.    -654.431E+03
           26110    -237.463E+03    -193.876E+03              0.    -645.687E+03
           26111    -227.012E+03    -201.592E+03              0.    -636.386E+03
           26112    -216.064E+03    -209.691E+03              0.    -626.500E+03
           26113    -204.599E+03    -218.182E+03              0.    -615.998E+03
           26114    -192.597E+03    -227.078E+03              0.    -604.851E+03
           26115    -180.037E+03    -236.392E+03              0.    -593.026E+03
           26116    -166.897E+03    -246.136E+03              0.    -580.492E+03
           26117    -153.156E+03    -256.323E+03              0.    -567.216E+03
           26118    -138.789E+03    -266.967E+03              0.    -553.163E+03
           26119    -123.773E+03    -278.082E+03              0.    -538.298E+03
           26120    -108.083E+03    -289.682E+03              0.    -522.585E+03
           26121    -91.6928E+03    -301.781E+03              0.    -505.986E+03
           26122    -74.5750E+03    -314.396E+03              0.    -488.463E+03
           26123    -56.7020E+03    -327.542E+03              0.    -469.976E+03
           26124    -38.0445E+03    -341.234E+03              0.    -450.484E+03
           26125    -18.5725E+03    -355.491E+03              0.    -429.945E+03
           26126     1.74520E+03    -370.328E+03              0.    -408.317E+03
           26127     22.9412E+03    -385.763E+03              0.    -385.553E+03
           26128     45.0492E+03    -401.815E+03              0.    -361.609E+03
           26129      68.104E+03    -418.503E+03              0.    -336.437E+03
           26130     92.1419E+03    -435.844E+03              0.    -309.988E+03
           26131     117.200E+03    -453.860E+03              0.    -282.212E+03
           26132     143.319E+03    -472.570E+03              0.    -253.057E+03
           26133     170.537E+03    -491.995E+03              0.    -222.471E+03
           26134     198.897E+03    -512.156E+03              0.    -190.398E+03
           26135     228.443E+03    -533.076E+03              0.    -156.782E+03
           26136     259.220E+03    -554.776E+03              0.    -121.565E+03
           26137     291.274E+03    -577.280E+03              0.    -84.6885E+03
           26138     324.653E+03    -600.611E+03              0.    -46.0899E+03
           26139     359.409E+03    -624.794E+03              0.    -5.70648E+03
           26140     395.593E+03    -649.853E+03              0.     36.5266E+03
           26141     433.260E+03    -675.814E+03              0.     80.6762E+03
           26142     472.464E+03    -702.703E+03              0.     126.811E+03
           26143     513.265E+03    -730.545E+03              0.     175.001E+03
           26144     555.723E+03    -759.369E+03              0.     225.319E+03
           26145     599.900E+03    -789.202E+03              0.     277.839E+03
           26146     645.861E+03    -820.072E+03              0.     332.639E+03
           26147     693.672E+03    -852.009E+03              0.     389.795E+03
           26148     743.404E+03    -885.041E+03              0.     449.390E+03
           26149     795.128E+03    -919.199E+03              0.     511.506E+03
           26150     848.919E+03    -954.513E+03              0.     576.228E+03
           26151     904.854E+03    -991.015E+03              0.     643.643E+03
           26152     963.014E+03    -1.02874E+06              0.     713.840E+03
           26153     1.02348E+06    -1.06771E+06              0.     786.912E+03
           26154     1.08634E+06    -1.10796E+06              0.     862.952E+03
           26155     1.15168E+06    -1.14954E+06              0.     942.056E+03
           26156     1.21960E+06    -1.19246E+06              0.     1.02432E+06
           26157     1.29019E+06    -1.23677E+06              0.     1.10985E+06
           26158     1.36355E+06    -1.28249E+06              0.     1.19875E+06
           26159     1.43978E+06    -1.32967E+06              0.     1.29113E+06
           26160     1.51899E+06    -1.37834E+06              0.     1.38708E+06
           26161     1.60128E+06    -1.42853E+06              0.     1.48673E+06
           26162     1.68678E+06    -1.48028E+06              0.     1.59018E+06
           26163     1.77560E+06    -1.53362E+06              0.     1.69755E+06
           26164     1.86786E+06    -1.58859E+06              0.     1.80896E+06
           26165     1.96369E+06    -1.64523E+06              0.     1.92452E+06
           26166     2.06321E+06    -1.70356E+06              0.     2.04437E+06
           26167     2.16657E+06    -1.76363E+06              0.     2.16862E+06
           26168     2.27391E+06    -1.82547E+06              0.     2.29741E+06
           26169     2.38536E+06    -1.88912E+06              0.     2.43086E+06
           26170     2.50108E+06    -1.95459E+06              0.     2.56909E+06
           26171     2.62123E+06    -2.02194E+06              0.     2.71226E+06
           26172     2.74596E+06    -2.09119E+06              0.     2.86049E+06
           26173     2.87544E+06    -2.16237E+06              0.     3.01391E+06
           26174     3.00984E+06    -2.23552E+06              0.     3.17267E+06
           26175     3.14933E+06    -2.31065E+06              0.     3.33691E+06
           26176     3.29411E+06    -2.38780E+06              0.     3.50676E+06
           26177     3.44435E+06    -2.46699E+06              0.     3.68238E+06
           26178     3.60026E+06    -2.54824E+06              0.     3.86390E+06
           26179     3.76203E+06    -2.63158E+06              0.     4.05148E+06
           26180     3.92987E+06    -2.71701E+06              0.     4.24525E+06
           26181     4.10400E+06    -2.80457E+06              0.     4.44536E+06
           26182     4.28464E+06    -2.89424E+06              0.     4.65196E+06
           26183     4.47201E+06    -2.98605E+06              0.     4.86520E+06
           26184     4.66635E+06    -3.08000E+06              0.     5.08521E+06
           26185     4.86790E+06    -3.17607E+06              0.     5.31215E+06
           26186     5.07692E+06    -3.27428E+06              0.     5.54615E+06
           26187     5.29365E+06    -3.37459E+06              0.     5.78736E+06
           26188     5.51837E+06    -3.47700E+06              0.     6.03592E+06
           26189     5.75134E+06    -3.58148E+06              0.     6.29195E+06
           26190     5.99285E+06    -3.68800E+06              0.     6.55559E+06
           26191     6.24317E+06    -3.79650E+06              0.     6.82697E+06
           26192     6.50261E+06    -3.90695E+06              0.     7.10621E+06
           26193     6.77147E+06    -4.01927E+06              0.     7.39342E+06
           26194     7.05005E+06    -4.13341E+06              0.     7.68872E+06
           26195     7.33868E+06    -4.24927E+06              0.     7.99221E+06
           26196     7.63769E+06    -4.36675E+06              0.     8.30398E+06
           26197     7.94739E+06    -4.48576E+06              0.     8.62411E+06
           26198     8.26814E+06    -4.60615E+06              0.     8.95268E+06
           26199     8.60027E+06    -4.72779E+06              0.     9.28975E+06
           26200     8.94415E+06    -4.85052E+06              0.     9.63536E+06
           26201     9.30013E+06    -4.97416E+06              0.     9.98955E+06
           26202     9.66858E+06    -5.09850E+06              0.     10.3523E+06
           26203     10.0499E+06    -5.22332E+06              0.     10.7237E+06
           26204     10.4444E+06    -5.34837E+06              0.     11.1036E+06
           26205     10.8525E+06    -5.47337E+06              0.     11.4921E+06
           26206     11.2746E+06    -5.59802E+06              0.     11.8890E+06
           26207     11.7111E+06    -5.72198E+06              0.     12.2943E+06
           26208     12.1623E+06    -5.84487E+06              0.     12.7078E+06
           26209     12.6287E+06    -5.96629E+06              0.     13.1293E+06
           26210     13.1106E+06    -6.08578E+06              0.     13.5588E+06
           26211     13.6085E+06    -6.20286E+06              0.     13.9959E+06
           26212     14.1226E+06    -6.31698E+06              0.     14.4404E+06
           26213     14.6535E+06    -6.42755E+06              0.     14.8920E+06
           26214     15.2015E+06    -6.53393E+06              0.     15.3503E+06
           26215     15.7669E+06    -6.63541E+06              0.     15.8149E+06
           26216     16.3501E+06    -6.73122E+06              0.     16.2853E+06
           26217     16.9515E+06    -6.82053E+06              0.     16.7611E+06
           26218     17.5713E+06    -6.90242E+06              0.     17.2416E+06
           26219     18.2099E+06    -6.97591E+06              0.     17.7262E+06
           26220     18.8675E+06    -7.03991E+06              0.     18.2141E+06
           26221     19.5445E+06    -7.09327E+06              0.     18.7045E+06
           26222     20.2410E+06    -7.13470E+06              0.     19.1966E+06
           26223     20.9572E+06    -7.16283E+06              0.     19.6893E+06
           26224     21.6933E+06    -7.17617E+06              0.     20.1816E+06
           26225     22.4493E+06    -7.17310E+06              0.     20.6723E+06
           26226     23.2254E+06    -7.15186E+06              0.     21.1601E+06
           26227     24.0215E+06    -7.11055E+06              0.     21.6436E+06
           26228     24.8375E+06    -7.04712E+06              0.     22.1212E+06
           26229     25.6732E+06    -6.95933E+06              0.     22.5913E+06
           26230     26.5285E+06    -6.84479E+06              0.     23.0521E+06
           26231     27.4030E+06    -6.70089E+06              0.     23.5017E+06
           26232     28.2963E+06    -6.52481E+06              0.     23.9379E+06
           26233     29.2077E+06    -6.31350E+06              0.     24.3584E+06
           26234     30.1367E+06    -6.06368E+06              0.     24.7609E+06
           26235     31.0824E+06    -5.77179E+06              0.     25.1428E+06
           26236     32.0438E+06    -5.43399E+06              0.     25.5012E+06
           26237     33.0198E+06    -5.04613E+06              0.     25.8331E+06
           26238     34.0090E+06    -4.60373E+06              0.     26.1354E+06
           26239     35.0100E+06    -4.10195E+06              0.     26.4047E+06
           26240     36.0209E+06    -3.53556E+06              0.     26.6373E+06
           26241     37.0398E+06    -2.89892E+06              0.     26.8294E+06
           26242     38.0644E+06    -2.18594E+06              0.     26.9771E+06
           26243     39.0921E+06    -1.39004E+06              0.     27.0759E+06
           26244     40.1201E+06    -504.122E+03              0.     27.1214E+06
           26245     41.1451E+06     479.474E+03              0.     27.1088E+06
           26246     42.1637E+06     1.56901E+06              0.     27.0333E+06
           26247     43.1717E+06     2.77342E+06              0.     26.8895E+06
           26248     44.1649E+06     4.10232E+06              0.     26.6721E+06
           26249     45.1383E+06     5.56611E+06              0.     26.3755E+06
           26250     46.0867E+06     7.17599E+06              0.     25.9939E+06
           26251     47.0041E+06     8.94404E+06              0.     25.5213E+06
           26252     47.8841E+06     10.8833E+06              0.     24.9515E+06
           26253     48.7196E+06     13.0078E+06              0.     24.2783E+06
           26254     49.5029E+06     15.3328E+06              0.     23.4954E+06
           26255     50.2256E+06     17.8745E+06              0.     22.5964E+06
           26256     50.8788E+06     20.6506E+06              0.     21.5748E+06
           26257     52.0044E+06     23.7645E+06              0.     21.6107E+06
           26258    -403.049E+03    -180.149E+03              0.    -944.448E+03
           26259    -402.630E+03    -176.231E+03              0.    -942.824E+03
           26260    -403.893E+03    -173.069E+03              0.    -934.196E+03
           26261    -405.151E+03    -169.895E+03              0.    -925.835E+03
           26262    -406.401E+03    -166.717E+03              0.    -917.743E+03
           26263    -407.638E+03    -163.543E+03              0.    -909.918E+03
           26264    -408.856E+03    -160.380E+03              0.    -902.358E+03
           26265    -410.052E+03    -157.235E+03              0.    -895.062E+03
           26266    -411.221E+03    -154.114E+03              0.    -888.028E+03
           26267    -412.358E+03    -151.025E+03              0.    -881.252E+03
           26268    -413.461E+03    -147.972E+03              0.    -874.732E+03
           26269    -414.524E+03    -144.961E+03              0.    -868.464E+03
           26270    -415.543E+03    -141.999E+03              0.    -862.444E+03
           26271    -416.516E+03    -139.090E+03              0.    -856.669E+03
           26272    -417.437E+03    -136.240E+03              0.    -851.132E+03
           26273    -418.304E+03    -133.453E+03              0.    -845.831E+03
           26274    -419.112E+03    -130.734E+03              0.    -840.758E+03
           26275    -419.858E+03    -128.089E+03              0.    -835.909E+03
           26276    -420.539E+03    -125.520E+03              0.    -831.278E+03
           26277    -421.150E+03    -123.034E+03              0.    -826.859E+03
           26278    -421.687E+03    -120.634E+03              0.    -822.645E+03
           26279    -422.148E+03    -118.325E+03              0.    -818.629E+03
           26280    -422.528E+03    -116.110E+03              0.    -814.805E+03
           26281    -422.824E+03    -113.995E+03              0.    -811.165E+03
           26282    -423.032E+03    -111.981E+03              0.    -807.702E+03
           26283    -423.147E+03    -110.075E+03              0.    -804.408E+03
           26284    -423.166E+03    -108.280E+03              0.    -801.275E+03
           26285    -423.085E+03    -106.599E+03              0.    -798.294E+03
           26286    -422.899E+03    -105.038E+03              0.    -795.458E+03
           26287    -422.605E+03    -103.599E+03              0.    -792.756E+03
           26288    -422.198E+03    -102.286E+03              0.    -790.180E+03
           26289    -421.673E+03    -101.105E+03              0.    -787.721E+03
           26290    -421.026E+03    -100.058E+03              0.    -785.369E+03
           26291    -420.251E+03    -99.1504E+03              0.    -783.114E+03
           26292    -419.345E+03    -98.3856E+03              0.    -780.946E+03
           26293    -418.302E+03    -97.7680E+03              0.    -778.854E+03
           26294    -417.116E+03    -97.3019E+03              0.    -776.828E+03
           26295    -415.782E+03    -96.9916E+03              0.    -774.857E+03
           26296    -414.295E+03    -96.8415E+03              0.    -772.928E+03
           26297    -412.648E+03    -96.8563E+03              0.    -771.032E+03
           26298    -410.836E+03    -97.0405E+03              0.    -769.155E+03
           26299    -408.852E+03    -97.3989E+03              0.    -767.286E+03
           26300    -406.690E+03    -97.9363E+03              0.    -765.411E+03
           26301    -404.342E+03    -98.6577E+03              0.    -763.519E+03
           26302    -401.802E+03    -99.5683E+03              0.    -761.595E+03
           26303    -399.062E+03    -100.673E+03              0.    -759.627E+03
           26304    -396.115E+03    -101.978E+03              0.    -757.600E+03
           26305    -392.953E+03    -103.489E+03              0.    -755.499E+03
           26306    -389.567E+03    -105.210E+03              0.    -753.312E+03
           26307    -385.949E+03    -107.149E+03              0.    -751.021E+03
           26308    -382.090E+03    -109.311E+03              0.    -748.611E+03
           26309    -377.981E+03    -111.703E+03              0.    -746.068E+03
           26310    -373.612E+03    -114.331E+03              0.    -743.374E+03
           26311    -368.973E+03    -117.202E+03              0.    -740.512E+03
           26312    -364.054E+03    -120.323E+03              0.    -737.466E+03
           26313    -358.844E+03    -123.700E+03              0.    -734.217E+03
           26314    -353.331E+03    -127.343E+03              0.    -730.747E+03
           26315    -347.505E+03    -131.257E+03              0.    -727.039E+03
           26316    -341.352E+03    -135.451E+03              0.    -723.071E+03
           26317    -334.860E+03    -139.934E+03              0.    -718.824E+03
           26318    -328.017E+03    -144.713E+03              0.    -714.279E+03
           26319    -320.807E+03    -149.798E+03              0.    -709.414E+03
           26320    -313.219E+03    -155.197E+03              0.    -704.208E+03
           26321    -305.235E+03    -160.920E+03              0.    -698.637E+03
           26322    -296.842E+03    -166.976E+03              0.    -692.681E+03
           26323    -288.024E+03    -173.375E+03              0.    -686.314E+03
           26324    -278.763E+03    -180.129E+03              0.    -679.513E+03
           26325    -269.043E+03    -187.246E+03              0.    -672.253E+03
           26326    -258.846E+03    -194.739E+03              0.    -664.508E+03
           26327    -248.154E+03    -202.618E+03              0.    -656.253E+03
           26328    -236.947E+03    -210.895E+03              0.    -647.459E+03
           26329    -225.205E+03    -219.583E+03              0.    -638.099E+03
           26330    -212.908E+03    -228.693E+03              0.    -628.143E+03
           26331    -200.033E+03    -238.239E+03              0.    -617.564E+03
           26332    -186.560E+03    -248.233E+03              0.    -606.329E+03
           26333    -172.464E+03     -258.69E+03              0.    -594.408E+03
           26334    -157.722E+03    -269.623E+03              0.    -581.768E+03
           26335    -142.309E+03    -281.048E+03              0.    -568.375E+03
           26336    -126.198E+03    -292.978E+03              0.    -554.196E+03
           26337    -109.363E+03    -305.430E+03              0.    -539.195E+03
           26338    -91.7760E+03    -318.419E+03              0.    -523.336E+03
           26339    -73.4078E+03    -331.961E+03              0.    -506.581E+03
           26340    -54.2285E+03    -346.074E+03              0.    -488.891E+03
           26341    -34.2069E+03    -360.775E+03              0.    -470.228E+03
           26342    -13.3106E+03    -376.082E+03              0.    -450.549E+03
           26343     8.49386E+03    -392.013E+03              0.    -429.813E+03
           26344     31.2415E+03    -408.587E+03              0.    -407.976E+03
           26345     54.9682E+03    -425.823E+03              0.    -384.994E+03
           26346     79.7117E+03    -443.742E+03              0.    -360.820E+03
           26347     105.511E+03    -462.364E+03              0.    -335.408E+03
           26348     132.405E+03    -481.710E+03              0.    -308.707E+03
           26349     160.438E+03    -501.802E+03              0.    -280.670E+03
           26350     189.652E+03    -522.662E+03              0.    -251.242E+03
           26351     220.091E+03    -544.313E+03              0.    -220.372E+03
           26352     251.803E+03    -566.778E+03              0.    -188.005E+03
           26353     284.837E+03    -590.082E+03              0.    -154.084E+03
           26354     319.241E+03    -614.249E+03              0.    -118.551E+03
           26355     355.068E+03    -639.305E+03              0.    -81.3473E+03
           26356     392.373E+03    -665.275E+03              0.    -42.4111E+03
           26357      431.21E+03    -692.187E+03              0.    -1.67955E+03
           26358     471.638E+03    -720.066E+03              0.     40.9122E+03
           26359     513.717E+03    -748.942E+03              0.     85.4307E+03
           26360     557.509E+03    -778.842E+03              0.     131.944E+03
           26361     603.079E+03    -809.795E+03              0.     180.523E+03
           26362     650.493E+03    -841.832E+03              0.     231.240E+03
           26363     699.821E+03    -874.982E+03              0.     284.169E+03
           26364     751.134E+03    -909.277E+03              0.     339.385E+03
           26365     804.507E+03    -944.748E+03              0.     396.968E+03
           26366     860.018E+03    -981.427E+03              0.     456.998E+03
           26367     917.745E+03    -1.01935E+06              0.     519.556E+03
           26368     977.772E+03    -1.05854E+06              0.     584.727E+03
           26369     1.04018E+06    -1.09904E+06              0.     652.599E+03
           26370     1.10507E+06    -1.14089E+06              0.     723.259E+03
           26371     1.17252E+06    -1.18411E+06              0.     796.799E+03
           26372     1.24264E+06    -1.22874E+06              0.     873.312E+03
           26373     1.31551E+06    -1.27482E+06              0.     952.893E+03
           26374     1.39125E+06    -1.32239E+06              0.     1.03564E+06
           26375     1.46995E+06    -1.37148E+06              0.     1.12165E+06
           26376     1.55174E+06    -1.42213E+06              0.     1.21104E+06
           26377     1.63671E+06    -1.47437E+06              0.     1.30389E+06
           26378     1.72500E+06    -1.52824E+06              0.     1.40033E+06
           26379     1.81671E+06    -1.58379E+06              0.     1.50045E+06
           26380     1.91198E+06    -1.64104E+06              0.     1.60438E+06
           26381     2.01094E+06    -1.70004E+06              0.     1.71222E+06
           26382     2.11372E+06    -1.76082E+06              0.     1.82409E+06
           26383     2.22046E+06    -1.82343E+06              0.     1.94010E+06
           26384     2.33130E+06    -1.88789E+06              0.     2.06039E+06
           26385     2.44640E+06    -1.95424E+06              0.     2.18507E+06
           26386     2.56591E+06    -2.02253E+06              0.     2.31426E+06
           26387     2.68999E+06    -2.09278E+06              0.     2.44810E+06
           26388     2.81880E+06    -2.16503E+06              0.     2.58670E+06
           26389     2.95251E+06    -2.23932E+06              0.     2.73021E+06
           26390     3.09131E+06    -2.31567E+06              0.     2.87875E+06
           26391     3.23536E+06    -2.39412E+06              0.     3.03246E+06
           26392     3.38487E+06    -2.47470E+06              0.     3.19147E+06
           26393     3.54002E+06    -2.55743E+06              0.     3.35591E+06
           26394     3.70102E+06    -2.64235E+06              0.     3.52593E+06
           26395     3.86807E+06    -2.72946E+06              0.     3.70167E+06
           26396     4.04139E+06    -2.81881E+06              0.     3.88325E+06
           26397     4.22120E+06    -2.91039E+06              0.     4.07083E+06
           26398     4.40772E+06    -3.00424E+06              0.     4.26454E+06
           26399     4.60120E+06    -3.10034E+06              0.     4.46453E+06
           26400     4.80186E+06    -3.19873E+06              0.     4.67092E+06
           26401     5.00997E+06    -3.29939E+06              0.     4.88387E+06
           26402     5.22577E+06    -3.40232E+06              0.     5.10350E+06
           26403     5.44954E+06    -3.50751E+06              0.     5.32996E+06
           26404     5.68154E+06    -3.61495E+06              0.     5.56338E+06
           26405     5.92205E+06    -3.72462E+06              0.     5.80389E+06
           26406     6.17137E+06    -3.83648E+06              0.     6.05161E+06
           26407     6.42979E+06    -3.95050E+06              0.     6.30668E+06
           26408     6.69760E+06    -4.06663E+06              0.     6.56922E+06
           26409     6.97513E+06    -4.18482E+06              0.     6.83933E+06
           26410     7.26270E+06    -4.30499E+06              0.     7.11714E+06
           26411     7.56062E+06    -4.42707E+06              0.     7.40273E+06
           26412     7.86923E+06    -4.55097E+06              0.     7.69622E+06
           26413     8.18889E+06    -4.67658E+06              0.     7.99769E+06
           26414     8.51993E+06    -4.80377E+06              0.     8.30721E+06
           26415     8.86272E+06    -4.93242E+06              0.     8.62485E+06
           26416     9.21762E+06    -5.06236E+06              0.     8.95066E+06
           26417     9.58501E+06    -5.19341E+06              0.      9.2847E+06
           26418     9.96526E+06    -5.32540E+06              0.     9.62698E+06
           26419     10.3588E+06    -5.45808E+06              0.     9.97753E+06
           26420     10.7659E+06    -5.59122E+06              0.     10.3363E+06
           26421     11.1870E+06    -5.72455E+06              0.     10.7033E+06
           26422     11.6226E+06    -5.85776E+06              0.     11.0785E+06
           26423     12.0731E+06    -5.99053E+06              0.     11.4618E+06
           26424     12.5388E+06    -6.12249E+06              0.     11.8531E+06
           26425     13.0201E+06    -6.25322E+06              0.     12.2523E+06
           26426     13.5175E+06    -6.38230E+06              0.     12.6593E+06
           26427     14.0313E+06    -6.50923E+06              0.     13.0737E+06
           26428     14.5620E+06    -6.63348E+06              0.     13.4955E+06
           26429     15.1100E+06    -6.75446E+06              0.     13.9244E+06
           26430     15.6757E+06    -6.87155E+06              0.     14.3599E+06
           26431     16.2594E+06    -6.98403E+06              0.     14.8019E+06
           26432     16.8616E+06    -7.09116E+06              0.     15.2499E+06
           26433     17.4826E+06    -7.19211E+06              0.     15.7034E+06
           26434     18.1228E+06    -7.28597E+06              0.     16.1620E+06
           26435     18.7824E+06    -7.37176E+06              0.     16.6250E+06
           26436     19.4619E+06    -7.44843E+06              0.     17.0918E+06
           26437     20.1614E+06    -7.51481E+06              0.     17.5617E+06
           26438     20.8814E+06    -7.56965E+06              0.      18.034E+06
           26439     21.6219E+06    -7.61160E+06              0.     18.5077E+06
           26440     22.3832E+06    -7.63916E+06              0.     18.9820E+06
           26441     23.1655E+06    -7.65075E+06              0.     19.4556E+06
           26442     23.9687E+06    -7.64463E+06              0.     19.9276E+06
           26443     24.7931E+06    -7.61893E+06              0.     20.3967E+06
           26444     25.6385E+06    -7.57162E+06              0.     20.8615E+06
           26445     26.5049E+06    -7.50051E+06              0.     21.3205E+06
           26446     27.3920E+06    -7.40323E+06              0.     21.7722E+06
           26447     28.2997E+06    -7.27723E+06              0.     22.2148E+06
           26448     29.2277E+06    -7.11972E+06              0.     22.6463E+06
           26449     30.1753E+06    -6.92773E+06              0.     23.0649E+06
           26450     31.1421E+06    -6.69803E+06              0.     23.4684E+06
           26451     32.1274E+06    -6.42714E+06              0.     23.8543E+06
           26452     33.1304E+06    -6.11129E+06              0.     24.2203E+06
           26453     34.1499E+06    -5.74645E+06              0.     24.5636E+06
           26454     35.1849E+06    -5.32823E+06              0.     24.8814E+06
           26455     36.2340E+06    -4.85193E+06              0.     25.1706E+06
           26456     37.2956E+06    -4.31245E+06              0.     25.4280E+06
           26457     38.3679E+06    -3.70433E+06              0.     25.6502E+06
           26458     39.4490E+06    -3.02165E+06              0.     25.8335E+06
           26459     40.5364E+06    -2.25806E+06              0.     25.9741E+06
           26460     41.6277E+06    -1.40669E+06              0.     26.0678E+06
           26461     42.7199E+06    -460.153E+03              0.     26.1106E+06
           26462     43.8098E+06     589.505E+03              0.     26.0978E+06
           26463     44.8938E+06     1.75085E+06              0.     26.0249E+06
           26464     45.9680E+06     3.03311E+06              0.     25.8868E+06
           26465     47.0279E+06     4.44622E+06              0.     25.6786E+06
           26466     48.0687E+06     6.00090E+06              0.     25.3949E+06
           26467     49.0852E+06     7.70864E+06              0.     25.0304E+06
           26468     50.0714E+06     9.58181E+06              0.     24.5795E+06
           26469     51.0211E+06     11.6338E+06              0.     24.0365E+06
           26470     51.9273E+06     13.8788E+06              0.     23.3956E+06
           26471     52.7824E+06     16.3324E+06              0.     22.6510E+06
           26472     53.5782E+06     19.0111E+06              0.     21.7968E+06
           26473     54.3057E+06     21.9325E+06              0.     20.8273E+06
           26474     55.5002E+06     25.2089E+06              0.     20.8756E+06
           26475    -423.262E+03    -189.251E+03              0.    -943.093E+03
           26476    -422.808E+03    -184.997E+03              0.    -941.471E+03
           26477    -424.180E+03    -181.563E+03              0.    -932.844E+03
           26478    -425.548E+03    -178.118E+03              0.    -924.490E+03
           26479    -426.907E+03    -174.670E+03              0.    -916.410E+03
           26480    -428.251E+03    -171.227E+03              0.    -908.602E+03
           26481    -429.576E+03    -167.797E+03              0.    -901.064E+03
           26482    -430.876E+03    -164.387E+03              0.    -893.794E+03
           26483    -432.147E+03    -161.004E+03              0.    -886.790E+03
           26484    -433.385E+03    -157.654E+03              0.    -880.050E+03
           26485    -434.585E+03    -154.345E+03              0.    -873.569E+03
           26486    -435.742E+03    -151.082E+03              0.    -867.344E+03
           26487    -436.854E+03    -147.872E+03              0.    -861.371E+03
           26488    -437.914E+03    -144.719E+03              0.    -855.647E+03
           26489    -438.920E+03    -141.629E+03              0.    -850.166E+03
           26490    -439.868E+03    -138.608E+03              0.    -844.923E+03
           26491    -440.753E+03    -135.661E+03              0.    -839.913E+03
           26492    -441.572E+03    -132.792E+03              0.    -835.131E+03
           26493    -442.320E+03    -130.007E+03              0.     -830.57E+03
           26494    -442.995E+03    -127.311E+03              0.    -826.225E+03
           26495    -443.591E+03    -124.707E+03              0.    -822.089E+03
           26496    -444.104E+03    -122.200E+03              0.    -818.155E+03
           26497    -444.532E+03    -119.795E+03              0.    -814.417E+03
           26498    -444.870E+03    -117.496E+03              0.    -810.866E+03
           26499    -445.113E+03    -115.308E+03              0.    -807.497E+03
           26500    -445.258E+03    -113.235E+03              0.    -804.301E+03
           26501    -445.300E+03    -111.280E+03              0.    -801.269E+03
           26502    -445.235E+03    -109.449E+03              0.    -798.395E+03
           26503    -445.058E+03    -107.745E+03              0.    -795.668E+03
           26504    -444.766E+03    -106.173E+03              0.    -793.082E+03
           26505    -444.353E+03    -104.737E+03              0.    -790.625E+03
           26506    -443.814E+03    -103.441E+03              0.    -788.291E+03
           26507    -443.145E+03    -102.289E+03              0.    -786.068E+03
           26508    -442.340E+03    -101.287E+03              0.    -783.947E+03
           26509    -441.394E+03    -100.437E+03              0.    -781.918E+03
           26510    -440.302E+03    -99.7455E+03              0.    -779.971E+03
           26511    -439.058E+03    -99.2160E+03              0.    -778.095E+03
           26512    -437.656E+03    -98.8534E+03              0.    -776.280E+03
           26513    -436.091E+03    -98.6625E+03              0.    -774.513E+03
           26514    -434.355E+03    -98.6479E+03              0.    -772.785E+03
           26515    -432.442E+03    -98.8148E+03              0.    -771.083E+03
           26516    -430.346E+03    -99.1681E+03              0.    -769.395E+03
           26517    -428.060E+03    -99.7130E+03              0.    -767.708E+03
           26518    -425.576E+03    -100.455E+03              0.    -766.011E+03
           26519    -422.887E+03    -101.399E+03              0.    -764.291E+03
           26520    -419.985E+03    -102.552E+03              0.    -762.533E+03
           26521    -416.861E+03    -103.918E+03              0.    -760.724E+03
           26522    -413.508E+03    -105.504E+03              0.    -758.851E+03
           26523    -409.917E+03    -107.316E+03              0.    -756.899E+03
           26524    -406.078E+03    -109.360E+03              0.    -754.853E+03
           26525    -401.981E+03    -111.643E+03              0.    -752.697E+03
           26526    -397.618E+03    -114.172E+03              0.    -750.418E+03
           26527    -392.978E+03    -116.953E+03              0.    -747.998E+03
           26528    -388.049E+03    -119.994E+03              0.    -745.421E+03
           26529    -382.821E+03    -123.302E+03              0.    -742.670E+03
           26530    -377.283E+03    -126.885E+03              0.    -739.728E+03
           26531    -371.422E+03    -130.750E+03              0.    -736.577E+03
           26532    -365.226E+03    -134.906E+03              0.    -733.199E+03
           26533    -358.683E+03    -139.362E+03              0.    -729.576E+03
           26534    -351.777E+03    -144.126E+03              0.    -725.687E+03
           26535    -344.496E+03    -149.207E+03              0.    -721.512E+03
           26536    -336.826E+03    -154.614E+03              0.    -717.033E+03
           26537    -328.750E+03    -160.357E+03              0.    -712.226E+03
           26538    -320.253E+03    -166.446E+03              0.    -707.072E+03
           26539    -311.319E+03    -172.892E+03              0.    -701.547E+03
           26540    -301.931E+03    -179.704E+03              0.    -695.629E+03
           26541    -292.072E+03    -186.894E+03              0.    -689.294E+03
           26542    -281.722E+03    -194.473E+03              0.    -682.518E+03
           26543    -270.863E+03    -202.453E+03              0.    -675.276E+03
           26544    -259.476E+03    -210.845E+03              0.    -667.542E+03
           26545    -247.540E+03    -219.663E+03              0.    -659.291E+03
           26546    -235.033E+03    -228.920E+03              0.    -650.494E+03
           26547    -221.934E+03    -238.627E+03              0.    -641.124E+03
           26548    -208.219E+03    -248.800E+03              0.    -631.152E+03
           26549    -193.865E+03    -259.452E+03              0.    -620.548E+03
           26550    -178.847E+03    -270.598E+03              0.    -609.282E+03
           26551    -163.140E+03    -282.252E+03              0.    -597.323E+03
           26552    -146.716E+03    -294.431E+03              0.    -584.637E+03
           26553    -129.548E+03    -307.150E+03              0.    -571.192E+03
           26554    -111.608E+03    -320.426E+03              0.    -556.954E+03
           26555    -92.8659E+03    -334.275E+03              0.    -541.886E+03
           26556    -73.2904E+03    -348.716E+03              0.    -525.953E+03
           26557    -52.8496E+03    -363.766E+03              0.    -509.117E+03
           26558    -31.5104E+03    -379.443E+03              0.    -491.339E+03
           26559    -9.23817E+03    -395.766E+03              0.    -472.581E+03
           26560     14.0028E+03    -412.756E+03              0.    -452.800E+03
           26561     38.2496E+03    -430.433E+03              0.    -431.954E+03
           26562     63.5407E+03    -448.816E+03              0.    -410.001E+03
           26563     89.9162E+03    -467.928E+03              0.    -386.896E+03
           26564     117.417E+03    -487.790E+03              0.    -362.593E+03
           26565     146.087E+03    -508.425E+03              0.    -337.044E+03
           26566     175.970E+03    -529.855E+03              0.    -310.201E+03
           26567     207.113E+03    -552.106E+03              0.    -282.013E+03
           26568     239.563E+03    -575.200E+03              0.    -252.430E+03
           26569     273.370E+03    -599.164E+03              0.    -221.398E+03
           26570     308.585E+03    -624.022E+03              0.    -188.863E+03
           26571     345.262E+03    -649.801E+03              0.    -154.769E+03
           26572     383.457E+03    -676.528E+03              0.    -119.057E+03
           26573     423.226E+03    -704.231E+03              0.    -81.6691E+03
           26574     464.630E+03    -732.937E+03              0.    -42.5437E+03
           26575     507.729E+03    -762.676E+03              0.    -1.61829E+03
           26576     552.588E+03    -793.477E+03              0.     41.1716E+03
           26577     599.273E+03    -825.371E+03              0.     85.8921E+03
           26578     647.852E+03    -858.388E+03              0.     132.611E+03
           26579     698.398E+03    -892.561E+03              0.     181.399E+03
           26580     750.982E+03    -927.920E+03              0.     232.327E+03
           26581     805.683E+03    -964.500E+03              0.     285.469E+03
           26582     862.579E+03    -1.00233E+06              0.       340.9E+03
           26583     921.751E+03    -1.04146E+06              0.     398.698E+03
           26584     983.286E+03    -1.08190E+06              0.     458.943E+03
           26585     1.04727E+06    -1.12370E+06              0.     521.716E+03
           26586     1.11380E+06    -1.16690E+06              0.     587.100E+03
           26587     1.18296E+06    -1.21152E+06              0.     655.183E+03
           26588     1.25485E+06    -1.25762E+06              0.      726.05E+03
           26589     1.32958E+06    -1.30522E+06              0.     799.793E+03
           26590     1.40725E+06    -1.35436E+06              0.     876.503E+03
           26591     1.48797E+06    -1.40508E+06              0.     956.275E+03
           26592     1.57184E+06    -1.45743E+06              0.     1.03920E+06
           26593     1.65900E+06    -1.51143E+06              0.     1.12539E+06
           26594     1.74955E+06    -1.56714E+06              0.     1.21494E+06
           26595     1.84362E+06    -1.62458E+06              0.     1.30794E+06
           26596     1.94135E+06    -1.68380E+06              0.     1.40451E+06
           26597     2.04286E+06    -1.74484E+06              0.     1.50475E+06
           26598     2.14829E+06    -1.80773E+06              0.     1.60878E+06
           26599     2.25779E+06    -1.87252E+06              0.     1.71670E+06
           26600     2.37150E+06    -1.93926E+06              0.     1.82863E+06
           26601     2.48958E+06    -2.00796E+06              0.     1.94468E+06
           26602     2.61219E+06    -2.07868E+06              0.     2.06497E+06
           26603     2.73948E+06    -2.15146E+06              0.     2.18962E+06
           26604     2.87163E+06    -2.22633E+06              0.     2.31875E+06
           26605     3.00881E+06    -2.30332E+06              0.     2.45249E+06
           26606     3.15121E+06    -2.38247E+06              0.     2.59096E+06
           26607     3.29900E+06    -2.46382E+06              0.     2.73429E+06
           26608     3.45239E+06    -2.54740E+06              0.     2.88260E+06
           26609     3.61157E+06    -2.63324E+06              0.     3.03603E+06
           26610     3.77675E+06    -2.72137E+06              0.     3.19470E+06
           26611     3.94814E+06    -2.81181E+06              0.     3.35875E+06
           26612     4.12595E+06    -2.90460E+06              0.     3.52830E+06
           26613     4.31042E+06    -2.99974E+06              0.     3.70350E+06
           26614     4.50178E+06    -3.09726E+06              0.     3.88448E+06
           26615     4.70027E+06    -3.19717E+06              0.     4.07136E+06
           26616     4.90613E+06    -3.29949E+06              0.     4.26429E+06
           26617     5.11963E+06    -3.40421E+06              0.     4.46339E+06
           26618     5.34102E+06    -3.51135E+06              0.     4.66880E+06
           26619     5.57057E+06    -3.62088E+06              0.     4.88065E+06
           26620     5.80857E+06    -3.73281E+06              0.     5.09907E+06
           26621     6.05531E+06    -3.84712E+06              0.     5.32418E+06
           26622     6.31106E+06    -3.96378E+06              0.     5.55612E+06
           26623     6.57615E+06    -4.08275E+06              0.     5.79500E+06
           26624     6.85087E+06    -4.20400E+06              0.     6.04094E+06
           26625     7.13555E+06    -4.32747E+06              0.     6.29405E+06
           26626     7.43053E+06    -4.45311E+06              0.     6.55445E+06
           26627     7.73612E+06    -4.58083E+06              0.     6.82224E+06
           26628     8.05268E+06    -4.71056E+06              0.     7.09751E+06
           26629     8.38056E+06    -4.84218E+06              0.     7.38036E+06
           26630     8.72011E+06    -4.97559E+06              0.     7.67086E+06
           26631     9.07172E+06    -5.11066E+06              0.     7.96909E+06
           26632     9.43574E+06    -5.24723E+06              0.     8.27511E+06
           26633     9.81257E+06    -5.38513E+06              0.     8.58897E+06
           26634     10.2026E+06    -5.52418E+06              0.      8.9107E+06
           26635     10.6062E+06    -5.66417E+06              0.     9.24033E+06
           26636     11.0238E+06    -5.80485E+06              0.     9.57788E+06
           26637     11.4558E+06    -5.94596E+06              0.     9.92331E+06
           26638     11.9026E+06    -6.08721E+06              0.     10.2766E+06
           26639     12.3647E+06    -6.22828E+06              0.     10.6377E+06
           26640     12.8424E+06    -6.36881E+06              0.     11.0066E+06
           26641     13.3361E+06    -6.50840E+06              0.     11.3831E+06
           26642     13.8464E+06    -6.64662E+06              0.     11.7672E+06
           26643     14.3736E+06    -6.78300E+06              0.     12.1586E+06
           26644     14.9182E+06    -6.91701E+06              0.     12.5571E+06
           26645     15.4805E+06    -7.04808E+06              0.     12.9627E+06
           26646     16.0610E+06    -7.17559E+06              0.     13.3750E+06
           26647     16.6601E+06    -7.29885E+06              0.     13.7936E+06
           26648     17.2782E+06    -7.41711E+06              0.     14.2183E+06
           26649     17.9157E+06    -7.52957E+06              0.     14.6487E+06
           26650     18.5729E+06    -7.63534E+06              0.     15.0844E+06
           26651     19.2504E+06    -7.73346E+06              0.     15.5247E+06
           26652     19.9483E+06    -7.82289E+06              0.     15.9693E+06
           26653     20.6669E+06    -7.90248E+06              0.     16.4174E+06
           26654     21.4067E+06    -7.97100E+06              0.     16.8684E+06
           26655     22.1679E+06    -8.02712E+06              0.     17.3215E+06
           26656     22.9507E+06    -8.06940E+06              0.     17.7759E+06
           26657     23.7553E+06    -8.09624E+06              0.     18.2306E+06
           26658     24.5818E+06    -8.10597E+06              0.     18.6848E+06
           26659     25.4303E+06    -8.09674E+06              0.     19.1371E+06
           26660     26.3010E+06    -8.06657E+06              0.     19.5866E+06
           26661     27.1937E+06    -8.01329E+06              0.     20.0317E+06
           26662     28.1083E+06    -7.93460E+06              0.     20.4713E+06
           26663     29.0447E+06    -7.82799E+06              0.     20.9036E+06
           26664     30.0027E+06    -7.69074E+06              0.     21.3271E+06
           26665     30.9818E+06    -7.51994E+06              0.     21.7399E+06
           26666     31.9816E+06    -7.31243E+06              0.     22.1401E+06
           26667     33.0015E+06    -7.06483E+06              0.     22.5257E+06
           26668     34.0407E+06    -6.77345E+06              0.     22.8943E+06
           26669     35.0985E+06    -6.43436E+06              0.     23.2438E+06
           26670     36.1737E+06    -6.04331E+06              0.     23.5714E+06
           26671     37.2652E+06    -5.59570E+06              0.     23.8745E+06
           26672     38.3716E+06    -5.08661E+06              0.     24.1501E+06
           26673     39.4913E+06    -4.51073E+06              0.     24.3953E+06
           26674     40.6225E+06    -3.86232E+06              0.     24.6066E+06
           26675     41.7631E+06    -3.13526E+06              0.     24.7808E+06
           26676     42.9109E+06    -2.32291E+06              0.     24.9142E+06
           26677     44.0631E+06    -1.41816E+06              0.     25.0028E+06
           26678     45.2169E+06    -413.340E+03              0.     25.0428E+06
           26679     46.3690E+06     699.775E+03              0.     25.0298E+06
           26680     47.5160E+06     1.93003E+06              0.     24.9595E+06
           26681     48.6537E+06     3.28694E+06              0.     24.8274E+06
           26682     49.7778E+06     4.78072E+06              0.     24.6285E+06
           26683     50.8836E+06     6.42237E+06              0.     24.3581E+06
           26684     51.9658E+06     8.22365E+06              0.     24.0112E+06
           26685     53.0185E+06     10.1972E+06              0.     23.5824E+06
           26686     54.0356E+06     12.3567E+06              0.     23.0666E+06
           26687     55.0103E+06     14.7166E+06              0.     22.4584E+06
           26688     55.9351E+06     17.2927E+06              0.     21.7525E+06
           26689     56.8022E+06     20.1016E+06              0.     20.9435E+06
           26690     57.6030E+06     23.1613E+06              0.     20.0262E+06
           26691     58.8638E+06     26.5921E+06              0.     20.0850E+06
           26692    -443.492E+03    -198.362E+03              0.    -941.626E+03
           26693    -443.003E+03    -193.764E+03              0.    -940.006E+03
           26694    -444.487E+03    -190.053E+03              0.    -931.381E+03
           26695    -445.967E+03    -186.332E+03              0.    -923.035E+03
           26696    -447.437E+03    -182.608E+03              0.    -914.968E+03
           26697    -448.891E+03    -178.891E+03              0.    -907.178E+03
           26698    -450.324E+03    -175.189E+03              0.    -899.663E+03
           26699    -451.731E+03    -171.509E+03              0.    -892.421E+03
           26700    -453.107E+03    -167.859E+03              0.    -885.450E+03
           26701    -454.447E+03    -164.246E+03              0.    -878.747E+03
           26702    -455.747E+03    -160.676E+03              0.    -872.308E+03
           26703    -457.002E+03    -157.157E+03              0.    -866.129E+03
           26704    -458.207E+03    -153.693E+03              0.    -860.207E+03
           26705    -459.359E+03    -150.293E+03              0.    -854.537E+03
           26706    -460.452E+03    -146.960E+03              0.    -849.115E+03
           26707    -461.484E+03    -143.701E+03              0.    -843.935E+03
           26708    -462.449E+03    -140.521E+03              0.    -838.992E+03
           26709    -463.343E+03    -137.426E+03              0.    -834.280E+03
           26710    -464.163E+03    -134.420E+03              0.    -829.795E+03
           26711    -464.903E+03    -131.508E+03              0.    -825.528E+03
           26712    -465.561E+03    -128.696E+03              0.    -821.475E+03
           26713    -466.131E+03    -125.989E+03              0.    -817.629E+03
           26714    -466.610E+03    -123.390E+03              0.    -813.981E+03
           26715    -466.993E+03    -120.904E+03              0.    -810.527E+03
           26716    -467.276E+03    -118.537E+03              0.    -807.257E+03
           26717    -467.455E+03    -116.292E+03              0.    -804.164E+03
           26718    -467.524E+03    -114.174E+03              0.    -801.241E+03
           26719    -467.480E+03    -112.187E+03              0.    -798.480E+03
           26720    -467.318E+03    -110.337E+03              0.    -795.871E+03
           26721    -467.032E+03    -108.627E+03              0.    -793.406E+03
           26722    -466.618E+03    -107.062E+03              0.    -791.077E+03
           26723    -466.071E+03    -105.646E+03              0.    -788.875E+03
           26724    -465.386E+03    -104.385E+03              0.    -786.789E+03
           26725    -464.557E+03    -103.282E+03              0.    -784.811E+03
           26726    -463.578E+03    -102.343E+03              0.    -782.930E+03
           26727    -462.444E+03    -101.571E+03              0.    -781.137E+03
           26728    -461.149E+03    -100.972E+03              0.    -779.421E+03
           26729    -459.686E+03    -100.551E+03              0.    -777.772E+03
           26730    -458.050E+03    -100.313E+03              0.    -776.178E+03
           26731    -456.233E+03    -100.263E+03              0.    -774.628E+03
           26732    -454.229E+03    -100.406E+03              0.    -773.112E+03
           26733    -452.030E+03    -100.747E+03              0.    -771.617E+03
           26734    -449.629E+03    -101.292E+03              0.    -770.130E+03
           26735    -447.018E+03    -102.047E+03              0.    -768.641E+03
           26736    -444.190E+03    -103.017E+03              0.    -767.136E+03
           26737    -441.136E+03    -104.209E+03              0.    -765.602E+03
           26738    -437.847E+03    -105.628E+03              0.    -764.026E+03
           26739    -434.315E+03    -107.280E+03              0.    -762.394E+03
           26740    -430.530E+03    -109.174E+03              0.    -760.693E+03
           26741    -426.482E+03    -111.314E+03              0.    -758.907E+03
           26742    -422.161E+03    -113.708E+03              0.    -757.022E+03
           26743    -417.557E+03    -116.363E+03              0.    -755.023E+03
           26744    -412.659E+03    -119.287E+03              0.    -752.894E+03
           26745    -407.456E+03    -122.487E+03              0.     -750.62E+03
           26746    -401.935E+03    -125.970E+03              0.    -748.183E+03
           26747    -396.085E+03    -129.746E+03              0.    -745.568E+03
           26748    -389.893E+03    -133.822E+03              0.    -742.756E+03
           26749    -383.345E+03    -138.208E+03              0.    -739.731E+03
           26750    -376.428E+03    -142.911E+03              0.    -736.472E+03
           26751    -369.128E+03    -147.942E+03              0.    -732.963E+03
           26752    -361.430E+03    -153.310E+03              0.    -729.184E+03
           26753    -353.318E+03    -159.025E+03              0.    -725.114E+03
           26754    -344.777E+03    -165.096E+03              0.    -720.733E+03
           26755    -335.789E+03    -171.535E+03              0.    -716.021E+03
           26756    -326.337E+03    -178.353E+03              0.    -710.955E+03
           26757    -316.404E+03    -185.560E+03              0.    -705.514E+03
           26758    -305.971E+03    -193.169E+03              0.    -699.675E+03
           26759    -295.018E+03    -201.190E+03              0.    -693.413E+03
           26760    -283.525E+03    -209.638E+03              0.    -686.706E+03
           26761    -271.471E+03    -218.523E+03              0.    -679.528E+03
           26762    -258.835E+03    -227.861E+03              0.    -671.853E+03
           26763    -245.595E+03    -237.664E+03              0.    -663.655E+03
           26764    -231.725E+03    -247.946E+03              0.    -654.907E+03
           26765    -217.203E+03    -258.722E+03              0.    -645.582E+03
           26766    -202.004E+03    -270.007E+03              0.    -635.649E+03
           26767    -186.100E+03    -281.816E+03              0.    -625.080E+03
           26768    -169.464E+03    -294.165E+03              0.    -613.845E+03
           26769    -152.069E+03    -307.071E+03              0.    -601.911E+03
           26770    -133.886E+03    -320.550E+03              0.    -589.247E+03
           26771    -114.883E+03    -334.620E+03              0.    -575.819E+03
           26772    -95.0294E+03    -349.300E+03              0.    -561.593E+03
           26773    -74.2922E+03    -364.606E+03              0.    -546.534E+03
           26774    -52.6377E+03    -380.559E+03              0.    -530.605E+03
           26775    -30.0304E+03    -397.178E+03              0.    -513.770E+03
           26776    -6.43384E+03    -414.483E+03              0.    -495.989E+03
           26777     18.1898E+03    -432.495E+03              0.    -477.224E+03
           26778     43.8801E+03    -451.236E+03              0.    -457.433E+03
           26779     70.6775E+03    -470.727E+03              0.    -436.574E+03
           26780     98.6246E+03    -490.990E+03              0.    -414.605E+03
           26781     127.765E+03    -512.050E+03              0.    -391.481E+03
           26782     158.145E+03    -533.929E+03              0.    -367.156E+03
           26783     189.811E+03    -556.653E+03              0.    -341.583E+03
           26784     222.811E+03    -580.247E+03              0.    -314.714E+03
           26785     257.198E+03    -604.735E+03              0.    -286.500E+03
           26786     293.023E+03    -630.146E+03              0.    -256.888E+03
           26787     330.342E+03    -656.505E+03              0.    -225.826E+03
           26788     369.209E+03    -683.841E+03              0.    -193.260E+03
           26789     409.685E+03    -712.183E+03              0.    -159.134E+03
           26790      451.83E+03    -741.558E+03              0.    -123.392E+03
           26791     495.707E+03    -771.999E+03              0.    -85.9740E+03
           26792     541.380E+03    -803.534E+03              0.    -46.8197E+03
           26793     588.919E+03    -836.195E+03              0.    -5.86709E+03
           26794     638.392E+03    -870.015E+03              0.     36.9477E+03
           26795     689.873E+03    -905.026E+03              0.     81.6902E+03
           26796     743.437E+03    -941.262E+03              0.     128.428E+03
           26797     799.162E+03    -978.755E+03              0.     177.229E+03
           26798     857.128E+03    -1.01754E+06              0.     228.166E+03
           26799     917.419E+03    -1.05766E+06              0.     281.311E+03
           26800     980.122E+03    -1.09914E+06              0.     336.738E+03
           26801     1.04533E+06    -1.14202E+06              0.     394.525E+03
           26802     1.11313E+06    -1.18634E+06              0.     454.749E+03
           26803     1.18362E+06    -1.23214E+06              0.     517.492E+03
           26804     1.25690E+06    -1.27945E+06              0.     582.835E+03
           26805     1.33308E+06    -1.32832E+06              0.     650.864E+03
           26806     1.41225E+06    -1.37878E+06              0.     721.664E+03
           26807     1.49454E+06    -1.43088E+06              0.     795.324E+03
           26808     1.58006E+06    -1.48465E+06              0.     871.935E+03
           26809     1.66892E+06    -1.54014E+06              0.     951.590E+03
           26810     1.76125E+06    -1.59738E+06              0.     1.03438E+06
           26811     1.85718E+06    -1.65643E+06              0.     1.12041E+06
           26812     1.95683E+06    -1.71731E+06              0.     1.20977E+06
           26813     2.06035E+06    -1.78007E+06              0.     1.30257E+06
           26814     2.16787E+06    -1.84476E+06              0.     1.39890E+06
           26815     2.27954E+06    -1.91142E+06              0.     1.49888E+06
           26816     2.39551E+06    -1.98008E+06              0.     1.60261E+06
           26817     2.51594E+06    -2.05079E+06              0.     1.71019E+06
           26818     2.64099E+06    -2.12359E+06              0.     1.82174E+06
           26819     2.77082E+06    -2.19853E+06              0.     1.93738E+06
           26820     2.90562E+06    -2.27563E+06              0.     2.05721E+06
           26821     3.04554E+06    -2.35494E+06              0.     2.18136E+06
           26822     3.19079E+06    -2.43650E+06              0.     2.30993E+06
           26823     3.34154E+06    -2.52035E+06              0.     2.44306E+06
           26824     3.49801E+06    -2.60651E+06              0.     2.58085E+06
           26825     3.66038E+06    -2.69503E+06              0.     2.72344E+06
           26826     3.82887E+06    -2.78594E+06              0.     2.87095E+06
           26827     4.00370E+06    -2.87926E+06              0.     3.02350E+06
           26828     4.18508E+06    -2.97502E+06              0.     3.18121E+06
           26829     4.37326E+06    -3.07326E+06              0.     3.34422E+06
           26830     4.56846E+06    -3.17398E+06              0.     3.51264E+06
           26831     4.77093E+06    -3.27721E+06              0.     3.68661E+06
           26832     4.98093E+06    -3.38296E+06              0.     3.86626E+06
           26833     5.19871E+06    -3.49124E+06              0.     4.05171E+06
           26834     5.42455E+06    -3.60206E+06              0.     4.24308E+06
           26835     5.65871E+06    -3.71542E+06              0.     4.44051E+06
           26836     5.90149E+06    -3.83130E+06              0.     4.64411E+06
           26837     6.15317E+06    -3.94970E+06              0.     4.85401E+06
           26838     6.41406E+06    -4.07060E+06              0.     5.07034E+06
           26839     6.68446E+06    -4.19397E+06              0.     5.29319E+06
           26840     6.96470E+06    -4.31977E+06              0.     5.52271E+06
           26841     7.25510E+06    -4.44795E+06              0.     5.75898E+06
           26842     7.55598E+06    -4.57847E+06              0.     6.00213E+06
           26843     7.86771E+06    -4.71124E+06              0.     6.25225E+06
           26844     8.19062E+06    -4.84620E+06              0.     6.50943E+06
           26845     8.52508E+06    -4.98325E+06              0.     6.77378E+06
           26846     8.87145E+06    -5.12228E+06              0.     7.04537E+06
           26847     9.23011E+06    -5.26316E+06              0.     7.32428E+06
           26848     9.60145E+06    -5.40576E+06              0.     7.61058E+06
           26849     9.98585E+06    -5.54990E+06              0.     7.90432E+06
           26850     10.3837E+06    -5.69542E+06              0.     8.20554E+06
           26851     10.7955E+06    -5.84211E+06              0.     8.51427E+06
           26852     11.2215E+06    -5.98974E+06              0.     8.83055E+06
           26853     11.6622E+06    -6.13805E+06              0.     9.15436E+06
           26854     12.1181E+06    -6.28677E+06              0.     9.48569E+06
           26855     12.5895E+06    -6.43558E+06              0.     9.82452E+06
           26856     13.0769E+06    -6.58413E+06              0.     10.1708E+06
           26857     13.5807E+06    -6.73205E+06              0.     10.5244E+06
           26858     14.1014E+06    -6.87891E+06              0.     10.8853E+06
           26859     14.6394E+06    -7.02425E+06              0.     11.2534E+06
           26860     15.1952E+06    -7.16756E+06              0.     11.6284E+06
           26861     15.7691E+06    -7.30828E+06              0.     12.0103E+06
           26862     16.3617E+06    -7.44581E+06              0.     12.3988E+06
           26863     16.9733E+06    -7.57948E+06              0.     12.7936E+06
           26864     17.6044E+06    -7.70857E+06              0.     13.1944E+06
           26865     18.2554E+06    -7.83228E+06              0.     13.6010E+06
           26866     18.9267E+06    -7.94975E+06              0.     14.0129E+06
           26867     19.6187E+06    -8.06003E+06              0.     14.4297E+06
           26868     20.3317E+06    -8.16212E+06              0.     14.8510E+06
           26869     21.0662E+06    -8.25489E+06              0.     15.2762E+06
           26870     21.8224E+06    -8.33715E+06              0.     15.7047E+06
           26871     22.6007E+06    -8.40759E+06              0.     16.1358E+06
           26872     23.4013E+06    -8.46479E+06              0.     16.5688E+06
           26873     24.2244E+06    -8.50723E+06              0.     17.0029E+06
           26874     25.0703E+06    -8.53323E+06              0.     17.4373E+06
           26875     25.9391E+06    -8.54101E+06              0.     17.8709E+06
           26876     26.8309E+06    -8.52863E+06              0.     18.3028E+06
           26877     27.7458E+06    -8.49398E+06              0.     18.7317E+06
           26878     28.6836E+06    -8.43481E+06              0.     19.1564E+06
           26879     29.6444E+06    -8.34866E+06              0.     19.5756E+06
           26880     30.6278E+06    -8.23290E+06              0.     19.9877E+06
           26881     31.6337E+06    -8.08469E+06              0.     20.3913E+06
           26882     32.6617E+06    -7.90094E+06              0.     20.7846E+06
           26883     33.7112E+06    -7.67837E+06              0.     21.1657E+06
           26884     34.7817E+06    -7.41340E+06              0.     21.5327E+06
           26885     35.8725E+06    -7.10220E+06              0.     21.8835E+06
           26886     36.9826E+06    -6.74065E+06              0.     22.2158E+06
           26887     38.1109E+06    -6.32429E+06              0.     22.5271E+06
           26888     39.2564E+06    -5.84835E+06              0.      22.815E+06
           26889     40.4175E+06    -5.30768E+06              0.     23.0766E+06
           26890     41.5926E+06    -4.69676E+06              0.     23.3091E+06
           26891     42.7800E+06    -4.00965E+06              0.     23.5094E+06
           26892     43.9775E+06    -3.23996E+06              0.     23.6742E+06
           26893     45.1827E+06    -2.38084E+06              0.     23.8001E+06
           26894     46.3932E+06    -1.42492E+06              0.     23.8835E+06
           26895     47.6059E+06    -364.285E+03              0.     23.9206E+06
           26896     48.8176E+06     809.547E+03              0.     23.9075E+06
           26897     50.0247E+06     2.10567E+06              0.     23.8400E+06
           26898     51.2233E+06     3.53388E+06              0.     23.7139E+06
           26899     52.4090E+06     5.10464E+06              0.     23.5247E+06
           26900     53.5771E+06     6.82919E+06              0.     23.2678E+06
           26901     54.7223E+06     8.71958E+06              0.     22.9387E+06
           26902     55.8390E+06     10.7887E+06              0.     22.5324E+06
           26903     56.9211E+06     13.0503E+06              0.     22.0442E+06
           26904     57.9618E+06     15.5193E+06              0.     21.4691E+06
           26905     58.9539E+06     18.2115E+06              0.     20.8022E+06
           26906     59.8898E+06     21.1438E+06              0.     20.0387E+06
           26907     60.7608E+06     24.3342E+06              0.     19.1738E+06
           26908     62.0837E+06     27.9101E+06              0.     19.2410E+06
           26909    -463.742E+03    -207.481E+03              0.    -940.046E+03
           26910    -463.215E+03    -202.532E+03              0.    -938.427E+03
           26911    -464.814E+03    -198.539E+03              0.    -929.804E+03
           26912    -466.409E+03    -194.535E+03              0.    -921.467E+03
           26913    -467.992E+03    -190.531E+03              0.    -913.414E+03
           26914    -469.558E+03    -186.535E+03              0.    -905.643E+03
           26915    -471.102E+03    -182.555E+03              0.    -898.153E+03
           26916    -472.618E+03    -178.601E+03              0.    -890.941E+03
           26917    -474.101E+03    -174.679E+03              0.    -884.005E+03
           26918    -475.547E+03    -170.797E+03              0.    -877.342E+03
           26919    -476.949E+03    -166.962E+03              0.    -870.947E+03
           26920    -478.303E+03    -163.181E+03              0.    -864.817E+03
           26921    -479.606E+03    -159.461E+03              0.    -858.949E+03
           26922    -480.851E+03    -155.808E+03              0.    -853.337E+03
           26923    -482.035E+03    -152.228E+03              0.    -847.977E+03
           26924    -483.153E+03    -148.727E+03              0.    -842.863E+03
           26925    -484.201E+03    -145.311E+03              0.    -837.991E+03
           26926    -485.174E+03    -141.984E+03              0.    -833.355E+03
           26927    -486.068E+03    -138.753E+03              0.    -828.948E+03
           26928    -486.879E+03    -135.623E+03              0.    -824.766E+03
           26929    -487.601E+03    -132.599E+03              0.    -820.801E+03
           26930    -488.232E+03    -129.686E+03              0.    -817.046E+03
           26931    -488.766E+03    -126.888E+03              0.    -813.495E+03
           26932    -489.199E+03    -124.212E+03              0.    -810.142E+03
           26933    -489.526E+03    -121.660E+03              0.    -806.977E+03
           26934    -489.743E+03    -119.239E+03              0.    -803.995E+03
           26935    -489.844E+03    -116.953E+03              0.    -801.187E+03
           26936    -489.826E+03    -114.807E+03              0.    -798.544E+03
           26937    -489.683E+03    -112.805E+03              0.    -796.060E+03
           26938    -489.409E+03    -110.953E+03              0.    -793.725E+03
           26939    -489.001E+03    -109.254E+03              0.    -791.530E+03
           26940    -488.452E+03    -107.713E+03              0.    -789.468E+03
           26941    -487.757E+03    -106.337E+03              0.    -787.527E+03
           26942    -486.909E+03    -105.128E+03              0.    -785.700E+03
           26943    -485.904E+03    -104.093E+03              0.    -783.976E+03
           26944    -484.736E+03    -103.235E+03              0.    -782.346E+03
           26945    -483.397E+03    -102.561E+03              0.    -780.799E+03
           26946    -481.881E+03    -102.075E+03              0.    -779.325E+03
           26947    -480.182E+03    -101.783E+03              0.    -777.914E+03
           26948    -478.293E+03    -101.690E+03              0.    -776.553E+03
           26949    -476.205E+03    -101.802E+03              0.    -775.233E+03
           26950    -473.913E+03    -102.124E+03              0.    -773.942E+03
           26951    -471.407E+03    -102.661E+03              0.    -772.668E+03
           26952    -468.680E+03    -103.421E+03              0.    -771.398E+03
           26953    -465.724E+03    -104.409E+03              0.    -770.121E+03
           26954    -462.529E+03    -105.631E+03              0.    -768.824E+03
           26955    -459.086E+03    -107.094E+03              0.    -767.494E+03
           26956    -455.387E+03    -108.804E+03              0.    -766.118E+03
           26957    -451.421E+03    -110.769E+03              0.    -764.681E+03
           26958    -447.177E+03    -112.995E+03              0.    -763.170E+03
           26959    -442.646E+03    -115.489E+03              0.    -761.571E+03
           26960    -437.816E+03    -118.260E+03              0.    -759.869E+03
           26961    -432.675E+03    -121.315E+03              0.    -758.049E+03
           26962    -427.213E+03    -124.662E+03              0.    -756.094E+03
           26963    -421.415E+03    -128.309E+03              0.    -753.990E+03
           26964    -415.271E+03    -132.266E+03              0.    -751.720E+03
           26965    -408.765E+03    -136.540E+03              0.    -749.267E+03
           26966    -401.884E+03    -141.140E+03              0.    -746.614E+03
           26967    -394.614E+03    -146.077E+03              0.    -743.742E+03
           26968    -386.939E+03    -151.361E+03              0.    -740.635E+03
           26969    -378.844E+03       -157.E+03              0.    -737.273E+03
           26970    -370.313E+03    -163.006E+03              0.    -733.636E+03
           26971    -361.328E+03    -169.389E+03              0.    -729.706E+03
           26972    -351.873E+03    -176.161E+03              0.    -725.461E+03
           26973    -341.929E+03    -183.333E+03              0.    -720.881E+03
           26974    -331.476E+03    -190.916E+03              0.    -715.945E+03
           26975    -320.495E+03    -198.924E+03              0.    -710.629E+03
           26976    -308.967E+03    -207.368E+03              0.    -704.912E+03
           26977    -296.869E+03    -216.262E+03              0.    -698.770E+03
           26978    -284.179E+03    -225.619E+03              0.    -692.179E+03
           26979    -270.875E+03    -235.454E+03              0.    -685.115E+03
           26980    -256.933E+03    -245.780E+03              0.    -677.550E+03
           26981    -242.328E+03    -256.612E+03              0.    -669.461E+03
           26982    -227.034E+03    -267.966E+03              0.    -660.818E+03
           26983    -211.025E+03    -279.858E+03              0.    -651.596E+03
           26984    -194.273E+03    -292.303E+03              0.    -641.764E+03
           26985    -176.750E+03    -305.319E+03              0.    -631.294E+03
           26986    -158.426E+03    -318.923E+03              0.    -620.155E+03
           26987    -139.269E+03    -333.132E+03              0.    -608.316E+03
           26988    -119.249E+03    -347.965E+03              0.    -595.745E+03
           26989    -98.3304E+03    -363.441E+03              0.    -582.410E+03
           26990    -76.4803E+03    -379.580E+03              0.    -568.275E+03
           26991    -53.6624E+03    -396.401E+03              0.    -553.306E+03
           26992    -29.8397E+03    -413.926E+03              0.    -537.467E+03
           26993    -4.97352E+03    -432.175E+03              0.    -520.721E+03
           26994     20.9760E+03    -451.170E+03              0.    -503.029E+03
           26995     48.0505E+03    -470.934E+03              0.    -484.353E+03
           26996     76.2928E+03    -491.490E+03              0.    -464.652E+03
           26997     105.748E+03    -512.861E+03              0.    -443.884E+03
           26998     136.461E+03    -535.074E+03              0.    -422.006E+03
           26999     168.481E+03    -558.151E+03              0.    -398.976E+03
           27000     201.858E+03    -582.119E+03              0.    -374.746E+03
           27001     236.642E+03    -607.005E+03              0.    -349.271E+03
           27002     272.888E+03    -632.836E+03              0.    -322.503E+03
           27003     310.650E+03    -659.639E+03              0.    -294.392E+03
           27004     349.987E+03    -687.444E+03              0.    -264.887E+03
           27005     390.958E+03    -716.279E+03              0.    -233.938E+03
           27006     433.624E+03    -746.175E+03              0.    -201.489E+03
           27007     478.050E+03    -777.162E+03              0.    -167.486E+03
           27008     524.301E+03    -809.271E+03              0.    -131.873E+03
           27009     572.447E+03    -842.536E+03              0.    -94.5906E+03
           27010     622.559E+03    -876.989E+03              0.    -55.5799E+03
           27011     674.711E+03    -912.663E+03              0.    -14.7794E+03
           27012     728.978E+03    -949.593E+03              0.     27.8739E+03
           27013     785.440E+03    -987.815E+03              0.     72.4448E+03
           27014     844.180E+03    -1.02736E+06              0.     119.000E+03
           27015     905.282E+03    -1.06828E+06              0.     167.606E+03
           27016     968.835E+03    -1.11059E+06              0.     218.335E+03
           27017     1.03493E+06    -1.15434E+06              0.     271.257E+03
           27018     1.10366E+06    -1.19957E+06              0.     326.446E+03
           27019     1.17512E+06    -1.24631E+06              0.     383.978E+03
           27020     1.24942E+06    -1.29462E+06              0.     443.929E+03
           27021     1.32666E+06    -1.34452E+06              0.     506.379E+03
           27022     1.40695E+06    -1.39605E+06              0.     571.408E+03
           27023     1.49040E+06    -1.44927E+06              0.     639.100E+03
           27024     1.57713E+06    -1.50421E+06              0.     709.539E+03
           27025     1.66725E+06    -1.56091E+06              0.     782.812E+03
           27026     1.76090E+06    -1.61942E+06              0.     859.007E+03
           27027     1.85820E+06    -1.67978E+06              0.     938.216E+03
           27028     1.95929E+06    -1.74204E+06              0.     1.02053E+06
           27029     2.06430E+06    -1.80623E+06              0.     1.10605E+06
           27030     2.17338E+06    -1.87240E+06              0.     1.19486E+06
           27031     2.28667E+06    -1.94060E+06              0.     1.28706E+06
           27032     2.40433E+06    -2.01087E+06              0.     1.38277E+06
           27033     2.52652E+06    -2.08325E+06              0.     1.48207E+06
           27034     2.65339E+06    -2.15778E+06              0.     1.58507E+06
           27035     2.78513E+06    -2.23452E+06              0.     1.69187E+06
           27036     2.92190E+06    -2.31350E+06              0.     1.80259E+06
           27037     3.06388E+06    -2.39476E+06              0.     1.91734E+06
           27038     3.21127E+06    -2.47834E+06              0.     2.03622E+06
           27039     3.36425E+06    -2.56428E+06              0.     2.15935E+06
           27040     3.52303E+06    -2.65263E+06              0.     2.28683E+06
           27041     3.68780E+06    -2.74342E+06              0.     2.41879E+06
           27042     3.85879E+06    -2.83668E+06              0.     2.55535E+06
           27043     4.03621E+06    -2.93244E+06              0.     2.69661E+06
           27044     4.22029E+06    -3.03074E+06              0.     2.84270E+06
           27045     4.41126E+06    -3.13161E+06              0.     2.99373E+06
           27046     4.60937E+06    -3.23507E+06              0.     3.14983E+06
           27047     4.81485E+06    -3.34114E+06              0.     3.31112E+06
           27048     5.02798E+06    -3.44984E+06              0.     3.47771E+06
           27049     5.24901E+06    -3.56119E+06              0.     3.64973E+06
           27050     5.47821E+06    -3.67518E+06              0.     3.82729E+06
           27051     5.71587E+06    -3.79184E+06              0.     4.01052E+06
           27052     5.96227E+06    -3.91115E+06              0.     4.19953E+06
           27053     6.21771E+06    -4.03311E+06              0.     4.39445E+06
           27054     6.48250E+06    -4.15770E+06              0.     4.59538E+06
           27055     6.75695E+06    -4.28491E+06              0.     4.80244E+06
           27056     7.04137E+06    -4.41469E+06              0.     5.01574E+06
           27057     7.33611E+06    -4.54701E+06              0.     5.23538E+06
           27058     7.64151E+06    -4.68183E+06              0.     5.46148E+06
           27059     7.95790E+06    -4.81907E+06              0.     5.69413E+06
           27060     8.28566E+06    -4.95866E+06              0.     5.93343E+06
           27061     8.62513E+06    -5.10053E+06              0.     6.17947E+06
           27062     8.97671E+06    -5.24456E+06              0.     6.43233E+06
           27063     9.34077E+06    -5.39065E+06              0.     6.69208E+06
           27064      9.7177E+06    -5.53866E+06              0.     6.95880E+06
           27065     10.1079E+06    -5.68843E+06              0.     7.23255E+06
           27066     10.5118E+06     -5.8398E+06              0.     7.51337E+06
           27067     10.9298E+06    -5.99257E+06              0.     7.80130E+06
           27068     11.3623E+06    -6.14653E+06              0.     8.09638E+06
           27069     11.8097E+06    -6.30142E+06              0.     8.39861E+06
           27070     12.2725E+06    -6.45700E+06              0.     8.70801E+06
           27071     12.7511E+06    -6.61294E+06              0.     9.02453E+06
           27072     13.2460E+06    -6.76892E+06              0.     9.34817E+06
           27073     13.7576E+06    -6.92457E+06              0.     9.67885E+06
           27074     14.2864E+06    -7.07949E+06              0.     10.0165E+06
           27075     14.8328E+06    -7.23323E+06              0.     10.3611E+06
           27076     15.3973E+06    -7.38530E+06              0.     10.7123E+06
           27077     15.9803E+06    -7.53517E+06              0.     11.0702E+06
           27078     16.5822E+06    -7.68223E+06              0.     11.4346E+06
           27079     17.2037E+06    -7.82585E+06              0.     11.8051E+06
           27080     17.8449E+06    -7.96533E+06              0.     12.1816E+06
           27081     18.5065E+06    -8.09988E+06              0.     12.5639E+06
           27082     19.1889E+06    -8.22869E+06              0.     12.9514E+06
           27083     19.8924E+06    -8.35084E+06              0.     13.3440E+06
           27084     20.6174E+06    -8.46532E+06              0.     13.7412E+06
           27085     21.3644E+06    -8.57108E+06              0.     14.1425E+06
           27086     22.1337E+06    -8.66693E+06              0.     14.5474E+06
           27087     22.9257E+06    -8.75161E+06              0.     14.9554E+06
           27088     23.7405E+06    -8.82374E+06              0.     15.3657E+06
           27089     24.5787E+06    -8.88183E+06              0.     15.7778E+06
           27090     25.4402E+06    -8.92427E+06              0.     16.1908E+06
           27091     26.3255E+06    -8.94932E+06              0.     16.6040E+06
           27092     27.2345E+06    -8.95508E+06              0.     17.0163E+06
           27093     28.1674E+06    -8.93952E+06              0.     17.4267E+06
           27094     29.1243E+06    -8.90043E+06              0.     17.8343E+06
           27095     30.1051E+06    -8.83545E+06              0.     18.2377E+06
           27096     31.1097E+06      -8.742E+06              0.     18.6357E+06
           27097     32.1378E+06    -8.61733E+06              0.     19.0270E+06
           27098     33.1893E+06    -8.45846E+06              0.     19.4099E+06
           27099     34.2637E+06    -8.26218E+06              0.     19.7829E+06
           27100     35.3605E+06    -8.02503E+06              0.     20.1442E+06
           27101     36.4792E+06    -7.74331E+06              0.     20.4920E+06
           27102     37.6188E+06    -7.41301E+06              0.     20.8243E+06
           27103     38.7786E+06    -7.02984E+06              0.     21.1389E+06
           27104     39.9575E+06    -6.58916E+06              0.     21.4335E+06
           27105     41.1541E+06    -6.08602E+06              0.     21.7057E+06
           27106     42.3672E+06    -5.51508E+06              0.     21.9529E+06
           27107     43.5951E+06     -4.8706E+06              0.     22.1724E+06
           27108     44.8358E+06    -4.14644E+06              0.     22.3613E+06
           27109     46.0873E+06    -3.33600E+06              0.     22.5165E+06
           27110     47.3473E+06    -2.43220E+06              0.     22.6348E+06
           27111     48.6132E+06    -1.42745E+06              0.     22.7128E+06
           27112     49.8819E+06    -313.588E+03              0.     22.7470E+06
           27113     51.1503E+06     918.090E+03              0.     22.7337E+06
           27114     52.4147E+06     2.27692E+06              0.     22.6691E+06
           27115     53.6714E+06     3.77294E+06              0.     22.5491E+06
           27116     54.9158E+06     5.41684E+06              0.     22.3697E+06
           27117     56.1434E+06     7.22010E+06              0.     22.1267E+06
           27118     57.3489E+06     9.19499E+06              0.     21.8156E+06
           27119     58.5269E+06     11.3546E+06              0.     21.4321E+06
           27120     59.6711E+06     13.7130E+06              0.     20.9718E+06
           27121     60.7752E+06     16.2851E+06              0.     20.4301E+06
           27122     61.8320E+06     19.0870E+06              0.     19.8025E+06
           27123     62.8340E+06     22.1357E+06              0.     19.0848E+06
           27124     63.7730E+06     25.4496E+06              0.     18.2725E+06
           27125     65.1544E+06     29.1616E+06              0.     18.3464E+06
           27126    -484.010E+03    -216.610E+03              0.    -938.349E+03
           27127    -483.445E+03    -211.301E+03              0.    -936.732E+03
           27128    -485.162E+03    -207.018E+03              0.    -928.111E+03
           27129    -486.873E+03    -202.727E+03              0.    -919.783E+03
           27130    -488.573E+03    -198.436E+03              0.    -911.745E+03
           27131    -490.254E+03    -194.155E+03              0.    -903.995E+03
           27132    -491.911E+03    -189.893E+03              0.    -896.532E+03
           27133    -493.539E+03    -185.658E+03              0.    -889.352E+03
           27134    -495.132E+03    -181.460E+03              0.    -882.453E+03
           27135    -496.685E+03    -177.304E+03              0.    -875.831E+03
           27136    -498.192E+03    -173.200E+03              0.    -869.483E+03
           27137    -499.649E+03    -169.154E+03              0.    -863.406E+03
           27138    -501.051E+03    -165.172E+03              0.    -857.594E+03
           27139    -502.393E+03    -161.262E+03              0.    -852.043E+03
           27140    -503.671E+03    -157.431E+03              0.    -846.749E+03
           27141    -504.878E+03    -153.683E+03              0.    -841.705E+03
           27142    -506.012E+03    -150.025E+03              0.    -836.908E+03
           27143    -507.067E+03    -146.464E+03              0.    -832.351E+03
           27144    -508.039E+03    -143.003E+03              0.    -828.028E+03
           27145    -508.924E+03    -139.650E+03              0.    -823.934E+03
           27146    -509.715E+03    -136.409E+03              0.    -820.061E+03
           27147    -510.410E+03    -133.286E+03              0.    -816.404E+03
           27148    -511.004E+03    -130.286E+03              0.    -812.955E+03
           27149    -511.491E+03    -127.413E+03              0.    -809.707E+03
           27150    -511.866E+03    -124.674E+03              0.    -806.654E+03
           27151    -512.126E+03    -122.072E+03              0.    -803.788E+03
           27152    -512.265E+03    -119.613E+03              0.    -801.100E+03
           27153    -512.277E+03    -117.302E+03              0.    -798.584E+03
           27154    -512.159E+03    -115.144E+03              0.    -796.230E+03
           27155    -511.903E+03    -113.143E+03              0.    -794.032E+03
           27156    -511.506E+03    -111.305E+03              0.    -791.979E+03
           27157    -510.961E+03    -109.634E+03              0.    -790.063E+03
           27158    -510.262E+03    -108.136E+03              0.    -788.276E+03
           27159    -509.404E+03    -106.816E+03              0.    -786.608E+03
           27160    -508.380E+03    -105.679E+03              0.    -785.049E+03
           27161    -507.184E+03    -104.729E+03              0.     -783.59E+03
           27162    -505.809E+03    -103.973E+03              0.    -782.221E+03
           27163    -504.249E+03    -103.416E+03              0.    -780.932E+03
           27164    -502.496E+03    -103.063E+03              0.    -779.712E+03
           27165    -500.543E+03    -102.920E+03              0.    -778.551E+03
           27166    -498.382E+03    -102.993E+03              0.    -777.438E+03
           27167    -496.006E+03    -103.287E+03              0.    -776.361E+03
           27168    -493.406E+03    -103.810E+03              0.    -775.309E+03
           27169    -490.574E+03    -104.566E+03              0.    -774.271E+03
           27170    -487.500E+03    -105.562E+03              0.    -773.235E+03
           27171    -484.176E+03    -106.806E+03              0.    -772.187E+03
           27172    -480.592E+03    -108.303E+03              0.    -771.115E+03
           27173    -476.738E+03    -110.061E+03              0.    -770.008E+03
           27174    -472.604E+03    -112.086E+03              0.    -768.850E+03
           27175    -468.179E+03    -114.388E+03              0.    -767.629E+03
           27176    -463.452E+03    -116.972E+03              0.    -766.331E+03
           27177    -458.411E+03    -119.847E+03              0.    -764.941E+03
           27178    -453.044E+03    -123.021E+03              0.    -763.445E+03
           27179    -447.339E+03    -126.503E+03              0.    -761.827E+03
           27180    -441.282E+03    -130.301E+03              0.    -760.073E+03
           27181    -434.860E+03    -134.424E+03              0.    -758.166E+03
           27182    -428.060E+03    -138.882E+03              0.    -756.091E+03
           27183    -420.865E+03    -143.683E+03              0.    -753.829E+03
           27184    -413.262E+03    -148.839E+03              0.    -751.365E+03
           27185    -405.234E+03    -154.359E+03              0.    -748.680E+03
           27186    -396.765E+03    -160.253E+03              0.    -745.757E+03
           27187    -387.837E+03    -166.534E+03              0.    -742.577E+03
           27188    -378.434E+03    -173.211E+03              0.     -739.12E+03
           27189    -368.536E+03    -180.298E+03              0.    -735.367E+03
           27190    -358.124E+03    -187.804E+03              0.    -731.299E+03
           27191    -347.179E+03    -195.745E+03              0.    -726.893E+03
           27192    -335.680E+03    -204.131E+03              0.    -722.129E+03
           27193    -323.605E+03    -212.976E+03              0.    -716.985E+03
           27194    -310.932E+03    -222.295E+03              0.    -711.438E+03
           27195    -297.638E+03    -232.101E+03              0.    -705.465E+03
           27196    -283.699E+03    -242.409E+03              0.    -699.042E+03
           27197    -269.090E+03    -253.233E+03              0.    -692.145E+03
           27198    -253.785E+03    -264.590E+03              0.    -684.747E+03
           27199    -237.757E+03    -276.496E+03              0.    -676.824E+03
           27200    -220.977E+03    -288.967E+03              0.    -668.348E+03
           27201    -203.418E+03    -302.019E+03              0.    -659.292E+03
           27202    -185.049E+03    -315.672E+03              0.    -649.628E+03
           27203    -165.839E+03    -329.943E+03              0.    -639.326E+03
           27204    -145.755E+03    -344.850E+03              0.    -628.356E+03
           27205    -124.764E+03    -360.413E+03              0.    -616.687E+03
           27206    -102.831E+03    -376.652E+03              0.    -604.288E+03
           27207    -79.9188E+03    -393.587E+03              0.    -591.125E+03
           27208    -55.9910E+03    -411.240E+03              0.    -577.166E+03
           27209    -31.0082E+03    -429.631E+03              0.    -562.375E+03
           27210    -4.93006E+03    -448.784E+03              0.    -546.718E+03
           27211     22.2854E+03    -468.721E+03              0.    -530.156E+03
           27212     50.6818E+03    -489.466E+03              0.    -512.653E+03
           27213     80.3040E+03    -511.043E+03              0.    -494.169E+03
           27214     111.199E+03    -533.477E+03              0.    -474.665E+03
           27215     143.415E+03    -556.794E+03              0.    -454.099E+03
           27216     177.003E+03    -581.019E+03              0.    -432.430E+03
           27217     212.014E+03    -606.181E+03              0.    -409.613E+03
           27218     248.503E+03    -632.307E+03              0.    -385.605E+03
           27219     286.526E+03    -659.424E+03              0.    -360.358E+03
           27220     326.141E+03    -687.564E+03              0.    -333.826E+03
           27221     367.408E+03    -716.755E+03              0.    -305.960E+03
           27222     410.389E+03    -747.027E+03              0.    -276.710E+03
           27223     455.149E+03    -778.414E+03              0.    -246.025E+03
           27224     501.756E+03    -810.946E+03              0.    -213.852E+03
           27225     550.279E+03    -844.658E+03              0.    -180.137E+03
           27226     600.790E+03    -879.582E+03              0.    -144.824E+03
           27227     653.363E+03    -915.752E+03              0.    -107.856E+03
           27228     708.076E+03    -953.206E+03              0.    -69.1733E+03
           27229     765.008E+03    -991.977E+03              0.    -28.7170E+03
           27230     824.244E+03    -1.03210E+06              0.     13.5754E+03
           27231     885.868E+03    -1.07362E+06              0.     57.7674E+03
           27232     949.970E+03    -1.11657E+06              0.     103.924E+03
           27233     1.01664E+06    -1.16099E+06              0.     152.112E+03
           27234     1.08598E+06    -1.20692E+06              0.     202.400E+03
           27235     1.15808E+06    -1.25440E+06              0.     254.859E+03
           27236     1.23305E+06    -1.30347E+06              0.     309.560E+03
           27237     1.31099E+06    -1.35418E+06              0.     366.576E+03
           27238     1.39202E+06    -1.40656E+06              0.     425.984E+03
           27239     1.47624E+06    -1.46065E+06              0.     487.861E+03
           27240     1.56378E+06    -1.51651E+06              0.     552.286E+03
           27241     1.65475E+06    -1.57417E+06              0.     619.339E+03
           27242     1.74928E+06    -1.63368E+06              0.     689.103E+03
           27243     1.84751E+06    -1.69509E+06              0.     761.663E+03
           27244     1.94956E+06    -1.75844E+06              0.     837.106E+03
           27245     2.05559E+06    -1.82377E+06              0.     915.519E+03
           27246     2.16572E+06    -1.89113E+06              0.     996.992E+03
           27247     2.28011E+06    -1.96057E+06              0.     1.08162E+06
           27248     2.39892E+06    -2.03213E+06              0.     1.16949E+06
           27249     2.52231E+06    -2.10586E+06              0.     1.26070E+06
           27250     2.65044E+06    -2.18180E+06              0.     1.35535E+06
           27251     2.78348E+06    -2.25999E+06              0.     1.45353E+06
           27252     2.92161E+06    -2.34049E+06              0.     1.55536E+06
           27253     3.06501E+06    -2.42334E+06              0.     1.66092E+06
           27254     3.21387E+06    -2.50858E+06              0.     1.77032E+06
           27255     3.36839E+06    -2.59624E+06              0.     1.88367E+06
           27256     3.52876E+06    -2.68638E+06              0.     2.00108E+06
           27257     3.69520E+06    -2.77904E+06              0.     2.12264E+06
           27258     3.86791E+06    -2.87424E+06              0.     2.24848E+06
           27259     4.04713E+06    -2.97203E+06              0.     2.37870E+06
           27260     4.23308E+06    -3.07244E+06              0.     2.51341E+06
           27261     4.42599E+06    -3.17550E+06              0.     2.65272E+06
           27262     4.62612E+06    -3.28124E+06              0.     2.79674E+06
           27263     4.83370E+06    -3.38969E+06              0.     2.94560E+06
           27264     5.04901E+06    -3.50086E+06              0.     3.09939E+06
           27265     5.27230E+06    -3.61479E+06              0.     3.25824E+06
           27266     5.50386E+06    -3.73147E+06              0.     3.42226E+06
           27267     5.74396E+06    -3.85092E+06              0.     3.59155E+06
           27268     5.99290E+06    -3.97314E+06              0.     3.76624E+06
           27269     6.25097E+06    -4.09813E+06              0.     3.94643E+06
           27270     6.51849E+06    -4.22588E+06              0.     4.13224E+06
           27271     6.79577E+06    -4.35637E+06              0.     4.32376E+06
           27272     7.08315E+06    -4.48958E+06              0.     4.52112E+06
           27273     7.38094E+06    -4.62547E+06              0.     4.72440E+06
           27274     7.68951E+06    -4.76400E+06              0.     4.93371E+06
           27275     8.00920E+06    -4.90512E+06              0.     5.14915E+06
           27276     8.34037E+06    -5.04876E+06              0.     5.37081E+06
           27277     8.68339E+06    -5.19484E+06              0.     5.59877E+06
           27278     9.03865E+06    -5.34327E+06              0.     5.83313E+06
           27279     9.40653E+06    -5.49394E+06              0.     6.07395E+06
           27280     9.78743E+06    -5.64673E+06              0.     6.32131E+06
           27281     10.1817E+06    -5.80150E+06              0.     6.57527E+06
           27282     10.5899E+06    -5.95808E+06              0.     6.83589E+06
           27283     11.0123E+06    -6.11630E+06              0.     7.10320E+06
           27284     11.4494E+06    -6.27594E+06              0.     7.37723E+06
           27285     11.9017E+06    -6.43678E+06              0.     7.65803E+06
           27286     12.3695E+06    -6.59856E+06              0.     7.94558E+06
           27287     12.8533E+06    -6.76100E+06              0.     8.23990E+06
           27288     13.3536E+06    -6.92377E+06              0.     8.54095E+06
           27289     13.8708E+06    -7.08653E+06              0.     8.84870E+06
           27290     14.4054E+06    -7.24889E+06              0.     9.16310E+06
           27291     14.9579E+06    -7.41041E+06              0.     9.48407E+06
           27292     15.5287E+06    -7.57064E+06              0.     9.81152E+06
           27293     16.1183E+06    -7.72905E+06              0.     10.1453E+06
           27294     16.7271E+06    -7.88507E+06              0.     10.4853E+06
           27295     17.3557E+06    -8.03809E+06              0.     10.8314E+06
           27296     18.0045E+06    -8.18742E+06              0.     11.1832E+06
           27297     18.6740E+06    -8.33233E+06              0.     11.5407E+06
           27298     19.3645E+06      -8.472E+06              0.     11.9035E+06
           27299     20.0766E+06    -8.60556E+06              0.     12.2712E+06
           27300     20.8106E+06    -8.73204E+06              0.     12.6437E+06
           27301     21.5670E+06    -8.85042E+06              0.     13.0204E+06
           27302     22.3462E+06    -8.95955E+06              0.     13.4009E+06
           27303     23.1485E+06    -9.05820E+06              0.     13.7848E+06
           27304     23.9743E+06    -9.14506E+06              0.     14.1714E+06
           27305     24.8239E+06    -9.21866E+06              0.     14.5602E+06
           27306     25.6976E+06    -9.27746E+06              0.     14.9505E+06
           27307     26.5955E+06    -9.31977E+06              0.     15.3416E+06
           27308     27.5180E+06    -9.34375E+06              0.     15.7327E+06
           27309     28.4651E+06    -9.34743E+06              0.     16.1228E+06
           27310     29.4370E+06    -9.32869E+06              0.     16.5111E+06
           27311     30.4337E+06    -9.28522E+06              0.     16.8965E+06
           27312     31.4551E+06    -9.21455E+06              0.     17.2779E+06
           27313     32.5012E+06    -9.11400E+06              0.     17.6541E+06
           27314     33.5716E+06    -8.98068E+06              0.     18.0237E+06
           27315     34.6662E+06    -8.81151E+06              0.     18.3853E+06
           27316     35.7845E+06    -8.60314E+06              0.     18.7373E+06
           27317     36.9261E+06    -8.35198E+06              0.     19.0783E+06
           27318     38.0902E+06    -8.05416E+06              0.     19.4063E+06
           27319     39.2761E+06    -7.70554E+06              0.     19.7194E+06
           27320     40.4829E+06    -7.30166E+06              0.     20.0158E+06
           27321     41.7095E+06    -6.83773E+06              0.     20.2931E+06
           27322     42.9546E+06    -6.30860E+06              0.     20.5492E+06
           27323     44.2169E+06    -5.70877E+06              0.     20.7817E+06
           27324     45.4945E+06    -5.03230E+06              0.     20.9878E+06
           27325     46.7858E+06    -4.27285E+06              0.     21.1650E+06
           27326     48.0885E+06    -3.42364E+06              0.     21.3104E+06
           27327     49.4003E+06    -2.47736E+06              0.     21.4209E+06
           27328     50.7185E+06    -1.42622E+06              0.     21.4935E+06
           27329     52.0403E+06    -261.846E+03              0.     21.5248E+06
           27330     53.3624E+06     1.02469E+06              0.     21.5114E+06
           27331     54.6812E+06     2.44293E+06              0.     21.4496E+06
           27332     55.9929E+06     4.00314E+06              0.     21.3360E+06
           27333     57.2931E+06     5.71622E+06              0.     21.1666E+06
           27334     58.5772E+06     7.59387E+06              0.     20.9375E+06
           27335     59.8401E+06     9.64855E+06              0.     20.6447E+06
           27336     61.0764E+06     11.8936E+06              0.     20.2843E+06
           27337     62.2800E+06     14.3431E+06              0.     19.8521E+06
           27338     63.4446E+06     17.0124E+06              0.     19.3440E+06
           27339     64.5633E+06     19.9175E+06              0.     18.7560E+06
           27340     65.6287E+06     23.0756E+06              0.     18.0842E+06
           27341     66.6326E+06     26.5049E+06              0.     17.3246E+06
           27342     68.0691E+06     30.3446E+06              0.     17.4038E+06
           27343    -504.297E+03    -225.747E+03              0.    -936.532E+03
           27344    -503.694E+03    -220.070E+03              0.    -934.917E+03
           27345    -505.531E+03    -215.492E+03              0.    -926.300E+03
           27346    -507.362E+03    -210.906E+03              0.    -917.981E+03
           27347    -509.180E+03    -206.322E+03              0.    -909.959E+03
           27348    -510.979E+03    -201.751E+03              0.    -902.232E+03
           27349    -512.752E+03    -197.201E+03              0.    -894.796E+03
           27350    -514.495E+03    -192.681E+03              0.    -887.650E+03
           27351    -516.200E+03    -188.200E+03              0.    -880.790E+03
           27352    -517.863E+03    -183.766E+03              0.    -874.213E+03
           27353    -519.479E+03    -179.387E+03              0.    -867.914E+03
           27354    -521.041E+03    -175.070E+03              0.    -861.891E+03
           27355    -522.546E+03    -170.823E+03              0.    -856.139E+03
           27356    -523.987E+03    -166.652E+03              0.    -850.652E+03
           27357    -525.361E+03    -162.563E+03              0.    -845.427E+03
           27358    -526.662E+03    -158.565E+03              0.    -840.458E+03
           27359    -527.885E+03    -154.661E+03              0.    -835.739E+03
           27360    -529.026E+03    -150.860E+03              0.    -831.265E+03
           27361    -530.079E+03    -147.166E+03              0.    -827.030E+03
           27362    -531.041E+03    -143.585E+03              0.    -823.028E+03
           27363    -531.906E+03    -140.123E+03              0.    -819.253E+03
           27364    -532.669E+03    -136.785E+03              0.    -815.697E+03
           27365    -533.326E+03    -133.577E+03              0.    -812.355E+03
           27366    -533.871E+03    -130.504E+03              0.    -809.219E+03
           27367    -534.301E+03    -127.571E+03              0.    -806.283E+03
           27368    -534.608E+03    -124.783E+03              0.    -803.538E+03
           27369    -534.789E+03    -122.147E+03              0.    -800.977E+03
           27370    -534.838E+03    -119.666E+03              0.    -798.592E+03
           27371     -534.75E+03    -117.345E+03              0.    -796.376E+03
           27372    -534.519E+03    -115.191E+03              0.    -794.320E+03
           27373    -534.139E+03    -113.208E+03              0.    -792.416E+03
           27374    -533.604E+03    -111.402E+03              0.    -790.655E+03
           27375    -532.909E+03    -109.777E+03              0.    -789.028E+03
           27376    -532.047E+03    -108.339E+03              0.    -787.526E+03
           27377    -531.012E+03    -107.093E+03              0.    -786.140E+03
           27378    -529.797E+03    -106.045E+03              0.    -784.861E+03
           27379    -528.394E+03    -105.200E+03              0.    -783.679E+03
           27380    -526.798E+03    -104.564E+03              0.    -782.583E+03
           27381    -525.000E+03    -104.143E+03              0.    -781.564E+03
           27382    -522.993E+03    -103.942E+03              0.    -780.612E+03
           27383    -520.769E+03    -103.969E+03              0.    -779.715E+03
           27384    -518.319E+03    -104.227E+03              0.    -778.863E+03
           27385    -515.635E+03    -104.725E+03              0.    -778.045E+03
           27386    -512.709E+03    -105.469E+03              0.    -777.249E+03
           27387    -509.530E+03    -106.465E+03              0.    -776.464E+03
           27388    -506.089E+03    -107.720E+03              0.    -775.678E+03
           27389    -502.377E+03    -109.242E+03              0.    -774.877E+03
           27390    -498.382E+03    -111.037E+03              0.    -774.051E+03
           27391    -494.094E+03    -113.113E+03              0.    -773.186E+03
           27392    -489.502E+03    -115.479E+03              0.    -772.269E+03
           27393    -484.594E+03    -118.141E+03              0.    -771.285E+03
           27394    -479.358E+03    -121.108E+03              0.    -770.223E+03
           27395    -473.782E+03    -124.389E+03              0.    -769.066E+03
           27396    -467.851E+03    -127.992E+03              0.    -767.802E+03
           27397    -461.553E+03    -131.927E+03              0.    -766.414E+03
           27398    -454.873E+03    -136.203E+03              0.    -764.888E+03
           27399    -447.798E+03    -140.830E+03              0.    -763.207E+03
           27400    -440.310E+03    -145.817E+03              0.    -761.356E+03
           27401    -432.395E+03    -151.176E+03              0.    -759.319E+03
           27402    -424.036E+03    -156.916E+03              0.    -757.077E+03
           27403    -415.215E+03    -163.049E+03              0.    -754.614E+03
           27404    -405.916E+03    -169.586E+03              0.    -751.911E+03
           27405    -396.119E+03    -176.539E+03              0.    -748.951E+03
           27406    -385.804E+03    -183.921E+03              0.    -745.714E+03
           27407    -374.953E+03    -191.743E+03              0.    -742.181E+03
           27408    -363.544E+03    -200.019E+03              0.    -738.331E+03
           27409    -351.556E+03    -208.763E+03              0.    -734.145E+03
           27410    -338.966E+03    -217.987E+03              0.    -729.601E+03
           27411    -325.750E+03    -227.707E+03              0.    -724.678E+03
           27412    -311.885E+03    -237.938E+03              0.    -719.352E+03
           27413    -297.346E+03    -248.694E+03              0.    -713.602E+03
           27414    -282.106E+03    -259.991E+03              0.    -707.403E+03
           27415    -266.138E+03    -271.846E+03              0.    -700.731E+03
           27416    -249.415E+03    -284.275E+03              0.    -693.561E+03
           27417    -231.906E+03    -297.296E+03              0.    -685.867E+03
           27418    -213.582E+03    -310.926E+03              0.    -677.624E+03
           27419    -194.412E+03    -325.185E+03              0.    -668.803E+03
           27420    -174.362E+03    -340.090E+03              0.    -659.377E+03
           27421    -153.398E+03    -355.662E+03              0.    -649.317E+03
           27422    -131.486E+03    -371.920E+03              0.    -638.593E+03
           27423    -108.589E+03    -388.886E+03              0.    -627.175E+03
           27424    -84.6693E+03    -406.580E+03              0.    -615.032E+03
           27425    -59.6875E+03    -425.025E+03              0.    -602.130E+03
           27426    -33.6028E+03    -444.243E+03              0.    -588.438E+03
           27427    -6.37318E+03    -464.258E+03              0.    -573.920E+03
           27428     22.0453E+03    -485.094E+03              0.    -558.542E+03
           27429     51.6980E+03    -506.775E+03              0.    -542.267E+03
           27430     82.6321E+03    -529.326E+03              0.    -525.058E+03
           27431     114.897E+03    -552.774E+03              0.    -506.878E+03
           27432     148.542E+03    -577.145E+03              0.    -487.686E+03
           27433     183.620E+03    -602.468E+03              0.    -467.443E+03
           27434     220.187E+03    -628.769E+03              0.    -446.106E+03
           27435     258.298E+03    -656.078E+03              0.    -423.633E+03
           27436     298.012E+03    -684.426E+03              0.    -399.980E+03
           27437     339.389E+03    -713.841E+03              0.    -375.101E+03
           27438     382.493E+03    -744.356E+03              0.    -348.951E+03
           27439     427.388E+03    -776.003E+03              0.    -321.481E+03
           27440     474.143E+03    -808.814E+03              0.    -292.643E+03
           27441     522.826E+03    -842.823E+03              0.    -262.386E+03
           27442     573.512E+03    -878.065E+03              0.    -230.658E+03
           27443     626.274E+03    -914.574E+03              0.    -197.407E+03
           27444     681.191E+03    -952.387E+03              0.    -162.577E+03
           27445     738.342E+03    -991.540E+03              0.    -126.112E+03
           27446     797.813E+03    -1.03207E+06              0.    -87.9560E+03
           27447     859.690E+03    -1.07402E+06              0.    -48.0488E+03
           27448     924.062E+03    -1.11742E+06              0.    -6.33024E+03
           27449     991.021E+03    -1.16232E+06              0.     37.2618E+03
           27450     1.06066E+06    -1.20875E+06              0.     82.7908E+03
           27451     1.13309E+06    -1.25676E+06              0.     130.322E+03
           27452     1.20841E+06    -1.30639E+06              0.     179.923E+03
           27453     1.28671E+06    -1.35768E+06              0.     231.661E+03
           27454     1.36813E+06    -1.41068E+06              0.     285.606E+03
           27455     1.45276E+06    -1.46543E+06              0.     341.831E+03
           27456     1.54073E+06    -1.52197E+06              0.     400.409E+03
           27457     1.63215E+06    -1.58034E+06              0.     461.415E+03
           27458     1.72717E+06    -1.64061E+06              0.     524.926E+03
           27459     1.82590E+06    -1.70280E+06              0.     591.019E+03
           27460     1.92849E+06    -1.76697E+06              0.     659.776E+03
           27461     2.03507E+06    -1.83317E+06              0.     731.279E+03
           27462     2.14579E+06    -1.90144E+06              0.     805.610E+03
           27463     2.26080E+06    -1.97182E+06              0.     882.855E+03
           27464     2.38026E+06    -2.04438E+06              0.     963.102E+03
           27465     2.50432E+06    -2.11914E+06              0.     1.04644E+06
           27466     2.63316E+06    -2.19617E+06              0.     1.13295E+06
           27467     2.76694E+06    -2.27550E+06              0.     1.22274E+06
           27468     2.90585E+06    -2.35719E+06              0.     1.31589E+06
           27469     3.05006E+06    -2.44128E+06              0.     1.41250E+06
           27470     3.19977E+06    -2.52782E+06              0.     1.51267E+06
           27471     3.35517E+06    -2.61684E+06              0.     1.61649E+06
           27472     3.51647E+06    -2.70840E+06              0.     1.72406E+06
           27473     3.68388E+06    -2.80253E+06              0.     1.83549E+06
           27474     3.85760E+06    -2.89928E+06              0.     1.95087E+06
           27475     4.03787E+06    -2.99869E+06              0.     2.07030E+06
           27476     4.22492E+06    -3.10079E+06              0.      2.1939E+06
           27477     4.41897E+06    -3.20562E+06              0.     2.32176E+06
           27478     4.62029E+06    -3.31321E+06              0.     2.45399E+06
           27479     4.82911E+06    -3.42358E+06              0.     2.59069E+06
           27480     5.04571E+06    -3.53678E+06              0.     2.73198E+06
           27481     5.27034E+06    -3.65280E+06              0.     2.87795E+06
           27482     5.50330E+06    -3.77169E+06              0.     3.02871E+06
           27483     5.74485E+06    -3.89344E+06              0.     3.18437E+06
           27484     5.99531E+06    -4.01806E+06              0.     3.34504E+06
           27485     6.25495E+06    -4.14557E+06              0.     3.51081E+06
           27486     6.52411E+06    -4.27595E+06              0.     3.68180E+06
           27487     6.80310E+06    -4.40919E+06              0.     3.85809E+06
           27488     7.09224E+06    -4.54527E+06              0.     4.03981E+06
           27489     7.39189E+06    -4.68418E+06              0.     4.22703E+06
           27490     7.70237E+06    -4.82586E+06              0.     4.41986E+06
           27491     8.02405E+06    -4.97027E+06              0.     4.61839E+06
           27492     8.35729E+06    -5.11736E+06              0.     4.82271E+06
           27493     8.70248E+06    -5.26706E+06              0.     5.03290E+06
           27494     9.05998E+06    -5.41928E+06              0.     5.24905E+06
           27495     9.43020E+06    -5.57391E+06              0.     5.47124E+06
           27496     9.81353E+06    -5.73086E+06              0.     5.69951E+06
           27497     10.2104E+06    -5.88999E+06              0.     5.93396E+06
           27498     10.6212E+06    -6.05114E+06              0.     6.17462E+06
           27499     11.0464E+06    -6.21415E+06              0.     6.42155E+06
           27500     11.4863E+06    -6.37882E+06              0.     6.67478E+06
           27501     11.9415E+06    -6.54494E+06              0.     6.93435E+06
           27502     12.4125E+06    -6.71227E+06              0.     7.20027E+06
           27503     12.8995E+06    -6.88053E+06              0.     7.47254E+06
           27504     13.4032E+06    -7.04943E+06              0.     7.75116E+06
           27505     13.9240E+06    -7.21863E+06              0.     8.03611E+06
           27506     14.4623E+06    -7.38776E+06              0.     8.32734E+06
           27507     15.0187E+06    -7.55641E+06              0.     8.62480E+06
           27508     15.5936E+06    -7.72413E+06              0.     8.92841E+06
           27509     16.1875E+06    -7.89044E+06              0.     9.23808E+06
           27510     16.8008E+06    -8.05478E+06              0.     9.55369E+06
           27511     17.4341E+06    -8.21656E+06              0.     9.87510E+06
           27512     18.0879E+06    -8.37514E+06              0.     10.2021E+06
           27513     18.7625E+06    -8.52979E+06              0.     10.5346E+06
           27514     19.4585E+06    -8.67976E+06              0.     10.8723E+06
           27515     20.1764E+06    -8.82418E+06              0.     11.2149E+06
           27516     20.9165E+06    -8.96213E+06              0.     11.5621E+06
           27517     21.6794E+06    -9.09263E+06              0.     11.9136E+06
           27518     22.4654E+06    -9.21457E+06              0.     12.2691E+06
           27519     23.2749E+06    -9.32678E+06              0.     12.6281E+06
           27520     24.1084E+06    -9.42797E+06              0.     12.9901E+06
           27521     24.9661E+06    -9.51675E+06              0.     13.3546E+06
           27522     25.8484E+06    -9.59162E+06              0.     13.7211E+06
           27523     26.7555E+06    -9.65096E+06              0.     14.0889E+06
           27524     27.6878E+06    -9.69299E+06              0.     14.4573E+06
           27525     28.6454E+06    -9.71582E+06              0.     14.8255E+06
           27526     29.6284E+06    -9.71739E+06              0.     15.1928E+06
           27527     30.6370E+06    -9.69549E+06              0.     15.5582E+06
           27528     31.6711E+06    -9.64772E+06              0.     15.9208E+06
           27529     32.7308E+06    -9.57150E+06              0.     16.2795E+06
           27530     33.8159E+06    -9.46407E+06              0.     16.6330E+06
           27531     34.9261E+06    -9.32242E+06              0.     16.9803E+06
           27532     36.0613E+06    -9.14334E+06              0.     17.3199E+06
           27533     37.2209E+06    -8.92337E+06              0.     17.6505E+06
           27534     38.4046E+06    -8.65879E+06              0.     17.9704E+06
           27535     39.6115E+06    -8.34560E+06              0.     18.2780E+06
           27536     40.8409E+06    -7.97951E+06              0.     18.5716E+06
           27537     42.0919E+06    -7.55590E+06              0.     18.8492E+06
           27538     43.3634E+06    -7.06984E+06              0.     19.1089E+06
           27539     44.6541E+06    -6.51602E+06              0.     19.3485E+06
           27540     45.9626E+06    -5.88875E+06              0.     19.5658E+06
           27541     47.2872E+06    -5.18194E+06              0.     19.7583E+06
           27542     48.6259E+06    -4.38907E+06              0.     19.9236E+06
           27543     49.9768E+06    -3.50315E+06              0.     20.0589E+06
           27544     51.3373E+06    -2.51669E+06              0.     20.1615E+06
           27545     52.7049E+06    -1.42171E+06              0.     20.2285E+06
           27546     54.0767E+06    -209.649E+03              0.     20.2569E+06
           27547     55.4494E+06     1.12863E+06              0.     20.2433E+06
           27548     56.8195E+06     2.60288E+06              0.     20.1846E+06
           27549     58.1831E+06     4.22354E+06              0.     20.0773E+06
           27550      59.536E+06     6.00172E+06              0.     19.9180E+06
           27551     60.8735E+06     7.94931E+06              0.     19.7031E+06
           27552     62.1907E+06     10.0789E+06              0.     19.4288E+06
           27553     63.4822E+06     12.4041E+06              0.     19.0916E+06
           27554     64.7421E+06     14.9392E+06              0.     18.6877E+06
           27555     65.9641E+06     17.6994E+06              0.     18.2135E+06
           27556     67.1417E+06     20.7011E+06              0.     17.6652E+06
           27557     68.2677E+06     23.9615E+06              0.     17.0392E+06
           27558     69.3347E+06     27.4991E+06              0.     16.3322E+06
           27559     70.8238E+06     31.4585E+06              0.     16.4145E+06
           27560    -524.604E+03    -234.893E+03              0.    -934.593E+03
           27561    -523.960E+03    -228.839E+03              0.    -932.980E+03
           27562    -525.921E+03    -223.959E+03              0.    -924.367E+03
           27563    -527.874E+03    -219.072E+03              0.    -916.059E+03
           27564    -529.814E+03    -214.190E+03              0.    -908.054E+03
           27565    -531.733E+03    -209.321E+03              0.    -900.350E+03
           27566    -533.625E+03    -204.477E+03              0.    -892.944E+03
           27567    -535.485E+03    -199.667E+03              0.    -885.833E+03
           27568    -537.306E+03    -194.898E+03              0.    -879.014E+03
           27569    -539.082E+03    -190.181E+03              0.    -872.483E+03
           27570    -540.809E+03    -185.522E+03              0.    -866.237E+03
           27571    -542.480E+03    -180.929E+03              0.    -860.271E+03
           27572    -544.090E+03    -176.410E+03              0.    -854.581E+03
           27573    -545.634E+03    -171.973E+03              0.    -849.162E+03
           27574    -547.107E+03    -167.623E+03              0.    -844.009E+03
           27575    -548.505E+03    -163.369E+03              0.    -839.117E+03
           27576    -549.821E+03    -159.215E+03              0.    -834.480E+03
           27577    -551.051E+03    -155.169E+03              0.    -830.093E+03
           27578    -552.190E+03    -151.236E+03              0.    -825.950E+03
           27579    -553.233E+03    -147.422E+03              0.    -822.045E+03
           27580    -554.175E+03    -143.734E+03              0.    -818.371E+03
           27581    -555.011E+03    -140.177E+03              0.    -814.922E+03
           27582    -555.736E+03    -136.756E+03              0.    -811.692E+03
           27583    -556.345E+03    -133.478E+03              0.    -808.673E+03
           27584    -556.832E+03    -130.347E+03              0.    -805.858E+03
           27585    -557.193E+03    -127.368E+03              0.    -803.240E+03
           27586    -557.422E+03    -124.548E+03              0.    -800.811E+03
           27587    -557.513E+03    -121.892E+03              0.    -798.564E+03
           27588    -557.461E+03    -119.404E+03              0.    -796.492E+03
           27589    -557.260E+03    -117.091E+03              0.    -794.585E+03
           27590    -556.904E+03    -114.957E+03              0.    -792.835E+03
           27591    -556.387E+03    -113.008E+03              0.    -791.235E+03
           27592    -555.703E+03    -111.250E+03              0.    -789.776E+03
           27593    -554.845E+03    -109.688E+03              0.    -788.448E+03
           27594    -553.806E+03    -108.327E+03              0.    -787.243E+03
           27595    -552.580E+03    -107.173E+03              0.    -786.151E+03
           27596    -551.158E+03    -106.233E+03              0.    -785.163E+03
           27597    -549.535E+03    -105.511E+03              0.    -784.270E+03
           27598    -547.702E+03    -105.014E+03              0.    -783.461E+03
           27599    -545.651E+03    -104.748E+03              0.    -782.726E+03
           27600    -543.373E+03    -104.719E+03              0.    -782.056E+03
           27601    -540.861E+03    -104.933E+03              0.    -781.438E+03
           27602    -538.105E+03    -105.398E+03              0.    -780.864E+03
           27603    -535.096E+03    -106.120E+03              0.    -780.321E+03
           27604    -531.824E+03    -107.106E+03              0.    -779.798E+03
           27605    -528.280E+03    -108.363E+03              0.    -779.284E+03
           27606    -524.452E+03    -109.899E+03              0.    -778.767E+03
           27607    -520.331E+03    -111.721E+03              0.    -778.234E+03
           27608    -515.904E+03    -113.836E+03              0.    -777.674E+03
           27609    -511.160E+03    -116.254E+03              0.    -777.073E+03
           27610    -506.088E+03    -118.982E+03              0.    -776.419E+03
           27611    -500.673E+03    -122.028E+03              0.    -775.698E+03
           27612    -494.904E+03    -125.403E+03              0.    -774.896E+03
           27613    -488.767E+03    -129.114E+03              0.    -774.000E+03
           27614    -482.246E+03    -133.172E+03              0.    -772.994E+03
           27615    -475.329E+03    -137.586E+03              0.    -771.865E+03
           27616    -467.998E+03    -142.367E+03              0.    -770.597E+03
           27617    -460.239E+03    -147.524E+03              0.    -769.174E+03
           27618    -452.034E+03    -153.069E+03              0.    -767.582E+03
           27619    -443.367E+03    -159.012E+03              0.    -765.802E+03
           27620    -434.220E+03    -165.365E+03              0.    -763.819E+03
           27621    -424.574E+03    -172.140E+03              0.    -761.615E+03
           27622    -414.409E+03    -179.350E+03              0.    -759.172E+03
           27623    -403.706E+03    -187.007E+03              0.    -756.473E+03
           27624    -392.444E+03    -195.124E+03              0.    -753.499E+03
           27625    -380.600E+03    -203.714E+03              0.    -750.230E+03
           27626    -368.154E+03    -212.793E+03              0.    -746.647E+03
           27627    -355.080E+03    -222.373E+03              0.    -742.729E+03
           27628    -341.356E+03    -232.470E+03              0.    -738.455E+03
           27629    -326.955E+03    -243.100E+03              0.    -733.805E+03
           27630    -311.852E+03    -254.278E+03              0.    -728.756E+03
           27631    -296.019E+03    -266.021E+03              0.    -723.286E+03
           27632    -279.428E+03    -278.346E+03              0.    -717.371E+03
           27633    -262.051E+03    -291.270E+03              0.    -710.987E+03
           27634    -243.855E+03    -304.811E+03              0.     -704.11E+03
           27635    -224.811E+03    -318.987E+03              0.    -696.714E+03
           27636    -204.884E+03    -333.819E+03              0.    -688.774E+03
           27637    -184.042E+03    -349.325E+03              0.    -680.262E+03
           27638    -162.249E+03    -365.526E+03              0.    -671.151E+03
           27639    -139.468E+03    -382.443E+03              0.    -661.413E+03
           27640    -115.662E+03    -400.098E+03              0.    -651.019E+03
           27641    -90.7903E+03    -418.512E+03              0.    -639.938E+03
           27642    -64.8128E+03    -437.709E+03              0.    -628.140E+03
           27643    -37.6872E+03    -457.712E+03              0.    -615.593E+03
           27644    -9.36928E+03    -478.546E+03              0.    -602.264E+03
           27645     20.1864E+03    -500.235E+03              0.    -588.120E+03
           27646     51.0272E+03    -522.804E+03              0.    -573.127E+03
           27647     83.2021E+03    -546.282E+03              0.    -557.249E+03
           27648     116.762E+03    -570.693E+03              0.    -540.449E+03
           27649     151.759E+03    -596.067E+03              0.    -522.691E+03
           27650     188.249E+03    -622.432E+03              0.    -503.934E+03
           27651     226.288E+03    -649.817E+03              0.    -484.141E+03
           27652     265.934E+03    -678.252E+03              0.    -463.269E+03
           27653     307.249E+03    -707.769E+03              0.    -441.278E+03
           27654     350.296E+03    -738.398E+03              0.    -418.124E+03
           27655     395.139E+03    -770.173E+03              0.    -393.764E+03
           27656     441.848E+03    -803.126E+03              0.    -368.150E+03
           27657     490.491E+03    -837.293E+03              0.    -341.238E+03
           27658     541.142E+03    -872.707E+03              0.    -312.979E+03
           27659     593.876E+03    -909.404E+03              0.    -283.323E+03
           27660     648.772E+03    -947.422E+03              0.    -252.221E+03
           27661     705.910E+03    -986.797E+03              0.    -219.621E+03
           27662     765.374E+03    -1.02757E+06              0.    -185.469E+03
           27663     827.250E+03    -1.06977E+06              0.    -149.711E+03
           27664     891.630E+03    -1.11345E+06              0.    -112.290E+03
           27665     958.605E+03    -1.15864E+06              0.    -73.1503E+03
           27666     1.02827E+06    -1.20539E+06              0.    -32.2319E+03
           27667     1.10073E+06    -1.25374E+06              0.     10.5253E+03
           27668     1.17609E+06    -1.30373E+06              0.     55.1829E+03
           27669     1.25445E+06    -1.35541E+06              0.     101.804E+03
           27670     1.33592E+06    -1.40881E+06              0.     150.454E+03
           27671     1.42062E+06    -1.46399E+06              0.     201.199E+03
           27672     1.50867E+06    -1.52099E+06              0.     254.107E+03
           27673     1.60019E+06    -1.57985E+06              0.     309.247E+03
           27674     1.69531E+06    -1.64063E+06              0.     366.691E+03
           27675     1.79415E+06    -1.70336E+06              0.     426.510E+03
           27676     1.89687E+06    -1.76811E+06              0.     488.779E+03
           27677     2.00358E+06    -1.83491E+06              0.     553.574E+03
           27678     2.11445E+06    -1.90381E+06              0.     620.971E+03
           27679     2.22963E+06    -1.97487E+06              0.     691.051E+03
           27680     2.34926E+06    -2.04813E+06              0.     763.892E+03
           27681     2.47352E+06    -2.12364E+06              0.     839.578E+03
           27682     2.60256E+06    -2.20145E+06              0.     918.190E+03
           27683     2.73656E+06    -2.28161E+06              0.     999.815E+03
           27684     2.87570E+06    -2.36416E+06              0.     1.08454E+06
           27685     3.02016E+06    -2.44916E+06              0.     1.17245E+06
           27686     3.17014E+06    -2.53666E+06              0.     1.26363E+06
           27687     3.32582E+06    -2.62669E+06              0.     1.35818E+06
           27688     3.48742E+06    -2.71931E+06              0.     1.45619E+06
           27689     3.65514E+06    -2.81455E+06              0.     1.55775E+06
           27690     3.82920E+06    -2.91248E+06              0.     1.66295E+06
           27691     4.00982E+06    -3.01311E+06              0.     1.77189E+06
           27692     4.19724E+06    -3.11650E+06              0.     1.88466E+06
           27693     4.39169E+06    -3.22269E+06              0.     2.00137E+06
           27694     4.59342E+06    -3.33170E+06              0.     2.12211E+06
           27695     4.80268E+06    -3.44357E+06              0.     2.24697E+06
           27696     5.01973E+06    -3.55834E+06              0.     2.37606E+06
           27697     5.24485E+06    -3.67602E+06              0.     2.50947E+06
           27698     5.47831E+06    -3.79663E+06              0.     2.64730E+06
           27699     5.72040E+06    -3.92021E+06              0.     2.78966E+06
           27700     5.97141E+06    -4.04675E+06              0.     2.93663E+06
           27701     6.23164E+06    -4.17627E+06              0.     3.08832E+06
           27702     6.50141E+06    -4.30876E+06              0.     3.24482E+06
           27703     6.78104E+06    -4.44423E+06              0.     3.40624E+06
           27704     7.07086E+06    -4.58266E+06              0.     3.57265E+06
           27705     7.37120E+06    -4.72402E+06              0.     3.74416E+06
           27706     7.68243E+06    -4.86829E+06              0.     3.92086E+06
           27707     8.00489E+06    -5.01543E+06              0.     4.10283E+06
           27708     8.33895E+06    -5.16539E+06              0.     4.29016E+06
           27709     8.68498E+06    -5.31811E+06              0.     4.48293E+06
           27710     9.04339E+06    -5.47350E+06              0.     4.68122E+06
           27711     9.41455E+06    -5.63149E+06              0.     4.88510E+06
           27712     9.79887E+06    -5.79197E+06              0.     5.09463E+06
           27713     10.1968E+06    -5.95482E+06              0.     5.30989E+06
           27714     10.6087E+06    -6.11990E+06              0.     5.53093E+06
           27715     11.0350E+06    -6.28705E+06              0.     5.75779E+06
           27716     11.4762E+06    -6.45609E+06              0.     5.99052E+06
           27717     11.9327E+06    -6.62682E+06              0.     6.22915E+06
           27718     12.4050E+06    -6.79902E+06              0.     6.47370E+06
           27719     12.8935E+06    -6.97243E+06              0.     6.72419E+06
           27720     13.3987E+06    -7.14676E+06              0.     6.98061E+06
           27721     13.9211E+06    -7.32170E+06              0.     7.24296E+06
           27722     14.4612E+06    -7.49691E+06              0.     7.51121E+06
           27723     15.0193E+06    -7.67198E+06              0.     7.78531E+06
           27724     15.5962E+06    -7.84651E+06              0.     8.06522E+06
           27725     16.1921E+06    -8.02001E+06              0.     8.35085E+06
           27726     16.8077E+06    -8.19198E+06              0.     8.64212E+06
           27727     17.4434E+06    -8.36184E+06              0.     8.93889E+06
           27728     18.0996E+06    -8.52898E+06              0.     9.24104E+06
           27729     18.7770E+06    -8.69271E+06              0.     9.54841E+06
           27730     19.4759E+06    -8.85230E+06              0.     9.86079E+06
           27731     20.1969E+06    -9.00693E+06              0.     10.1780E+06
           27732     20.9404E+06    -9.15573E+06              0.     10.4997E+06
           27733     21.7069E+06    -9.29773E+06              0.     10.8257E+06
           27734     22.4968E+06    -9.43189E+06              0.     11.1557E+06
           27735     23.3106E+06    -9.55708E+06              0.     11.4892E+06
           27736     24.1486E+06    -9.67207E+06              0.     11.8259E+06
           27737     25.0112E+06    -9.77553E+06              0.     12.1654E+06
           27738     25.8988E+06    -9.86601E+06              0.     12.5071E+06
           27739     26.8118E+06    -9.94194E+06              0.     12.8505E+06
           27740     27.7503E+06    -10.0016E+06              0.     13.1951E+06
           27741     28.7147E+06    -10.0433E+06              0.     13.5401E+06
           27742     29.7052E+06    -10.0649E+06              0.     13.8848E+06
           27743     30.7218E+06    -10.0643E+06              0.     14.2285E+06
           27744     31.7647E+06    -10.0393E+06              0.     14.5704E+06
           27745     32.8339E+06    -9.98734E+06              0.     14.9094E+06
           27746     33.9294E+06    -9.90576E+06              0.     15.2447E+06
           27747     35.0510E+06    -9.79169E+06              0.     15.5750E+06
           27748     36.1985E+06    -9.64204E+06              0.     15.8994E+06
           27749     37.3716E+06    -9.45349E+06              0.     16.2164E+06
           27750     38.5700E+06    -9.22246E+06              0.     16.5249E+06
           27751     39.7929E+06    -8.94511E+06              0.     16.8232E+06
           27752     41.0399E+06    -8.61731E+06              0.     17.1100E+06
           27753     42.3100E+06    -8.23464E+06              0.     17.3835E+06
           27754     43.6024E+06    -7.79236E+06              0.     17.6420E+06
           27755     44.9159E+06    -7.28537E+06              0.     17.8836E+06
           27756     46.2492E+06    -6.70821E+06              0.     18.1063E+06
           27757     47.6009E+06    -6.05505E+06              0.     18.3081E+06
           27758     48.9693E+06    -5.31964E+06              0.     18.4867E+06
           27759     50.3526E+06    -4.49527E+06              0.     18.6399E+06
           27760     51.7484E+06    -3.57480E+06              0.      18.765E+06
           27761     53.1546E+06    -2.55056E+06              0.     18.8596E+06
           27762     54.5685E+06    -1.41440E+06              0.     18.9210E+06
           27763     55.9871E+06    -157.569E+03              0.     18.9463E+06
           27764     57.4072E+06     1.22925E+06              0.     18.9326E+06
           27765     58.8253E+06     2.75598E+06              0.     18.8769E+06
           27766     60.2376E+06     4.43325E+06              0.     18.7762E+06
           27767     61.6399E+06     6.27234E+06              0.     18.6271E+06
           27768     63.0276E+06     8.28531E+06              0.     18.4264E+06
           27769     64.3959E+06     10.4850E+06              0.     18.1708E+06
           27770     65.7393E+06     12.8849E+06              0.     17.8570E+06
           27771     67.0522E+06     15.4997E+06              0.     17.4816E+06
           27772     68.3284E+06     18.3447E+06              0.     17.0412E+06
           27773     69.5616E+06     21.4362E+06              0.     16.5326E+06
           27774     70.7446E+06     24.7917E+06              0.     15.9526E+06
           27775     71.8697E+06     28.4294E+06              0.     15.2981E+06
           27776     73.4059E+06     32.4988E+06              0.     15.3818E+06
           27777    -544.929E+03    -244.049E+03              0.    -932.529E+03
           27778    -544.245E+03    -237.608E+03              0.    -930.918E+03
           27779    -546.331E+03    -232.419E+03              0.    -922.309E+03
           27780    -548.410E+03    -227.224E+03              0.    -914.013E+03
           27781    -550.474E+03    -222.036E+03              0.    -906.026E+03
           27782    -552.517E+03    -216.865E+03              0.    -898.347E+03
           27783    -554.531E+03    -211.721E+03              0.    -890.972E+03
           27784    -556.511E+03    -206.613E+03              0.    -883.898E+03
           27785     -558.45E+03    -201.552E+03              0.    -877.122E+03
           27786    -560.343E+03    -196.545E+03              0.    -870.640E+03
           27787    -562.183E+03    -191.600E+03              0.    -864.449E+03
           27788    -563.966E+03    -186.727E+03              0.    -858.542E+03
           27789    -565.685E+03    -181.932E+03              0.    -852.917E+03
           27790    -567.335E+03    -177.223E+03              0.    -847.568E+03
           27791    -568.912E+03    -172.607E+03              0.    -842.491E+03
           27792    -570.409E+03    -168.091E+03              0.    -837.679E+03
           27793    -571.821E+03    -163.682E+03              0.    -833.128E+03
           27794    -573.144E+03    -159.386E+03              0.    -828.832E+03
           27795    -574.373E+03    -155.210E+03              0.    -824.785E+03
           27796    -575.501E+03    -151.159E+03              0.    -820.980E+03
           27797    -576.525E+03    -147.240E+03              0.    -817.412E+03
           27798    -577.438E+03    -143.458E+03              0.    -814.074E+03
           27799    -578.236E+03    -139.820E+03              0.    -810.960E+03
           27800    -578.913E+03    -136.331E+03              0.    -808.062E+03
           27801    -579.464E+03    -132.996E+03              0.    -805.374E+03
           27802    -579.884E+03    -129.821E+03              0.    -802.888E+03
           27803    -580.166E+03    -126.812E+03              0.    -800.597E+03
           27804    -580.305E+03    -123.975E+03              0.    -798.494E+03
           27805    -580.296E+03    -121.314E+03              0.    -796.570E+03
           27806    -580.132E+03    -118.836E+03              0.    -794.818E+03
           27807    -579.807E+03    -116.545E+03              0.    -793.230E+03
           27808    -579.314E+03    -114.448E+03              0.    -791.798E+03
           27809    -578.648E+03    -112.550E+03              0.    -790.512E+03
           27810    -577.802E+03    -110.856E+03              0.    -789.365E+03
           27811    -576.768E+03    -109.374E+03              0.    -788.348E+03
           27812    -575.539E+03    -108.107E+03              0.    -787.451E+03
           27813    -574.108E+03    -107.063E+03              0.    -786.666E+03
           27814    -572.467E+03    -106.248E+03              0.    -785.982E+03
           27815    -570.608E+03    -105.667E+03              0.    -785.391E+03
           27816    -568.523E+03    -105.327E+03              0.    -784.883E+03
           27817    -566.203E+03    -105.234E+03              0.    -784.448E+03
           27818    -563.640E+03    -105.396E+03              0.    -784.074E+03
           27819    -560.823E+03    -105.819E+03              0.    -783.753E+03
           27820    -557.744E+03    -106.509E+03              0.    -783.473E+03
           27821    -554.393E+03    -107.475E+03              0.    -783.223E+03
           27822    -550.758E+03    -108.724E+03              0.    -782.992E+03
           27823    -546.829E+03    -110.262E+03              0.    -782.769E+03
           27824    -542.596E+03    -112.099E+03              0.    -782.542E+03
           27825    -538.045E+03    -114.242E+03              0.    -782.299E+03
           27826    -533.166E+03    -116.700E+03              0.    -782.027E+03
           27827    -527.945E+03    -119.481E+03              0.    -781.715E+03
           27828    -522.370E+03    -122.594E+03              0.    -781.348E+03
           27829    -516.427E+03    -126.049E+03              0.    -780.915E+03
           27830    -510.101E+03    -129.854E+03              0.    -780.401E+03
           27831    -503.378E+03    -134.020E+03              0.    -779.793E+03
           27832    -496.243E+03    -138.557E+03              0.    -779.077E+03
           27833    -488.679E+03    -143.475E+03              0.    -778.238E+03
           27834    -480.670E+03    -148.786E+03              0.    -777.261E+03
           27835    -472.200E+03    -154.499E+03              0.    -776.130E+03
           27836    -463.249E+03    -160.627E+03              0.    -774.831E+03
           27837    -453.800E+03    -167.183E+03              0.    -773.347E+03
           27838    -443.833E+03    -174.177E+03              0.    -771.661E+03
           27839    -433.329E+03    -181.623E+03              0.    -769.757E+03
           27840    -422.265E+03    -189.534E+03              0.    -767.617E+03
           27841    -410.622E+03    -197.924E+03              0.    -765.223E+03
           27842    -398.375E+03    -206.807E+03              0.    -762.557E+03
           27843    -385.503E+03    -216.196E+03              0.    -759.601E+03
           27844    -371.980E+03    -226.108E+03              0.    -756.333E+03
           27845    -357.781E+03    -236.558E+03              0.    -752.736E+03
           27846    -342.881E+03    -247.561E+03              0.    -748.788E+03
           27847    -327.251E+03    -259.134E+03              0.    -744.468E+03
           27848    -310.865E+03    -271.295E+03              0.    -739.755E+03
           27849    -293.692E+03    -284.060E+03              0.    -734.627E+03
           27850    -275.703E+03    -297.448E+03              0.    -729.060E+03
           27851    -256.865E+03    -311.477E+03              0.    -723.032E+03
           27852    -237.146E+03    -326.167E+03              0.    -716.517E+03
           27853    -216.512E+03    -341.538E+03              0.    -709.492E+03
           27854    -194.928E+03    -357.610E+03              0.     -701.93E+03
           27855    -172.357E+03    -374.404E+03              0.    -693.806E+03
           27856    -148.762E+03    -391.942E+03              0.    -685.092E+03
           27857    -124.102E+03    -410.246E+03              0.    -675.762E+03
           27858    -98.3372E+03    -429.340E+03              0.    -665.785E+03
           27859    -71.4251E+03    -449.247E+03              0.    -655.134E+03
           27860    -43.3216E+03    -469.991E+03              0.    -643.777E+03
           27861    -13.9813E+03    -491.597E+03              0.    -631.685E+03
           27862     16.6432E+03    -514.093E+03              0.    -618.824E+03
           27863     48.6008E+03    -537.503E+03              0.    -605.162E+03
           27864     81.9425E+03    -561.855E+03              0.    -590.667E+03
           27865     116.721E+03    -587.178E+03              0.    -575.302E+03
           27866     152.991E+03    -613.500E+03              0.    -559.032E+03
           27867     190.808E+03    -640.851E+03              0.    -541.821E+03
           27868     230.232E+03    -669.262E+03              0.    -523.631E+03
           27869     271.324E+03    -698.762E+03              0.    -504.424E+03
           27870     314.147E+03    -729.385E+03              0.    -484.160E+03
           27871     358.765E+03    -761.164E+03              0.    -462.798E+03
           27872     405.248E+03    -794.131E+03              0.    -440.296E+03
           27873     453.664E+03    -828.322E+03              0.    -416.612E+03
           27874     504.087E+03    -863.771E+03              0.    -391.700E+03
           27875     556.592E+03    -900.516E+03              0.    -365.517E+03
           27876     611.257E+03    -938.592E+03              0.    -338.014E+03
           27877     668.163E+03    -978.037E+03              0.    -309.145E+03
           27878     727.395E+03    -1.01889E+06              0.    -278.861E+03
           27879     789.038E+03    -1.06119E+06              0.    -247.111E+03
           27880     853.182E+03    -1.10498E+06              0.    -213.843E+03
           27881     919.922E+03    -1.15030E+06              0.    -179.006E+03
           27882     989.352E+03    -1.19719E+06              0.    -142.544E+03
           27883     1.06157E+06    -1.24570E+06              0.    -104.402E+03
           27884     1.13669E+06    -1.29586E+06              0.    -64.5235E+03
           27885     1.21481E+06    -1.34772E+06              0.    -22.8500E+03
           27886     1.29604E+06    -1.40133E+06              0.     20.6780E+03
           27887     1.38049E+06    -1.45673E+06              0.     66.1217E+03
           27888     1.46830E+06    -1.51398E+06              0.     113.544E+03
           27889     1.55957E+06    -1.57311E+06              0.     163.007E+03
           27890     1.65444E+06    -1.63417E+06              0.     214.578E+03
           27891     1.75303E+06    -1.69721E+06              0.     268.324E+03
           27892     1.85549E+06    -1.76229E+06              0.     324.311E+03
           27893     1.96195E+06    -1.82944E+06              0.     382.610E+03
           27894     2.07257E+06    -1.89873E+06              0.     443.292E+03
           27895     2.18748E+06    -1.97019E+06              0.     506.430E+03
           27896     2.30685E+06    -2.04389E+06              0.     572.097E+03
           27897     2.43084E+06    -2.11986E+06              0.     640.368E+03
           27898     2.55962E+06    -2.19817E+06              0.     711.321E+03
           27899     2.69335E+06    -2.27885E+06              0.     785.033E+03
           27900     2.83222E+06    -2.36197E+06              0.     861.583E+03
           27901     2.97640E+06    -2.44757E+06              0.     941.053E+03
           27902     3.12610E+06    -2.53570E+06              0.     1.02352E+06
           27903     3.28150E+06    -2.62641E+06              0.     1.10908E+06
           27904     3.44282E+06    -2.71974E+06              0.     1.19781E+06
           27905     3.61025E+06    -2.81575E+06              0.     1.28978E+06
           27906     3.78402E+06    -2.91448E+06              0.     1.38510E+06
           27907     3.96434E+06    -3.01597E+06              0.     1.48385E+06
           27908     4.15146E+06    -3.12027E+06              0.     1.58612E+06
           27909     4.34561E+06    -3.22742E+06              0.     1.69198E+06
           27910     4.54703E+06    -3.33745E+06              0.     1.80155E+06
           27911     4.75598E+06    -3.45040E+06              0.     1.91490E+06
           27912     4.97271E+06    -3.56631E+06              0.     2.03213E+06
           27913     5.19751E+06    -3.68520E+06              0.     2.15332E+06
           27914     5.43064E+06    -3.80711E+06              0.     2.27857E+06
           27915     5.67239E+06    -3.93204E+06              0.     2.40797E+06
           27916     5.92307E+06    -4.06003E+06              0.     2.54162E+06
           27917     6.18296E+06    -4.19108E+06              0.     2.67959E+06
           27918     6.45239E+06    -4.32519E+06              0.     2.82198E+06
           27919     6.73167E+06    -4.46237E+06              0.     2.96888E+06
           27920     7.02113E+06    -4.60262E+06              0.     3.12038E+06
           27921     7.32112E+06    -4.74591E+06              0.     3.27657E+06
           27922     7.63199E+06    -4.89223E+06              0.     3.43752E+06
           27923     7.95409E+06    -5.04154E+06              0.     3.60332E+06
           27924     8.28778E+06    -5.19379E+06              0.     3.77405E+06
           27925     8.63346E+06    -5.34894E+06              0.     3.94978E+06
           27926     8.99150E+06    -5.50693E+06              0.     4.13060E+06
           27927     9.36230E+06    -5.66766E+06              0.     4.31657E+06
           27928     9.74626E+06    -5.83105E+06              0.     4.50775E+06
           27929     10.1438E+06    -5.99699E+06              0.     4.70421E+06
           27930     10.5554E+06    -6.16535E+06              0.     4.90599E+06
           27931     10.9814E+06    -6.33599E+06              0.     5.11316E+06
           27932     11.4222E+06    -6.50874E+06              0.     5.32575E+06
           27933     11.8784E+06    -6.68341E+06              0.     5.54380E+06
           27934     12.3504E+06    -6.85979E+06              0.     5.76734E+06
           27935     12.8387E+06    -7.03765E+06              0.     5.99637E+06
           27936     13.3437E+06    -7.21672E+06              0.     6.23092E+06
           27937     13.8658E+06    -7.39669E+06              0.     6.47097E+06
           27938     14.4057E+06    -7.57726E+06              0.     6.71651E+06
           27939     14.9638E+06    -7.75804E+06              0.     6.96751E+06
           27940     15.5406E+06    -7.93864E+06              0.     7.22393E+06
           27941     16.1365E+06    -8.11861E+06              0.     7.48571E+06
           27942     16.7521E+06    -8.29746E+06              0.     7.75278E+06
           27943     17.3880E+06    -8.47467E+06              0.     8.02505E+06
           27944     18.0445E+06    -8.64963E+06              0.     8.30239E+06
           27945     18.7222E+06    -8.82170E+06              0.     8.58467E+06
           27946     19.4216E+06    -8.99018E+06              0.     8.87175E+06
           27947     20.1432E+06    -9.15429E+06              0.     9.16343E+06
           27948     20.8875E+06    -9.31321E+06              0.     9.45950E+06
           27949     21.6549E+06    -9.46601E+06              0.     9.75973E+06
           27950     22.4459E+06    -9.61170E+06              0.     10.0639E+06
           27951     23.2611E+06    -9.74919E+06              0.     10.3716E+06
           27952     24.1007E+06    -9.87731E+06              0.     10.6825E+06
           27953     24.9652E+06    -9.99480E+06              0.     10.9963E+06
           27954     25.8550E+06    -10.1003E+06              0.     11.3126E+06
           27955     26.7705E+06    -10.1922E+06              0.     11.6308E+06
           27956     27.7120E+06    -10.2690E+06              0.     11.9506E+06
           27957     28.6798E+06    -10.3289E+06              0.     12.2712E+06
           27958     29.6741E+06    -10.3701E+06              0.     12.5922E+06
           27959     30.6951E+06    -10.3904E+06              0.     12.9128E+06
           27960     31.7430E+06    -10.3877E+06              0.     13.2323E+06
           27961     32.8178E+06    -10.3596E+06              0.     13.5499E+06
           27962     33.9197E+06    -10.3035E+06              0.     13.8648E+06
           27963     35.0484E+06    -10.2168E+06              0.     14.1761E+06
           27964     36.2040E+06    -10.0964E+06              0.     14.4826E+06
           27965     37.3862E+06    -9.93911E+06              0.     14.7835E+06
           27966     38.5946E+06    -9.74156E+06              0.     15.0774E+06
           27967     39.8288E+06    -9.50004E+06              0.     15.3632E+06
           27968     41.0883E+06    -9.21062E+06              0.     15.6395E+06
           27969     42.3725E+06    -8.86903E+06              0.     15.9050E+06
           27970     43.6804E+06    -8.47074E+06              0.     16.1579E+06
           27971     45.0112E+06    -8.01087E+06              0.     16.3969E+06
           27972     46.3637E+06    -7.48420E+06              0.     16.6200E+06
           27973     47.7366E+06    -6.88514E+06              0.     16.8256E+06
           27974     49.1285E+06    -6.20771E+06              0.     17.0117E+06
           27975     50.5377E+06    -5.44549E+06              0.     17.1761E+06
           27976     51.9622E+06    -4.59165E+06              0.     17.3169E+06
           27977     53.3999E+06    -3.63888E+06              0.     17.4317E+06
           27978     54.8485E+06    -2.57935E+06              0.     17.5181E+06
           27979     56.3053E+06    -1.40475E+06              0.     17.5737E+06
           27980     57.7675E+06    -106.165E+03              0.     17.5960E+06
           27981     59.2317E+06     1.32588E+06              0.     17.5822E+06
           27982     60.6946E+06     2.90148E+06              0.     17.5296E+06
           27983     62.1523E+06     4.63142E+06              0.     17.4354E+06
           27984     63.6006E+06     6.52713E+06              0.     17.2967E+06
           27985     65.0352E+06     8.60083E+06              0.     17.1104E+06
           27986      66.451E+06     10.8655E+06              0.     16.8736E+06
           27987     67.8430E+06     13.3348E+06              0.     16.5833E+06
           27988     69.2054E+06     16.0234E+06              0.     16.2365E+06
           27989     70.5325E+06     18.9468E+06              0.     15.8301E+06
           27990     71.8177E+06     22.1216E+06              0.     15.3612E+06
           27991     73.0545E+06     25.5650E+06              0.     14.8271E+06
           27992     74.2358E+06     29.2956E+06              0.     14.2249E+06
           27993     75.8174E+06     33.4672E+06              0.     14.3085E+06
           27994    -565.272E+03    -253.213E+03              0.    -930.336E+03
           27995    -564.547E+03    -246.377E+03              0.    -928.728E+03
           27996    -566.763E+03    -240.870E+03              0.    -920.124E+03
           27997    -568.970E+03    -235.361E+03              0.     -911.84E+03
           27998    -571.162E+03    -229.860E+03              0.    -903.873E+03
           27999    -573.330E+03    -224.380E+03              0.    -896.219E+03
           28000    -575.470E+03    -218.929E+03              0.    -888.877E+03
           28001    -577.573E+03    -213.519E+03              0.    -881.842E+03
           28002    -579.633E+03    -208.158E+03              0.    -875.111E+03
           28003    -581.645E+03    -202.856E+03              0.    -868.681E+03
           28004    -583.603E+03    -197.621E+03              0.    -862.545E+03
           28005    -585.500E+03    -192.461E+03              0.    -856.702E+03
           28006    -587.331E+03    -187.384E+03              0.    -851.144E+03
           28007    -589.091E+03    -182.399E+03              0.    -845.869E+03
           28008    -590.774E+03    -177.511E+03              0.    -840.870E+03
           28009    -592.375E+03    -172.730E+03              0.    -836.142E+03
           28010    -593.888E+03    -168.060E+03              0.    -831.680E+03
           28011    -595.308E+03    -163.509E+03              0.    -827.478E+03
           28012     -596.63E+03    -159.084E+03              0.    -823.530E+03
           28013    -597.848E+03    -154.791E+03              0.    -819.830E+03
           28014    -598.958E+03    -150.635E+03              0.    -816.372E+03
           28015    -599.953E+03    -146.624E+03              0.    -813.149E+03
           28016    -600.829E+03    -142.763E+03              0.    -810.155E+03
           28017    -601.579E+03    -139.057E+03              0.    -807.383E+03
           28018    -602.199E+03    -135.513E+03              0.    -804.826E+03
           28019    -602.683E+03    -132.137E+03              0.    -802.477E+03
           28020    -603.024E+03    -128.934E+03              0.    -800.329E+03
           28021    -603.218E+03    -125.909E+03              0.    -798.375E+03
           28022    -603.258E+03    -123.069E+03              0.    -796.605E+03
           28023    -603.137E+03    -120.420E+03              0.    -795.014E+03
           28024    -602.850E+03    -117.966E+03              0.    -793.593E+03
           28025    -602.390E+03    -115.714E+03              0.    -792.335E+03
           28026    -601.750E+03    -113.669E+03              0.    -791.230E+03
           28027    -600.923E+03    -111.838E+03              0.    -790.270E+03
           28028    -599.902E+03    -110.226E+03              0.    -789.447E+03
           28029    -598.680E+03    -108.839E+03              0.    -788.752E+03
           28030    -597.248E+03    -107.684E+03              0.    -788.177E+03
           28031    -595.599E+03    -106.767E+03              0.    -787.711E+03
           28032    -593.725E+03    -106.094E+03              0.    -787.346E+03
           28033    -591.617E+03    -105.671E+03              0.    -787.072E+03
           28034    -589.266E+03    -105.506E+03              0.    -786.880E+03
           28035    -586.663E+03    -105.606E+03              0.    -786.760E+03
           28036    -583.799E+03    -105.976E+03              0.    -786.701E+03
           28037    -580.662E+03    -106.626E+03              0.    -786.693E+03
           28038    -577.244E+03    -107.561E+03              0.    -786.726E+03
           28039    -573.533E+03    -108.790E+03              0.    -786.789E+03
           28040    -569.518E+03    -110.321E+03              0.    -786.870E+03
           28041    -565.187E+03    -112.161E+03              0.    -786.959E+03
           28042    -560.529E+03    -114.320E+03              0.    -787.044E+03
           28043    -555.531E+03    -116.805E+03              0.    -787.114E+03
           28044    -550.179E+03    -119.626E+03              0.    -787.155E+03
           28045    -544.462E+03    -122.792E+03              0.    -787.156E+03
           28046    -538.362E+03    -126.312E+03              0.    -787.105E+03
           28047    -531.868E+03    -130.197E+03              0.    -786.988E+03
           28048    -524.963E+03    -134.456E+03              0.    -786.792E+03
           28049    -517.631E+03    -139.100E+03              0.    -786.503E+03
           28050    -509.857E+03    -144.139E+03              0.    -786.108E+03
           28051    -501.622E+03    -149.585E+03              0.    -785.592E+03
           28052    -492.910E+03    -155.450E+03              0.    -784.940E+03
           28053    -483.701E+03    -161.745E+03              0.    -784.139E+03
           28054    -473.976E+03    -168.483E+03              0.    -783.171E+03
           28055    -463.716E+03    -175.676E+03              0.    -782.022E+03
           28056    -452.900E+03    -183.338E+03              0.    -780.676E+03
           28057    -441.506E+03    -191.482E+03              0.    -779.115E+03
           28058    -429.512E+03    -200.122E+03              0.    -777.323E+03
           28059    -416.894E+03    -209.273E+03              0.    -775.282E+03
           28060    -403.629E+03    -218.950E+03              0.    -772.974E+03
           28061    -389.691E+03    -229.168E+03              0.    -770.381E+03
           28062    -375.055E+03    -239.944E+03              0.    -767.484E+03
           28063    -359.693E+03    -251.293E+03              0.    -764.263E+03
           28064    -343.577E+03    -263.234E+03              0.    -760.699E+03
           28065    -326.678E+03    -275.782E+03              0.    -756.770E+03
           28066    -308.965E+03    -288.958E+03              0.    -752.457E+03
           28067    -290.408E+03    -302.778E+03              0.    -747.736E+03
           28068    -270.974E+03    -317.264E+03              0.    -742.586E+03
           28069    -250.629E+03    -332.434E+03              0.    -736.984E+03
           28070    -229.338E+03    -348.308E+03              0.    -730.907E+03
           28071    -207.063E+03    -364.910E+03              0.    -724.329E+03
           28072    -183.769E+03    -382.259E+03              0.    -717.227E+03
           28073    -159.415E+03    -400.378E+03              0.    -709.575E+03
           28074    -133.960E+03    -419.292E+03              0.    -701.346E+03
           28075    -107.362E+03    -439.022E+03              0.    -692.513E+03
           28076    -79.5787E+03    -459.595E+03              0.    -683.049E+03
           28077    -50.5631E+03    -481.035E+03              0.    -672.926E+03
           28078    -20.2686E+03    -503.367E+03              0.    -662.113E+03
           28079     11.3537E+03    -526.620E+03              0.    -650.581E+03
           28080     44.3544E+03    -550.820E+03              0.    -638.299E+03
           28081     78.7861E+03    -575.996E+03              0.    -625.234E+03
           28082     114.703E+03    -602.175E+03              0.    -611.355E+03
           28083     152.162E+03    -629.389E+03              0.    -596.628E+03
           28084     191.221E+03    -657.668E+03              0.    -581.017E+03
           28085     231.941E+03    -687.043E+03              0.    -564.488E+03
           28086     274.386E+03    -717.547E+03              0.    -547.004E+03
           28087     318.619E+03    -749.212E+03              0.    -528.528E+03
           28088     364.708E+03    -782.072E+03              0.    -509.021E+03
           28089     412.725E+03    -816.162E+03              0.    -488.444E+03
           28090     462.740E+03    -851.518E+03              0.    -466.757E+03
           28091     514.829E+03    -888.176E+03              0.    -443.916E+03
           28092     569.070E+03    -926.173E+03              0.    -419.882E+03
           28093     625.544E+03    -965.548E+03              0.    -394.608E+03
           28094     684.334E+03    -1.00634E+06              0.    -368.051E+03
           28095     745.527E+03    -1.04859E+06              0.    -340.164E+03
           28096     809.211E+03    -1.09233E+06              0.    -310.900E+03
           28097     875.481E+03    -1.13761E+06              0.    -280.210E+03
           28098     944.432E+03    -1.18448E+06              0.    -248.046E+03
           28099     1.01616E+06    -1.23297E+06              0.    -214.356E+03
           28100     1.09078E+06    -1.28312E+06              0.    -179.088E+03
           28101     1.16838E+06    -1.33499E+06              0.    -142.188E+03
           28102     1.24909E+06    -1.38862E+06              0.    -103.603E+03
           28103     1.33301E+06    -1.44405E+06              0.    -63.2758E+03
           28104     1.42026E+06    -1.50134E+06              0.    -21.1497E+03
           28105     1.51097E+06    -1.56052E+06              0.     22.8337E+03
           28106     1.60527E+06    -1.62166E+06              0.     68.7343E+03
           28107     1.70327E+06    -1.68479E+06              0.     116.613E+03
           28108     1.80513E+06    -1.74997E+06              0.     166.533E+03
           28109     1.91097E+06    -1.81724E+06              0.     218.556E+03
           28110     2.02095E+06    -1.88667E+06              0.     272.749E+03
           28111     2.13521E+06    -1.95829E+06              0.     329.178E+03
           28112     2.25392E+06    -2.03216E+06              0.     387.909E+03
           28113     2.37722E+06    -2.10834E+06              0.     449.013E+03
           28114     2.50529E+06    -2.18687E+06              0.     512.558E+03
           28115     2.63830E+06     -2.2678E+06              0.     578.617E+03
           28116     2.77643E+06    -2.35119E+06              0.     647.262E+03
           28117     2.91986E+06    -2.43709E+06              0.     718.567E+03
           28118     3.06877E+06    -2.52554E+06              0.     792.606E+03
           28119     3.22337E+06    -2.61661E+06              0.     869.457E+03
           28120     3.38385E+06    -2.71034E+06              0.     949.194E+03
           28121     3.55044E+06    -2.80677E+06              0.     1.03190E+06
           28122     3.72333E+06    -2.90596E+06              0.     1.11765E+06
           28123     3.90276E+06    -3.00795E+06              0.     1.20652E+06
           28124     4.08895E+06    -3.11280E+06              0.     1.29860E+06
           28125     4.28214E+06    -3.22053E+06              0.     1.39396E+06
           28126     4.48258E+06    -3.33119E+06              0.     1.49270E+06
           28127     4.69052E+06    -3.44483E+06              0.     1.59489E+06
           28128     4.90622E+06    -3.56148E+06              0.     1.70061E+06
           28129     5.12995E+06    -3.68116E+06              0.     1.80995E+06
           28130     5.36198E+06    -3.80392E+06              0.     1.92299E+06
           28131     5.60260E+06    -3.92977E+06              0.     2.03982E+06
           28132     5.85211E+06    -4.05875E+06              0.     2.16051E+06
           28133     6.11080E+06    -4.19086E+06              0.     2.28516E+06
           28134     6.37899E+06    -4.32611E+06              0.     2.41384E+06
           28135     6.65700E+06    -4.46452E+06              0.     2.54664E+06
           28136     6.94516E+06    -4.60608E+06              0.     2.68363E+06
           28137     7.24381E+06    -4.75078E+06              0.     2.82490E+06
           28138     7.55329E+06    -4.89862E+06              0.     2.97052E+06
           28139     7.87397E+06    -5.04955E+06              0.     3.12058E+06
           28140     8.20621E+06    -5.20355E+06              0.     3.27514E+06
           28141     8.55039E+06    -5.36057E+06              0.     3.43427E+06
           28142     8.90689E+06    -5.52056E+06              0.     3.59805E+06
           28143     9.27611E+06    -5.68344E+06              0.     3.76654E+06
           28144     9.65846E+06    -5.84914E+06              0.     3.93980E+06
           28145     10.0544E+06    -6.01755E+06              0.     4.11789E+06
           28146     10.4642E+06    -6.18856E+06              0.     4.30087E+06
           28147     10.8885E+06    -6.36204E+06              0.     4.48877E+06
           28148     11.3276E+06    -6.53783E+06              0.     4.68165E+06
           28149     11.7820E+06    -6.71577E+06              0.     4.87954E+06
           28150     12.2522E+06    -6.89565E+06              0.     5.08246E+06
           28151     12.7386E+06    -7.07726E+06              0.     5.29044E+06
           28152     13.2416E+06    -7.26035E+06              0.     5.50349E+06
           28153     13.7619E+06    -7.44465E+06              0.     5.72162E+06
           28154     14.2999E+06    -7.62984E+06              0.     5.94480E+06
           28155     14.8560E+06    -7.81558E+06              0.     6.17304E+06
           28156     15.4308E+06    -8.00151E+06              0.     6.40629E+06
           28157     16.0248E+06    -8.18719E+06              0.     6.64451E+06
           28158     16.6385E+06    -8.37217E+06              0.     6.88765E+06
           28159     17.2724E+06    -8.55593E+06              0.     7.13562E+06
           28160     17.9270E+06    -8.73794E+06              0.     7.38834E+06
           28161     18.6029E+06    -8.91757E+06              0.     7.64570E+06
           28162     19.3004E+06    -9.09415E+06              0.     7.90756E+06
           28163     20.0203E+06    -9.26697E+06              0.     8.17378E+06
           28164     20.7629E+06    -9.43521E+06              0.     8.44418E+06
           28165     21.5287E+06    -9.59802E+06              0.     8.71856E+06
           28166     22.3183E+06    -9.75444E+06              0.     8.99670E+06
           28167     23.1321E+06    -9.90345E+06              0.     9.27834E+06
           28168     23.9705E+06    -10.0439E+06              0.     9.56320E+06
           28169     24.8340E+06    -10.1747E+06              0.     9.85096E+06
           28170     25.7231E+06    -10.2944E+06              0.     10.1413E+06
           28171     26.6381E+06    -10.4016E+06              0.     10.4337E+06
           28172     27.5793E+06    -10.4947E+06              0.     10.7279E+06
           28173     28.5472E+06    -10.5722E+06              0.     11.0233E+06
           28174     29.5420E+06    -10.6322E+06              0.     11.3195E+06
           28175     30.5639E+06    -10.6727E+06              0.     11.6158E+06
           28176     31.6131E+06    -10.6917E+06              0.     11.9117E+06
           28177     32.6899E+06    -10.6869E+06              0.     12.2064E+06
           28178     33.7942E+06    -10.6558E+06              0.     12.4992E+06
           28179     34.9262E+06    -10.5959E+06              0.     12.7894E+06
           28180     36.0856E+06    -10.5042E+06              0.     13.0761E+06
           28181     37.2725E+06    -10.3777E+06              0.     13.3584E+06
           28182     38.4866E+06    -10.2132E+06              0.     13.6352E+06
           28183     39.7275E+06    -10.0072E+06              0.     13.9056E+06
           28184     40.9949E+06    -9.75580E+06              0.     14.1683E+06
           28185     42.2881E+06    -9.45502E+06              0.     14.4221E+06
           28186     43.6065E+06    -9.10051E+06              0.     14.6658E+06
           28187     44.9493E+06    -8.68760E+06              0.     14.8978E+06
           28188     46.3155E+06    -8.21130E+06              0.     15.1169E+06
           28189     47.7040E+06    -7.66628E+06              0.     15.3213E+06
           28190     49.1134E+06    -7.04681E+06              0.     15.5094E+06
           28191     50.5424E+06    -6.34677E+06              0.     15.6794E+06
           28192     51.9891E+06    -5.55963E+06              0.     15.8295E+06
           28193     53.4516E+06    -4.67841E+06              0.     15.9577E+06
           28194     54.9280E+06    -3.69566E+06              0.     16.0620E+06
           28195     56.4157E+06    -2.60341E+06              0.     16.1401E+06
           28196     57.9121E+06    -1.39320E+06              0.     16.1900E+06
           28197     59.4144E+06    -55.9682E+03              0.     16.2092E+06
           28198     60.9194E+06     1.41791E+06              0.     16.1953E+06
           28199     62.4236E+06     3.03867E+06              0.     16.1458E+06
           28200     63.9232E+06     4.81724E+06              0.     16.0582E+06
           28201     65.4142E+06     6.76519E+06              0.     15.9299E+06
           28202     66.8920E+06     8.89488E+06              0.     15.7581E+06
           28203     68.3520E+06     11.2194E+06              0.     15.5402E+06
           28204     69.7889E+06     13.7525E+06              0.     15.2735E+06
           28205     71.1974E+06     16.5091E+06              0.     14.9553E+06
           28206     72.5716E+06     19.5046E+06              0.     14.5829E+06
           28207     73.9052E+06     22.7557E+06              0.     14.1538E+06
           28208     75.1918E+06     26.2797E+06              0.     13.6653E+06
           28209     76.4245E+06     30.0952E+06              0.     13.1153E+06
           28210     78.0466E+06     34.3597E+06              0.     13.1967E+06
           28211    -585.634E+03    -262.386E+03              0.    -928.012E+03
           28212    -584.865E+03    -255.143E+03              0.    -926.407E+03
           28213    -587.214E+03    -249.312E+03              0.    -917.809E+03
           28214    -589.553E+03    -243.481E+03              0.    -909.538E+03
           28215    -591.875E+03    -237.661E+03              0.    -901.591E+03
           28216    -594.173E+03    -231.865E+03              0.    -893.965E+03
           28217    -596.441E+03    -226.102E+03              0.    -886.657E+03
           28218    -598.670E+03    -220.382E+03              0.    -879.663E+03
           28219    -600.855E+03    -214.716E+03              0.    -872.979E+03
           28220    -602.990E+03    -209.113E+03              0.    -866.601E+03
           28221    -605.067E+03    -203.581E+03              0.    -860.525E+03
           28222    -607.083E+03    -198.129E+03              0.    -854.745E+03
           28223    -609.030E+03    -192.765E+03              0.    -849.258E+03
           28224    -610.903E+03    -187.498E+03              0.    -844.059E+03
           28225    -612.696E+03    -182.333E+03              0.    -839.141E+03
           28226    -614.404E+03    -177.280E+03              0.    -834.500E+03
           28227    -616.022E+03    -172.345E+03              0.    -830.130E+03
           28228    -617.543E+03    -167.534E+03              0.    -826.026E+03
           28229    -618.962E+03    -162.855E+03              0.    -822.181E+03
           28230    -620.275E+03    -158.314E+03              0.    -818.589E+03
           28231    -621.475E+03    -153.917E+03              0.    -815.245E+03
           28232    -622.557E+03    -149.670E+03              0.    -812.141E+03
           28233    -623.516E+03    -145.580E+03              0.    -809.272E+03
           28234    -624.345E+03    -141.653E+03              0.     -806.63E+03
           28235    -625.039E+03    -137.895E+03              0.    -804.209E+03
           28236    -625.593E+03    -134.311E+03              0.    -802.002E+03
           28237    -626.000E+03    -130.907E+03              0.    -800.001E+03
           28238    -626.254E+03    -127.690E+03              0.      -798.2E+03
           28239    -626.349E+03    -124.665E+03              0.    -796.591E+03
           28240    -626.279E+03    -121.837E+03              0.    -795.166E+03
           28241    -626.038E+03    -119.214E+03              0.    -793.918E+03
           28242    -625.617E+03    -116.800E+03              0.    -792.838E+03
           28243    -625.011E+03    -114.602E+03              0.    -791.919E+03
           28244    -624.213E+03    -112.625E+03              0.    -791.153E+03
           28245    -623.214E+03    -110.877E+03              0.    -790.532E+03
           28246    -622.007E+03    -109.362E+03              0.    -790.045E+03
           28247    -620.585E+03    -108.088E+03              0.    -789.686E+03
           28248    -618.938E+03    -107.061E+03              0.    -789.446E+03
           28249    -617.060E+03    -106.287E+03              0.    -789.314E+03
           28250    -614.940E+03    -105.773E+03              0.    -789.283E+03
           28251    -612.569E+03    -105.526E+03              0.    -789.342E+03
           28252    -609.939E+03    -105.554E+03              0.    -789.483E+03
           28253    -607.038E+03    -105.862E+03              0.    -789.694E+03
           28254    -603.858E+03    -106.460E+03              0.    -789.968E+03
           28255    -600.387E+03    -107.354E+03              0.    -790.293E+03
           28256    -596.614E+03    -108.553E+03              0.    -790.658E+03
           28257    -592.527E+03    -110.064E+03              0.    -791.054E+03
           28258    -588.116E+03    -111.896E+03              0.    -791.470E+03
           28259    -583.366E+03    -114.057E+03              0.    -791.894E+03
           28260    -578.266E+03    -116.557E+03              0.    -792.316E+03
           28261    -572.802E+03    -119.405E+03              0.    -792.723E+03
           28262    -566.960E+03    -122.609E+03              0.    -793.104E+03
           28263    -560.725E+03    -126.181E+03              0.    -793.446E+03
           28264    -554.082E+03    -130.129E+03              0.    -793.739E+03
           28265    -547.016E+03    -134.465E+03              0.    -793.967E+03
           28266    -539.510E+03    -139.200E+03              0.    -794.120E+03
           28267    -531.548E+03    -144.343E+03              0.    -794.183E+03
           28268    -523.111E+03    -149.908E+03              0.    -794.144E+03
           28269    -514.182E+03    -155.905E+03              0.    -793.987E+03
           28270    -504.740E+03    -162.347E+03              0.    -793.699E+03
           28271    -494.768E+03    -169.248E+03              0.    -793.265E+03
           28272    -484.243E+03    -176.619E+03              0.    -792.670E+03
           28273    -473.144E+03    -184.475E+03              0.    -791.899E+03
           28274    -461.450E+03    -192.829E+03              0.    -790.937E+03
           28275    -449.138E+03    -201.697E+03              0.    -789.765E+03
           28276    -436.182E+03    -211.093E+03              0.    -788.370E+03
           28277    -422.559E+03    -221.032E+03              0.    -786.732E+03
           28278    -408.243E+03    -231.530E+03              0.    -784.835E+03
           28279    -393.206E+03    -242.605E+03              0.    -782.661E+03
           28280    -377.421E+03    -254.273E+03              0.    -780.191E+03
           28281    -360.858E+03    -266.551E+03              0.    -777.407E+03
           28282    -343.489E+03    -279.458E+03              0.    -774.288E+03
           28283    -325.281E+03    -293.012E+03              0.    -770.816E+03
           28284    -306.203E+03    -307.233E+03              0.    -766.968E+03
           28285    -286.220E+03    -322.140E+03              0.    -762.726E+03
           28286    -265.297E+03    -337.755E+03              0.    -758.066E+03
           28287    -243.400E+03    -354.097E+03              0.    -752.967E+03
           28288    -220.489E+03    -371.190E+03              0.    -747.406E+03
           28289    -196.527E+03    -389.055E+03              0.    -741.359E+03
           28290    -171.472E+03    -407.716E+03              0.    -734.802E+03
           28291    -145.282E+03    -427.196E+03              0.    -727.710E+03
           28292    -117.915E+03    -447.520E+03              0.    -720.059E+03
           28293    -89.3249E+03    -468.714E+03              0.    -711.821E+03
           28294    -59.4650E+03    -490.802E+03              0.    -702.970E+03
           28295    -28.2868E+03    -513.812E+03              0.    -693.479E+03
           28296     4.25988E+03    -537.772E+03              0.    -683.318E+03
           28297     38.2274E+03    -562.710E+03              0.    -672.460E+03
           28298     73.6698E+03    -588.654E+03              0.    -660.873E+03
           28299     110.643E+03    -615.634E+03              0.    -648.527E+03
           28300     149.205E+03    -643.682E+03              0.    -635.391E+03
           28301     189.417E+03    -672.829E+03              0.    -621.432E+03
           28302     231.341E+03    -703.106E+03              0.    -606.617E+03
           28303     275.041E+03    -734.548E+03              0.    -590.912E+03
           28304     320.584E+03    -767.188E+03              0.    -574.282E+03
           28305     368.041E+03    -801.060E+03              0.    -556.689E+03
           28306     417.483E+03    -836.201E+03              0.    -538.099E+03
           28307     468.985E+03    -872.648E+03              0.    -518.472E+03
           28308     522.623E+03    -910.437E+03              0.    -497.770E+03
           28309     578.479E+03    -949.607E+03              0.    -475.952E+03
           28310     636.635E+03    -990.198E+03              0.    -452.978E+03
           28311     697.178E+03    -1.03225E+06              0.    -428.806E+03
           28312     760.195E+03    -1.07580E+06              0.    -403.393E+03
           28313     825.779E+03    -1.12090E+06              0.    -376.694E+03
           28314     894.027E+03    -1.16758E+06              0.    -348.664E+03
           28315     965.036E+03    -1.21589E+06              0.    -319.258E+03
           28316     1.03891E+06    -1.26587E+06              0.    -288.427E+03
           28317     1.11575E+06    -1.31757E+06              0.    -256.123E+03
           28318     1.19567E+06    -1.37104E+06              0.    -222.296E+03
           28319     1.27879E+06    -1.42632E+06              0.    -186.896E+03
           28320     1.36521E+06    -1.48346E+06              0.    -149.871E+03
           28321     1.45507E+06    -1.54251E+06              0.    -111.166E+03
           28322     1.54849E+06    -1.60351E+06              0.    -70.7288E+03
           28323     1.64559E+06    -1.66653E+06              0.    -28.5027E+03
           28324     1.74652E+06    -1.73159E+06              0.     15.5687E+03
           28325     1.85141E+06    -1.79877E+06              0.     61.5434E+03
           28326     1.96041E+06    -1.86810E+06              0.     109.480E+03
           28327     2.07366E+06    -1.93965E+06              0.     159.440E+03
           28328     2.19132E+06    -2.01346E+06              0.     211.483E+03
           28329     2.31355E+06    -2.08958E+06              0.     265.673E+03
           28330     2.44052E+06    -2.16808E+06              0.     322.073E+03
           28331     2.57239E+06    -2.24899E+06              0.     380.747E+03
           28332     2.70934E+06    -2.33238E+06              0.     441.763E+03
           28333     2.85155E+06    -2.41829E+06              0.     505.186E+03
           28334     2.99922E+06    -2.50679E+06              0.     571.085E+03
           28335     3.15253E+06    -2.59791E+06              0.     639.528E+03
           28336     3.31169E+06    -2.69172E+06              0.     710.587E+03
           28337     3.47690E+06    -2.78826E+06              0.     784.330E+03
           28338     3.64838E+06    -2.88758E+06              0.     860.831E+03
           28339     3.82635E+06    -2.98974E+06              0.     940.162E+03
           28340     4.01104E+06    -3.09478E+06              0.     1.02240E+06
           28341     4.20268E+06    -3.20274E+06              0.     1.10761E+06
           28342     4.40152E+06    -3.31367E+06              0.     1.19587E+06
           28343     4.60780E+06    -3.42761E+06              0.     1.28726E+06
           28344     4.82180E+06    -3.54460E+06              0.     1.38185E+06
           28345     5.04377E+06    -3.66468E+06              0.     1.47971E+06
           28346     5.27398E+06    -3.78788E+06              0.     1.58094E+06
           28347     5.51273E+06    -3.91423E+06              0.     1.68559E+06
           28348     5.76030E+06    -4.04376E+06              0.     1.79374E+06
           28349     6.01700E+06    -4.17648E+06              0.     1.90548E+06
           28350     6.28314E+06    -4.31242E+06              0.     2.02087E+06
           28351     6.55902E+06    -4.45158E+06              0.     2.13999E+06
           28352     6.84499E+06    -4.59397E+06              0.     2.26291E+06
           28353     7.14138E+06    -4.73958E+06              0.     2.38971E+06
           28354     7.44853E+06    -4.88842E+06              0.     2.52046E+06
           28355     7.76681E+06    -5.04045E+06              0.     2.65522E+06
           28356     8.09657E+06    -5.19566E+06              0.     2.79407E+06
           28357     8.43820E+06    -5.35399E+06              0.     2.93707E+06
           28358     8.79208E+06    -5.51542E+06              0.     3.08428E+06
           28359      9.1586E+06    -5.67987E+06              0.     3.23577E+06
           28360     9.53817E+06    -5.84728E+06              0.     3.39159E+06
           28361     9.93120E+06    -6.01756E+06              0.     3.55179E+06
           28362     10.3381E+06    -6.19059E+06              0.     3.71643E+06
           28363     10.7594E+06    -6.36628E+06              0.     3.88555E+06
           28364     11.1954E+06    -6.54446E+06              0.     4.05919E+06
           28365     11.6466E+06    -6.72500E+06              0.     4.23739E+06
           28366     12.1135E+06    -6.90771E+06              0.     4.42017E+06
           28367     12.5965E+06    -7.09238E+06              0.     4.60756E+06
           28368     13.0962E+06    -7.27879E+06              0.     4.79957E+06
           28369     13.6130E+06    -7.46668E+06              0.     4.99622E+06
           28370     14.1474E+06    -7.65577E+06              0.     5.19748E+06
           28371     14.6999E+06    -7.84573E+06              0.     5.40337E+06
           28372     15.2710E+06    -8.03621E+06              0.     5.61384E+06
           28373     15.8612E+06    -8.22683E+06              0.     5.82888E+06
           28374     16.4711E+06    -8.41714E+06              0.     6.04843E+06
           28375     17.1011E+06    -8.60668E+06              0.     6.27244E+06
           28376     17.7518E+06    -8.79492E+06              0.     6.50082E+06
           28377     18.4237E+06    -8.98129E+06              0.     6.73350E+06
           28378     19.1173E+06    -9.16515E+06              0.     6.97037E+06
           28379     19.8331E+06    -9.34582E+06              0.     7.21130E+06
           28380     20.5717E+06    -9.52255E+06              0.     7.45614E+06
           28381     21.3336E+06    -9.69451E+06              0.     7.70474E+06
           28382     22.1193E+06    -9.86081E+06              0.     7.95690E+06
           28383     22.9292E+06    -10.0205E+06              0.     8.21241E+06
           28384     23.7638E+06    -10.1725E+06              0.     8.47104E+06
           28385     24.6236E+06    -10.3156E+06              0.     8.73251E+06
           28386     25.5091E+06    -10.4486E+06              0.     8.99653E+06
           28387     26.4207E+06    -10.5702E+06              0.     9.26278E+06
           28388     27.3587E+06    -10.6789E+06              0.     9.53088E+06
           28389     28.3235E+06    -10.7731E+06              0.     9.80044E+06
           28390     29.3156E+06    -10.8511E+06              0.     10.0710E+06
           28391     30.3350E+06    -10.9110E+06              0.     10.3421E+06
           28392     31.3822E+06    -10.9508E+06              0.     10.6133E+06
           28393     32.4573E+06    -10.9685E+06              0.     10.8839E+06
           28394     33.5605E+06    -10.9615E+06              0.     11.1533E+06
           28395     34.6918E+06    -10.9276E+06              0.     11.4209E+06
           28396     35.8513E+06    -10.8639E+06              0.     11.6859E+06
           28397     37.0388E+06    -10.7675E+06              0.     11.9475E+06
           28398     38.2544E+06    -10.6353E+06              0.     12.2050E+06
           28399     39.4976E+06    -10.4640E+06              0.     12.4573E+06
           28400     40.7683E+06    -10.2500E+06              0.     12.7036E+06
           28401     42.0659E+06    -9.98942E+06              0.     12.9428E+06
           28402     43.3899E+06    -9.67808E+06              0.     13.1737E+06
           28403     44.7397E+06    -9.31155E+06              0.     13.3953E+06
           28404     46.1143E+06    -8.88507E+06              0.     13.6061E+06
           28405     47.5128E+06    -8.39355E+06              0.     13.8049E+06
           28406     48.9341E+06    -7.83153E+06              0.     13.9902E+06
           28407     50.3769E+06    -7.19320E+06              0.     14.1605E+06
           28408     51.8396E+06     -6.4723E+06              0.     14.3143E+06
           28409     53.3206E+06    -5.66219E+06              0.     14.4498E+06
           28410     54.8180E+06    -4.75575E+06              0.     14.5653E+06
           28411     56.3296E+06    -3.74541E+06              0.     14.6590E+06
           28412     57.8531E+06    -2.62309E+06              0.     14.7288E+06
           28413     59.3857E+06    -1.38017E+06              0.     14.7728E+06
           28414     60.9248E+06    -7.47875E+03              0.     14.7889E+06
           28415     62.4670E+06     1.50475E+06              0.     14.7749E+06
           28416     64.0090E+06     3.16688E+06              0.     14.7285E+06
           28417     65.5470E+06     4.98996E+06              0.     14.6476E+06
           28418     67.0770E+06     6.98569E+06              0.     14.5297E+06
           28419     68.5945E+06     9.16654E+06              0.     14.3725E+06
           28420     70.0949E+06     11.5457E+06              0.     14.1736E+06
           28421     71.5732E+06     14.1371E+06              0.     13.9306E+06
           28422     73.0239E+06     16.9556E+06              0.     13.6411E+06
           28423     74.4414E+06     20.0168E+06              0.     13.3027E+06
           28424     75.8196E+06     23.3373E+06              0.     12.9132E+06
           28425     77.1522E+06     26.9347E+06              0.     12.4704E+06
           28426     78.4322E+06     30.8273E+06              0.     11.9723E+06
           28427     80.0912E+06     35.1762E+06              0.     12.0505E+06
           28428    -606.013E+03    -271.567E+03              0.    -925.553E+03
           28429    -605.200E+03    -263.908E+03              0.    -923.950E+03
           28430    -607.684E+03    -257.745E+03              0.    -915.359E+03
           28431    -610.158E+03    -251.584E+03              0.    -907.102E+03
           28432    -612.615E+03    -245.438E+03              0.    -899.177E+03
           28433    -615.045E+03    -239.318E+03              0.    -891.580E+03
           28434    -617.444E+03    -233.236E+03              0.    -884.308E+03
           28435    -619.803E+03    -227.201E+03              0.    -877.356E+03
           28436    -622.115E+03    -221.223E+03              0.    -870.721E+03
           28437    -624.376E+03    -215.313E+03              0.    -864.398E+03
           28438    -626.577E+03    -209.478E+03              0.    -858.383E+03
           28439    -628.714E+03    -203.729E+03              0.    -852.671E+03
           28440    -630.781E+03    -198.072E+03              0.    -847.256E+03
           28441    -632.770E+03    -192.517E+03              0.    -842.135E+03
           28442    -634.678E+03    -187.070E+03              0.    -837.302E+03
           28443    -636.497E+03    -181.740E+03              0.    -832.750E+03
           28444    -638.223E+03    -176.533E+03              0.    -828.476E+03
           28445    -639.849E+03    -171.457E+03              0.    -824.472E+03
           28446    -641.371E+03    -166.518E+03              0.    -820.733E+03
           28447    -642.782E+03    -161.724E+03              0.    -817.254E+03
           28448    -644.078E+03    -157.080E+03              0.    -814.026E+03
           28449    -645.251E+03    -152.593E+03              0.    -811.046E+03
           28450    -646.298E+03    -148.269E+03              0.    -808.305E+03
           28451    -647.211E+03    -144.115E+03              0.    -805.797E+03
           28452    -647.986E+03    -140.136E+03              0.    -803.516E+03
           28453    -648.616E+03    -136.338E+03              0.    -801.455E+03
           28454    -649.094E+03    -132.728E+03              0.    -799.607E+03
           28455    -649.416E+03    -129.312E+03              0.    -797.964E+03
           28456    -649.574E+03    -126.095E+03              0.    -796.519E+03
           28457    -649.561E+03    -123.083E+03              0.    -795.265E+03
           28458    -649.372E+03    -120.283E+03              0.    -794.195E+03
           28459    -649.000E+03    -117.701E+03              0.    -793.301E+03
           28460    -648.436E+03    -115.342E+03              0.    -792.574E+03
           28461    -647.674E+03    -113.213E+03              0.    -792.007E+03
           28462    -646.707E+03    -111.320E+03              0.    -791.592E+03
           28463    -645.525E+03    -109.669E+03              0.    -791.321E+03
           28464    -644.122E+03    -108.268E+03              0.    -791.185E+03
           28465    -642.489E+03    -107.122E+03              0.    -791.176E+03
           28466    -640.616E+03    -106.239E+03              0.    -791.285E+03
           28467    -638.495E+03    -105.624E+03              0.    -791.503E+03
           28468    -636.117E+03    -105.287E+03              0.    -791.821E+03
           28469    -633.472E+03    -105.232E+03              0.     -792.23E+03
           28470    -630.549E+03    -105.469E+03              0.    -792.721E+03
           28471    -627.338E+03    -106.004E+03              0.    -793.284E+03
           28472    -623.828E+03    -106.846E+03              0.    -793.909E+03
           28473    -620.008E+03    -108.003E+03              0.    -794.587E+03
           28474    -615.866E+03    -109.482E+03              0.    -795.307E+03
           28475    -611.390E+03    -111.293E+03              0.    -796.058E+03
           28476    -606.566E+03    -113.445E+03              0.    -796.832E+03
           28477    -601.382E+03    -115.946E+03              0.    -797.615E+03
           28478    -595.823E+03    -118.806E+03              0.    -798.399E+03
           28479    -589.876E+03    -122.034E+03              0.    -799.170E+03
           28480    -583.525E+03    -125.642E+03              0.    -799.919E+03
           28481    -576.755E+03    -129.639E+03              0.    -800.632E+03
           28482    -569.550E+03    -134.035E+03              0.    -801.299E+03
           28483    -561.893E+03    -138.843E+03              0.    -801.906E+03
           28484    -553.766E+03    -144.073E+03              0.    -802.441E+03
           28485    -545.152E+03    -149.738E+03              0.    -802.891E+03
           28486    -536.031E+03    -155.849E+03              0.    -803.244E+03
           28487    -526.385E+03    -162.419E+03              0.    -803.485E+03
           28488    -516.191E+03    -169.461E+03              0.    -803.600E+03
           28489    -505.431E+03    -176.989E+03              0.    -803.576E+03
           28490    -494.081E+03    -185.017E+03              0.    -803.398E+03
           28491    -482.118E+03    -193.559E+03              0.    -803.050E+03
           28492    -469.520E+03    -202.630E+03              0.    -802.519E+03
           28493    -456.261E+03    -212.245E+03              0.    -801.787E+03
           28494    -442.315E+03    -222.421E+03              0.    -800.839E+03
           28495    -427.657E+03    -233.173E+03              0.    -799.658E+03
           28496    -412.259E+03    -244.519E+03              0.    -798.228E+03
           28497    -396.091E+03    -256.476E+03              0.    -796.531E+03
           28498    -379.124E+03    -269.062E+03              0.    -794.549E+03
           28499    -361.328E+03    -282.295E+03              0.    -792.265E+03
           28500    -342.670E+03    -296.196E+03              0.    -789.658E+03
           28501    -323.117E+03    -310.784E+03              0.    -786.710E+03
           28502    -302.634E+03    -326.078E+03              0.    -783.402E+03
           28503    -281.186E+03    -342.101E+03              0.    -779.712E+03
           28504    -258.736E+03    -358.874E+03              0.    -775.620E+03
           28505    -235.244E+03    -376.420E+03              0.    -771.104E+03
           28506    -210.671E+03    -394.761E+03              0.    -766.143E+03
           28507    -184.975E+03    -413.921E+03              0.    -760.713E+03
           28508    -158.113E+03    -433.925E+03              0.    -754.793E+03
           28509    -130.040E+03    -454.797E+03              0.    -748.356E+03
           28510    -100.711E+03    -476.565E+03              0.    -741.381E+03
           28511    -70.0769E+03    -499.254E+03              0.    -733.840E+03
           28512    -38.0878E+03    -522.891E+03              0.    -725.708E+03
           28513    -4.69218E+03    -547.507E+03              0.    -716.959E+03
           28514     30.1635E+03    -573.128E+03              0.    -707.566E+03
           28515     66.5349E+03    -599.785E+03              0.    -697.500E+03
           28516     104.479E+03    -627.508E+03              0.    -686.732E+03
           28517     144.057E+03    -656.330E+03              0.    -675.234E+03
           28518     185.329E+03    -686.282E+03              0.    -662.975E+03
           28519     228.361E+03    -717.398E+03              0.    -649.924E+03
           28520     273.217E+03    -749.711E+03              0.    -636.049E+03
           28521     319.968E+03    -783.256E+03              0.    -621.317E+03
           28522     368.685E+03    -818.070E+03              0.    -605.695E+03
           28523     419.441E+03    -854.188E+03              0.    -589.148E+03
           28524     472.313E+03    -891.648E+03              0.    -571.641E+03
           28525     527.381E+03    -930.489E+03              0.    -553.138E+03
           28526     584.726E+03    -970.751E+03              0.    -533.602E+03
           28527     644.434E+03    -1.01247E+06              0.    -512.994E+03
           28528     706.594E+03    -1.05569E+06              0.    -491.275E+03
           28529     771.295E+03    -1.10046E+06              0.    -468.406E+03
           28530     838.634E+03    -1.14681E+06              0.    -444.346E+03
           28531     908.707E+03    -1.19479E+06              0.    -419.052E+03
           28532     981.616E+03    -1.24445E+06              0.    -392.482E+03
           28533     1.05747E+06    -1.29582E+06              0.    -364.592E+03
           28534     1.13637E+06    -1.34897E+06              0.    -335.337E+03
           28535     1.21843E+06    -1.40392E+06              0.    -304.670E+03
           28536     1.30377E+06    -1.46074E+06              0.    -272.545E+03
           28537     1.39251E+06    -1.51946E+06              0.    -238.914E+03
           28538     1.48477E+06    -1.58015E+06              0.    -203.728E+03
           28539     1.58069E+06    -1.64285E+06              0.    -166.936E+03
           28540     1.68039E+06    -1.70760E+06              0.    -128.488E+03
           28541     1.78402E+06    -1.77447E+06              0.    -88.3304E+03
           28542     1.89171E+06    -1.84350E+06              0.    -46.4108E+03
           28543     2.00362E+06    -1.91475E+06              0.    -2.67457E+03
           28544     2.11989E+06    -1.98826E+06              0.     42.9336E+03
           28545     2.24069E+06    -2.06410E+06              0.     90.4700E+03
           28546     2.36618E+06    -2.14232E+06              0.     139.992E+03
           28547     2.49652E+06    -2.22296E+06              0.     191.558E+03
           28548     2.63190E+06    -2.30609E+06              0.     245.228E+03
           28549     2.77249E+06    -2.39175E+06              0.     301.061E+03
           28550     2.91848E+06    -2.48001E+06              0.     359.120E+03
           28551     3.07006E+06    -2.57091E+06              0.     419.465E+03
           28552     3.22743E+06    -2.66451E+06              0.     482.160E+03
           28553     3.39079E+06    -2.76086E+06              0.     547.270E+03
           28554     3.56037E+06    -2.86000E+06              0.     614.857E+03
           28555     3.73636E+06    -2.96201E+06              0.     684.988E+03
           28556     3.91902E+06    -3.06691E+06              0.     757.728E+03
           28557     4.10856E+06    -3.17476E+06              0.     833.144E+03
           28558     4.30522E+06    -3.28560E+06              0.     911.303E+03
           28559     4.50927E+06    -3.39949E+06              0.     992.272E+03
           28560     4.72094E+06    -3.51646E+06              0.     1.07612E+06
           28561     4.94051E+06    -3.63655E+06              0.     1.16291E+06
           28562     5.16825E+06    -3.75980E+06              0.     1.25272E+06
           28563     5.40445E+06    -3.88624E+06              0.     1.34561E+06
           28564     5.64938E+06    -4.01591E+06              0.     1.44165E+06
           28565     5.90335E+06    -4.14882E+06              0.     1.54090E+06
           28566     6.16666E+06    -4.28499E+06              0.     1.64345E+06
           28567     6.43964E+06    -4.42445E+06              0.     1.74934E+06
           28568     6.72260E+06    -4.56721E+06              0.     1.85866E+06
           28569     7.01589E+06    -4.71326E+06              0.     1.97145E+06
           28570     7.31984E+06    -4.86261E+06              0.     2.08780E+06
           28571     7.63481E+06    -5.01524E+06              0.     2.20776E+06
           28572     7.96116E+06    -5.17113E+06              0.     2.33138E+06
           28573     8.29927E+06    -5.33025E+06              0.     2.45875E+06
           28574     8.64951E+06    -5.49257E+06              0.     2.58989E+06
           28575     9.01229E+06    -5.65803E+06              0.     2.72489E+06
           28576     9.38800E+06    -5.82658E+06              0.     2.86378E+06
           28577     9.77705E+06    -5.99812E+06              0.     3.00661E+06
           28578     10.1799E+06    -6.17258E+06              0.     3.15344E+06
           28579     10.5969E+06    -6.34985E+06              0.     3.30429E+06
           28580     11.0286E+06    -6.52979E+06              0.     3.45922E+06
           28581     11.4753E+06    -6.71228E+06              0.     3.61825E+06
           28582     11.9376E+06    -6.89714E+06              0.     3.78142E+06
           28583     12.4160E+06    -7.08419E+06              0.     3.94873E+06
           28584     12.9108E+06    -7.27322E+06              0.     4.12022E+06
           28585     13.4226E+06    -7.46399E+06              0.     4.29588E+06
           28586     13.9519E+06    -7.65623E+06              0.     4.47573E+06
           28587     14.4992E+06    -7.84966E+06              0.     4.65974E+06
           28588     15.0649E+06    -8.04394E+06              0.     4.84792E+06
           28589     15.6497E+06    -8.23872E+06              0.     5.04022E+06
           28590     16.2540E+06    -8.43357E+06              0.     5.23663E+06
           28591     16.8783E+06    -8.62807E+06              0.     5.43708E+06
           28592     17.5232E+06    -8.82172E+06              0.     5.64152E+06
           28593     18.1892E+06    -9.01398E+06              0.     5.84988E+06
           28594     18.8768E+06    -9.20426E+06              0.     6.06208E+06
           28595     19.5866E+06    -9.39192E+06              0.     6.27800E+06
           28596     20.3191E+06    -9.57624E+06              0.     6.49753E+06
           28597     21.0748E+06    -9.75645E+06              0.     6.72053E+06
           28598     21.8542E+06    -9.93172E+06              0.     6.94686E+06
           28599     22.6578E+06    -10.1011E+06              0.     7.17632E+06
           28600     23.4862E+06    -10.2636E+06              0.     7.40873E+06
           28601     24.3398E+06    -10.4182E+06              0.     7.64385E+06
           28602     25.2191E+06    -10.5636E+06              0.     7.88145E+06
           28603     26.1245E+06    -10.6987E+06              0.     8.12125E+06
           28604     27.0564E+06    -10.8219E+06              0.     8.36294E+06
           28605     28.0153E+06    -10.9318E+06              0.     8.60620E+06
           28606     29.0016E+06    -11.0268E+06              0.     8.85065E+06
           28607     30.0155E+06    -11.1051E+06              0.     9.09589E+06
           28608     31.0574E+06    -11.1648E+06              0.     9.34149E+06
           28609     32.1275E+06    -11.2039E+06              0.     9.58697E+06
           28610     33.2260E+06    -11.2201E+06              0.     9.83181E+06
           28611     34.3530E+06    -11.2112E+06              0.     10.0754E+06
           28612     35.5088E+06    -11.1744E+06              0.     10.3173E+06
           28613     36.6931E+06    -11.1071E+06              0.     10.5566E+06
           28614     37.9061E+06    -11.0063E+06              0.     10.7928E+06
           28615     39.1475E+06    -10.8688E+06              0.     11.0250E+06
           28616     40.4172E+06    -10.6912E+06              0.     11.2525E+06
           28617     41.7147E+06    -10.4698E+06              0.     11.4743E+06
           28618     43.0397E+06    -10.2007E+06              0.     11.6896E+06
           28619     44.3916E+06    -9.87958E+06              0.     11.8973E+06
           28620     45.7696E+06    -9.50197E+06              0.     12.0963E+06
           28621     47.1730E+06    -9.06301E+06              0.     12.2856E+06
           28622     48.6007E+06    -8.55752E+06              0.     12.4639E+06
           28623     50.0517E+06    -7.97994E+06              0.     12.6299E+06
           28624     51.5246E+06    -7.32434E+06              0.     12.7822E+06
           28625     53.0179E+06    -6.58438E+06              0.     12.9195E+06
           28626     54.5298E+06    -5.75329E+06              0.     13.0403E+06
           28627     56.0586E+06    -4.82386E+06              0.     13.1430E+06
           28628     57.6021E+06    -3.78841E+06              0.     13.2258E+06
           28629     59.1578E+06    -2.63872E+06              0.     13.2872E+06
           28630     60.7233E+06    -1.36607E+06              0.     13.3253E+06
           28631     62.2955E+06     38.8291E+03              0.     13.3383E+06
           28632     63.8715E+06     1.58585E+06              0.     13.3241E+06
           28633     65.4477E+06     3.28548E+06              0.     13.2810E+06
           28634     67.0204E+06     5.14889E+06              0.     13.2067E+06
           28635     68.5857E+06     7.18786E+06              0.     13.0994E+06
           28636     70.1392E+06     9.41498E+06              0.     12.9568E+06
           28637     71.6763E+06     11.8435E+06              0.     12.7769E+06
           28638     73.1921E+06     14.4875E+06              0.     12.5576E+06
           28639     74.6812E+06     17.3619E+06              0.     12.2968E+06
           28640     76.1381E+06     20.4823E+06              0.     11.9924E+06
           28641     77.5570E+06     23.8654E+06              0.     11.6425E+06
           28642     78.9315E+06     27.5288E+06              0.     11.2451E+06
           28643     80.2555E+06     31.4909E+06              0.     10.7987E+06
           28644     81.9485E+06     35.9160E+06              0.     10.8721E+06
           28645    -626.407E+03    -280.755E+03              0.    -922.956E+03
           28646    -625.549E+03    -272.670E+03              0.    -921.356E+03
           28647    -628.173E+03    -266.166E+03              0.    -912.772E+03
           28648    -630.785E+03    -259.668E+03              0.    -904.531E+03
           28649    -633.379E+03    -253.189E+03              0.    -896.628E+03
           28650    -635.946E+03    -246.739E+03              0.    -889.062E+03
           28651    -638.478E+03    -240.330E+03              0.    -881.827E+03
           28652     -640.97E+03    -233.973E+03              0.    -874.919E+03
           28653    -643.414E+03    -227.678E+03              0.    -868.334E+03
           28654    -645.804E+03    -221.454E+03              0.    -862.068E+03
           28655    -648.133E+03    -215.311E+03              0.    -856.116E+03
           28656    -650.394E+03    -209.257E+03              0.    -850.473E+03
           28657    -652.583E+03    -203.302E+03              0.    -845.135E+03
           28658    -654.693E+03    -197.453E+03              0.    -840.094E+03
           28659    -656.719E+03    -191.719E+03              0.    -835.348E+03
           28660    -658.653E+03    -186.106E+03              0.    -830.889E+03
           28661    -660.491E+03    -180.622E+03              0.    -826.712E+03
           28662    -662.228E+03    -175.275E+03              0.    -822.813E+03
           28663    -663.856E+03    -170.072E+03              0.    -819.183E+03
           28664    -665.371E+03    -165.018E+03              0.    -815.818E+03
           28665    -666.766E+03    -160.122E+03              0.    -812.712E+03
           28666    -668.037E+03    -155.388E+03              0.    -809.858E+03
           28667    -669.177E+03    -150.825E+03              0.    -807.249E+03
           28668    -670.180E+03    -146.437E+03              0.    -804.880E+03
           28669    -671.041E+03    -142.232E+03              0.    -802.743E+03
           28670    -671.753E+03    -138.215E+03              0.    -800.832E+03
           28671    -672.309E+03    -134.392E+03              0.    -799.139E+03
           28672    -672.705E+03    -130.770E+03              0.    -797.659E+03
           28673    -672.932E+03    -127.355E+03              0.    -796.384E+03
           28674    -672.985E+03    -124.152E+03              0.    -795.306E+03
           28675    -672.857E+03    -121.169E+03              0.    -794.418E+03
           28676    -672.540E+03    -118.411E+03              0.    -793.713E+03
           28677    -672.027E+03    -115.884E+03              0.    -793.184E+03
           28678    -671.311E+03    -113.595E+03              0.    -792.822E+03
           28679    -670.384E+03    -111.550E+03              0.    -792.620E+03
           28680    -669.238E+03    -109.755E+03              0.    -792.569E+03
           28681    -667.864E+03    -108.218E+03              0.    -792.662E+03
           28682    -666.254E+03    -106.945E+03              0.    -792.890E+03
           28683    -664.399E+03    -105.943E+03              0.    -793.246E+03
           28684    -662.290E+03    -105.219E+03              0.    -793.720E+03
           28685    -659.916E+03    -104.780E+03              0.    -794.304E+03
           28686    -657.269E+03    -104.634E+03              0.    -794.989E+03
           28687    -654.337E+03    -104.788E+03              0.    -795.766E+03
           28688    -651.109E+03    -105.250E+03              0.    -796.626E+03
           28689    -647.576E+03    -106.028E+03              0.    -797.560E+03
           28690    -643.724E+03    -107.131E+03              0.    -798.558E+03
           28691    -639.542E+03    -108.566E+03              0.    -799.610E+03
           28692    -635.017E+03    -110.343E+03              0.    -800.707E+03
           28693    -630.136E+03    -112.472E+03              0.    -801.839E+03
           28694    -624.886E+03    -114.960E+03              0.    -802.994E+03
           28695    -619.252E+03    -117.818E+03              0.    -804.164E+03
           28696    -613.220E+03    -121.056E+03              0.    -805.337E+03
           28697    -606.774E+03    -124.684E+03              0.    -806.501E+03
           28698    -599.898E+03    -128.713E+03              0.    -807.648E+03
           28699    -592.576E+03    -133.154E+03              0.    -808.763E+03
           28700    -584.791E+03    -138.018E+03              0.    -809.837E+03
           28701    -576.525E+03    -143.316E+03              0.    -810.856E+03
           28702    -567.758E+03    -149.062E+03              0.    -811.810E+03
           28703    -558.473E+03    -155.267E+03              0.    -812.685E+03
           28704    -548.649E+03    -161.944E+03              0.    -813.468E+03
           28705    -538.264E+03    -169.107E+03              0.    -814.148E+03
           28706    -527.297E+03    -176.770E+03              0.    -814.709E+03
           28707    -515.727E+03    -184.947E+03              0.    -815.139E+03
           28708    -503.528E+03    -193.653E+03              0.    -815.423E+03
           28709    -490.678E+03    -202.903E+03              0.    -815.548E+03
           28710    -477.151E+03    -212.712E+03              0.    -815.497E+03
           28711    -462.920E+03    -223.098E+03              0.    -815.257E+03
           28712    -447.958E+03    -234.076E+03              0.    -814.812E+03
           28713    -432.237E+03    -245.664E+03              0.    -814.146E+03
           28714    -415.728E+03    -257.881E+03              0.    -813.242E+03
           28715    -398.401E+03    -270.744E+03              0.    -812.084E+03
           28716    -380.222E+03    -284.272E+03              0.    -810.655E+03
           28717    -361.161E+03    -298.487E+03              0.    -808.937E+03
           28718    -341.181E+03    -313.406E+03              0.    -806.912E+03
           28719    -320.250E+03    -329.053E+03              0.    -804.562E+03
           28720    -298.328E+03    -345.447E+03              0.    -801.868E+03
           28721    -275.379E+03    -362.612E+03              0.    -798.809E+03
           28722    -251.362E+03    -380.570E+03              0.    -795.367E+03
           28723    -226.238E+03    -399.345E+03              0.    -791.520E+03
           28724    -199.962E+03    -418.962E+03              0.    -787.248E+03
           28725    -172.492E+03    -439.445E+03              0.    -782.529E+03
           28726    -143.781E+03    -460.820E+03              0.    -777.340E+03
           28727    -113.781E+03    -483.114E+03              0.    -771.659E+03
           28728    -82.4446E+03    -506.353E+03              0.    -765.463E+03
           28729    -49.7193E+03    -530.567E+03              0.    -758.726E+03
           28730    -15.5525E+03    -555.784E+03              0.    -751.426E+03
           28731     20.1107E+03    -582.034E+03              0.    -743.536E+03
           28732     57.3271E+03    -609.346E+03              0.    -735.030E+03
           28733     96.1557E+03    -637.754E+03              0.    -725.883E+03
           28734     136.658E+03    -667.288E+03              0.    -716.065E+03
           28735     178.896E+03    -697.982E+03              0.    -705.550E+03
           28736     222.937E+03    -729.869E+03              0.    -694.309E+03
           28737     268.849E+03    -762.985E+03              0.    -682.311E+03
           28738     316.701E+03    -797.366E+03              0.    -669.528E+03
           28739     366.567E+03    -833.047E+03              0.    -655.927E+03
           28740     418.523E+03    -870.066E+03              0.    -641.477E+03
           28741     472.647E+03    -908.462E+03              0.    -626.145E+03
           28742     529.020E+03    -948.273E+03              0.    -609.898E+03
           28743     587.727E+03    -989.541E+03              0.    -592.701E+03
           28744     648.853E+03    -1.03231E+06              0.    -574.520E+03
           28745     712.491E+03    -1.07661E+06              0.    -555.318E+03
           28746     778.732E+03    -1.12249E+06              0.    -535.059E+03
           28747     847.675E+03    -1.17001E+06              0.    -513.705E+03
           28748     919.418E+03    -1.21919E+06              0.    -491.217E+03
           28749     994.066E+03    -1.27009E+06              0.    -467.556E+03
           28750     1.07173E+06    -1.32275E+06              0.    -442.682E+03
           28751     1.15251E+06    -1.37721E+06              0.    -416.552E+03
           28752     1.23653E+06    -1.43354E+06              0.    -389.126E+03
           28753     1.32391E+06    -1.49178E+06              0.    -360.360E+03
           28754     1.41476E+06    -1.55197E+06              0.    -330.209E+03
           28755     1.50923E+06    -1.61416E+06              0.     -298.63E+03
           28756     1.60743E+06    -1.67842E+06              0.    -265.576E+03
           28757     1.70951E+06    -1.74478E+06              0.    -231.000E+03
           28758     1.81561E+06    -1.81331E+06              0.    -194.854E+03
           28759     1.92587E+06    -1.88405E+06              0.    -157.091E+03
           28760     2.04044E+06    -1.95706E+06              0.    -117.660E+03
           28761     2.15948E+06    -2.03239E+06              0.    -76.5115E+03
           28762     2.28315E+06    -2.11010E+06              0.    -33.5937E+03
           28763     2.41162E+06    -2.19024E+06              0.     11.1456E+03
           28764     2.54506E+06    -2.27287E+06              0.     57.7591E+03
           28765     2.68364E+06    -2.35803E+06              0.     106.301E+03
           28766     2.82756E+06    -2.44579E+06              0.     156.825E+03
           28767     2.97700E+06    -2.53620E+06              0.     209.388E+03
           28768     3.13216E+06    -2.62932E+06              0.     264.044E+03
           28769     3.29324E+06    -2.72519E+06              0.     320.852E+03
           28770     3.46045E+06    -2.82387E+06              0.     379.868E+03
           28771     3.63401E+06    -2.92541E+06              0.     441.151E+03
           28772     3.81414E+06    -3.02987E+06              0.     504.759E+03
           28773     4.00107E+06    -3.13729E+06              0.     570.751E+03
           28774     4.19504E+06    -3.24773E+06              0.     639.187E+03
           28775     4.39629E+06    -3.36122E+06              0.     710.127E+03
           28776     4.60509E+06    -3.47781E+06              0.     783.630E+03
           28777     4.82168E+06    -3.59756E+06              0.     859.758E+03
           28778     5.04634E+06    -3.72048E+06              0.     938.571E+03
           28779     5.27935E+06    -3.84663E+06              0.     1.02013E+06
           28780     5.52099E+06    -3.97604E+06              0.     1.10449E+06
           28781     5.77156E+06    -4.10873E+06              0.     1.19172E+06
           28782     6.03136E+06    -4.24473E+06              0.     1.28187E+06
           28783     6.30071E+06    -4.38406E+06              0.     1.37501E+06
           28784     6.57992E+06    -4.52674E+06              0.     1.47120E+06
           28785     6.86933E+06    -4.67277E+06              0.     1.57048E+06
           28786     7.16927E+06    -4.82216E+06              0.     1.67292E+06
           28787     7.48010E+06    -4.97490E+06              0.     1.77858E+06
           28788     7.80218E+06    -5.13098E+06              0.     1.88750E+06
           28789     8.13587E+06    -5.29038E+06              0.     1.99975E+06
           28790     8.48156E+06    -5.45307E+06              0.     2.11537E+06
           28791     8.83963E+06    -5.61900E+06              0.     2.23440E+06
           28792     9.21049E+06    -5.78812E+06              0.     2.35691E+06
           28793     9.59454E+06    -5.96037E+06              0.     2.48292E+06
           28794     9.99220E+06    -6.13566E+06              0.     2.61249E+06
           28795     10.4039E+06    -6.31391E+06              0.     2.74565E+06
           28796     10.8301E+06    -6.49499E+06              0.     2.88243E+06
           28797     11.2712E+06    -6.67879E+06              0.     3.02286E+06
           28798     11.7277E+06    -6.86515E+06              0.     3.16697E+06
           28799     12.2000E+06    -7.05391E+06              0.     3.31478E+06
           28800     12.6887E+06    -7.24486E+06              0.     3.46631E+06
           28801     13.1942E+06    -7.43781E+06              0.     3.62156E+06
           28802     13.7170E+06    -7.63249E+06              0.     3.78053E+06
           28803     14.2576E+06    -7.82864E+06              0.     3.94323E+06
           28804     14.8165E+06    -8.02596E+06              0.     4.10964E+06
           28805     15.3942E+06    -8.22410E+06              0.     4.27975E+06
           28806     15.9913E+06    -8.42271E+06              0.     4.45352E+06
           28807     16.6083E+06    -8.62134E+06              0.     4.63091E+06
           28808     17.2456E+06    -8.81956E+06              0.     4.81189E+06
           28809     17.9040E+06    -9.01686E+06              0.     4.99638E+06
           28810     18.5838E+06    -9.21268E+06              0.     5.18432E+06
           28811     19.2856E+06    -9.40643E+06              0.     5.37563E+06
           28812     20.0099E+06    -9.59744E+06              0.     5.57020E+06
           28813     20.7573E+06    -9.78497E+06              0.     5.76793E+06
           28814     21.5284E+06    -9.96825E+06              0.     5.96868E+06
           28815     22.3235E+06    -10.1464E+06              0.     6.17230E+06
           28816     23.1433E+06    -10.3185E+06              0.     6.37865E+06
           28817     23.9883E+06    -10.4835E+06              0.     6.58752E+06
           28818     24.8588E+06    -10.6403E+06              0.     6.79871E+06
           28819     25.7555E+06    -10.7877E+06              0.     7.01201E+06
           28820     26.6788E+06    -10.9244E+06              0.     7.22714E+06
           28821     27.6290E+06    -11.0490E+06              0.     7.44385E+06
           28822     28.6067E+06    -11.1599E+06              0.     7.66183E+06
           28823     29.6121E+06    -11.2554E+06              0.     7.88073E+06
           28824     30.6456E+06    -11.3339E+06              0.     8.10021E+06
           28825     31.7075E+06    -11.3933E+06              0.     8.31985E+06
           28826     32.7981E+06    -11.4315E+06              0.     8.53925E+06
           28827     33.9175E+06    -11.4464E+06              0.     8.75791E+06
           28828     35.0659E+06    -11.4354E+06              0.     8.97535E+06
           28829     36.2434E+06    -11.3960E+06              0.     9.19101E+06
           28830     37.4501E+06    -11.3254E+06              0.     9.40432E+06
           28831     38.6857E+06    -11.2204E+06              0.     9.61462E+06
           28832     39.9503E+06    -11.0780E+06              0.     9.82126E+06
           28833     41.2435E+06    -10.8945E+06              0.     10.0235E+06
           28834     42.5650E+06    -10.6663E+06              0.     10.2205E+06
           28835     43.9144E+06    -10.3894E+06              0.     10.4116E+06
           28836     45.2910E+06    -10.0593E+06              0.     10.5957E+06
           28837     46.6943E+06    -9.67163E+06              0.     10.7719E+06
           28838     48.1233E+06    -9.22132E+06              0.     10.9394E+06
           28839     49.5771E+06    -8.70315E+06              0.     11.0968E+06
           28840     51.0545E+06    -8.11146E+06              0.     11.2433E+06
           28841     52.5542E+06    -7.44025E+06              0.     11.3775E+06
           28842     54.0747E+06    -6.68307E+06              0.     11.4981E+06
           28843     55.6143E+06    -5.83307E+06              0.     11.6040E+06
           28844     57.1711E+06    -4.88293E+06              0.     11.6937E+06
           28845     58.7430E+06    -3.82488E+06              0.     11.7657E+06
           28846     60.3275E+06    -2.65059E+06              0.     11.8186E+06
           28847     61.9222E+06    -1.35126E+06              0.     11.8507E+06
           28848     63.5241E+06     82.5249E+03              0.     11.8605E+06
           28849     65.1301E+06     1.66073E+06              0.     11.8462E+06
           28850     66.7368E+06     3.39393E+06              0.     11.8063E+06
           28851     68.3406E+06     5.29340E+06              0.     11.7388E+06
           28852     69.9375E+06     7.37101E+06              0.     11.6420E+06
           28853     71.5232E+06     9.63945E+06              0.     11.5141E+06
           28854     73.0931E+06     12.1120E+06              0.     11.3532E+06
           28855     74.6424E+06     14.8029E+06              0.     11.1576E+06
           28856     76.1659E+06     17.7270E+06              0.     10.9255E+06
           28857     77.6582E+06     20.9002E+06              0.     10.6550E+06
           28858     79.1135E+06     24.3390E+06              0.     10.3446E+06
           28859     80.5256E+06     28.0609E+06              0.     9.99257E+06
           28860     81.8881E+06     32.0844E+06              0.     9.59749E+06
           28861     83.6103E+06     36.5767E+06              0.     9.66494E+06
           28862    -646.817E+03    -289.951E+03              0.    -920.217E+03
           28863    -645.912E+03    -281.428E+03              0.    -918.620E+03
           28864    -648.679E+03    -274.576E+03              0.    -910.044E+03
           28865    -651.433E+03    -267.733E+03              0.    -901.819E+03
           28866    -654.167E+03    -260.912E+03              0.    -893.941E+03
           28867    -656.873E+03    -254.125E+03              0.    -886.406E+03
           28868    -659.543E+03    -247.383E+03              0.    -879.210E+03
           28869    -662.171E+03    -240.697E+03              0.    -872.348E+03
           28870    -664.750E+03    -234.077E+03              0.    -865.816E+03
           28871    -667.272E+03    -227.534E+03              0.    -859.609E+03
           28872    -669.732E+03    -221.076E+03              0.    -853.722E+03
           28873    -672.122E+03    -214.713E+03              0.    -848.151E+03
           28874    -674.438E+03    -208.453E+03              0.    -842.889E+03
           28875    -676.672E+03    -202.305E+03              0.    -837.932E+03
           28876    -678.819E+03    -196.276E+03              0.    -833.275E+03
           28877    -680.873E+03    -190.376E+03              0.    -828.911E+03
           28878    -682.828E+03    -184.610E+03              0.    -824.836E+03
           28879    -684.678E+03    -178.986E+03              0.    -821.042E+03
           28880    -686.418E+03    -173.512E+03              0.    -817.525E+03
           28881    -688.041E+03    -168.193E+03              0.    -814.279E+03
           28882    -689.542E+03    -163.038E+03              0.    -811.296E+03
           28883    -690.914E+03    -158.053E+03              0.    -808.572E+03
           28884    -692.153E+03    -153.244E+03              0.    -806.099E+03
           28885    -693.252E+03    -148.617E+03              0.    -803.871E+03
           28886    -694.205E+03    -144.179E+03              0.    -801.881E+03
           28887    -695.005E+03    -139.936E+03              0.    -800.124E+03
           28888    -695.646E+03    -135.895E+03              0.    -798.592E+03
           28889    -696.123E+03    -132.061E+03              0.    -797.279E+03
           28890    -696.427E+03    -128.440E+03              0.    -796.177E+03
           28891    -696.553E+03    -125.040E+03              0.    -795.279E+03
           28892    -696.493E+03    -121.866E+03              0.    -794.579E+03
           28893    -696.240E+03    -118.925E+03              0.    -794.068E+03
           28894    -695.787E+03    -116.223E+03              0.    -793.741E+03
           28895    -695.126E+03    -113.766E+03              0.    -793.588E+03
           28896    -694.249E+03    -111.560E+03              0.    -793.604E+03
           28897    -693.148E+03    -109.614E+03              0.    -793.779E+03
           28898    -691.814E+03    -107.932E+03              0.    -794.107E+03
           28899    -690.239E+03    -106.523E+03              0.    -794.579E+03
           28900    -688.412E+03    -105.393E+03              0.    -795.187E+03
           28901    -686.326E+03    -104.549E+03              0.    -795.923E+03
           28902    -683.970E+03    -103.999E+03              0.    -796.779E+03
           28903    -681.333E+03    -103.751E+03              0.    -797.747E+03
           28904    -678.406E+03    -103.811E+03              0.    -798.817E+03
           28905    -675.177E+03    -104.189E+03              0.    -799.981E+03
           28906    -671.634E+03    -104.892E+03              0.    -801.231E+03
           28907    -667.766E+03    -105.929E+03              0.    -802.556E+03
           28908    -663.561E+03    -107.308E+03              0.    -803.949E+03
           28909    -659.005E+03    -109.038E+03              0.    -805.399E+03
           28910    -654.085E+03    -111.130E+03              0.    -806.897E+03
           28911    -648.788E+03    -113.591E+03              0.    -808.434E+03
           28912    -643.098E+03    -116.433E+03              0.    -809.999E+03
           28913    -637.001E+03    -119.665E+03              0.    -811.582E+03
           28914    -630.481E+03    -123.297E+03              0.    -813.173E+03
           28915    -623.521E+03    -127.342E+03              0.    -814.762E+03
           28916    -616.106E+03    -131.809E+03              0.    -816.337E+03
           28917    -608.216E+03    -136.711E+03              0.    -817.888E+03
           28918    -599.835E+03    -142.060E+03              0.    -819.404E+03
           28919    -590.943E+03    -147.867E+03              0.    -820.872E+03
           28920     -581.52E+03    -154.146E+03              0.    -822.282E+03
           28921    -571.546E+03    -160.910E+03              0.    -823.621E+03
           28922    -560.999E+03    -168.173E+03              0.    -824.877E+03
           28923    -549.858E+03    -175.948E+03              0.    -826.038E+03
           28924    -538.098E+03    -184.251E+03              0.    -827.091E+03
           28925    -525.697E+03    -193.096E+03              0.    -828.022E+03
           28926    -512.630E+03    -202.499E+03              0.    -828.818E+03
           28927    -498.870E+03    -212.476E+03              0.    -829.465E+03
           28928    -484.391E+03    -223.044E+03              0.    -829.950E+03
           28929    -469.165E+03    -234.220E+03              0.    -830.257E+03
           28930    -453.163E+03    -246.022E+03              0.    -830.373E+03
           28931    -436.355E+03    -258.468E+03              0.    -830.281E+03
           28932    -418.710E+03    -271.576E+03              0.    -829.967E+03
           28933    -400.196E+03    -285.367E+03              0.    -829.413E+03
           28934    -380.778E+03    -299.861E+03              0.    -828.605E+03
           28935    -360.423E+03    -315.077E+03              0.    -827.525E+03
           28936    -339.093E+03    -331.039E+03              0.    -826.156E+03
           28937    -316.752E+03    -347.767E+03              0.    -824.480E+03
           28938    -293.361E+03    -365.284E+03              0.     -822.48E+03
           28939    -268.878E+03    -383.614E+03              0.    -820.136E+03
           28940    -243.262E+03    -402.781E+03              0.    -817.430E+03
           28941    -216.470E+03     -422.81E+03              0.    -814.342E+03
           28942    -188.457E+03    -443.726E+03              0.    -810.853E+03
           28943    -159.175E+03    -465.556E+03              0.    -806.941E+03
           28944    -128.576E+03    -488.327E+03              0.    -802.585E+03
           28945    -96.6101E+03    -512.067E+03              0.    -797.765E+03
           28946    -63.2250E+03    -536.804E+03              0.    -792.457E+03
           28947    -28.3666E+03    -562.568E+03              0.    -786.639E+03
           28948     8.02137E+03    -589.390E+03              0.    -780.287E+03
           28949     45.9968E+03    -617.300E+03              0.    -773.379E+03
           28950     85.6201E+03    -646.330E+03              0.    -765.888E+03
           28951     126.954E+03    -676.513E+03              0.    -757.791E+03
           28952     170.062E+03    -707.884E+03              0.    -749.060E+03
           28953     215.012E+03    -740.476E+03              0.    -739.671E+03
           28954     261.874E+03    -774.325E+03              0.    -729.595E+03
           28955     310.719E+03    -809.468E+03              0.    -718.804E+03
           28956     361.623E+03    -845.941E+03              0.    -707.271E+03
           28957     414.661E+03    -883.784E+03              0.    -694.967E+03
           28958     469.915E+03    -923.034E+03              0.    -681.860E+03
           28959     527.467E+03    -963.733E+03              0.    -667.921E+03
           28960     587.402E+03    -1.00592E+06              0.    -653.119E+03
           28961     649.811E+03    -1.04964E+06              0.    -637.420E+03
           28962     714.785E+03    -1.09493E+06              0.    -620.793E+03
           28963     782.418E+03    -1.14184E+06              0.    -603.203E+03
           28964     852.811E+03    -1.19041E+06              0.    -584.617E+03
           28965     926.065E+03    -1.24069E+06              0.    -564.999E+03
           28966     1.00229E+06    -1.29273E+06              0.    -544.313E+03
           28967     1.08158E+06    -1.34656E+06              0.    -522.522E+03
           28968     1.16407E+06    -1.40225E+06              0.    -499.590E+03
           28969     1.24986E+06    -1.45983E+06              0.    -475.477E+03
           28970     1.33908E+06    -1.51936E+06              0.    -450.145E+03
           28971     1.43186E+06    -1.58089E+06              0.    -423.553E+03
           28972     1.52831E+06    -1.64447E+06              0.    -395.662E+03
           28973     1.62859E+06    -1.71015E+06              0.    -366.429E+03
           28974     1.73282E+06    -1.77798E+06              0.    -335.811E+03
           28975     1.84116E+06    -1.84802E+06              0.    -303.767E+03
           28976     1.95374E+06    -1.92033E+06              0.    -270.253E+03
           28977     2.07072E+06    -1.99495E+06              0.    -235.222E+03
           28978     2.19227E+06    -2.07194E+06              0.    -198.631E+03
           28979     2.31854E+06    -2.15135E+06              0.    -160.433E+03
           28980     2.44970E+06    -2.23325E+06              0.    -120.582E+03
           28981     2.58594E+06    -2.31768E+06              0.    -79.0288E+03
           28982     2.72743E+06    -2.40470E+06              0.    -35.7266E+03
           28983     2.87436E+06    -2.49437E+06              0.     9.37380E+03
           28984     3.02692E+06    -2.58675E+06              0.     56.3219E+03
           28985     3.18532E+06    -2.68188E+06              0.     105.168E+03
           28986     3.34976E+06    -2.77982E+06              0.     155.962E+03
           28987     3.52044E+06    -2.88062E+06              0.     208.755E+03
           28988     3.69760E+06    -2.98434E+06              0.     263.599E+03
           28989     3.88147E+06    -3.09103E+06              0.     320.546E+03
           28990     4.07226E+06    -3.20075E+06              0.     379.648E+03
           28991     4.27023E+06    -3.31352E+06              0.     440.958E+03
           28992     4.47563E+06    -3.42942E+06              0.     504.527E+03
           28993     4.68872E+06    -3.54847E+06              0.     570.410E+03
           28994     4.90975E+06    -3.67073E+06              0.     638.659E+03
           28995     5.13900E+06    -3.79622E+06              0.     709.326E+03
           28996     5.37676E+06    -3.92500E+06              0.     782.466E+03
           28997     5.62332E+06    -4.05709E+06              0.     858.129E+03
           28998     5.87897E+06    -4.19252E+06              0.     936.369E+03
           28999     6.14402E+06    -4.33131E+06              0.     1.01724E+06
           29000     6.41880E+06    -4.47349E+06              0.     1.10078E+06
           29001     6.70362E+06    -4.61907E+06              0.     1.18706E+06
           29002     6.99882E+06    -4.76806E+06              0.     1.27611E+06
           29003     7.30475E+06    -4.92045E+06              0.     1.36799E+06
           29004     7.62177E+06    -5.07625E+06              0.     1.46275E+06
           29005     7.95024E+06    -5.23543E+06              0.     1.56043E+06
           29006     8.29052E+06    -5.39798E+06              0.     1.66107E+06
           29007     8.64302E+06    -5.56386E+06              0.     1.76471E+06
           29008     9.00812E+06    -5.73303E+06              0.     1.87140E+06
           29009     9.38622E+06    -5.90543E+06              0.     1.98118E+06
           29010     9.77775E+06    -6.08099E+06              0.     2.09408E+06
           29011     10.1831E+06    -6.25963E+06              0.     2.21013E+06
           29012     10.6028E+06    -6.44126E+06              0.     2.32936E+06
           29013     11.0371E+06    -6.62575E+06              0.     2.45180E+06
           29014     11.4867E+06    -6.81298E+06              0.     2.57747E+06
           29015     11.9519E+06    -7.00279E+06              0.     2.70638E+06
           29016     12.4332E+06    -7.19500E+06              0.     2.83856E+06
           29017     12.9311E+06    -7.38943E+06              0.     2.97401E+06
           29018     13.4461E+06    -7.58584E+06              0.     3.11273E+06
           29019     13.9787E+06    -7.78398E+06              0.     3.25472E+06
           29020     14.5294E+06    -7.98359E+06              0.     3.39997E+06
           29021     15.0986E+06    -8.18434E+06              0.     3.54846E+06
           29022     15.6870E+06    -8.38588E+06              0.     3.70018E+06
           29023     16.2951E+06    -8.58785E+06              0.     3.85509E+06
           29024     16.9233E+06    -8.78980E+06              0.     4.01315E+06
           29025     17.5723E+06    -8.99127E+06              0.     4.17431E+06
           29026     18.2425E+06    -9.19176E+06              0.     4.33851E+06
           29027     18.9346E+06    -9.39069E+06              0.     4.50569E+06
           29028     19.6489E+06    -9.58744E+06              0.     4.67576E+06
           29029     20.3862E+06    -9.78135E+06              0.     4.84863E+06
           29030     21.1468E+06    -9.97166E+06              0.     5.02419E+06
           29031     21.9315E+06    -10.1576E+06              0.     5.20232E+06
           29032     22.7406E+06    -10.3382E+06              0.     5.38289E+06
           29033     23.5747E+06    -10.5126E+06              0.     5.56574E+06
           29034     24.4343E+06    -10.6797E+06              0.      5.7507E+06
           29035     25.3199E+06    -10.8383E+06              0.     5.93759E+06
           29036     26.2319E+06    -10.9874E+06              0.      6.1262E+06
           29037     27.1710E+06    -11.1254E+06              0.     6.31630E+06
           29038     28.1373E+06    -11.2510E+06              0.     6.50765E+06
           29039     29.1315E+06    -11.3627E+06              0.     6.69996E+06
           29040     30.1537E+06    -11.4586E+06              0.     6.89294E+06
           29041     31.2045E+06    -11.5371E+06              0.     7.08627E+06
           29042     32.2841E+06    -11.5960E+06              0.     7.27960E+06
           29043     33.3927E+06    -11.6334E+06              0.     7.47253E+06
           29044     34.5305E+06    -11.6469E+06              0.     7.66466E+06
           29045     35.6977E+06    -11.6340E+06              0.     7.85554E+06
           29046     36.8944E+06    -11.5920E+06              0.     8.04470E+06
           29047     38.1205E+06    -11.5182E+06              0.     8.23160E+06
           29048     39.3761E+06    -11.4095E+06              0.     8.41570E+06
           29049     40.6610E+06    -11.2625E+06              0.     8.59641E+06
           29050     41.9748E+06    -11.0737E+06              0.     8.77307E+06
           29051     43.3174E+06    -10.8393E+06              0.     8.94502E+06
           29052     44.6881E+06    -10.5553E+06              0.     9.11152E+06
           29053     46.0866E+06    -10.2172E+06              0.     9.27180E+06
           29054     47.5119E+06    -9.82040E+06              0.     9.42504E+06
           29055     48.9634E+06    -9.35992E+06              0.     9.57037E+06
           29056     50.4400E+06    -8.83039E+06              0.     9.70686E+06
           29057     51.9406E+06    -8.22611E+06              0.     9.83353E+06
           29058     53.4639E+06    -7.54097E+06              0.     9.94936E+06
           29059     55.0082E+06    -6.76846E+06              0.     10.0533E+06
           29060     56.5720E+06    -5.90165E+06              0.     10.1441E+06
           29061     58.1534E+06    -4.93314E+06              0.     10.2207E+06
           29062     59.7501E+06    -3.85505E+06              0.     10.2818E+06
           29063     61.3599E+06      -2.659E+06              0.     10.3260E+06
           29064     62.9802E+06    -1.33608E+06              0.     10.3522E+06
           29065     64.6081E+06     123.212E+03              0.     10.3588E+06
           29066     66.2405E+06     1.72892E+06              0.     10.3444E+06
           29067      67.874E+06     3.49170E+06              0.     10.3076E+06
           29068     69.5050E+06     5.42291E+06              0.     10.2469E+06
           29069     71.1296E+06     7.53452E+06              0.     10.1607E+06
           29070     72.7436E+06     9.83925E+06              0.     10.0474E+06
           29071     74.3424E+06     12.3505E+06              0.     9.90566E+06
           29072     75.9212E+06     15.0825E+06              0.     9.73379E+06
           29073     77.4750E+06     18.0503E+06              0.     9.53031E+06
           29074     78.9984E+06     21.2695E+06              0.     9.29375E+06
           29075     80.4858E+06     24.7570E+06              0.     9.02268E+06
           29076     81.9313E+06     28.5303E+06              0.     8.71577E+06
           29077     83.3290E+06     32.6079E+06              0.     8.37179E+06
           29078     85.0778E+06     37.1591E+06              0.     8.43199E+06
           29079    -667.239E+03    -299.153E+03              0.    -917.332E+03
           29080    -666.287E+03    -290.183E+03              0.    -915.740E+03
           29081    -669.200E+03    -282.973E+03              0.    -907.173E+03
           29082    -672.100E+03    -275.777E+03              0.    -898.965E+03
           29083    -674.978E+03    -268.607E+03              0.    -891.113E+03
           29084    -677.826E+03    -261.476E+03              0.    -883.611E+03
           29085    -680.638E+03    -254.393E+03              0.    -876.455E+03
           29086    -683.406E+03    -247.372E+03              0.    -869.640E+03
           29087    -686.122E+03    -240.421E+03              0.    -863.162E+03
           29088    -688.781E+03    -233.551E+03              0.    -857.016E+03
           29089    -691.375E+03    -226.772E+03              0.    -851.196E+03
           29090    -693.898E+03    -220.093E+03              0.    -845.698E+03
           29091    -696.343E+03    -213.523E+03              0.    -840.516E+03
           29092    -698.706E+03    -207.069E+03              0.    -835.645E+03
           29093    -700.979E+03    -200.741E+03              0.    -831.080E+03
           29094    -703.156E+03    -194.546E+03              0.    -826.814E+03
           29095    -705.232E+03    -188.492E+03              0.    -822.841E+03
           29096    -707.201E+03    -182.586E+03              0.    -819.157E+03
           29097    -709.056E+03    -176.835E+03              0.    -815.755E+03
           29098    -710.792E+03    -171.246E+03              0.    -812.630E+03
           29099    -712.403E+03    -165.827E+03              0.    -809.774E+03
           29100    -713.884E+03    -160.584E+03              0.    -807.182E+03
           29101    -715.227E+03    -155.523E+03              0.    -804.848E+03
           29102    -716.427E+03    -150.651E+03              0.    -802.765E+03
           29103    -717.478E+03    -145.974E+03              0.    -800.927E+03
           29104    -718.373E+03    -141.499E+03              0.    -799.327E+03
           29105    -719.106E+03    -137.232E+03              0.    -797.959E+03
           29106    -719.670E+03    -133.180E+03              0.    -796.816E+03
           29107    -720.059E+03    -129.348E+03              0.    -795.891E+03
           29108    -720.265E+03    -125.743E+03              0.    -795.177E+03
           29109    -720.282E+03    -122.371E+03              0.    -794.668E+03
           29110    -720.102E+03    -119.239E+03              0.    -794.357E+03
           29111    -719.717E+03    -116.354E+03              0.    -794.236E+03
           29112    -719.121E+03    -113.721E+03              0.    -794.298E+03
           29113    -718.304E+03    -111.347E+03              0.    -794.535E+03
           29114    -717.258E+03    -109.240E+03              0.    -794.942E+03
           29115    -715.975E+03    -107.405E+03              0.    -795.509E+03
           29116    -714.445E+03    -105.851E+03              0.    -796.229E+03
           29117    -712.659E+03    -104.583E+03              0.    -797.095E+03
           29118    -710.609E+03    -103.610E+03              0.    -798.099E+03
           29119    -708.282E+03    -102.939E+03              0.    -799.233E+03
           29120    -705.670E+03    -102.578E+03              0.    -800.489E+03
           29121    -702.762E+03    -102.534E+03              0.    -801.859E+03
           29122    -699.545E+03    -102.815E+03              0.    -803.334E+03
           29123    -696.009E+03    -103.431E+03              0.    -804.905E+03
           29124    -692.141E+03    -104.389E+03              0.    -806.566E+03
           29125    -687.929E+03    -105.699E+03              0.    -808.306E+03
           29126    -683.360E+03    -107.370E+03              0.    -810.117E+03
           29127    -678.419E+03    -109.410E+03              0.    -811.989E+03
           29128    -673.093E+03    -111.830E+03              0.    -813.915E+03
           29129    -667.367E+03    -114.640E+03              0.    -815.883E+03
           29130    -661.226E+03    -117.851E+03              0.    -817.885E+03
           29131    -654.653E+03    -121.472E+03              0.    -819.912E+03
           29132    -647.633E+03    -125.515E+03              0.    -821.952E+03
           29133    -640.147E+03    -129.992E+03              0.    -823.997E+03
           29134    -632.178E+03    -134.914E+03              0.    -826.036E+03
           29135    -623.708E+03    -140.293E+03              0.    -828.058E+03
           29136    -614.717E+03    -146.142E+03              0.    -830.052E+03
           29137    -605.184E+03    -152.475E+03              0.    -832.008E+03
           29138    -595.089E+03    -159.304E+03              0.    -833.914E+03
           29139    -584.410E+03    -166.644E+03              0.    -835.759E+03
           29140    -573.125E+03    -174.509E+03              0.    -837.532E+03
           29141    -561.210E+03    -182.913E+03              0.    -839.220E+03
           29142    -548.640E+03    -191.873E+03              0.    -840.811E+03
           29143    -535.391E+03    -201.404E+03              0.    -842.293E+03
           29144    -521.436E+03    -211.522E+03              0.    -843.653E+03
           29145    -506.747E+03    -222.245E+03              0.    -844.878E+03
           29146    -491.297E+03    -233.590E+03              0.    -845.954E+03
           29147    -475.055E+03    -245.575E+03              0.    -846.867E+03
           29148    -457.992E+03    -258.219E+03              0.    -847.605E+03
           29149    -440.075E+03    -271.541E+03              0.    -848.151E+03
           29150    -421.271E+03    -285.560E+03              0.    -848.492E+03
           29151    -401.547E+03    -300.298E+03              0.    -848.613E+03
           29152    -380.866E+03    -315.776E+03              0.    -848.497E+03
           29153    -359.191E+03    -332.014E+03              0.    -848.130E+03
           29154    -336.486E+03    -349.037E+03              0.    -847.494E+03
           29155    -312.708E+03    -366.866E+03              0.    -846.574E+03
           29156    -287.819E+03    -385.527E+03              0.    -845.352E+03
           29157    -261.774E+03    -405.042E+03              0.    -843.810E+03
           29158    -234.530E+03    -425.439E+03              0.    -841.932E+03
           29159    -206.040E+03    -446.742E+03              0.    -839.697E+03
           29160    -176.257E+03    -468.979E+03              0.    -837.088E+03
           29161    -145.131E+03    -492.177E+03              0.    -834.086E+03
           29162    -112.611E+03    -516.365E+03              0.    -830.670E+03
           29163    -78.6447E+03    -541.571E+03              0.    -826.819E+03
           29164    -43.1759E+03    -567.827E+03              0.    -822.515E+03
           29165    -6.14769E+03    -595.162E+03              0.    -817.734E+03
           29166     32.4990E+03    -623.609E+03              0.    -812.455E+03
           29167     72.8256E+03    -653.200E+03              0.    -806.657E+03
           29168     114.896E+03    -683.969E+03              0.    -800.314E+03
           29169     158.775E+03    -715.949E+03              0.    -793.406E+03
           29170     204.532E+03    -749.177E+03              0.    -785.906E+03
           29171     252.238E+03    -783.688E+03              0.    -777.791E+03
           29172     301.965E+03    -819.519E+03              0.    -769.035E+03
           29173     353.790E+03    -856.708E+03              0.    -759.613E+03
           29174     407.792E+03    -895.294E+03              0.    -749.497E+03
           29175     464.051E+03    -935.317E+03              0.    -738.661E+03
           29176     522.652E+03    -976.818E+03              0.    -727.078E+03
           29177     583.683E+03    -1.01984E+06              0.    -714.717E+03
           29178     647.234E+03    -1.06442E+06              0.    -701.552E+03
           29179     713.399E+03    -1.11061E+06              0.    -687.551E+03
           29180     782.274E+03    -1.15844E+06              0.    -672.685E+03
           29181     853.961E+03    -1.20797E+06              0.    -656.923E+03
           29182     928.563E+03    -1.25925E+06              0.    -640.233E+03
           29183     1.00619E+06    -1.31231E+06              0.    -622.582E+03
           29184     1.08695E+06    -1.36721E+06              0.    -603.937E+03
           29185     1.17095E+06    -1.42399E+06              0.    -584.266E+03
           29186     1.25833E+06    -1.48271E+06              0.    -563.532E+03
           29187     1.34920E+06    -1.54341E+06              0.    -541.702E+03
           29188     1.44368E+06    -1.60615E+06              0.    -518.740E+03
           29189     1.54192E+06    -1.67098E+06              0.    -494.609E+03
           29190     1.64405E+06    -1.73795E+06              0.    -469.272E+03
           29191     1.75020E+06    -1.80711E+06              0.    -442.692E+03
           29192     1.86053E+06    -1.87852E+06              0.    -414.829E+03
           29193     1.97519E+06    -1.95224E+06              0.    -385.645E+03
           29194     2.09433E+06    -2.02831E+06              0.    -355.101E+03
           29195     2.21811E+06    -2.10680E+06              0.    -323.156E+03
           29196     2.34671E+06    -2.18775E+06              0.    -289.769E+03
           29197     2.48028E+06    -2.27123E+06              0.    -254.899E+03
           29198     2.61902E+06    -2.35730E+06              0.    -218.503E+03
           29199     2.76310E+06    -2.44599E+06              0.    -180.541E+03
           29200     2.91272E+06    -2.53739E+06              0.    -140.967E+03
           29201     3.06807E+06    -2.63153E+06              0.    -99.7393E+03
           29202     3.22936E+06    -2.72847E+06              0.    -56.8138E+03
           29203     3.39679E+06    -2.82827E+06              0.    -12.1460E+03
           29204     3.57058E+06    -2.93099E+06              0.     34.3085E+03
           29205     3.75095E+06    -3.03667E+06              0.     82.5947E+03
           29206     3.93814E+06    -3.14536E+06              0.     132.758E+03
           29207     4.13238E+06    -3.25713E+06              0.     184.843E+03
           29208     4.33392E+06    -3.37201E+06              0.     238.895E+03
           29209     4.54301E+06    -3.49006E+06              0.     294.961E+03
           29210     4.75991E+06    -3.61131E+06              0.     353.085E+03
           29211     4.98489E+06    -3.73582E+06              0.     413.313E+03
           29212     5.21823E+06    -3.86362E+06              0.     475.690E+03
           29213     5.46022E+06    -3.99474E+06              0.     540.261E+03
           29214     5.71114E+06    -4.12922E+06              0.     607.071E+03
           29215     5.97131E+06    -4.26710E+06              0.     676.163E+03
           29216     6.24102E+06    -4.40838E+06              0.     747.581E+03
           29217     6.52062E+06    -4.55309E+06              0.     821.367E+03
           29218     6.81042E+06    -4.70125E+06              0.     897.565E+03
           29219     7.11076E+06    -4.85286E+06              0.     976.214E+03
           29220     7.42200E+06    -5.00793E+06              0.     1.05735E+06
           29221     7.74450E+06    -5.16643E+06              0.     1.14103E+06
           29222     8.07862E+06    -5.32837E+06              0.     1.22726E+06
           29223     8.42474E+06    -5.49371E+06              0.     1.31610E+06
           29224     8.78325E+06    -5.66241E+06              0.     1.40758E+06
           29225     9.15456E+06    -5.83444E+06              0.     1.50172E+06
           29226     9.53906E+06    -6.00973E+06              0.     1.59856E+06
           29227     9.93718E+06    -6.18822E+06              0.     1.69813E+06
           29228     10.3494E+06    -6.36981E+06              0.     1.80044E+06
           29229     10.7760E+06    -6.55440E+06              0.     1.90552E+06
           29230     11.2176E+06    -6.74188E+06              0.     2.01339E+06
           29231     11.6746E+06    -6.93211E+06              0.     2.12406E+06
           29232     12.1474E+06    -7.12493E+06              0.     2.23754E+06
           29233     12.6366E+06    -7.32017E+06              0.     2.35384E+06
           29234     13.1427E+06    -7.51761E+06              0.     2.47296E+06
           29235     13.6660E+06    -7.71704E+06              0.     2.59490E+06
           29236     14.2072E+06    -7.91819E+06              0.     2.71964E+06
           29237     14.7667E+06    -8.12079E+06              0.     2.84718E+06
           29238     15.3450E+06    -8.32450E+06              0.     2.97749E+06
           29239     15.9427E+06    -8.52898E+06              0.     3.11055E+06
           29240     16.5604E+06    -8.73384E+06              0.     3.24632E+06
           29241     17.1985E+06    -8.93863E+06              0.     3.38476E+06
           29242     17.8576E+06    -9.14290E+06              0.     3.52582E+06
           29243     18.5382E+06    -9.34610E+06              0.     3.66944E+06
           29244     19.2409E+06    -9.54767E+06              0.     3.81556E+06
           29245     19.9662E+06    -9.74698E+06              0.     3.96409E+06
           29246     20.7147E+06    -9.94333E+06              0.     4.11495E+06
           29247     21.4869E+06    -10.1360E+06              0.     4.26804E+06
           29248     22.2833E+06    -10.3241E+06              0.     4.42324E+06
           29249     23.1045E+06    -10.5067E+06              0.     4.58044E+06
           29250     23.9510E+06    -10.6830E+06              0.     4.73948E+06
           29251     24.8233E+06    -10.8518E+06              0.     4.90022E+06
           29252     25.7219E+06    -11.0120E+06              0.     5.06248E+06
           29253     26.6473E+06    -11.1623E+06              0.     5.22609E+06
           29254     27.6000E+06    -11.3014E+06              0.     5.39083E+06
           29255     28.5803E+06    -11.4278E+06              0.     5.55649E+06
           29256     29.5887E+06    -11.5399E+06              0.     5.72282E+06
           29257     30.6255E+06    -11.6361E+06              0.     5.88956E+06
           29258     31.6912E+06    -11.7143E+06              0.     6.05643E+06
           29259     32.7860E+06    -11.7728E+06              0.     6.22311E+06
           29260     33.9101E+06    -11.8092E+06              0.     6.38927E+06
           29261     35.0638E+06    -11.8213E+06              0.     6.55456E+06
           29262     36.2471E+06    -11.8065E+06              0.     6.71858E+06
           29263     37.4603E+06    -11.7622E+06              0.     6.88092E+06
           29264     38.7033E+06    -11.6855E+06              0.     7.04114E+06
           29265     39.9760E+06    -11.5733E+06              0.     7.19875E+06
           29266     41.2782E+06    -11.4221E+06              0.     7.35325E+06
           29267     42.6098E+06    -11.2285E+06              0.     7.50408E+06
           29268     43.9704E+06    -10.9886E+06              0.     7.65068E+06
           29269     45.3596E+06    -10.6983E+06              0.     7.79241E+06
           29270     46.7767E+06    -10.3530E+06              0.     7.92863E+06
           29271     48.2210E+06     -9.9482E+06              0.     8.05863E+06
           29272     49.6918E+06    -9.47873E+06              0.     8.18167E+06
           29273     51.1880E+06    -8.93921E+06              0.     8.29699E+06
           29274     52.7084E+06    -8.32387E+06              0.     8.40373E+06
           29275     54.2518E+06    -7.62653E+06              0.     8.50106E+06
           29276     55.8166E+06    -6.84063E+06              0.     8.58804E+06
           29277     57.4012E+06    -5.95916E+06              0.     8.66373E+06
           29278     59.0036E+06    -4.97464E+06              0.     8.72712E+06
           29279     60.6216E+06    -3.87914E+06              0.     8.77718E+06
           29280     62.2531E+06    -2.66420E+06              0.     8.81283E+06
           29281     63.8953E+06    -1.32082E+06              0.     8.83292E+06
           29282     65.5455E+06     160.541E+03              0.     8.83633E+06
           29283     67.2005E+06     1.79002E+06              0.     8.82183E+06
           29284     68.8570E+06     3.57834E+06              0.     8.78822E+06
           29285     70.5115E+06     5.53694E+06              0.     8.73424E+06
           29286     72.1599E+06     7.67782E+06              0.     8.65863E+06
           29287     73.7981E+06     10.0138E+06              0.     8.56012E+06
           29288     75.4218E+06     12.5583E+06              0.     8.43743E+06
           29289     77.0260E+06     15.3256E+06              0.     8.28929E+06
           29290     78.6059E+06     18.3308E+06              0.     8.11446E+06
           29291     80.1561E+06     21.5896E+06              0.     7.91173E+06
           29292     81.6711E+06     25.1189E+06              0.     7.67994E+06
           29293     83.1451E+06     28.9360E+06              0.     7.41798E+06
           29294     84.5720E+06     33.0595E+06              0.     7.12490E+06
           29295     86.3424E+06     37.6604E+06              0.     7.17662E+06
           29296    -687.674E+03    -308.361E+03              0.    -914.299E+03
           29297    -686.673E+03    -298.931E+03              0.    -912.710E+03
           29298    -689.735E+03    -291.357E+03              0.    -904.154E+03
           29299    -692.784E+03    -283.800E+03              0.    -895.965E+03
           29300    -695.809E+03    -276.273E+03              0.    -888.139E+03
           29301    -698.804E+03    -268.789E+03              0.    -880.671E+03
           29302    -701.761E+03    -261.359E+03              0.    -873.557E+03
           29303    -704.671E+03    -253.995E+03              0.    -866.791E+03
           29304    -707.529E+03    -246.706E+03              0.    -860.369E+03
           29305    -710.327E+03    -239.504E+03              0.    -854.285E+03
           29306    -713.059E+03    -232.397E+03              0.    -848.535E+03
           29307    -715.719E+03    -225.396E+03              0.    -843.112E+03
           29308    -718.298E+03    -218.509E+03              0.    -838.012E+03
           29309    -720.793E+03    -211.744E+03              0.    -833.229E+03
           29310    -723.196E+03    -205.110E+03              0.    -828.758E+03
           29311    -725.501E+03    -198.615E+03              0.    -824.591E+03
           29312    -727.702E+03    -192.267E+03              0.    -820.725E+03
           29313    -729.794E+03    -186.073E+03              0.    -817.153E+03
           29314     -731.77E+03    -180.039E+03              0.    -813.868E+03
           29315    -733.624E+03    -174.175E+03              0.    -810.866E+03
           29316    -735.351E+03    -168.485E+03              0.    -808.140E+03
           29317    -736.944E+03    -162.978E+03              0.    -805.684E+03
           29318    -738.398E+03    -157.659E+03              0.    -803.491E+03
           29319    -739.705E+03    -152.535E+03              0.    -801.556E+03
           29320    -740.860E+03    -147.614E+03              0.    -799.872E+03
           29321    -741.857E+03    -142.900E+03              0.    -798.433E+03
           29322    -742.688E+03    -138.401E+03              0.    -797.232E+03
           29323    -743.347E+03    -134.123E+03              0.    -796.263E+03
           29324    -743.828E+03    -130.073E+03              0.    -795.519E+03
           29325    -744.123E+03    -126.256E+03              0.    -794.993E+03
           29326    -744.225E+03    -122.680E+03              0.    -794.679E+03
           29327    -744.126E+03    -119.350E+03              0.    -794.570E+03
           29328    -743.819E+03    -116.273E+03              0.    -794.659E+03
           29329    -743.296E+03    -113.456E+03              0.    -794.939E+03
           29330    -742.549E+03    -110.906E+03              0.    -795.404E+03
           29331    -741.569E+03    -108.629E+03              0.    -796.045E+03
           29332    -740.347E+03    -106.632E+03              0.    -796.856E+03
           29333    -738.875E+03    -104.923E+03              0.    -797.830E+03
           29334    -737.142E+03    -103.508E+03              0.    -798.959E+03
           29335    -735.139E+03    -102.396E+03              0.    -800.236E+03
           29336    -732.856E+03    -101.593E+03              0.    -801.653E+03
           29337    -730.283E+03    -101.108E+03              0.    -803.203E+03
           29338    -727.407E+03    -100.948E+03              0.    -804.877E+03
           29339    -724.218E+03    -101.123E+03              0.    -806.668E+03
           29340    -720.704E+03    -101.639E+03              0.    -808.569E+03
           29341    -716.853E+03    -102.506E+03              0.    -810.570E+03
           29342    -712.651E+03    -103.734E+03              0.    -812.664E+03
           29343    -708.086E+03    -105.330E+03              0.    -814.842E+03
           29344    -703.143E+03    -107.306E+03              0.    -817.096E+03
           29345    -697.808E+03    -109.670E+03              0.    -819.417E+03
           29346    -692.067E+03    -112.433E+03              0.    -821.797E+03
           29347    -685.902E+03    -115.606E+03              0.    -824.226E+03
           29348    -679.299E+03    -119.199E+03              0.    -826.696E+03
           29349    -672.241E+03    -123.224E+03              0.    -829.196E+03
           29350    -664.709E+03    -127.692E+03              0.    -831.719E+03
           29351    -656.686E+03    -132.615E+03              0.    -834.254E+03
           29352    -648.152E+03    -138.006E+03              0.    -836.791E+03
           29353    -639.088E+03    -143.877E+03              0.    -839.321E+03
           29354    -629.474E+03    -150.242E+03              0.    -841.833E+03
           29355    -619.288E+03    -157.115E+03              0.    -844.317E+03
           29356    -608.508E+03    -164.509E+03              0.    -846.763E+03
           29357    -597.111E+03    -172.440E+03              0.    -849.159E+03
           29358    -585.074E+03    -180.922E+03              0.    -851.494E+03
           29359    -572.370E+03    -189.971E+03              0.    -853.758E+03
           29360    -558.976E+03    -199.603E+03              0.    -855.938E+03
           29361    -544.863E+03    -209.836E+03              0.    -858.023E+03
           29362    -530.004E+03    -220.685E+03              0.    -860.001E+03
           29363    -514.370E+03    -232.170E+03              0.    -861.860E+03
           29364    -497.931E+03    -244.308E+03              0.    -863.586E+03
           29365    -480.656E+03    -257.118E+03              0.    -865.168E+03
           29366    -462.513E+03    -270.620E+03              0.    -866.591E+03
           29367    -443.468E+03    -284.834E+03              0.    -867.843E+03
           29368    -423.486E+03    -299.781E+03              0.    -868.909E+03
           29369    -402.531E+03    -315.482E+03              0.    -869.776E+03
           29370    -380.566E+03    -331.961E+03              0.    -870.428E+03
           29371    -357.551E+03    -349.238E+03              0.    -870.852E+03
           29372    -333.447E+03    -367.339E+03              0.    -871.032E+03
           29373    -308.211E+03    -386.286E+03              0.    -870.952E+03
           29374    -281.801E+03    -406.106E+03              0.    -870.596E+03
           29375    -254.169E+03    -426.825E+03              0.    -869.949E+03
           29376    -225.272E+03    -448.467E+03              0.    -868.993E+03
           29377    -195.058E+03    -471.061E+03              0.    -867.711E+03
           29378    -163.479E+03    -494.636E+03              0.    -866.087E+03
           29379    -130.482E+03    -519.218E+03              0.    -864.101E+03
           29380    -96.0138E+03    -544.840E+03              0.    -861.735E+03
           29381    -60.0174E+03     -571.53E+03              0.    -858.971E+03
           29382    -22.4350E+03    -599.320E+03              0.    -855.790E+03
           29383     16.7933E+03    -628.244E+03              0.    -852.171E+03
           29384     57.7302E+03    -658.332E+03              0.    -848.094E+03
           29385     100.440E+03    -689.620E+03              0.    -843.539E+03
           29386     144.990E+03    -722.143E+03              0.    -838.485E+03
           29387     191.450E+03    -755.936E+03              0.    -832.910E+03
           29388     239.890E+03    -791.035E+03              0.    -826.791E+03
           29389     290.387E+03    -827.479E+03              0.    -820.106E+03
           29390     343.017E+03    -865.306E+03              0.    -812.832E+03
           29391     397.859E+03    -904.555E+03              0.    -804.945E+03
           29392     454.997E+03    -945.267E+03              0.    -796.421E+03
           29393     514.516E+03    -987.483E+03              0.    -787.234E+03
           29394     576.506E+03    -1.03125E+06              0.    -777.360E+03
           29395     641.057E+03    -1.07660E+06              0.    -766.773E+03
           29396     708.265E+03    -1.12358E+06              0.    -755.446E+03
           29397     778.229E+03    -1.17225E+06              0.    -743.351E+03
           29398     851.050E+03    -1.22263E+06              0.    -730.463E+03
           29399     926.834E+03    -1.27479E+06              0.    -716.751E+03
           29400     1.00569E+06    -1.32877E+06              0.    -702.189E+03
           29401     1.08773E+06    -1.38462E+06              0.    -686.745E+03
           29402     1.17307E+06    -1.44238E+06              0.    -670.391E+03
           29403     1.26184E+06    -1.50211E+06              0.    -653.096E+03
           29404     1.35415E+06    -1.56386E+06              0.    -634.829E+03
           29405     1.45014E+06    -1.62768E+06              0.    -615.559E+03
           29406     1.54995E+06    -1.69363E+06              0.    -595.253E+03
           29407     1.65370E+06    -1.76175E+06              0.    -573.879E+03
           29408     1.76154E+06    -1.83210E+06              0.    -551.404E+03
           29409     1.87363E+06    -1.90473E+06              0.    -527.794E+03
           29410     1.99011E+06    -1.97970E+06              0.    -503.015E+03
           29411     2.11114E+06    -2.05707E+06              0.    -477.033E+03
           29412     2.23689E+06    -2.13689E+06              0.    -449.811E+03
           29413     2.36753E+06    -2.21922E+06              0.    -421.316E+03
           29414     2.50322E+06    -2.30411E+06              0.    -391.510E+03
           29415     2.64415E+06    -2.39162E+06              0.    -360.358E+03
           29416     2.79051E+06    -2.48181E+06              0.    -327.822E+03
           29417     2.94249E+06    -2.57473E+06              0.    -293.866E+03
           29418     3.10029E+06    -2.67044E+06              0.    -258.452E+03
           29419     3.26411E+06    -2.76899E+06              0.    -221.543E+03
           29420     3.43417E+06    -2.87045E+06              0.    -183.100E+03
           29421     3.61068E+06    -2.97485E+06              0.    -143.086E+03
           29422     3.79387E+06    -3.08227E+06              0.    -101.463E+03
           29423     3.98397E+06    -3.19274E+06              0.    -58.1914E+03
           29424     4.18123E+06    -3.30632E+06              0.    -13.2339E+03
           29425     4.38589E+06    -3.42307E+06              0.     33.4480E+03
           29426     4.59821E+06    -3.54301E+06              0.     81.8926E+03
           29427     4.81846E+06    -3.66621E+06              0.     132.138E+03
           29428     5.04689E+06    -3.79270E+06              0.     184.221E+03
           29429     5.28381E+06    -3.92252E+06              0.     238.181E+03
           29430     5.52948E+06    -4.05571E+06              0.     294.053E+03
           29431     5.78422E+06    -4.19230E+06              0.     351.875E+03
           29432     6.04832E+06    -4.33231E+06              0.     411.683E+03
           29433     6.32211E+06    -4.47578E+06              0.     473.511E+03
           29434     6.60590E+06    -4.62272E+06              0.     537.393E+03
           29435     6.90004E+06    -4.77313E+06              0.     603.365E+03
           29436     7.20486E+06    -4.92704E+06              0.     671.457E+03
           29437     7.52072E+06    -5.08443E+06              0.     741.702E+03
           29438     7.84797E+06    -5.24530E+06              0.     814.128E+03
           29439     8.18700E+06    -5.40963E+06              0.     888.765E+03
           29440     8.53819E+06    -5.57739E+06              0.     965.638E+03
           29441     8.90192E+06    -5.74854E+06              0.     1.04477E+06
           29442     9.27861E+06    -5.92305E+06              0.     1.12619E+06
           29443     9.66865E+06    -6.10084E+06              0.     1.20992E+06
           29444     10.0725E+06    -6.28184E+06              0.     1.29597E+06
           29445     10.4905E+06    -6.46597E+06              0.     1.38436E+06
           29446     10.9232E+06    -6.65312E+06              0.     1.47510E+06
           29447     11.3711E+06    -6.84316E+06              0.     1.56821E+06
           29448     11.8345E+06    -7.03597E+06              0.     1.66368E+06
           29449     12.3139E+06    -7.23136E+06              0.     1.76153E+06
           29450     12.8099E+06    -7.42918E+06              0.     1.86174E+06
           29451     13.3229E+06    -7.62919E+06              0.     1.96432E+06
           29452     13.8534E+06    -7.83118E+06              0.     2.06926E+06
           29453     14.4019E+06    -8.03488E+06              0.     2.17654E+06
           29454     14.9690E+06    -8.24000E+06              0.     2.28614E+06
           29455     15.5551E+06    -8.44621E+06              0.     2.39804E+06
           29456     16.1608E+06    -8.65315E+06              0.     2.51221E+06
           29457     16.7866E+06    -8.86043E+06              0.     2.62861E+06
           29458     17.4332E+06    -9.06760E+06              0.     2.74719E+06
           29459     18.1009E+06    -9.27418E+06              0.     2.86791E+06
           29460     18.7903E+06    -9.47963E+06              0.     2.99071E+06
           29461     19.5021E+06    -9.68338E+06              0.     3.11552E+06
           29462     20.2367E+06    -9.88477E+06              0.     3.24227E+06
           29463     20.9947E+06    -10.0831E+06              0.     3.37087E+06
           29464     21.7767E+06    -10.2776E+06              0.     3.50123E+06
           29465     22.5831E+06    -10.4675E+06              0.     3.63325E+06
           29466     23.4146E+06    -10.6518E+06              0.     3.76681E+06
           29467     24.2716E+06    -10.8296E+06              0.     3.90178E+06
           29468     25.1546E+06    -10.9997E+06              0.     4.03803E+06
           29469     26.0642E+06    -11.1610E+06              0.     4.17541E+06
           29470     27.0009E+06    -11.3123E+06              0.     4.31374E+06
           29471     27.9650E+06    -11.4521E+06              0.     4.45286E+06
           29472     28.9570E+06    -11.5790E+06              0.     4.59257E+06
           29473     29.9774E+06    -11.6914E+06              0.     4.73266E+06
           29474     31.0265E+06    -11.7875E+06              0.     4.87289E+06
           29475     32.1047E+06    -11.8654E+06              0.     5.01303E+06
           29476     33.2122E+06    -11.9232E+06              0.     5.15281E+06
           29477     34.3493E+06    -11.9587E+06              0.     5.29195E+06
           29478     35.5163E+06    -11.9694E+06              0.     5.43013E+06
           29479     36.7132E+06    -11.9529E+06              0.     5.56704E+06
           29480     37.9401E+06    -11.9064E+06              0.     5.70233E+06
           29481     39.1971E+06    -11.8270E+06              0.     5.83562E+06
           29482     40.4841E+06    -11.7116E+06              0.     5.96651E+06
           29483     41.8009E+06    -11.5568E+06              0.     6.09457E+06
           29484     43.1473E+06    -11.3589E+06              0.     6.21937E+06
           29485      44.523E+06    -11.1141E+06              0.     6.34040E+06
           29486     45.9274E+06    -10.8182E+06              0.     6.45717E+06
           29487     47.3601E+06    -10.4667E+06              0.     6.56914E+06
           29488     48.8202E+06    -10.0549E+06              0.     6.67572E+06
           29489     50.3070E+06    -9.57771E+06              0.     6.77632E+06
           29490     51.8195E+06    -9.02959E+06              0.     6.87030E+06
           29491     53.3564E+06    -8.40475E+06              0.     6.95699E+06
           29492     54.9166E+06    -7.69698E+06              0.     7.03568E+06
           29493     56.4984E+06    -6.89965E+06              0.     7.10564E+06
           29494     58.1002E+06    -6.00569E+06              0.     7.16609E+06
           29495     59.7201E+06    -5.00759E+06              0.     7.21623E+06
           29496     61.3559E+06    -3.89733E+06              0.     7.25522E+06
           29497     63.0054E+06    -2.66640E+06              0.     7.28218E+06
           29498     64.6658E+06    -1.30576E+06              0.     7.29621E+06
           29499     66.3346E+06     194.207E+03              0.     7.29639E+06
           29500     68.0084E+06     1.84369E+06              0.     7.28176E+06
           29501     69.6841E+06     3.65348E+06              0.     7.25133E+06
           29502     71.3580E+06     5.63504E+06              0.     7.20413E+06
           29503     73.0263E+06     7.80046E+06              0.     7.13914E+06
           29504     74.6848E+06     10.1626E+06              0.     7.05534E+06
           29505     76.3292E+06     12.7349E+06              0.     6.95173E+06
           29506     77.9547E+06     15.5317E+06              0.     6.82731E+06
           29507     79.5563E+06     18.5681E+06              0.     6.68110E+06
           29508     81.1290E+06     21.8599E+06              0.     6.51215E+06
           29509     82.6671E+06     25.4238E+06              0.     6.31956E+06
           29510     84.1650E+06     29.2774E+06              0.     6.10250E+06
           29511     85.6166E+06     33.4391E+06              0.     5.86021E+06
           29512     87.4053E+06     38.0814E+06              0.     5.90319E+06
           29513    -708.118E+03    -317.574E+03              0.    -911.114E+03
           29514    -707.066E+03    -307.673E+03              0.    -909.528E+03
           29515    -710.283E+03    -299.725E+03              0.    -900.984E+03
           29516    -713.484E+03    -291.799E+03              0.    -892.815E+03
           29517    -716.660E+03    -283.907E+03              0.    -885.017E+03
           29518    -719.805E+03    -276.064E+03              0.    -877.585E+03
           29519    -722.909E+03    -268.279E+03              0.    -870.514E+03
           29520    -725.967E+03    -260.565E+03              0.    -863.798E+03
           29521    -728.970E+03    -252.932E+03              0.    -857.434E+03
           29522    -731.912E+03    -245.390E+03              0.    -851.415E+03
           29523    -734.785E+03    -237.950E+03              0.    -845.735E+03
           29524    -737.584E+03    -230.620E+03              0.    -840.390E+03
           29525    -740.302E+03    -223.409E+03              0.    -835.373E+03
           29526    -742.932E+03    -216.327E+03              0.    -830.680E+03
           29527    -745.469E+03    -209.382E+03              0.    -826.304E+03
           29528    -747.906E+03    -202.581E+03              0.    -822.240E+03
           29529    -750.238E+03    -195.932E+03              0.    -818.482E+03
           29530    -752.457E+03    -189.444E+03              0.    -815.024E+03
           29531    -754.559E+03    -183.122E+03              0.    -811.859E+03
           29532    -756.536E+03    -176.975E+03              0.    -808.983E+03
           29533    -758.384E+03    -171.009E+03              0.    -806.389E+03
           29534    -760.096E+03    -165.232E+03              0.    -804.071E+03
           29535    -761.665E+03    -159.649E+03              0.    -802.023E+03
           29536    -763.086E+03    -154.268E+03              0.    -800.239E+03
           29537    -764.351E+03    -149.095E+03              0.    -798.712E+03
           29538    -765.456E+03    -144.136E+03              0.    -797.436E+03
           29539    -766.392E+03    -139.399E+03              0.    -796.405E+03
           29540    -767.154E+03    -134.889E+03              0.    -795.612E+03
           29541    -767.734E+03    -130.612E+03              0.    -795.052E+03
           29542    -768.126E+03    -126.577E+03              0.    -794.717E+03
           29543    -768.321E+03    -122.788E+03              0.    -794.602E+03
           29544    -768.313E+03    -119.252E+03              0.    -794.699E+03
           29545    -768.093E+03    -115.976E+03              0.    -795.002E+03
           29546    -767.653E+03    -112.967E+03              0.    -795.504E+03
           29547    -766.986E+03    -110.232E+03              0.    -796.199E+03
           29548    -766.083E+03    -107.777E+03              0.    -797.079E+03
           29549    -764.934E+03    -105.609E+03              0.    -798.139E+03
           29550     -763.53E+03    -103.735E+03              0.    -799.370E+03
           29551    -761.862E+03    -102.164E+03              0.    -800.766E+03
           29552    -759.920E+03    -100.902E+03              0.     -802.32E+03
           29553    -757.694E+03    -99.9571E+03              0.    -804.025E+03
           29554    -755.172E+03    -99.3373E+03              0.    -805.873E+03
           29555    -752.344E+03    -99.0505E+03              0.    -807.857E+03
           29556    -749.198E+03    -99.1051E+03              0.    -809.970E+03
           29557    -745.723E+03    -99.5098E+03              0.    -812.204E+03
           29558    -741.904E+03    -100.273E+03              0.    -814.551E+03
           29559    -737.730E+03    -101.405E+03              0.    -817.005E+03
           29560    -733.187E+03    -102.914E+03              0.    -819.556E+03
           29561    -728.261E+03    -104.810E+03              0.    -822.197E+03
           29562    -722.937E+03    -107.103E+03              0.    -824.921E+03
           29563    -717.201E+03    -109.804E+03              0.    -827.718E+03
           29564    -711.035E+03    -112.923E+03              0.    -830.581E+03
           29565    -704.424E+03    -116.471E+03              0.    -833.501E+03
           29566    -697.351E+03    -120.460E+03              0.    -836.470E+03
           29567    -689.797E+03    -124.901E+03              0.    -839.478E+03
           29568    -681.745E+03    -129.806E+03              0.    -842.517E+03
           29569    -673.175E+03    -135.189E+03              0.    -845.578E+03
           29570    -664.067E+03    -141.062E+03              0.    -848.652E+03
           29571    -654.400E+03    -147.438E+03              0.    -851.729E+03
           29572    -644.153E+03    -154.333E+03              0.    -854.800E+03
           29573    -633.303E+03    -161.758E+03              0.    -857.855E+03
           29574    -621.827E+03    -169.731E+03              0.    -860.884E+03
           29575    -609.701E+03    -178.266E+03              0.    -863.877E+03
           29576    -596.899E+03    -187.379E+03              0.    -866.824E+03
           29577    -583.395E+03    -197.086E+03              0.    -869.714E+03
           29578    -569.163E+03    -207.404E+03              0.    -872.536E+03
           29579    -554.173E+03    -218.352E+03              0.    -875.280E+03
           29580    -538.397E+03    -229.946E+03              0.    -877.933E+03
           29581    -521.804E+03    -242.205E+03              0.    -880.486E+03
           29582    -504.363E+03    -255.149E+03              0.    -882.925E+03
           29583    -486.041E+03    -268.798E+03              0.    -885.239E+03
           29584    -466.803E+03    -283.172E+03              0.    -887.416E+03
           29585    -446.614E+03    -298.292E+03              0.    -889.444E+03
           29586    -425.438E+03    -314.180E+03              0.    -891.308E+03
           29587    -403.237E+03    -330.859E+03              0.    -892.997E+03
           29588    -379.971E+03    -348.351E+03              0.    -894.497E+03
           29589    -355.599E+03    -366.681E+03              0.    -895.794E+03
           29590    -330.078E+03    -385.873E+03              0.    -896.875E+03
           29591    -303.365E+03    -405.953E+03              0.    -897.724E+03
           29592    -275.414E+03    -426.946E+03              0.    -898.327E+03
           29593    -246.178E+03    -448.879E+03              0.    -898.670E+03
           29594    -215.606E+03    -471.781E+03              0.    -898.737E+03
           29595    -183.649E+03    -495.680E+03              0.    -898.511E+03
           29596    -150.253E+03    -520.604E+03              0.    -897.978E+03
           29597    -115.363E+03    -546.584E+03              0.    -897.121E+03
           29598    -78.9234E+03    -573.651E+03              0.    -895.922E+03
           29599    -40.8745E+03    -601.837E+03              0.    -894.365E+03
           29600    -1.15535E+03    -631.174E+03              0.    -892.432E+03
           29601     40.2972E+03    -661.696E+03              0.    -890.105E+03
           29602     83.5487E+03    -693.437E+03              0.    -887.366E+03
           29603     128.667E+03    -726.432E+03              0.    -884.195E+03
           29604     175.723E+03    -760.719E+03              0.    -880.574E+03
           29605     224.788E+03    -796.333E+03              0.    -876.483E+03
           29606     275.940E+03    -833.314E+03              0.    -871.901E+03
           29607     329.254E+03    -871.699E+03              0.    -866.809E+03
           29608     384.814E+03    -911.529E+03              0.    -861.185E+03
           29609     442.702E+03    -952.845E+03              0.    -855.008E+03
           29610     503.006E+03    -995.689E+03              0.    -848.256E+03
           29611     565.814E+03    -1.04010E+06              0.    -840.906E+03
           29612     631.221E+03    -1.08613E+06              0.    -832.937E+03
           29613     699.323E+03    -1.13382E+06              0.    -824.324E+03
           29614     770.219E+03    -1.18321E+06              0.    -815.044E+03
           29615     844.013E+03    -1.23435E+06              0.    -805.072E+03
           29616     920.811E+03    -1.28729E+06              0.    -794.385E+03
           29617     1.00072E+06    -1.34207E+06              0.    -782.957E+03
           29618     1.08387E+06    -1.39875E+06              0.    -770.763E+03
           29619     1.17036E+06    -1.45738E+06              0.    -757.776E+03
           29620     1.26032E+06    -1.51800E+06              0.    -743.971E+03
           29621     1.35387E+06    -1.58067E+06              0.     -729.32E+03
           29622     1.45116E+06    -1.64543E+06              0.    -713.796E+03
           29623     1.55230E+06    -1.71236E+06              0.    -697.372E+03
           29624     1.65745E+06    -1.78148E+06              0.    -680.019E+03
           29625     1.76675E+06    -1.85287E+06              0.    -661.710E+03
           29626     1.88035E+06    -1.92658E+06              0.    -642.414E+03
           29627     1.99840E+06    -2.00265E+06              0.    -622.104E+03
           29628     2.12106E+06    -2.08116E+06              0.    -600.748E+03
           29629     2.24850E+06    -2.16215E+06              0.    -578.318E+03
           29630     2.38088E+06    -2.24567E+06              0.    -554.784E+03
           29631     2.51840E+06    -2.33180E+06              0.    -530.114E+03
           29632     2.66122E+06    -2.42058E+06              0.    -504.279E+03
           29633     2.80953E+06    -2.51207E+06              0.    -477.246E+03
           29634     2.96354E+06    -2.60632E+06              0.    -448.986E+03
           29635     3.12344E+06    -2.70340E+06              0.    -419.466E+03
           29636     3.28944E+06    -2.80336E+06              0.    -388.656E+03
           29637     3.46175E+06    -2.90625E+06              0.    -356.524E+03
           29638     3.64059E+06    -3.01213E+06              0.    -323.038E+03
           29639     3.82620E+06    -3.12105E+06              0.    -288.167E+03
           29640     4.01880E+06    -3.23307E+06              0.    -251.879E+03
           29641     4.21865E+06    -3.34823E+06              0.    -214.144E+03
           29642     4.42599E+06    -3.46658E+06              0.    -174.930E+03
           29643     4.64107E+06    -3.58817E+06              0.    -134.206E+03
           29644     4.86417E+06    -3.71305E+06              0.    -91.9423E+03
           29645     5.09556E+06    -3.84125E+06              0.    -48.1079E+03
           29646     5.33552E+06    -3.97282E+06              0.    -2.67356E+03
           29647     5.58435E+06    -4.10779E+06              0.     44.3900E+03
           29648     5.84234E+06    -4.24619E+06              0.     93.1113E+03
           29649     6.10980E+06    -4.38805E+06              0.     143.518E+03
           29650     6.38705E+06    -4.53339E+06              0.     195.637E+03
           29651     6.67442E+06    -4.68223E+06              0.     249.495E+03
           29652     6.97224E+06    -4.83457E+06              0.     305.115E+03
           29653     7.28086E+06    -4.99044E+06              0.     362.524E+03
           29654     7.60064E+06    -5.14981E+06              0.     421.742E+03
           29655     7.93193E+06    -5.31269E+06              0.     482.791E+03
           29656     8.27512E+06    -5.47905E+06              0.     545.691E+03
           29657     8.63059E+06    -5.64886E+06              0.     610.459E+03
           29658     8.99873E+06    -5.82209E+06              0.     677.113E+03
           29659     9.37996E+06    -5.99869E+06              0.     745.665E+03
           29660     9.77468E+06    -6.17858E+06              0.     816.129E+03
           29661     10.1833E+06    -6.36170E+06              0.     888.513E+03
           29662     10.6063E+06    -6.54796E+06              0.     962.826E+03
           29663     11.0441E+06    -6.73724E+06              0.     1.03907E+06
           29664     11.4971E+06    -6.92943E+06              0.     1.11725E+06
           29665     11.9659E+06    -7.12437E+06              0.     1.19737E+06
           29666     12.4509E+06    -7.32190E+06              0.     1.27941E+06
           29667     12.9525E+06    -7.52184E+06              0.     1.36337E+06
           29668     13.4713E+06    -7.72398E+06              0.     1.44924E+06
           29669     14.0078E+06    -7.92807E+06              0.     1.53701E+06
           29670     14.5625E+06    -8.13385E+06              0.     1.62665E+06
           29671     15.1358E+06    -8.34102E+06              0.     1.71814E+06
           29672     15.7284E+06    -8.54926E+06              0.     1.81144E+06
           29673     16.3407E+06    -8.75819E+06              0.     1.90654E+06
           29674     16.9734E+06    -8.96742E+06              0.     2.00338E+06
           29675     17.6268E+06    -9.17648E+06              0.     2.10192E+06
           29676     18.3017E+06    -9.38490E+06              0.     2.20210E+06
           29677     18.9984E+06    -9.59214E+06              0.     2.30388E+06
           29678     19.7177E+06    -9.79758E+06              0.     2.40719E+06
           29679     20.4599E+06    -10.0006E+06              0.     2.51195E+06
           29680     21.2258E+06    -10.2005E+06              0.     2.61809E+06
           29681     22.0158E+06    -10.3964E+06              0.     2.72552E+06
           29682     22.8304E+06    -10.5876E+06              0.     2.83415E+06
           29683     23.6702E+06    -10.7732E+06              0.     2.94387E+06
           29684     24.5358E+06    -10.9520E+06              0.     3.05457E+06
           29685     25.4276E+06    -11.1230E+06              0.     3.16612E+06
           29686     26.3461E+06    -11.2852E+06              0.     3.27840E+06
           29687     27.2918E+06    -11.4370E+06              0.     3.39126E+06
           29688     28.2653E+06    -11.5773E+06              0.     3.50455E+06
           29689     29.2668E+06    -11.7044E+06              0.     3.61810E+06
           29690     30.2969E+06    -11.8168E+06              0.     3.73173E+06
           29691     31.3559E+06    -11.9127E+06              0.     3.84525E+06
           29692     32.4441E+06    -11.9902E+06              0.     3.95846E+06
           29693     33.5619E+06    -12.0472E+06              0.     4.07113E+06
           29694     34.7096E+06    -12.0816E+06              0.     4.18304E+06
           29695     35.8872E+06    -12.0910E+06              0.     4.29393E+06
           29696     37.0949E+06    -12.0728E+06              0.     4.40354E+06
           29697     38.3329E+06    -12.0243E+06              0.     4.51158E+06
           29698     39.6012E+06    -11.9426E+06              0.     4.61775E+06
           29699     40.8996E+06    -11.8244E+06              0.     4.72174E+06
           29700     42.2281E+06    -11.6663E+06              0.     4.82320E+06
           29701     43.5863E+06    -11.4647E+06              0.     4.92178E+06
           29702     44.9740E+06    -11.2157E+06              0.     5.01710E+06
           29703     46.3906E+06    -10.9150E+06              0.     5.10875E+06
           29704     47.8357E+06    -10.5583E+06              0.     5.19631E+06
           29705     49.3084E+06    -10.1406E+06              0.     5.27934E+06
           29706     50.8080E+06    -9.65683E+06              0.     5.35738E+06
           29707     52.3334E+06    -9.10151E+06              0.     5.42991E+06
           29708     53.8835E+06    -8.46877E+06              0.     5.49643E+06
           29709     55.4570E+06    -7.75235E+06              0.     5.55641E+06
           29710     57.0524E+06    -6.94559E+06              0.     5.60926E+06
           29711     58.6679E+06    -6.04135E+06              0.     5.65441E+06
           29712     60.3017E+06    -5.03210E+06              0.     5.69123E+06
           29713     61.9516E+06    -3.90977E+06              0.     5.71909E+06
           29714     63.6154E+06    -2.66581E+06              0.     5.73734E+06
           29715     65.2904E+06    -1.29112E+06              0.     5.74528E+06
           29716     66.9739E+06     223.952E+03              0.     5.74222E+06
           29717     68.6628E+06     1.88964E+06              0.     5.72744E+06
           29718     70.3537E+06     3.71677E+06              0.     5.70020E+06
           29719     72.0432E+06     5.71686E+06              0.     5.65978E+06
           29720     73.7273E+06     7.90203E+06              0.      5.6054E+06
           29721      75.402E+06     10.2852E+06              0.     5.53632E+06
           29722     77.0629E+06     12.8798E+06              0.     5.45180E+06
           29723     78.7053E+06     15.7002E+06              0.     5.35108E+06
           29724     80.3244E+06     18.7616E+06              0.     5.23345E+06
           29725     81.9150E+06     22.0797E+06              0.     5.09822E+06
           29726     83.4718E+06     25.6714E+06              0.     4.94473E+06
           29727     84.9892E+06     29.5541E+06              0.     4.77237E+06
           29728     86.4616E+06     33.7463E+06              0.     4.58060E+06
           29729     88.2656E+06     38.4222E+06              0.     4.61367E+06
           29730    -728.569E+03    -326.790E+03              0.    -907.772E+03
           29731    -727.467E+03    -316.408E+03              0.    -906.191E+03
           29732    -730.840E+03    -308.077E+03              0.    -897.659E+03
           29733    -734.197E+03    -299.773E+03              0.    -889.511E+03
           29734    -737.528E+03    -291.509E+03              0.    -881.742E+03
           29735    -740.826E+03    -283.298E+03              0.    -874.347E+03
           29736    -744.082E+03    -275.151E+03              0.    -867.321E+03
           29737    -747.290E+03    -267.080E+03              0.    -860.658E+03
           29738    -750.442E+03    -259.095E+03              0.    -854.353E+03
           29739    -753.531E+03    -251.208E+03              0.    -848.399E+03
           29740    -756.550E+03    -243.427E+03              0.    -842.792E+03
           29741    -759.492E+03    -235.762E+03              0.    -837.526E+03
           29742    -762.352E+03    -228.223E+03              0.    -832.595E+03
           29743    -765.123E+03    -220.817E+03              0.    -827.994E+03
           29744    -767.798E+03    -213.553E+03              0.    -823.716E+03
           29745    -770.371E+03    -206.441E+03              0.    -819.756E+03
           29746    -772.837E+03    -199.486E+03              0.    -816.108E+03
           29747    -775.189E+03    -192.697E+03              0.    -812.766E+03
           29748    -777.421E+03    -186.081E+03              0.    -809.724E+03
           29749    -779.527E+03    -179.646E+03              0.    -806.976E+03
           29750    -781.501E+03    -173.398E+03              0.    -804.516E+03
           29751    -783.336E+03    -167.344E+03              0.    -802.338E+03
           29752    -785.027E+03    -161.491E+03              0.    -800.437E+03
           29753    -786.568E+03    -155.846E+03              0.    -798.805E+03
           29754    -787.951E+03    -150.415E+03              0.    -797.438E+03
           29755     -789.17E+03    -145.205E+03              0.    -796.328E+03
           29756    -790.219E+03    -140.222E+03              0.    -795.470E+03
           29757    -791.091E+03    -135.472E+03              0.    -794.857E+03
           29758    -791.778E+03    -130.963E+03              0.    -794.483E+03
           29759    -792.274E+03    -126.701E+03              0.    -794.342E+03
           29760    -792.571E+03    -122.692E+03              0.    -794.428E+03
           29761    -792.662E+03    -118.943E+03              0.    -794.734E+03
           29762    -792.538E+03    -115.460E+03              0.    -795.254E+03
           29763    -792.193E+03    -112.251E+03              0.    -795.982E+03
           29764    -791.616E+03    -109.322E+03              0.    -796.910E+03
           29765    -790.799E+03    -106.679E+03              0.    -798.033E+03
           29766    -789.734E+03    -104.331E+03              0.    -799.344E+03
           29767    -788.411E+03    -102.284E+03              0.    -800.836E+03
           29768    -786.821E+03    -100.546E+03              0.    -802.503E+03
           29769    -784.953E+03    -99.1240E+03              0.    -804.338E+03
           29770    -782.796E+03    -98.0262E+03              0.    -806.335E+03
           29771    -780.341E+03    -97.2605E+03              0.    -808.485E+03
           29772    -777.576E+03    -96.8350E+03              0.    -810.784E+03
           29773    -774.488E+03    -96.7582E+03              0.    -813.222E+03
           29774    -771.067E+03    -97.0388E+03              0.    -815.795E+03
           29775    -767.298E+03    -97.6856E+03              0.    -818.493E+03
           29776    -763.169E+03    -98.7079E+03              0.    -821.311E+03
           29777    -758.667E+03    -100.115E+03              0.    -824.241E+03
           29778    -753.777E+03    -101.917E+03              0.    -827.275E+03
           29779    -748.484E+03    -104.124E+03              0.    -830.406E+03
           29780    -742.773E+03    -106.747E+03              0.    -833.627E+03
           29781    -736.628E+03    -109.795E+03              0.    -836.929E+03
           29782    -730.032E+03    -113.281E+03              0.    -840.306E+03
           29783    -722.968E+03    -117.216E+03              0.    -843.748E+03
           29784    -715.417E+03    -121.612E+03              0.    -847.249E+03
           29785    -707.362E+03    -126.481E+03              0.    -850.799E+03
           29786    -698.782E+03    -131.835E+03              0.    -854.391E+03
           29787    -689.658E+03    -137.689E+03              0.    -858.017E+03
           29788    -679.967E+03    -144.055E+03              0.    -861.667E+03
           29789    -669.690E+03    -150.948E+03              0.    -865.332E+03
           29790    -658.802E+03    -158.382E+03              0.    -869.005E+03
           29791    -647.280E+03    -166.373E+03              0.    -872.676E+03
           29792    -635.099E+03    -174.935E+03              0.    -876.336E+03
           29793    -622.235E+03    -184.086E+03              0.    -879.975E+03
           29794    -608.660E+03    -193.840E+03              0.    -883.584E+03
           29795    -594.346E+03    -204.217E+03              0.    -887.153E+03
           29796    -579.267E+03    -215.233E+03              0.    -890.673E+03
           29797    -563.391E+03    -226.906E+03              0.    -894.132E+03
           29798    -546.688E+03    -239.255E+03              0.    -897.522E+03
           29799    -529.126E+03    -252.301E+03              0.    -900.830E+03
           29800    -510.672E+03    -266.063E+03              0.    -904.048E+03
           29801    -491.290E+03    -280.561E+03              0.    -907.163E+03
           29802    -470.947E+03    -295.818E+03              0.    -910.164E+03
           29803    -449.603E+03    -311.854E+03              0.    -913.040E+03
           29804    -427.221E+03    -328.694E+03              0.    -915.779E+03
           29805    -403.761E+03    -346.361E+03              0.    -918.370E+03
           29806    -379.182E+03    -364.877E+03              0.    -920.800E+03
           29807    -353.439E+03    -384.270E+03              0.    -923.057E+03
           29808    -326.489E+03    -404.563E+03              0.    -925.127E+03
           29809    -298.286E+03    -425.784E+03              0.    -926.999E+03
           29810    -268.780E+03    -447.960E+03              0.    -928.658E+03
           29811    -237.924E+03    -471.118E+03              0.    -930.091E+03
           29812    -205.664E+03    -495.288E+03              0.    -931.284E+03
           29813    -171.948E+03    -520.499E+03              0.    -932.223E+03
           29814    -136.720E+03    -546.781E+03              0.    -932.894E+03
           29815    -99.9220E+03    -574.167E+03              0.    -933.282E+03
           29816    -61.4952E+03    -602.687E+03              0.    -933.371E+03
           29817    -21.3776E+03    -632.375E+03              0.    -933.146E+03
           29818     20.4948E+03    -663.265E+03              0.    -932.592E+03
           29819     64.1882E+03    -695.392E+03              0.    -931.692E+03
           29820     109.771E+03    -728.791E+03              0.    -930.431E+03
           29821     157.315E+03    -763.499E+03              0.    -928.790E+03
           29822     206.894E+03    -799.553E+03              0.    -926.753E+03
           29823     258.583E+03    -836.992E+03              0.    -924.303E+03
           29824     312.463E+03    -875.855E+03              0.    -921.421E+03
           29825     368.614E+03    -916.183E+03              0.    -918.090E+03
           29826     427.122E+03    -958.017E+03              0.    -914.291E+03
           29827     488.074E+03    -1.00140E+06              0.    -910.005E+03
           29828     551.562E+03    -1.04637E+06              0.    -905.213E+03
           29829     617.678E+03    -1.09298E+06              0.    -899.895E+03
           29830     686.521E+03    -1.14127E+06              0.    -894.031E+03
           29831     758.192E+03    -1.19128E+06              0.    -887.602E+03
           29832     832.794E+03    -1.24307E+06              0.    -880.585E+03
           29833     910.436E+03    -1.29668E+06              0.    -872.961E+03
           29834     991.229E+03    -1.35216E+06              0.    -864.708E+03
           29835     1.07529E+06    -1.40955E+06              0.    -855.804E+03
           29836     1.16273E+06    -1.46892E+06              0.    -846.227E+03
           29837     1.25369E+06    -1.53030E+06              0.    -835.955E+03
           29838     1.34828E+06    -1.59376E+06              0.    -824.966E+03
           29839     1.44665E+06    -1.65935E+06              0.    -813.235E+03
           29840     1.54892E+06    -1.72711E+06              0.    -800.741E+03
           29841     1.65523E+06    -1.79710E+06              0.    -787.459E+03
           29842     1.76575E+06    -1.86939E+06              0.    -773.366E+03
           29843     1.88060E+06    -1.94401E+06              0.    -758.437E+03
           29844     1.99996E+06    -2.02103E+06              0.    -742.649E+03
           29845     2.12398E+06    -2.10051E+06              0.    -725.976E+03
           29846     2.25283E+06    -2.18250E+06              0.    -708.395E+03
           29847     2.38668E+06    -2.26705E+06              0.    -689.880E+03
           29848     2.52572E+06    -2.35423E+06              0.    -670.407E+03
           29849     2.67011E+06    -2.44409E+06              0.    -649.951E+03
           29850     2.82006E+06    -2.53669E+06              0.    -628.486E+03
           29851     2.97576E+06    -2.63209E+06              0.    -605.986E+03
           29852     3.13741E+06    -2.73033E+06              0.    -582.428E+03
           29853     3.30522E+06    -2.83149E+06              0.    -557.787E+03
           29854     3.47941E+06    -2.93560E+06              0.    -532.035E+03
           29855     3.66020E+06    -3.04273E+06              0.    -505.150E+03
           29856     3.84781E+06    -3.15293E+06              0.    -477.107E+03
           29857     4.04250E+06    -3.26626E+06              0.    -447.880E+03
           29858     4.24449E+06    -3.38275E+06              0.    -417.445E+03
           29859     4.45405E+06    -3.50247E+06              0.    -385.780E+03
           29860     4.67143E+06    -3.62545E+06              0.    -352.859E+03
           29861     4.89690E+06    -3.75174E+06              0.    -318.661E+03
           29862     5.13073E+06    -3.88138E+06              0.    -283.162E+03
           29863     5.37322E+06    -4.01442E+06              0.    -246.341E+03
           29864     5.62465E+06    -4.15087E+06              0.    -208.177E+03
           29865     5.88533E+06    -4.29079E+06              0.    -168.649E+03
           29866     6.15556E+06    -4.43419E+06              0.    -127.737E+03
           29867     6.43566E+06    -4.58109E+06              0.    -85.4233E+03
           29868     6.72597E+06    -4.73151E+06              0.    -41.6897E+03
           29869     7.02682E+06    -4.88546E+06              0.     3.48016E+03
           29870     7.33857E+06    -5.04294E+06              0.     50.1017E+03
           29871     7.66155E+06    -5.20395E+06              0.     98.1887E+03
           29872     7.99615E+06    -5.36849E+06              0.     147.754E+03
           29873     8.34275E+06    -5.53652E+06              0.     198.808E+03
           29874     8.70171E+06    -5.70801E+06              0.     251.360E+03
           29875     9.07345E+06    -5.88293E+06              0.     305.419E+03
           29876     9.45837E+06    -6.06123E+06              0.     360.988E+03
           29877     9.85689E+06    -6.24283E+06              0.     418.072E+03
           29878     10.2694E+06    -6.42767E+06              0.     476.673E+03
           29879     10.6964E+06    -6.61564E+06              0.     536.788E+03
           29880     11.1383E+06    -6.80663E+06              0.     598.415E+03
           29881     11.5956E+06    -7.00053E+06              0.     661.547E+03
           29882     12.0687E+06    -7.19717E+06              0.     726.175E+03
           29883     12.5581E+06    -7.39640E+06              0.     792.287E+03
           29884     13.0643E+06    -7.59802E+06              0.     859.867E+03
           29885     13.5877E+06    -7.80181E+06              0.     928.899E+03
           29886     14.1290E+06    -8.00755E+06              0.     999.359E+03
           29887     14.6886E+06    -8.21494E+06              0.     1.07122E+06
           29888     15.2669E+06    -8.42371E+06              0.     1.14446E+06
           29889     15.8646E+06    -8.63349E+06              0.     1.21903E+06
           29890     16.4822E+06    -8.84394E+06              0.     1.29491E+06
           29891     17.1202E+06    -9.05464E+06              0.     1.37205E+06
           29892     17.7791E+06    -9.26512E+06              0.     1.45040E+06
           29893     18.4596E+06    -9.47491E+06              0.     1.52991E+06
           29894     19.1621E+06    -9.68344E+06              0.     1.61052E+06
           29895     19.8872E+06    -9.89013E+06              0.     1.69218E+06
           29896     20.6354E+06    -10.0943E+06              0.     1.77481E+06
           29897     21.4074E+06    -10.2953E+06              0.     1.85834E+06
           29898     22.2036E+06    -10.4922E+06              0.     1.94269E+06
           29899     23.0246E+06    -10.6843E+06              0.     2.02778E+06
           29900     23.8709E+06    -10.8706E+06              0.     2.11351E+06
           29901     24.7430E+06    -11.0501E+06              0.     2.19978E+06
           29902     25.6416E+06    -11.2217E+06              0.     2.28649E+06
           29903     26.5670E+06    -11.3843E+06              0.     2.37352E+06
           29904     27.5197E+06    -11.5364E+06              0.     2.46075E+06
           29905     28.5003E+06    -11.6768E+06              0.     2.54806E+06
           29906     29.5091E+06    -11.8039E+06              0.     2.63530E+06
           29907     30.5466E+06    -11.9160E+06              0.     2.72232E+06
           29908     31.6131E+06    -12.0115E+06              0.     2.80898E+06
           29909     32.7090E+06    -12.0884E+06              0.     2.89511E+06
           29910     33.8346E+06    -12.1446E+06              0.     2.98054E+06
           29911     34.9901E+06    -12.1780E+06              0.     3.06507E+06
           29912     36.1758E+06    -12.1861E+06              0.     3.14853E+06
           29913     37.3917E+06    -12.1663E+06              0.     3.23069E+06
           29914     38.6381E+06    -12.1160E+06              0.     3.31135E+06
           29915     39.9148E+06    -12.0321E+06              0.     3.39028E+06
           29916     41.2218E+06    -11.9114E+06              0.     3.46723E+06
           29917     42.5589E+06    -11.7505E+06              0.     3.54197E+06
           29918     43.9260E+06    -11.5458E+06              0.     3.61421E+06
           29919     45.3226E+06    -11.2932E+06              0.     3.68369E+06
           29920     46.7484E+06    -10.9887E+06              0.     3.75012E+06
           29921     48.2027E+06    -10.6276E+06              0.     3.81318E+06
           29922     49.6848E+06    -10.2051E+06              0.     3.87256E+06
           29923     51.1938E+06    -9.71607E+06              0.     3.92793E+06
           29924     52.7289E+06    -9.15499E+06              0.     3.97894E+06
           29925     54.2888E+06    -8.51596E+06              0.     4.02522E+06
           29926     55.8721E+06    -7.79269E+06              0.     4.06641E+06
           29927     57.4775E+06    -6.97850E+06              0.     4.10210E+06
           29928     59.1032E+06    -6.06623E+06              0.     4.13189E+06
           29929     60.7473E+06    -5.04828E+06              0.     4.15535E+06
           29930     62.4077E+06    -3.91660E+06              0.     4.17206E+06
           29931     64.0821E+06    -2.66256E+06              0.     4.18156E+06
           29932     65.7679E+06    -1.27708E+06              0.     4.18339E+06
           29933     67.4624E+06     249.569E+03              0.     4.17708E+06
           29934     69.1624E+06     1.92763E+06              0.     4.16215E+06
           29935     70.8646E+06     3.76796E+06              0.     4.13810E+06
           29936     72.5656E+06     5.78211E+06              0.     4.10445E+06
           29937     74.2616E+06     7.98223E+06              0.     4.06069E+06
           29938     75.9483E+06     10.3812E+06              0.     4.00632E+06
           29939     77.6215E+06     12.9926E+06              0.     3.94087E+06
           29940     79.2766E+06     15.8308E+06              0.     3.86383E+06
           29941     80.9087E+06     18.9109E+06              0.     3.77475E+06
           29942     82.5128E+06     22.2487E+06              0.     3.67318E+06
           29943     84.0834E+06     25.8610E+06              0.     3.55869E+06
           29944     85.6151E+06     29.7654E+06              0.     3.43090E+06
           29945     87.1020E+06     33.9801E+06              0.     3.28945E+06
           29946     88.9165E+06     38.6803E+06              0.     3.31191E+06
           29947    -749.025E+03    -336.010E+03              0.    -904.270E+03
           29948    -747.870E+03    -325.134E+03              0.    -902.694E+03
           29949    -751.405E+03    -316.412E+03              0.    -894.175E+03
           29950    -754.921E+03    -307.722E+03              0.     -886.05E+03
           29951    -758.411E+03    -299.077E+03              0.    -878.312E+03
           29952    -761.865E+03    -290.491E+03              0.    -870.956E+03
           29953    -765.277E+03    -281.974E+03              0.    -863.976E+03
           29954    -768.639E+03    -273.539E+03              0.    -857.366E+03
           29955    -771.943E+03    -265.196E+03              0.    -851.122E+03
           29956    -775.183E+03    -256.956E+03              0.    -845.236E+03
           29957    -778.351E+03    -248.828E+03              0.    -839.703E+03
           29958    -781.441E+03    -240.821E+03              0.    -834.518E+03
           29959    -784.447E+03    -232.946E+03              0.    -829.674E+03
           29960    -787.361E+03    -225.211E+03              0.    -825.166E+03
           29961    -790.179E+03    -217.624E+03              0.    -820.988E+03
           29962    -792.893E+03    -210.193E+03              0.    -817.134E+03
           29963    -795.498E+03    -202.926E+03              0.    -813.598E+03
           29964    -797.987E+03    -195.830E+03              0.    -810.374E+03
           29965    -800.355E+03    -188.914E+03              0.    -807.456E+03
           29966    -802.594E+03    -182.184E+03              0.    -804.838E+03
           29967    -804.699E+03    -175.648E+03              0.    -802.515E+03
           29968    -806.665E+03    -169.311E+03              0.    -800.480E+03
           29969    -808.484E+03    -163.182E+03              0.    -798.727E+03
           29970    -810.149E+03    -157.266E+03              0.    -797.251E+03
           29971    -811.656E+03    -151.571E+03              0.    -796.045E+03
           29972    -812.997E+03    -146.103E+03              0.    -795.103E+03
           29973    -814.166E+03    -140.867E+03              0.    -794.420E+03
           29974    -815.155E+03    -135.872E+03              0.    -793.989E+03
           29975    -815.957E+03    -131.123E+03              0.    -793.804E+03
           29976    -816.566E+03    -126.627E+03              0.    -793.860E+03
           29977    -816.974E+03    -122.391E+03              0.    -794.149E+03
           29978    -817.173E+03    -118.420E+03              0.    -794.667E+03
           29979    -817.155E+03    -114.722E+03              0.    -795.407E+03
           29980    -816.913E+03    -111.304E+03              0.    -796.362E+03
           29981    -816.436E+03    -108.172E+03              0.    -797.527E+03
           29982    -815.718E+03    -105.334E+03              0.    -798.895E+03
           29983    -814.749E+03    -102.796E+03              0.    -800.461E+03
           29984    -813.518E+03    -100.566E+03              0.    -802.217E+03
           29985    -812.018E+03    -98.6505E+03              0.    -804.158E+03
           29986    -810.236E+03    -97.0583E+03              0.    -806.278E+03
           29987    -808.164E+03    -95.7968E+03              0.    -808.569E+03
           29988    -805.789E+03    -94.8740E+03              0.    -811.026E+03
           29989    -803.101E+03    -94.2981E+03              0.    -813.642E+03
           29990    -800.088E+03    -94.0776E+03              0.    -816.410E+03
           29991    -796.737E+03    -94.2214E+03              0.    -819.324E+03
           29992    -793.035E+03    -94.7382E+03              0.    -822.378E+03
           29993    -788.970E+03    -95.6376E+03              0.    -825.565E+03
           29994    -784.528E+03    -96.9290E+03              0.    -828.877E+03
           29995    -779.693E+03    -98.6223E+03              0.    -832.308E+03
           29996    -774.451E+03    -100.728E+03              0.    -835.852E+03
           29997    -768.787E+03    -103.256E+03              0.    -839.501E+03
           29998    -762.685E+03    -106.218E+03              0.    -843.248E+03
           29999    -756.127E+03    -109.624E+03              0.    -847.086E+03
           30000    -749.096E+03    -113.487E+03              0.    -851.008E+03
           30001    -741.573E+03    -117.819E+03              0.    -855.006E+03
           30002    -733.541E+03    -122.631E+03              0.    -859.073E+03
           30003    -724.979E+03    -127.938E+03              0.    -863.203E+03
           30004    -715.866E+03    -133.751E+03              0.    -867.385E+03
           30005    -706.182E+03    -140.085E+03              0.    -871.615E+03
           30006    -695.905E+03    -146.954E+03              0.    -875.882E+03
           30007    -685.011E+03    -154.373E+03              0.    -880.180E+03
           30008    -673.476E+03    -162.357E+03              0.    -884.500E+03
           30009    -661.276E+03    -170.922E+03              0.    -888.833E+03
           30010    -648.385E+03    -180.083E+03              0.    -893.173E+03
           30011    -634.777E+03    -189.858E+03              0.    -897.509E+03
           30012    -620.423E+03    -200.264E+03              0.    -901.834E+03
           30013    -605.294E+03    -211.318E+03              0.    -906.138E+03
           30014    -589.361E+03    -223.040E+03              0.    -910.413E+03
           30015    -572.592E+03    -235.448E+03              0.    -914.649E+03
           30016    -554.955E+03    -248.562E+03              0.    -918.837E+03
           30017    -536.417E+03    -262.402E+03              0.    -922.968E+03
           30018    -516.942E+03    -276.989E+03              0.    -927.031E+03
           30019    -496.495E+03    -292.345E+03              0.    -931.017E+03
           30020    -475.038E+03    -308.492E+03              0.    -934.917E+03
           30021    -452.532E+03    -325.453E+03              0.    -938.718E+03
           30022    -428.937E+03    -343.252E+03              0.    -942.412E+03
           30023    -404.210E+03    -361.913E+03              0.    -945.988E+03
           30024    -378.309E+03    -381.461E+03              0.    -949.434E+03
           30025    -351.188E+03    -401.922E+03              0.    -952.739E+03
           30026    -322.801E+03    -423.323E+03              0.    -955.893E+03
           30027    -293.098E+03    -445.691E+03              0.    -958.883E+03
           30028    -262.031E+03    -469.055E+03              0.    -961.698E+03
           30029    -229.546E+03    -493.443E+03              0.    -964.325E+03
           30030    -195.589E+03    -518.886E+03              0.    -966.754E+03
           30031    -160.105E+03    -545.413E+03              0.    -968.970E+03
           30032    -123.036E+03    -573.058E+03              0.    -970.962E+03
           30033    -84.3214E+03    -601.851E+03              0.    -972.716E+03
           30034    -43.8987E+03    -631.827E+03              0.    -974.219E+03
           30035    -1.70363E+03    -663.019E+03              0.    -975.457E+03
           30036     42.3308E+03    -695.463E+03              0.    -976.418E+03
           30037     88.2739E+03    -729.194E+03              0.    -977.086E+03
           30038     136.197E+03    -764.250E+03              0.    -977.447E+03
           30039     186.176E+03    -800.669E+03              0.    -977.487E+03
           30040     238.286E+03    -838.488E+03              0.    -977.192E+03
           30041     292.608E+03    -877.748E+03              0.    -976.545E+03
           30042     349.224E+03     -918.49E+03              0.    -975.531E+03
           30043     408.219E+03    -960.754E+03              0.    -974.136E+03
           30044     469.683E+03    -1.00458E+06              0.    -972.343E+03
           30045     533.707E+03    -1.05002E+06              0.    -970.136E+03
           30046     600.385E+03    -1.09712E+06              0.    -967.498E+03
           30047     669.816E+03    -1.14591E+06              0.    -964.413E+03
           30048     742.102E+03    -1.19644E+06              0.    -960.864E+03
           30049     817.347E+03    -1.24877E+06              0.    -956.834E+03
           30050     895.660E+03    -1.30294E+06              0.    -952.305E+03
           30051     977.154E+03    -1.35899E+06              0.    -947.260E+03
           30052     1.06195E+06    -1.41699E+06              0.    -941.680E+03
           30053     1.15015E+06    -1.47697E+06              0.    -935.549E+03
           30054     1.24191E+06    -1.53900E+06              0.    -928.846E+03
           30055     1.33733E+06    -1.60312E+06              0.    -921.555E+03
           30056     1.43655E+06    -1.66938E+06              0.    -913.657E+03
           30057     1.53972E+06    -1.73784E+06              0.    -905.132E+03
           30058     1.64697E+06    -1.80856E+06              0.    -895.961E+03
           30059     1.75846E+06    -1.88159E+06              0.    -886.126E+03
           30060     1.87432E+06    -1.95698E+06              0.    -875.607E+03
           30061     1.99473E+06    -2.03479E+06              0.    -864.386E+03
           30062     2.11984E+06    -2.11507E+06              0.    -852.442E+03
           30063     2.24982E+06    -2.19789E+06              0.    -839.756E+03
           30064     2.38484E+06    -2.28330E+06              0.    -826.309E+03
           30065     2.52509E+06    -2.37135E+06              0.    -812.082E+03
           30066     2.67075E+06    -2.46211E+06              0.    -797.054E+03
           30067     2.82200E+06    -2.55563E+06              0.    -781.208E+03
           30068     2.97905E+06    -2.65197E+06              0.    -764.523E+03
           30069     3.14210E+06    -2.75118E+06              0.    -746.981E+03
           30070     3.31136E+06    -2.85332E+06              0.    -728.563E+03
           30071     3.48705E+06    -2.95844E+06              0.    -709.250E+03
           30072     3.66939E+06    -3.06660E+06              0.    -689.024E+03
           30073     3.85861E+06    -3.17785E+06              0.    -667.868E+03
           30074     4.05494E+06    -3.29224E+06              0.    -645.762E+03
           30075     4.25865E+06    -3.40982E+06              0.    -622.691E+03
           30076     4.46997E+06    -3.53065E+06              0.    -598.637E+03
           30077     4.68916E+06    -3.65476E+06              0.    -573.585E+03
           30078     4.91651E+06    -3.78220E+06              0.    -547.518E+03
           30079     5.15228E+06    -3.91301E+06              0.    -520.423E+03
           30080     5.39676E+06    -4.04723E+06              0.    -492.284E+03
           30081     5.65025E+06    -4.18489E+06              0.    -463.090E+03
           30082     5.91304E+06    -4.32602E+06              0.    -432.826E+03
           30083     6.18545E+06    -4.47065E+06              0.    -401.482E+03
           30084     6.46779E+06    -4.61880E+06              0.    -369.048E+03
           30085     6.76041E+06    -4.77048E+06              0.    -335.514E+03
           30086     7.06363E+06    -4.92570E+06              0.    -300.871E+03
           30087     7.37781E+06    -5.08446E+06              0.    -265.114E+03
           30088     7.70330E+06    -5.24677E+06              0.    -228.237E+03
           30089     8.04047E+06    -5.41260E+06              0.    -190.237E+03
           30090     8.38970E+06    -5.58193E+06              0.    -151.110E+03
           30091     8.75137E+06    -5.75473E+06              0.    -110.856E+03
           30092     9.12589E+06    -5.93097E+06              0.    -69.4764E+03
           30093     9.51365E+06    -6.11057E+06              0.    -26.9747E+03
           30094     9.91508E+06    -6.29349E+06              0.     16.6446E+03
           30095     10.3306E+06    -6.47963E+06              0.     61.3739E+03
           30096     10.7607E+06    -6.66890E+06              0.     107.204E+03
           30097     11.2057E+06    -6.86118E+06              0.     154.123E+03
           30098     11.6662E+06    -7.05636E+06              0.     202.117E+03
           30099     12.1425E+06    -7.25427E+06              0.     251.168E+03
           30100     12.6353E+06    -7.45475E+06              0.     301.259E+03
           30101     13.1449E+06    -7.65759E+06              0.     352.365E+03
           30102     13.6719E+06    -7.86260E+06              0.     404.463E+03
           30103     14.2167E+06    -8.06951E+06              0.     457.524E+03
           30104     14.7799E+06    -8.27806E+06              0.     511.517E+03
           30105     15.3620E+06    -8.48793E+06              0.     566.406E+03
           30106     15.9635E+06    -8.69880E+06              0.     622.156E+03
           30107     16.5849E+06    -8.91029E+06              0.     678.723E+03
           30108     17.2268E+06    -9.12197E+06              0.     736.064E+03
           30109     17.8898E+06    -9.33340E+06              0.     794.129E+03
           30110     18.5743E+06    -9.54408E+06              0.     852.867E+03
           30111     19.2810E+06    -9.75344E+06              0.     912.220E+03
           30112     20.0103E+06    -9.96089E+06              0.     972.130E+03
           30113     20.7628E+06    -10.1658E+06              0.     1.03253E+06
           30114     21.5392E+06    -10.3674E+06              0.     1.09336E+06
           30115     22.3398E+06    -10.5648E+06              0.     1.15453E+06
           30116     23.1653E+06    -10.7574E+06              0.     1.21598E+06
           30117     24.0162E+06    -10.9441E+06              0.     1.27762E+06
           30118     24.8930E+06    -11.1239E+06              0.     1.33937E+06
           30119     25.7963E+06    -11.2956E+06              0.     1.40114E+06
           30120     26.7265E+06    -11.4582E+06              0.     1.46283E+06
           30121     27.6841E+06    -11.6103E+06              0.     1.52434E+06
           30122     28.6696E+06    -11.7505E+06              0.     1.58556E+06
           30123     29.6835E+06    -11.8773E+06              0.     1.64640E+06
           30124     30.7260E+06    -11.9890E+06              0.     1.70673E+06
           30125     31.7977E+06    -12.0839E+06              0.     1.76644E+06
           30126     32.8988E+06    -12.1600E+06              0.     1.82540E+06
           30127     34.0297E+06    -12.2153E+06              0.     1.88349E+06
           30128     35.1905E+06    -12.2476E+06              0.     1.94056E+06
           30129     36.3816E+06    -12.2544E+06              0.     1.99649E+06
           30130     37.6031E+06    -12.2332E+06              0.     2.05113E+06
           30131     38.8550E+06    -12.1812E+06              0.     2.10433E+06
           30132     40.1373E+06    -12.0954E+06              0.     2.15593E+06
           30133     41.4500E+06    -11.9726E+06              0.     2.20577E+06
           30134     42.7929E+06    -11.8094E+06              0.     2.25370E+06
           30135     44.1658E+06    -11.6021E+06              0.     2.29954E+06
           30136     45.5684E+06    -11.3468E+06              0.     2.34312E+06
           30137     47.0001E+06    -11.0391E+06              0.     2.38425E+06
           30138     48.4604E+06    -10.6746E+06              0.     2.42275E+06
           30139     49.9486E+06    -10.2484E+06              0.     2.45843E+06
           30140     51.4639E+06    -9.75542E+06              0.     2.49109E+06
           30141     53.0052E+06    -9.19002E+06              0.     2.52052E+06
           30142     54.5715E+06    -8.54632E+06              0.     2.54652E+06
           30143     56.1613E+06    -7.81804E+06              0.     2.56887E+06
           30144     57.7732E+06    -6.99844E+06              0.     2.58736E+06
           30145     59.4055E+06    -6.08037E+06              0.     2.60176E+06
           30146     61.0563E+06    -5.05623E+06              0.     2.61185E+06
           30147     62.7235E+06    -3.91791E+06              0.     2.61737E+06
           30148     64.4047E+06    -2.65680E+06              0.     2.61811E+06
           30149     66.0976E+06    -1.26377E+06              0.     2.61382E+06
           30150     67.7991E+06     270.901E+03              0.     2.60425E+06
           30151     69.5064E+06     1.95748E+06              0.     2.58916E+06
           30152     71.2160E+06     3.80686E+06              0.     2.56829E+06
           30153     72.9245E+06     5.83058E+06              0.     2.54141E+06
           30154     74.6281E+06     8.04082E+06              0.     2.50826E+06
           30155     76.3228E+06     10.4505E+06              0.     2.46860E+06
           30156     78.0040E+06     13.0732E+06              0.     2.42220E+06
           30157     79.6675E+06     15.9232E+06              0.     2.36882E+06
           30158     81.3081E+06     19.0157E+06              0.     2.30825E+06
           30159     82.9210E+06     22.3666E+06              0.     2.24029E+06
           30160     84.5008E+06     25.9926E+06              0.     2.16475E+06
           30161     86.0420E+06     29.9112E+06              0.     2.08148E+06
           30162     87.5389E+06     34.1408E+06              0.     1.99032E+06
           30163     89.3606E+06     38.8569E+06              0.     2.00213E+06
           30164    -769.484E+03    -345.231E+03              0.    -900.605E+03
           30165    -768.275E+03    -333.851E+03              0.    -899.033E+03
           30166    -771.974E+03    -324.728E+03              0.    -890.530E+03
           30167    -775.654E+03    -315.644E+03              0.    -882.428E+03
           30168    -779.306E+03    -306.610E+03              0.    -874.723E+03
           30169    -782.921E+03    -297.641E+03              0.    -867.407E+03
           30170    -786.491E+03    -288.747E+03              0.    -860.474E+03
           30171    -790.011E+03    -279.941E+03              0.    -853.920E+03
           30172    -793.471E+03    -271.232E+03              0.    -847.737E+03
           30173    -796.865E+03    -262.632E+03              0.    -841.920E+03
           30174    -800.186E+03    -254.150E+03              0.    -836.464E+03
           30175    -803.428E+03    -245.796E+03              0.    -831.361E+03
           30176    -806.583E+03    -237.579E+03              0.    -826.606E+03
           30177    -809.646E+03    -229.508E+03              0.    -822.193E+03
           30178    -812.611E+03    -221.590E+03              0.    -818.116E+03
           30179    -815.470E+03    -213.835E+03              0.    -814.370E+03
           30180    -818.219E+03    -206.250E+03              0.    -810.947E+03
           30181    -820.850E+03    -198.842E+03              0.    -807.843E+03
           30182    -823.357E+03    -191.619E+03              0.    -805.051E+03
           30183    -825.736E+03    -184.589E+03              0.    -802.565E+03
           30184    -827.978E+03    -177.758E+03              0.    -800.380E+03
           30185    -830.079E+03    -171.133E+03              0.    -798.489E+03
           30186    -832.031E+03    -164.721E+03              0.    -796.887E+03
           30187    -833.829E+03    -158.528E+03              0.    -795.568E+03
           30188    -835.466E+03    -152.562E+03              0.    -794.525E+03
           30189    -836.936E+03    -146.828E+03              0.    -793.754E+03
           30190    -838.231E+03    -141.334E+03              0.    -793.248E+03
           30191    -839.345E+03    -136.086E+03              0.    -793.001E+03
           30192    -840.270E+03    -131.090E+03              0.    -793.007E+03
           30193    -841.001E+03    -126.353E+03              0.    -793.261E+03
           30194    -841.528E+03    -121.881E+03              0.    -793.757E+03
           30195    -841.844E+03    -117.681E+03              0.    -794.488E+03
           30196    -841.942E+03    -113.760E+03              0.    -795.449E+03
           30197    -841.812E+03    -110.124E+03              0.    -796.635E+03
           30198    -841.448E+03    -106.781E+03              0.    -798.039E+03
           30199    -840.839E+03    -103.737E+03              0.    -799.655E+03
           30200    -839.976E+03    -101.000E+03              0.    -801.477E+03
           30201    -838.851E+03    -98.5769E+03              0.    -803.500E+03
           30202    -837.452E+03    -96.4749E+03              0.    -805.718E+03
           30203    -835.771E+03    -94.7019E+03              0.    -808.125E+03
           30204    -833.797E+03    -93.2657E+03              0.    -810.714E+03
           30205    -831.517E+03    -92.1744E+03              0.    -813.479E+03
           30206    -828.922E+03    -91.4364E+03              0.    -816.416E+03
           30207    -825.998E+03    -91.0600E+03              0.    -819.517E+03
           30208    -822.734E+03    -91.0541E+03              0.    -822.777E+03
           30209    -819.117E+03    -91.4278E+03              0.    -826.189E+03
           30210    -815.133E+03    -92.1903E+03              0.    -829.747E+03
           30211    -810.769E+03    -93.3514E+03              0.    -833.446E+03
           30212    -806.009E+03    -94.9210E+03              0.    -837.278E+03
           30213    -800.840E+03    -96.9094E+03              0.    -841.237E+03
           30214    -795.244E+03    -99.3270E+03              0.    -845.318E+03
           30215    -789.207E+03    -102.185E+03              0.    -849.514E+03
           30216    -782.710E+03    -105.495E+03              0.    -853.818E+03
           30217    -775.736E+03    -109.268E+03              0.    -858.223E+03
           30218    -768.267E+03    -113.516E+03              0.    -862.724E+03
           30219    -760.284E+03    -118.253E+03              0.    -867.313E+03
           30220    -751.768E+03    -123.490E+03              0.    -871.984E+03
           30221    -742.696E+03    -129.242E+03              0.    -876.730E+03
           30222    -733.048E+03    -135.522E+03              0.    -881.543E+03
           30223    -722.802E+03    -142.345E+03              0.    -886.418E+03
           30224    -711.934E+03    -149.725E+03              0.    -891.346E+03
           30225    -700.421E+03    -157.678E+03              0.    -896.321E+03
           30226    -688.237E+03    -166.218E+03              0.    -901.335E+03
           30227    -675.357E+03    -175.364E+03              0.    -906.381E+03
           30228    -661.753E+03    -185.131E+03              0.    -911.451E+03
           30229    -647.397E+03    -195.538E+03              0.    -916.538E+03
           30230    -632.260E+03    -206.601E+03              0.    -921.635E+03
           30231    -616.313E+03    -218.340E+03              0.    -926.732E+03
           30232    -599.523E+03    -230.774E+03              0.    -931.822E+03
           30233    -581.859E+03    -243.923E+03              0.    -936.898E+03
           30234    -563.285E+03    -257.807E+03              0.    -941.950E+03
           30235    -543.768E+03    -272.447E+03              0.    -946.970E+03
           30236    -523.270E+03    -287.865E+03              0.    -951.951E+03
           30237    -501.754E+03    -304.083E+03              0.    -956.882E+03
           30238    -479.181E+03    -321.125E+03              0.    -961.756E+03
           30239    -455.509E+03    -339.015E+03              0.    -966.563E+03
           30240    -430.698E+03    -357.776E+03              0.    -971.294E+03
           30241    -404.702E+03    -377.435E+03              0.    -975.941E+03
           30242    -377.476E+03    -398.018E+03              0.    -980.492E+03
           30243    -348.974E+03    -419.550E+03              0.    -984.940E+03
           30244    -319.146E+03    -442.061E+03              0.    -989.273E+03
           30245    -287.942E+03    -465.578E+03              0.    -993.482E+03
           30246    -255.309E+03    -490.131E+03              0.    -997.558E+03
           30247    -221.193E+03    -515.749E+03              0.    -1.00149E+06
           30248    -185.538E+03    -542.464E+03              0.    -1.00526E+06
           30249    -148.285E+03    -570.307E+03              0.    -1.00887E+06
           30250    -109.373E+03    -599.312E+03              0.    -1.01231E+06
           30251    -68.7391E+03    -629.511E+03              0.    -1.01555E+06
           30252    -26.3192E+03    -660.939E+03              0.    -1.01860E+06
           30253     17.9544E+03    -693.631E+03              0.    -1.02144E+06
           30254     64.1517E+03    -727.624E+03              0.    -1.02405E+06
           30255     112.345E+03    -762.954E+03              0.    -1.02643E+06
           30256     162.609E+03    -799.660E+03              0.    -1.02857E+06
           30257     215.021E+03    -837.780E+03              0.    -1.03045E+06
           30258     269.662E+03    -877.356E+03              0.    -1.03205E+06
           30259     326.615E+03    -918.426E+03              0.    -1.03338E+06
           30260     385.965E+03    -961.033E+03              0.    -1.03441E+06
           30261     447.802E+03    -1.00522E+06              0.    -1.03513E+06
           30262     512.218E+03    -1.05103E+06              0.    -1.03553E+06
           30263     579.309E+03    -1.09851E+06              0.    -1.03559E+06
           30264     649.173E+03    -1.14770E+06              0.    -1.03531E+06
           30265     721.912E+03    -1.19866E+06              0.    -1.03467E+06
           30266     797.633E+03    -1.25142E+06              0.    -1.03365E+06
           30267     876.444E+03    -1.30603E+06              0.    -1.03224E+06
           30268     958.459E+03    -1.36255E+06              0.    -1.03043E+06
           30269     1.04379E+06    -1.42103E+06              0.    -1.02820E+06
           30270     1.13257E+06    -1.48151E+06              0.    -1.02554E+06
           30271     1.22492E+06    -1.54404E+06              0.    -1.02244E+06
           30272     1.32096E+06    -1.60869E+06              0.    -1.01888E+06
           30273     1.42083E+06    -1.67550E+06              0.    -1.01484E+06
           30274     1.52467E+06    -1.74452E+06              0.    -1.01031E+06
           30275     1.63262E+06    -1.81582E+06              0.    -1.00529E+06
           30276     1.74483E+06    -1.88944E+06              0.    -999.744E+03
           30277     1.86145E+06    -1.96544E+06              0.    -993.668E+03
           30278     1.98264E+06    -2.04388E+06              0.    -987.048E+03
           30279     2.10857E+06    -2.12481E+06              0.    -979.867E+03
           30280     2.23940E+06    -2.20829E+06              0.    -972.113E+03
           30281      2.3753E+06    -2.29437E+06              0.    -963.771E+03
           30282     2.51646E+06    -2.38312E+06              0.    -954.827E+03
           30283     2.66306E+06    -2.47459E+06              0.    -945.268E+03
           30284     2.81529E+06    -2.56884E+06              0.    -935.080E+03
           30285     2.97335E+06    -2.66592E+06              0.    -924.250E+03
           30286     3.13744E+06    -2.76588E+06              0.    -912.765E+03
           30287     3.30779E+06    -2.86880E+06              0.    -900.613E+03
           30288     3.48459E+06    -2.97471E+06              0.    -887.781E+03
           30289     3.66808E+06    -3.08367E+06              0.    -874.257E+03
           30290     3.85849E+06    -3.19574E+06              0.    -860.032E+03
           30291     4.05605E+06    -3.31096E+06              0.    -845.093E+03
           30292     4.26102E+06    -3.42939E+06              0.    -829.431E+03
           30293     4.47364E+06    -3.55107E+06              0.    -813.036E+03
           30294     4.69418E+06    -3.67605E+06              0.    -795.899E+03
           30295     4.92291E+06    -3.80437E+06              0.    -778.013E+03
           30296     5.16011E+06    -3.93608E+06              0.    -759.369E+03
           30297     5.40605E+06    -4.07120E+06              0.    -739.963E+03
           30298     5.66104E+06    -4.20977E+06              0.    -719.788E+03
           30299     5.92537E+06    -4.35182E+06              0.    -698.839E+03
           30300     6.19936E+06    -4.49737E+06              0.    -677.114E+03
           30301     6.48333E+06    -4.64645E+06              0.    -654.611E+03
           30302     6.77761E+06    -4.79907E+06              0.    -631.329E+03
           30303     7.08254E+06    -4.95523E+06              0.    -607.267E+03
           30304     7.39846E+06    -5.11494E+06              0.    -582.428E+03
           30305     7.72574E+06    -5.27819E+06              0.    -556.814E+03
           30306     8.06474E+06    -5.44496E+06              0.    -530.431E+03
           30307     8.41584E+06    -5.61523E+06              0.    -503.285E+03
           30308     8.77943E+06    -5.78897E+06              0.    -475.385E+03
           30309     9.15590E+06    -5.96613E+06              0.    -446.738E+03
           30310     9.54565E+06    -6.14666E+06              0.    -417.359E+03
           30311     9.94912E+06    -6.33048E+06              0.    -387.260E+03
           30312     10.3667E+06    -6.51752E+06              0.    -356.456E+03
           30313     10.7989E+06    -6.70767E+06              0.    -324.966E+03
           30314     11.2461E+06    -6.90083E+06              0.    -292.809E+03
           30315     11.7087E+06    -7.09685E+06              0.    -260.008E+03
           30316     12.1873E+06    -7.29559E+06              0.    -226.586E+03
           30317     12.6823E+06    -7.49687E+06              0.    -192.572E+03
           30318     13.1942E+06    -7.70050E+06              0.    -157.993E+03
           30319     13.7235E+06    -7.90625E+06              0.    -122.882E+03
           30320     14.2707E+06    -8.11388E+06              0.    -87.2726E+03
           30321     14.8363E+06    -8.32311E+06              0.    -51.2022E+03
           30322     15.4208E+06    -8.53363E+06              0.    -14.7100E+03
           30323     16.0247E+06    -8.74511E+06              0.     22.1618E+03
           30324     16.6486E+06    -8.95715E+06              0.     59.3686E+03
           30325     17.2931E+06    -9.16936E+06              0.     96.8630E+03
           30326     17.9586E+06    -9.38125E+06              0.     134.595E+03
           30327     18.6457E+06    -9.59234E+06              0.     172.511E+03
           30328     19.3549E+06    -9.80206E+06              0.     210.556E+03
           30329     20.0868E+06    -10.0098E+06              0.     248.673E+03
           30330     20.8420E+06    -10.2149E+06              0.     286.800E+03
           30331     21.6209E+06    -10.4167E+06              0.     324.875E+03
           30332     22.4242E+06    -10.6143E+06              0.     362.831E+03
           30333     23.2524E+06    -10.8068E+06              0.     400.602E+03
           30334     24.1060E+06    -10.9935E+06              0.     438.116E+03
           30335     24.9855E+06    -11.1731E+06              0.     475.303E+03
           30336     25.8915E+06    -11.3447E+06              0.     512.087E+03
           30337     26.8244E+06    -11.5070E+06              0.     548.392E+03
           30338     27.7848E+06    -11.6587E+06              0.     584.141E+03
           30339     28.7730E+06    -11.7984E+06              0.     619.255E+03
           30340     29.7896E+06    -11.9246E+06              0.     653.654E+03
           30341     30.8349E+06    -12.0356E+06              0.     687.256E+03
           30342     31.9094E+06    -12.1297E+06              0.     719.978E+03
           30343     33.0132E+06    -12.2049E+06              0.     751.739E+03
           30344     34.1469E+06    -12.2592E+06              0.     782.454E+03
           30345     35.3105E+06    -12.2904E+06              0.     812.040E+03
           30346     36.5044E+06    -12.2960E+06              0.     840.416E+03
           30347     37.7286E+06    -12.2734E+06              0.     867.497E+03
           30348     38.9833E+06    -12.2200E+06              0.     893.203E+03
           30349     40.2684E+06    -12.1326E+06              0.     917.452E+03
           30350     41.5839E+06    -12.0081E+06              0.     940.167E+03
           30351     42.9297E+06    -11.8430E+06              0.     961.267E+03
           30352     44.3054E+06    -11.6337E+06              0.     980.680E+03
           30353     45.7108E+06    -11.3762E+06              0.     998.330E+03
           30354     47.1454E+06    -11.0663E+06              0.     1.01415E+06
           30355     48.6086E+06    -10.6994E+06              0.     1.02807E+06
           30356     50.0996E+06    -10.2706E+06              0.     1.04002E+06
           30357     51.6178E+06    -9.77491E+06              0.     1.04994E+06
           30358     53.1620E+06    -9.20663E+06              0.     1.05778E+06
           30359     54.7312E+06    -8.55990E+06              0.     1.06348E+06
           30360     56.3240E+06    -7.82842E+06              0.     1.06700E+06
           30361     57.9389E+06    -7.00545E+06              0.     1.06827E+06
           30362     59.5742E+06    -6.08385E+06              0.     1.06727E+06
           30363     61.2281E+06    -5.05599E+06              0.     1.06396E+06
           30364     62.8984E+06    -3.91378E+06              0.     1.05831E+06
           30365     64.5828E+06    -2.64859E+06              0.     1.05028E+06
           30366     66.2788E+06    -1.25129E+06              0.     1.03985E+06
           30367     67.9836E+06     287.847E+03              0.     1.02701E+06
           30368     69.6942E+06     1.97909E+06              0.     1.01175E+06
           30369     71.4073E+06     3.83333E+06              0.     994.061E+03
           30370     73.1193E+06     5.86213E+06              0.     973.938E+03
           30371     74.8265E+06     8.07766E+06              0.     951.387E+03
           30372     76.5248E+06     10.4928E+06              0.     926.420E+03
           30373     78.2099E+06     13.1213E+06              0.     899.055E+03
           30374     79.8772E+06     15.9772E+06              0.     869.314E+03
           30375     81.5220E+06     19.0759E+06              0.     837.229E+03
           30376     83.1391E+06     22.4332E+06              0.     802.839E+03
           30377     84.7233E+06     26.0657E+06              0.     766.193E+03
           30378     86.2692E+06     29.9912E+06              0.     727.357E+03
           30379     87.7711E+06     34.2278E+06              0.     686.389E+03
           30380     89.5963E+06     38.9517E+06              0.     687.205E+03
           30381    -789.942E+03    -354.452E+03              0.    -896.772E+03
           30382    -788.678E+03    -342.555E+03              0.    -895.205E+03
           30383    -792.546E+03    -333.024E+03              0.    -886.719E+03
           30384    -796.393E+03    -323.537E+03              0.    -878.643E+03
           30385    -800.210E+03    -314.107E+03              0.    -870.970E+03
           30386    -803.989E+03    -304.746E+03              0.    -863.696E+03
           30387    -807.722E+03    -295.468E+03              0.    -856.813E+03
           30388    -811.402E+03    -286.283E+03              0.    -850.315E+03
           30389    -815.022E+03    -277.202E+03              0.    -844.196E+03
           30390    -818.575E+03    -268.235E+03              0.    -838.450E+03
           30391    -822.053E+03    -259.393E+03              0.    -833.070E+03
           30392    -825.450E+03    -250.685E+03              0.    -828.051E+03
           30393    -828.759E+03    -242.119E+03              0.    -823.387E+03
           30394    -831.975E+03    -233.706E+03              0.    -819.071E+03
           30395    -835.090E+03    -225.452E+03              0.    -815.097E+03
           30396    -838.100E+03    -217.366E+03              0.    -811.459E+03
           30397    -840.996E+03    -209.457E+03              0.    -808.152E+03
           30398    -843.774E+03    -201.730E+03              0.    -805.169E+03
           30399    -846.427E+03    -194.195E+03              0.    -802.504E+03
           30400    -848.949E+03    -186.858E+03              0.    -800.152E+03
           30401    -851.334E+03    -179.726E+03              0.    -798.106E+03
           30402    -853.576E+03    -172.806E+03              0.    -796.361E+03
           30403    -855.668E+03    -166.105E+03              0.    -794.911E+03
           30404    -857.604E+03    -159.629E+03              0.    -793.751E+03
           30405    -859.378E+03    -153.385E+03              0.    -792.873E+03
           30406    -860.983E+03    -147.380E+03              0.    -792.274E+03
           30407    -862.412E+03    -141.620E+03              0.    -791.946E+03
           30408    -863.659E+03    -136.112E+03              0.    -791.884E+03
           30409    -864.716E+03    -130.861E+03              0.    -792.083E+03
           30410    -865.575E+03    -125.875E+03              0.    -792.538E+03
           30411    -866.231E+03    -121.160E+03              0.    -793.241E+03
           30412    -866.674E+03    -116.723E+03              0.    -794.188E+03
           30413    -866.896E+03    -112.571E+03              0.    -795.373E+03
           30414    -866.890E+03    -108.710E+03              0.    -796.790E+03
           30415    -866.648E+03    -105.146E+03              0.    -798.435E+03
           30416    -866.159E+03    -101.888E+03              0.    -800.300E+03
           30417    -865.415E+03    -98.9423E+03              0.    -802.382E+03
           30418    -864.407E+03    -96.3161E+03              0.    -804.674E+03
           30419    -863.124E+03    -94.0169E+03              0.    -807.170E+03
           30420    -861.556E+03    -92.0525E+03              0.    -809.865E+03
           30421    -859.693E+03    -90.4306E+03              0.    -812.754E+03
           30422    -857.523E+03    -89.1594E+03              0.    -815.831E+03
           30423    -855.036E+03    -88.2472E+03              0.    -819.091E+03
           30424    -852.218E+03    -87.7025E+03              0.    -822.527E+03
           30425    -849.058E+03    -87.5342E+03              0.    -826.134E+03
           30426    -845.543E+03    -87.7513E+03              0.    -829.907E+03
           30427    -841.658E+03    -88.3632E+03              0.    -833.840E+03
           30428    -837.391E+03    -89.3795E+03              0.    -837.927E+03
           30429    -832.727E+03    -90.8103E+03              0.    -842.163E+03
           30430    -827.650E+03    -92.6658E+03              0.    -846.542E+03
           30431    -822.144E+03    -94.9568E+03              0.    -851.057E+03
           30432    -816.194E+03    -97.6942E+03              0.    -855.705E+03
           30433    -809.782E+03    -100.889E+03              0.    -860.477E+03
           30434    -802.890E+03    -104.554E+03              0.    -865.370E+03
           30435    -795.501E+03    -108.701E+03              0.    -870.376E+03
           30436    -787.594E+03    -113.341E+03              0.    -875.491E+03
           30437     -779.15E+03    -118.490E+03              0.    -880.707E+03
           30438    -770.148E+03    -124.159E+03              0.    -886.020E+03
           30439    -760.567E+03    -130.362E+03              0.    -891.422E+03
           30440    -750.384E+03    -137.115E+03              0.    -896.907E+03
           30441    -739.575E+03    -144.432E+03              0.    -902.470E+03
           30442    -728.117E+03    -152.328E+03              0.    -908.105E+03
           30443    -715.985E+03    -160.820E+03              0.    -913.804E+03
           30444    -703.152E+03    -169.923E+03              0.    -919.561E+03
           30445    -689.591E+03    -179.654E+03              0.    -925.371E+03
           30446    -675.274E+03    -190.032E+03              0.    -931.226E+03
           30447    -660.172E+03    -201.074E+03              0.    -937.119E+03
           30448    -644.253E+03    -212.799E+03              0.    -943.045E+03
           30449    -627.488E+03    -225.227E+03              0.    -948.995E+03
           30450    -609.842E+03    -238.376E+03              0.    -954.964E+03
           30451    -591.283E+03    -252.269E+03              0.    -960.944E+03
           30452    -571.773E+03    -266.925E+03              0.    -966.929E+03
           30453    -551.278E+03    -282.368E+03              0.     -972.91E+03
           30454    -529.758E+03    -298.618E+03              0.    -978.881E+03
           30455    -507.175E+03    -315.701E+03              0.    -984.834E+03
           30456    -483.487E+03    -333.639E+03              0.    -990.762E+03
           30457    -458.652E+03    -352.458E+03              0.    -996.657E+03
           30458    -432.626E+03    -372.182E+03              0.    -1.00251E+06
           30459    -405.362E+03    -392.839E+03              0.    -1.00832E+06
           30460    -376.815E+03    -414.455E+03              0.    -1.01407E+06
           30461    -346.934E+03    -437.057E+03              0.    -1.01975E+06
           30462    -315.669E+03    -460.675E+03              0.    -1.02537E+06
           30463    -282.967E+03    -485.338E+03              0.    -1.03090E+06
           30464    -248.773E+03    -511.076E+03              0.    -1.03634E+06
           30465    -213.031E+03    -537.921E+03              0.    -1.04169E+06
           30466    -175.681E+03    -565.903E+03              0.    -1.04693E+06
           30467    -136.663E+03    -595.056E+03              0.    -1.05205E+06
           30468    -95.9141E+03    -625.414E+03              0.    -1.05705E+06
           30469    -53.3681E+03    -657.010E+03              0.    -1.06192E+06
           30470    -8.95778E+03    -689.881E+03              0.    -1.06665E+06
           30471     37.3871E+03    -724.064E+03              0.    -1.07122E+06
           30472     85.7392E+03    -759.594E+03              0.    -1.07564E+06
           30473     136.174E+03    -796.510E+03              0.    -1.07988E+06
           30474     188.768E+03    -834.852E+03              0.    -1.08395E+06
           30475     243.604E+03    -874.660E+03              0.    -1.08782E+06
           30476     300.764E+03    -915.974E+03              0.    -1.09150E+06
           30477     360.335E+03    -958.836E+03              0.    -1.09497E+06
           30478     422.407E+03    -1.00329E+06              0.    -1.09822E+06
           30479     487.071E+03    -1.04938E+06              0.    -1.10125E+06
           30480     554.424E+03    -1.09715E+06              0.    -1.10403E+06
           30481     624.565E+03    -1.14664E+06              0.    -1.10657E+06
           30482     697.596E+03    -1.19790E+06              0.    -1.10885E+06
           30483     773.624E+03    -1.25099E+06              0.    -1.11086E+06
           30484     852.759E+03    -1.30594E+06              0.    -1.11259E+06
           30485     935.113E+03    -1.36281E+06              0.    -1.11403E+06
           30486     1.02080E+06    -1.42164E+06              0.    -1.11518E+06
           30487     1.10995E+06    -1.48250E+06              0.    -1.11601E+06
           30488     1.20269E+06    -1.54542E+06              0.    -1.11653E+06
           30489     1.29914E+06    -1.61046E+06              0.    -1.11671E+06
           30490     1.39943E+06    -1.67768E+06              0.    -1.11656E+06
           30491     1.50372E+06    -1.74712E+06              0.    -1.11606E+06
           30492     1.61213E+06    -1.81885E+06              0.    -1.11520E+06
           30493     1.72483E+06    -1.89291E+06              0.    -1.11397E+06
           30494     1.84195E+06    -1.96937E+06              0.    -1.11236E+06
           30495     1.96366E+06    -2.04827E+06              0.    -1.11037E+06
           30496     2.09013E+06    -2.12968E+06              0.    -1.10797E+06
           30497     2.22152E+06    -2.21365E+06              0.    -1.10518E+06
           30498     2.35801E+06    -2.30024E+06              0.    -1.10197E+06
           30499     2.49977E+06    -2.38950E+06              0.    -1.09833E+06
           30500     2.64699E+06    -2.48150E+06              0.    -1.09427E+06
           30501     2.79987E+06    -2.57627E+06              0.    -1.08977E+06
           30502     2.95860E+06    -2.67390E+06              0.    -1.08482E+06
           30503     3.12338E+06    -2.77442E+06              0.    -1.07942E+06
           30504     3.29443E+06    -2.87789E+06              0.    -1.07356E+06
           30505     3.47197E+06    -2.98437E+06              0.    -1.06724E+06
           30506     3.65621E+06    -3.09391E+06              0.    -1.06045E+06
           30507      3.8474E+06    -3.20657E+06              0.    -1.05318E+06
           30508     4.04576E+06    -3.32238E+06              0.    -1.04544E+06
           30509     4.25155E+06    -3.44141E+06              0.    -1.03721E+06
           30510     4.46502E+06    -3.56370E+06              0.    -1.02851E+06
           30511     4.68642E+06    -3.68929E+06              0.    -1.01932E+06
           30512     4.91604E+06    -3.81823E+06              0.    -1.00964E+06
           30513     5.15414E+06    -3.95055E+06              0.    -999.478E+03
           30514     5.40101E+06    -4.08629E+06              0.    -988.833E+03
           30515     5.65694E+06    -4.22548E+06              0.    -977.708E+03
           30516     5.92224E+06    -4.36815E+06              0.    -966.105E+03
           30517     6.19722E+06    -4.51432E+06              0.    -954.029E+03
           30518     6.48220E+06    -4.66402E+06              0.    -941.486E+03
           30519     6.77750E+06    -4.81725E+06              0.    -928.484E+03
           30520     7.08347E+06    -4.97402E+06              0.    -915.031E+03
           30521     7.40046E+06    -5.13432E+06              0.    -901.138E+03
           30522     7.72881E+06    -5.29816E+06              0.    -886.816E+03
           30523     8.06890E+06    -5.46552E+06              0.    -872.079E+03
           30524      8.4211E+06    -5.63636E+06              0.    -856.941E+03
           30525     8.78580E+06    -5.81066E+06              0.    -841.419E+03
           30526     9.16340E+06    -5.98837E+06              0.    -825.531E+03
           30527     9.55429E+06    -6.16943E+06              0.    -809.298E+03
           30528     9.95890E+06    -6.35377E+06              0.    -792.743E+03
           30529     10.3776E+06    -6.54130E+06              0.    -775.887E+03
           30530     10.8110E+06    -6.73192E+06              0.    -758.758E+03
           30531     11.2593E+06    -6.92552E+06              0.    -741.384E+03
           30532     11.7231E+06    -7.12197E+06              0.    -723.794E+03
           30533     12.2029E+06    -7.32110E+06              0.    -706.021E+03
           30534     12.6991E+06    -7.52274E+06              0.    -688.098E+03
           30535     13.2121E+06    -7.72670E+06              0.    -670.063E+03
           30536     13.7426E+06    -7.93274E+06              0.    -651.952E+03
           30537     14.2909E+06    -8.14063E+06              0.    -633.807E+03
           30538     14.8576E+06    -8.35008E+06              0.    -615.669E+03
           30539     15.4433E+06    -8.56078E+06              0.    -597.583E+03
           30540     16.0483E+06    -8.77239E+06              0.    -579.596E+03
           30541     16.6733E+06    -8.98452E+06              0.    -561.755E+03
           30542     17.3188E+06    -9.19677E+06              0.    -544.110E+03
           30543     17.9854E+06    -9.40866E+06              0.    -526.714E+03
           30544     18.6735E+06    -9.61968E+06              0.    -509.619E+03
           30545     19.3837E+06    -9.82929E+06              0.    -492.879E+03
           30546     20.1166E+06    -10.0369E+06              0.    -476.552E+03
           30547     20.8727E+06    -10.2418E+06              0.    -460.693E+03
           30548     21.6526E+06    -10.4432E+06              0.    -445.361E+03
           30549     22.4568E+06    -10.6405E+06              0.    -430.614E+03
           30550     23.2858E+06    -10.8326E+06              0.    -416.511E+03
           30551     24.1401E+06    -11.0188E+06              0.    -403.111E+03
           30552     25.0204E+06    -11.1979E+06              0.    -390.473E+03
           30553     25.9271E+06    -11.3689E+06              0.    -378.654E+03
           30554     26.8606E+06    -11.5305E+06              0.    -367.713E+03
           30555     27.8216E+06    -11.6815E+06              0.    -357.704E+03
           30556     28.8104E+06    -11.8204E+06              0.    -348.682E+03
           30557     29.8274E+06    -11.9458E+06              0.    -340.699E+03
           30558     30.8732E+06    -12.0559E+06              0.    -333.804E+03
           30559     31.9480E+06    -12.1490E+06              0.    -328.043E+03
           30560     33.0522E+06    -12.2232E+06              0.    -323.459E+03
           30561     34.1861E+06    -12.2764E+06              0.    -320.088E+03
           30562     35.3500E+06    -12.3064E+06              0.    -317.964E+03
           30563     36.5440E+06    -12.3108E+06              0.    -317.115E+03
           30564     37.7683E+06    -12.2871E+06              0.    -317.563E+03
           30565     39.0230E+06    -12.2323E+06              0.    -319.321E+03
           30566     40.3081E+06    -12.1436E+06              0.    -322.397E+03
           30567     41.6235E+06    -12.0177E+06              0.    -326.790E+03
           30568     42.9691E+06    -11.8513E+06              0.    -332.491E+03
           30569     44.3447E+06    -11.6406E+06              0.    -339.482E+03
           30570     45.7498E+06    -11.3816E+06              0.    -347.734E+03
           30571     47.1841E+06    -11.0703E+06              0.    -357.207E+03
           30572     48.6469E+06    -10.7019E+06              0.    -367.851E+03
           30573     50.1376E+06    -10.2717E+06              0.    -379.604E+03
           30574     51.6554E+06    -9.77455E+06              0.    -392.392E+03
           30575     53.1992E+06    -9.20485E+06              0.    -406.128E+03
           30576     54.7678E+06    -8.55672E+06              0.    -420.711E+03
           30577     56.3601E+06    -7.82387E+06              0.    -436.029E+03
           30578     57.9744E+06    -6.99958E+06              0.    -451.952E+03
           30579     59.6092E+06    -6.07669E+06              0.    -468.342E+03
           30580     61.2625E+06    -5.04761E+06              0.    -485.041E+03
           30581     62.9322E+06    -3.90424E+06              0.    -501.880E+03
           30582     64.6160E+06    -2.63797E+06              0.    -518.677E+03
           30583     66.3115E+06    -1.23968E+06              0.    -535.234E+03
           30584     68.0157E+06     300.355E+03              0.    -551.341E+03
           30585     69.7257E+06     1.99240E+06              0.    -566.775E+03
           30586     71.4382E+06     3.84733E+06              0.    -581.301E+03
           30587     73.1497E+06     5.87671E+06              0.    -594.675E+03
           30588     74.8563E+06     8.09269E+06              0.    -606.640E+03
           30589     76.5541E+06     10.5082E+06              0.    -616.932E+03
           30590     78.2387E+06     13.1368E+06              0.    -625.280E+03
           30591     79.9056E+06     15.9928E+06              0.    -631.407E+03
           30592     81.5499E+06     19.0914E+06              0.    -635.037E+03
           30593     83.1666E+06     22.4483E+06              0.    -635.887E+03
           30594     84.7505E+06     26.0805E+06              0.    -633.683E+03
           30595     86.2961E+06     30.0054E+06              0.    -628.161E+03
           30596     87.7979E+06     34.2414E+06              0.    -619.044E+03
           30597     89.6229E+06     38.9643E+06              0.    -629.544E+03
           30598    -810.397E+03    -363.672E+03              0.    -892.768E+03
           30599    -809.076E+03    -351.248E+03              0.    -891.206E+03
           30600    -813.116E+03    -341.298E+03              0.    -882.738E+03
           30601    -817.133E+03    -331.400E+03              0.    -874.689E+03
           30602    -821.120E+03    -321.565E+03              0.    -867.051E+03
           30603    -825.066E+03    -311.806E+03              0.    -859.820E+03
           30604    -828.966E+03    -302.135E+03              0.    -852.987E+03
           30605    -832.811E+03    -292.565E+03              0.    -846.547E+03
           30606    -836.594E+03    -283.104E+03              0.    -840.494E+03
           30607    -840.309E+03    -273.764E+03              0.    -834.819E+03
           30608    -843.947E+03    -264.555E+03              0.    -829.519E+03
           30609    -847.504E+03    -255.486E+03              0.    -824.585E+03
           30610    -850.971E+03    -246.566E+03              0.    -820.012E+03
           30611    -854.344E+03    -237.803E+03              0.    -815.794E+03
           30612    -857.614E+03    -229.207E+03              0.    -811.924E+03
           30613    -860.778E+03    -220.785E+03              0.    -808.397E+03
           30614    -863.827E+03    -212.545E+03              0.    -805.206E+03
           30615    -866.756E+03    -204.494E+03              0.    -802.346E+03
           30616    -869.560E+03    -196.640E+03              0.    -799.810E+03
           30617    -872.231E+03    -188.990E+03              0.    -797.592E+03
           30618    -874.764E+03    -181.551E+03              0.    -795.688E+03
           30619    -877.153E+03    -174.330E+03              0.     -794.09E+03
           30620    -879.391E+03    -167.334E+03              0.    -792.794E+03
           30621    -881.472E+03    -160.568E+03              0.    -791.793E+03
           30622    -883.389E+03    -154.040E+03              0.    -791.082E+03
           30623    -885.136E+03    -147.757E+03              0.    -790.655E+03
           30624    -886.707E+03    -141.724E+03              0.    -790.507E+03
           30625    -888.094E+03    -135.948E+03              0.    -790.632E+03
           30626    -889.290E+03    -130.436E+03              0.    -791.025E+03
           30627    -890.287E+03    -125.194E+03              0.    -791.681E+03
           30628    -891.080E+03    -120.228E+03              0.    -792.593E+03
           30629    -891.659E+03    -115.546E+03              0.    -793.757E+03
           30630    -892.016E+03    -111.154E+03              0.    -795.167E+03
           30631    -892.144E+03    -107.058E+03              0.    -796.817E+03
           30632    -892.034E+03    -103.266E+03              0.    -798.704E+03
           30633    -891.676E+03    -99.7842E+03              0.    -800.820E+03
           30634    -891.063E+03    -96.6202E+03              0.    -803.162E+03
           30635    -890.184E+03    -93.7812E+03              0.    -805.724E+03
           30636    -889.029E+03    -91.2746E+03              0.    -808.500E+03
           30637    -887.588E+03    -89.1081E+03              0.    -811.486E+03
           30638    -885.851E+03    -87.2895E+03              0.    -814.677E+03
           30639    -883.805E+03    -85.8269E+03              0.    -818.067E+03
           30640    -881.441E+03    -84.7286E+03              0.    -821.650E+03
           30641    -878.745E+03    -84.0032E+03              0.    -825.423E+03
           30642    -875.706E+03    -83.6595E+03              0.    -829.380E+03
           30643    -872.310E+03    -83.7066E+03              0.    -833.515E+03
           30644    -868.543E+03    -84.1538E+03              0.    -837.824E+03
           30645    -864.393E+03    -85.0108E+03              0.    -842.302E+03
           30646    -859.843E+03    -86.2876E+03              0.    -846.943E+03
           30647    -854.880E+03    -87.9946E+03              0.    -851.743E+03
           30648    -849.486E+03    -90.1425E+03              0.    -856.696E+03
           30649    -843.646E+03    -92.7422E+03              0.    -861.797E+03
           30650    -837.342E+03    -95.8051E+03              0.    -867.041E+03
           30651    -830.558E+03    -99.3432E+03              0.    -872.423E+03
           30652    -823.273E+03    -103.368E+03              0.    -877.938E+03
           30653    -815.469E+03    -107.894E+03              0.    -883.580E+03
           30654    -807.126E+03    -112.932E+03              0.    -889.344E+03
           30655    -798.223E+03    -118.496E+03              0.    -895.226E+03
           30656    -788.739E+03    -124.601E+03              0.    -901.219E+03
           30657    -778.650E+03    -131.261E+03              0.    -907.319E+03
           30658    -767.934E+03    -138.491E+03              0.    -913.520E+03
           30659    -756.566E+03    -146.305E+03              0.    -919.817E+03
           30660    -744.520E+03    -154.721E+03              0.    -926.204E+03
           30661    -731.772E+03    -163.754E+03              0.    -932.676E+03
           30662    -718.293E+03    -173.422E+03              0.    -939.228E+03
           30663    -704.055E+03    -183.743E+03              0.    -945.855E+03
           30664    -689.029E+03    -194.733E+03              0.    -952.549E+03
           30665    -673.184E+03    -206.413E+03              0.    -959.307E+03
           30666    -656.488E+03    -218.801E+03              0.    -966.122E+03
           30667    -638.909E+03    -231.918E+03              0.    -972.989E+03
           30668    -620.412E+03    -245.784E+03              0.    -979.901E+03
           30669    -600.962E+03    -260.420E+03              0.    -986.854E+03
           30670    -580.522E+03    -275.848E+03              0.    -993.841E+03
           30671    -559.054E+03    -292.092E+03              0.    -1.00086E+06
           30672    -536.519E+03    -309.174E+03              0.    -1.00789E+06
           30673    -512.874E+03    -327.119E+03              0.    -1.01495E+06
           30674    -488.078E+03    -345.951E+03              0.    -1.02201E+06
           30675    -462.086E+03    -365.695E+03              0.    -1.02908E+06
           30676    -434.853E+03    -386.379E+03              0.    -1.03615E+06
           30677    -406.331E+03    -408.029E+03              0.    -1.04321E+06
           30678    -376.470E+03    -430.673E+03              0.    -1.05025E+06
           30679    -345.220E+03    -454.339E+03              0.    -1.05728E+06
           30680    -312.527E+03    -479.058E+03              0.    -1.06427E+06
           30681    -278.337E+03    -504.859E+03              0.    -1.07124E+06
           30682    -242.593E+03    -531.774E+03              0.    -1.07816E+06
           30683    -205.235E+03    -559.835E+03              0.    -1.08504E+06
           30684    -166.203E+03    -589.074E+03              0.    -1.09186E+06
           30685    -125.434E+03    -619.525E+03              0.    -1.09862E+06
           30686    -82.8607E+03    -651.223E+03              0.    -1.10532E+06
           30687    -38.4168E+03    -684.203E+03              0.    -1.11195E+06
           30688     7.96858E+03    -718.503E+03              0.    -1.11849E+06
           30689     56.3683E+03    -754.158E+03              0.    -1.12495E+06
           30690     106.858E+03    -791.208E+03              0.    -1.13131E+06
           30691     159.515E+03    -829.691E+03              0.    -1.13757E+06
           30692     214.421E+03    -869.648E+03              0.    -1.14373E+06
           30693     271.659E+03    -911.120E+03              0.    -1.14977E+06
           30694     331.316E+03    -954.148E+03              0.    -1.15569E+06
           30695     393.482E+03    -998.776E+03              0.    -1.16148E+06
           30696     458.249E+03    -1.04505E+06              0.    -1.16714E+06
           30697     525.714E+03    -1.09301E+06              0.    -1.17266E+06
           30698     595.975E+03    -1.14270E+06              0.    -1.17802E+06
           30699     669.135E+03    -1.19417E+06              0.    -1.18324E+06
           30700     745.302E+03    -1.24747E+06              0.    -1.18829E+06
           30701     824.584E+03    -1.30265E+06              0.    -1.19317E+06
           30702     907.095E+03    -1.35975E+06              0.    -1.19788E+06
           30703     992.953E+03    -1.41882E+06              0.    -1.20241E+06
           30704     1.08228E+06    -1.47992E+06              0.    -1.20675E+06
           30705     1.17520E+06    -1.54310E+06              0.    -1.21090E+06
           30706     1.27185E+06    -1.60841E+06              0.    -1.21485E+06
           30707     1.37235E+06    -1.67589E+06              0.    -1.21860E+06
           30708     1.47685E+06    -1.74562E+06              0.    -1.22213E+06
           30709     1.58549E+06    -1.81763E+06              0.    -1.22545E+06
           30710     1.69842E+06    -1.89199E+06              0.    -1.22855E+06
           30711     1.81579E+06    -1.96875E+06              0.    -1.23143E+06
           30712     1.93776E+06    -2.04796E+06              0.    -1.23407E+06
           30713     2.06449E+06    -2.12968E+06              0.    -1.23648E+06
           30714     2.19616E+06    -2.21397E+06              0.    -1.23866E+06
           30715     2.33293E+06    -2.30089E+06              0.    -1.24059E+06
           30716     2.47499E+06    -2.39048E+06              0.    -1.24228E+06
           30717     2.62252E+06    -2.48280E+06              0.    -1.24373E+06
           30718     2.77571E+06    -2.57792E+06              0.    -1.24493E+06
           30719     2.93476E+06    -2.67589E+06              0.    -1.24588E+06
           30720     3.09988E+06    -2.77676E+06              0.    -1.24658E+06
           30721     3.27127E+06    -2.88058E+06              0.    -1.24703E+06
           30722     3.44916E+06    -2.98741E+06              0.    -1.24723E+06
           30723     3.63376E+06    -3.09731E+06              0.    -1.24718E+06
           30724     3.82531E+06    -3.21032E+06              0.    -1.24689E+06
           30725     4.02404E+06    -3.32649E+06              0.    -1.24636E+06
           30726     4.23020E+06    -3.44587E+06              0.    -1.24559E+06
           30727     4.44405E+06    -3.56851E+06              0.    -1.24458E+06
           30728     4.66584E+06    -3.69445E+06              0.    -1.24335E+06
           30729     4.89584E+06    -3.82373E+06              0.    -1.24189E+06
           30730     5.13433E+06    -3.95640E+06              0.    -1.24023E+06
           30731     5.38160E+06    -4.09247E+06              0.    -1.23835E+06
           30732     5.63792E+06    -4.23199E+06              0.    -1.23629E+06
           30733     5.90362E+06    -4.37498E+06              0.    -1.23404E+06
           30734     6.17899E+06    -4.52147E+06              0.    -1.23162E+06
           30735     6.46435E+06    -4.67147E+06              0.    -1.22904E+06
           30736     6.76004E+06    -4.82499E+06              0.    -1.22633E+06
           30737     7.06639E+06    -4.98203E+06              0.    -1.22349E+06
           30738     7.38374E+06    -5.14261E+06              0.    -1.22055E+06
           30739     7.71246E+06    -5.30669E+06              0.    -1.21752E+06
           30740     8.05289E+06    -5.47428E+06              0.    -1.21443E+06
           30741     8.40543E+06    -5.64533E+06              0.    -1.21130E+06
           30742     8.77045E+06    -5.81982E+06              0.    -1.20815E+06
           30743     9.14835E+06    -5.99769E+06              0.    -1.20502E+06
           30744     9.53953E+06    -6.17889E+06              0.    -1.20193E+06
           30745     9.94440E+06    -6.36334E+06              0.    -1.19891E+06
           30746     10.3634E+06    -6.55096E+06              0.    -1.19599E+06
           30747     10.7969E+06    -6.74164E+06              0.    -1.19321E+06
           30748     11.2454E+06    -6.93527E+06              0.    -1.19060E+06
           30749     11.7094E+06    -7.13171E+06              0.    -1.18821E+06
           30750     12.1893E+06    -7.33079E+06              0.    -1.18607E+06
           30751     12.6855E+06    -7.53236E+06              0.    -1.18422E+06
           30752     13.1986E+06    -7.73620E+06              0.    -1.18270E+06
           30753     13.7290E+06    -7.94208E+06              0.    -1.18156E+06
           30754     14.2773E+06    -8.14977E+06              0.    -1.18085E+06
           30755     14.8439E+06    -8.35898E+06              0.    -1.18062E+06
           30756     15.4294E+06    -8.56939E+06              0.    -1.18090E+06
           30757     16.0342E+06    -8.78066E+06              0.    -1.18176E+06
           30758     16.6589E+06    -8.99241E+06              0.    -1.18325E+06
           30759     17.3041E+06    -9.20422E+06              0.    -1.18541E+06
           30760     17.9702E+06    -9.41562E+06              0.    -1.18831E+06
           30761     18.6578E+06    -9.62612E+06              0.    -1.19198E+06
           30762     19.3675E+06    -9.83514E+06              0.    -1.19650E+06
           30763     20.0997E+06    -10.0421E+06              0.    -1.20191E+06
           30764     20.8551E+06    -10.2463E+06              0.    -1.20826E+06
           30765     21.6341E+06    -10.4470E+06              0.    -1.21561E+06
           30766     22.4374E+06    -10.6435E+06              0.    -1.22401E+06
           30767     23.2654E+06    -10.8348E+06              0.    -1.23351E+06
           30768     24.1186E+06    -11.0201E+06              0.    -1.24415E+06
           30769     24.9977E+06    -11.1983E+06              0.    -1.25599E+06
           30770     25.9030E+06    -11.3683E+06              0.    -1.26907E+06
           30771     26.8352E+06    -11.5289E+06              0.    -1.28342E+06
           30772     27.7946E+06    -11.6788E+06              0.    -1.29907E+06
           30773     28.7817E+06    -11.8166E+06              0.    -1.31606E+06
           30774     29.7970E+06    -11.9409E+06              0.    -1.33442E+06
           30775     30.8409E+06    -12.0499E+06              0.    -1.35415E+06
           30776     31.9137E+06    -12.1418E+06              0.    -1.37526E+06
           30777     33.0158E+06    -12.2149E+06              0.    -1.39777E+06
           30778     34.1474E+06    -12.2669E+06              0.    -1.42166E+06
           30779     35.3089E+06    -12.2958E+06              0.    -1.44692E+06
           30780     36.5004E+06    -12.2990E+06              0.    -1.47351E+06
           30781     37.7222E+06    -12.2741E+06              0.    -1.50141E+06
           30782     38.9741E+06    -12.2183E+06              0.    -1.53055E+06
           30783     40.2564E+06    -12.1285E+06              0.    -1.56087E+06
           30784     41.5688E+06    -12.0017E+06              0.    -1.59229E+06
           30785     42.9113E+06    -11.8343E+06              0.    -1.62472E+06
           30786     44.2837E+06    -11.6228E+06              0.    -1.65804E+06
           30787     45.6855E+06    -11.3631E+06              0.    -1.69212E+06
           30788     47.1163E+06    -11.0511E+06              0.    -1.72682E+06
           30789     48.5756E+06    -10.6823E+06              0.    -1.76196E+06
           30790     50.0627E+06    -10.2517E+06              0.    -1.79736E+06
           30791     51.5767E+06    -9.75439E+06              0.    -1.83281E+06
           30792     53.1167E+06    -9.18471E+06              0.    -1.86807E+06
           30793     54.6814E+06    -8.53681E+06              0.    -1.90289E+06
           30794     56.2697E+06    -7.80441E+06              0.    -1.93700E+06
           30795     57.8800E+06    -6.98083E+06              0.    -1.97009E+06
           30796     59.5106E+06    -6.05892E+06              0.    -2.00184E+06
           30797     61.1597E+06    -5.03111E+06              0.    -2.03191E+06
           30798     62.8251E+06    -3.88932E+06              0.    -2.05991E+06
           30799     64.5046E+06    -2.62497E+06              0.    -2.08546E+06
           30800     66.1956E+06    -1.22895E+06              0.    -2.10815E+06
           30801     67.8954E+06     308.430E+03              0.    -2.12753E+06
           30802     69.6009E+06     1.99742E+06              0.    -2.14314E+06
           30803     71.3089E+06     3.84887E+06              0.    -2.15451E+06
           30804     73.0157E+06     5.87432E+06              0.    -2.16115E+06
           30805     74.7177E+06     8.08591E+06              0.    -2.16254E+06
           30806     76.4108E+06     10.4965E+06              0.    -2.15818E+06
           30807     78.0906E+06     13.1198E+06              0.    -2.14753E+06
           30808     79.7527E+06     15.9699E+06              0.    -2.13007E+06
           30809     81.3921E+06     19.0621E+06              0.    -2.10526E+06
           30810     83.0038E+06     22.4122E+06              0.    -2.07259E+06
           30811     84.5825E+06     26.0369E+06              0.    -2.03155E+06
           30812     86.1227E+06     29.9537E+06              0.    -1.98164E+06
           30813     87.6184E+06     34.1810E+06              0.    -1.92240E+06
           30814     89.4388E+06     38.8942E+06              0.    -1.94389E+06
           30815    -830.844E+03    -372.889E+03              0.    -888.588E+03
           30816    -829.465E+03    -359.925E+03              0.    -887.033E+03
           30817    -833.681E+03    -349.550E+03              0.    -878.584E+03
           30818    -837.873E+03    -339.231E+03              0.    -870.563E+03
           30819    -842.032E+03    -328.983E+03              0.    -862.962E+03
           30820    -846.150E+03    -318.818E+03              0.    -855.775E+03
           30821    -850.220E+03    -308.748E+03              0.    -848.995E+03
           30822    -854.233E+03    -298.784E+03              0.    -842.614E+03
           30823    -858.184E+03    -288.937E+03              0.    -836.627E+03
           30824    -862.064E+03    -279.217E+03              0.    -831.026E+03
           30825    -865.867E+03    -269.635E+03              0.    -825.806E+03
           30826    -869.587E+03    -260.198E+03              0.    -820.958E+03
           30827    -873.216E+03    -250.917E+03              0.    -816.479E+03
           30828    -876.749E+03    -241.800E+03              0.    -812.360E+03
           30829    -880.179E+03    -232.855E+03              0.    -808.595E+03
           30830    -883.501E+03    -224.090E+03              0.    -805.179E+03
           30831    -886.708E+03    -215.513E+03              0.    -802.106E+03
           30832    -889.794E+03    -207.132E+03              0.    -799.369E+03
           30833    -892.753E+03    -198.953E+03              0.    -796.963E+03
           30834    -895.579E+03    -190.984E+03              0.    -794.881E+03
           30835    -898.265E+03    -183.232E+03              0.    -793.119E+03
           30836    -900.807E+03    -175.704E+03              0.    -791.669E+03
           30837    -903.197E+03    -168.405E+03              0.    -790.527E+03
           30838    -905.428E+03    -161.344E+03              0.    -789.687E+03
           30839    -907.496E+03    -154.525E+03              0.    -789.144E+03
           30840    -909.393E+03    -147.956E+03              0.    -788.891E+03
           30841    -911.112E+03    -141.644E+03              0.    -788.924E+03
           30842    -912.646E+03    -135.594E+03              0.    -789.236E+03
           30843    -913.989E+03    -129.813E+03              0.    -789.824E+03
           30844    -915.134E+03    -124.307E+03              0.    -790.682E+03
           30845    -916.072E+03    -119.083E+03              0.    -791.804E+03
           30846    -916.796E+03    -114.148E+03              0.    -793.185E+03
           30847    -917.298E+03    -109.507E+03              0.    -794.821E+03
           30848    -917.570E+03    -105.169E+03              0.    -796.706E+03
           30849    -917.603E+03    -101.139E+03              0.    -798.835E+03
           30850    -917.388E+03    -97.4246E+03              0.    -801.204E+03
           30851    -916.917E+03    -94.0330E+03              0.    -803.807E+03
           30852    -916.179E+03    -90.9713E+03              0.    -806.639E+03
           30853    -915.165E+03    -88.2470E+03              0.    -809.697E+03
           30854    -913.865E+03    -85.8677E+03              0.    -812.974E+03
           30855    -912.267E+03    -83.8413E+03              0.    -816.467E+03
           30856    -910.361E+03    -82.1758E+03              0.    -820.170E+03
           30857    -908.135E+03    -80.8795E+03              0.    -824.079E+03
           30858    -905.578E+03    -79.9609E+03              0.    -828.189E+03
           30859    -902.676E+03    -79.4288E+03              0.    -832.496E+03
           30860    -899.417E+03    -79.2923E+03              0.    -836.995E+03
           30861    -895.787E+03    -79.5608E+03              0.    -841.682E+03
           30862    -891.772E+03    -80.2439E+03              0.    -846.551E+03
           30863    -887.357E+03    -81.3517E+03              0.    -851.599E+03
           30864    -882.528E+03    -82.8943E+03              0.    -856.821E+03
           30865    -877.268E+03    -84.8826E+03              0.    -862.212E+03
           30866    -871.561E+03    -87.3275E+03              0.    -867.768E+03
           30867    -865.390E+03    -90.2405E+03              0.    -873.484E+03
           30868    -858.736E+03    -93.6333E+03              0.    -879.357E+03
           30869    -851.582E+03    -97.5182E+03              0.    -885.381E+03
           30870    -843.908E+03    -101.908E+03              0.    -891.552E+03
           30871    -835.694E+03    -106.815E+03              0.    -897.866E+03
           30872    -826.920E+03    -112.254E+03              0.    -904.318E+03
           30873    -817.562E+03    -118.237E+03              0.    -910.904E+03
           30874    -807.600E+03    -124.781E+03              0.    -917.620E+03
           30875    -797.009E+03    -131.899E+03              0.    -924.460E+03
           30876    -785.765E+03    -139.607E+03              0.    -931.421E+03
           30877    -773.843E+03    -147.921E+03              0.    -938.499E+03
           30878    -761.217E+03    -156.857E+03              0.    -945.688E+03
           30879    -747.859E+03    -166.433E+03              0.    -952.985E+03
           30880    -733.740E+03    -176.666E+03              0.    -960.384E+03
           30881    -718.832E+03    -187.575E+03              0.    -967.882E+03
           30882    -703.104E+03    -199.177E+03              0.    -975.474E+03
           30883    -686.524E+03    -211.493E+03              0.    -983.156E+03
           30884    -669.059E+03    -224.543E+03              0.    -990.923E+03
           30885    -650.674E+03    -238.347E+03              0.    -998.770E+03
           30886    -631.335E+03    -252.926E+03              0.    -1.00669E+06
           30887    -611.004E+03    -268.303E+03              0.    -1.01469E+06
           30888    -589.644E+03    -284.500E+03              0.    -1.02275E+06
           30889    -567.214E+03    -301.541E+03              0.    -1.03088E+06
           30890    -543.673E+03    -319.450E+03              0.    -1.03906E+06
           30891    -518.978E+03    -338.250E+03              0.    -1.04730E+06
           30892    -493.086E+03    -357.970E+03              0.    -1.05559E+06
           30893    -465.951E+03    -378.633E+03              0.    -1.06392E+06
           30894    -437.524E+03    -400.268E+03              0.    -1.07229E+06
           30895    -407.756E+03    -422.902E+03              0.    -1.08070E+06
           30896    -376.597E+03    -446.564E+03              0.    -1.08913E+06
           30897    -343.993E+03    -471.284E+03              0.    -1.09760E+06
           30898    -309.888E+03    -497.092E+03              0.    -1.10609E+06
           30899    -274.228E+03    -524.019E+03              0.    -1.11459E+06
           30900    -236.951E+03    -552.097E+03              0.    -1.12311E+06
           30901    -197.997E+03    -581.359E+03              0.    -1.13163E+06
           30902    -157.303E+03    -611.839E+03              0.    -1.14017E+06
           30903    -114.802E+03    -643.571E+03              0.    -1.14870E+06
           30904    -70.4284E+03    -676.590E+03              0.    -1.15722E+06
           30905    -24.1099E+03    -710.935E+03              0.    -1.16574E+06
           30906     24.2258E+03    -746.640E+03              0.    -1.17424E+06
           30907     74.6542E+03    -783.746E+03              0.    -1.18273E+06
           30908     127.253E+03    -822.290E+03              0.    -1.19120E+06
           30909     182.104E+03    -862.313E+03              0.    -1.19964E+06
           30910     239.291E+03    -903.857E+03              0.    -1.20805E+06
           30911     298.899E+03    -946.962E+03              0.    -1.21642E+06
           30912     361.019E+03    -991.672E+03              0.    -1.22476E+06
           30913     425.743E+03    -1.03803E+06              0.    -1.23306E+06
           30914     493.168E+03    -1.08608E+06              0.    -1.24131E+06
           30915     563.393E+03    -1.13587E+06              0.    -1.24952E+06
           30916     636.520E+03    -1.18745E+06              0.    -1.25767E+06
           30917     712.655E+03    -1.24085E+06              0.    -1.26577E+06
           30918     791.909E+03    -1.29614E+06              0.    -1.27381E+06
           30919     874.395E+03    -1.35336E+06              0.    -1.28180E+06
           30920     960.231E+03    -1.41255E+06              0.    -1.28972E+06
           30921     1.04954E+06    -1.47378E+06              0.    -1.29757E+06
           30922     1.14244E+06    -1.53708E+06              0.    -1.30536E+06
           30923     1.23907E+06    -1.60252E+06              0.    -1.31308E+06
           30924     1.33956E+06    -1.67014E+06              0.    -1.32073E+06
           30925     1.44405E+06    -1.74000E+06              0.    -1.32830E+06
           30926     1.55268E+06    -1.81216E+06              0.    -1.33581E+06
           30927     1.66559E+06    -1.88666E+06              0.    -1.34324E+06
           30928     1.78296E+06    -1.96356E+06              0.    -1.35061E+06
           30929     1.90492E+06    -2.04292E+06              0.    -1.35790E+06
           30930     2.03164E+06    -2.12479E+06              0.    -1.36512E+06
           30931     2.16330E+06    -2.20923E+06              0.    -1.37227E+06
           30932     2.30006E+06    -2.29629E+06              0.    -1.37935E+06
           30933     2.44211E+06    -2.38603E+06              0.    -1.38637E+06
           30934     2.58962E+06    -2.47851E+06              0.    -1.39333E+06
           30935     2.74280E+06    -2.57377E+06              0.    -1.40023E+06
           30936     2.90183E+06    -2.67188E+06              0.    -1.40708E+06
           30937     3.06693E+06    -2.77289E+06              0.    -1.41388E+06
           30938     3.23829E+06    -2.87686E+06              0.    -1.42064E+06
           30939     3.41614E+06    -2.98382E+06              0.    -1.42736E+06
           30940     3.60070E+06    -3.09385E+06              0.    -1.43406E+06
           30941     3.79220E+06    -3.20698E+06              0.    -1.44075E+06
           30942     3.99087E+06    -3.32327E+06              0.    -1.44742E+06
           30943     4.19697E+06    -3.44276E+06              0.    -1.45410E+06
           30944     4.41073E+06    -3.56550E+06              0.    -1.46079E+06
           30945     4.63243E+06    -3.69153E+06              0.    -1.46751E+06
           30946     4.86232E+06    -3.82089E+06              0.    -1.47427E+06
           30947     5.10069E+06    -3.95362E+06              0.    -1.48109E+06
           30948     5.34781E+06    -4.08975E+06              0.    -1.48798E+06
           30949     5.60398E+06    -4.22931E+06              0.    -1.49496E+06
           30950     5.86949E+06    -4.37233E+06              0.    -1.50205E+06
           30951     6.14466E+06    -4.51882E+06              0.    -1.50928E+06
           30952     6.42980E+06    -4.66881E+06              0.    -1.51665E+06
           30953     6.72523E+06    -4.82230E+06              0.    -1.52421E+06
           30954     7.03129E+06    -4.97930E+06              0.    -1.53197E+06
           30955     7.34833E+06    -5.13979E+06              0.    -1.53995E+06
           30956     7.67669E+06    -5.30378E+06              0.    -1.54819E+06
           30957     8.01673E+06    -5.47124E+06              0.    -1.55672E+06
           30958     8.36884E+06    -5.64214E+06              0.    -1.56557E+06
           30959     8.73339E+06    -5.81645E+06              0.    -1.57477E+06
           30960     9.11077E+06    -5.99411E+06              0.    -1.58436E+06
           30961     9.50138E+06    -6.17506E+06              0.    -1.59438E+06
           30962     9.90563E+06    -6.35923E+06              0.    -1.60485E+06
           30963     10.3239E+06    -6.54654E+06              0.    -1.61583E+06
           30964     10.7567E+06    -6.73687E+06              0.    -1.62736E+06
           30965     11.2045E+06    -6.93010E+06              0.    -1.63948E+06
           30966     11.6676E+06    -7.12611E+06              0.    -1.65223E+06
           30967     12.1465E+06    -7.32472E+06              0.    -1.66566E+06
           30968     12.6417E+06    -7.52576E+06              0.    -1.67982E+06
           30969     13.1537E+06    -7.72904E+06              0.    -1.69476E+06
           30970     13.6830E+06    -7.93432E+06              0.    -1.71054E+06
           30971     14.2300E+06    -8.14135E+06              0.    -1.72719E+06
           30972     14.7952E+06    -8.34985E+06              0.    -1.74479E+06
           30973     15.3792E+06    -8.55951E+06              0.    -1.76337E+06
           30974     15.9825E+06    -8.76998E+06              0.    -1.78300E+06
           30975     16.6056E+06    -8.98087E+06              0.    -1.80372E+06
           30976     17.2490E+06    -9.19178E+06              0.    -1.82561E+06
           30977     17.9132E+06    -9.40224E+06              0.    -1.84870E+06
           30978     18.5988E+06    -9.61173E+06              0.    -1.87305E+06
           30979     19.3063E+06    -9.81970E+06              0.    -1.89872E+06
           30980     20.0362E+06    -10.0255E+06              0.    -1.92576E+06
           30981     20.7892E+06    -10.2286E+06              0.    -1.95421E+06
           30982     21.5657E+06    -10.4281E+06              0.    -1.98413E+06
           30983     22.3662E+06    -10.6234E+06              0.    -2.01557E+06
           30984     23.1914E+06    -10.8135E+06              0.    -2.04855E+06
           30985     24.0416E+06    -10.9974E+06              0.    -2.08312E+06
           30986     24.9175E+06    -11.1743E+06              0.    -2.11931E+06
           30987     25.8195E+06    -11.3429E+06              0.    -2.15715E+06
           30988     26.7482E+06    -11.5022E+06              0.    -2.19665E+06
           30989     27.7039E+06    -11.6507E+06              0.    -2.23784E+06
           30990     28.6872E+06    -11.7872E+06              0.    -2.28071E+06
           30991     29.6985E+06    -11.9101E+06              0.    -2.32526E+06
           30992     30.7382E+06    -12.0177E+06              0.    -2.37147E+06
           30993     31.8066E+06    -12.1083E+06              0.    -2.41933E+06
           30994     32.9041E+06    -12.1801E+06              0.    -2.46879E+06
           30995     34.0310E+06    -12.2309E+06              0.    -2.51980E+06
           30996     35.1876E+06    -12.2585E+06              0.    -2.57230E+06
           30997     36.3740E+06    -12.2606E+06              0.    -2.62619E+06
           30998     37.5904E+06    -12.2347E+06              0.    -2.68140E+06
           30999     38.8369E+06    -12.1780E+06              0.    -2.73778E+06
           31000     40.1135E+06    -12.0874E+06              0.    -2.79521E+06
           31001     41.4201E+06    -11.9600E+06              0.    -2.85354E+06
           31002     42.7565E+06    -11.7921E+06              0.    -2.91256E+06
           31003     44.1227E+06    -11.5803E+06              0.    -2.97209E+06
           31004     45.5181E+06    -11.3206E+06              0.    -3.03189E+06
           31005     46.9424E+06    -11.0088E+06              0.    -3.09170E+06
           31006     48.3950E+06    -10.6405E+06              0.    -3.15123E+06
           31007     49.8752E+06    -10.2107E+06              0.    -3.21018E+06
           31008     51.3821E+06    -9.71448E+06              0.    -3.26819E+06
           31009     52.9149E+06    -9.14626E+06              0.    -3.32490E+06
           31010     54.4723E+06    -8.50021E+06              0.    -3.37989E+06
           31011     56.0531E+06    -7.77008E+06              0.    -3.43272E+06
           31012     57.6558E+06    -6.94922E+06              0.    -3.48292E+06
           31013     59.2787E+06    -6.03053E+06              0.    -3.52999E+06
           31014     60.9199E+06    -5.00647E+06              0.    -3.57338E+06
           31015     62.5774E+06    -3.86898E+06              0.    -3.61252E+06
           31016     64.2488E+06    -2.60954E+06              0.    -3.64681E+06
           31017     65.9317E+06    -1.21905E+06              0.    -3.67561E+06
           31018     67.6232E+06     312.126E+03              0.    -3.69825E+06
           31019     69.3203E+06     1.99421E+06              0.    -3.71405E+06
           31020     71.0197E+06     3.83802E+06              0.    -3.72227E+06
           31021     72.7179E+06     5.85506E+06              0.    -3.72219E+06
           31022     74.4112E+06     8.05745E+06              0.    -3.71304E+06
           31023     76.0953E+06     10.4580E+06              0.    -3.69404E+06
           31024     77.7661E+06     13.0704E+06              0.    -3.66442E+06
           31025     79.4189E+06     15.9088E+06              0.    -3.62339E+06
           31026     81.0489E+06     18.9883E+06              0.    -3.57017E+06
           31027     82.6510E+06     22.3248E+06              0.    -3.50398E+06
           31028     84.2198E+06     25.9350E+06              0.    -3.42408E+06
           31029     85.7498E+06     29.8364E+06              0.    -3.32975E+06
           31030     87.2355E+06     34.0476E+06              0.    -3.22031E+06
           31031     89.0483E+06     38.7430E+06              0.    -3.25251E+06
           31032    -851.280E+03    -382.102E+03              0.    -884.231E+03
           31033    -849.843E+03    -368.587E+03              0.    -882.681E+03
           31034    -854.238E+03    -357.776E+03              0.    -874.254E+03
           31035    -858.608E+03    -347.029E+03              0.    -866.262E+03
           31036    -862.943E+03    -336.360E+03              0.    -858.700E+03
           31037    -867.236E+03    -325.782E+03              0.    -851.558E+03
           31038    -871.480E+03    -315.304E+03              0.    -844.832E+03
           31039    -875.665E+03    -304.940E+03              0.    -838.512E+03
           31040    -879.786E+03    -294.700E+03              0.    -832.592E+03
           31041    -883.836E+03    -284.593E+03              0.    -827.066E+03
           31042    -887.807E+03    -274.630E+03              0.    -821.927E+03
           31043    -891.694E+03    -264.820E+03              0.    -817.167E+03
           31044    -895.489E+03    -255.172E+03              0.    -812.781E+03
           31045    -899.187E+03    -245.694E+03              0.    -808.763E+03
           31046    -902.782E+03    -236.394E+03              0.    -805.105E+03
           31047    -906.266E+03    -227.280E+03              0.    -801.802E+03
           31048    -909.635E+03    -218.361E+03              0.    -798.847E+03
           31049    -912.883E+03    -209.643E+03              0.    -796.235E+03
           31050    -916.002E+03    -201.134E+03              0.    -793.959E+03
           31051    -918.988E+03    -192.840E+03              0.    -792.014E+03
           31052    -921.833E+03    -184.768E+03              0.    -790.394E+03
           31053    -924.533E+03    -176.926E+03              0.    -789.093E+03
           31054    -927.081E+03    -169.319E+03              0.    -788.106E+03
           31055    -929.470E+03    -161.955E+03              0.    -787.428E+03
           31056    -931.694E+03    -154.839E+03              0.    -787.052E+03
           31057    -933.747E+03    -147.979E+03              0.    -786.974E+03
           31058    -935.622E+03    -141.380E+03              0.    -787.188E+03
           31059    -937.313E+03    -135.048E+03              0.    -787.689E+03
           31060    -938.811E+03    -128.991E+03              0.    -788.472E+03
           31061     -940.11E+03    -123.214E+03              0.    -789.532E+03
           31062    -941.203E+03    -117.724E+03              0.    -790.865E+03
           31063    -942.081E+03    -112.528E+03              0.    -792.464E+03
           31064    -942.737E+03    -107.631E+03              0.    -794.326E+03
           31065    -943.164E+03    -103.041E+03              0.    -796.445E+03
           31066    -943.351E+03    -98.7648E+03              0.    -798.818E+03
           31067    -943.290E+03    -94.8087E+03              0.    -801.438E+03
           31068    -942.972E+03    -91.1799E+03              0.    -804.303E+03
           31069    -942.389E+03    -87.8856E+03              0.    -807.407E+03
           31070    -941.528E+03    -84.9334E+03              0.    -810.745E+03
           31071    -940.382E+03    -82.3307E+03              0.    -814.314E+03
           31072    -938.938E+03    -80.0854E+03              0.    -818.109E+03
           31073    -937.186E+03    -78.2055E+03              0.    -822.126E+03
           31074    -935.115E+03    -76.6991E+03              0.    -826.361E+03
           31075    -932.711E+03    -75.5749E+03              0.    -830.809E+03
           31076    -929.964E+03    -74.8415E+03              0.    -835.467E+03
           31077    -926.859E+03    -74.5080E+03              0.    -840.329E+03
           31078    -923.384E+03    -74.5837E+03              0.    -845.393E+03
           31079    -919.524E+03    -75.0783E+03              0.    -850.655E+03
           31080    -915.264E+03    -76.0017E+03              0.    -856.109E+03
           31081    -910.590E+03    -77.3642E+03              0.    -861.753E+03
           31082    -905.486E+03    -79.1765E+03              0.    -867.582E+03
           31083    -899.935E+03    -81.4495E+03              0.    -873.594E+03
           31084    -893.920E+03    -84.1947E+03              0.    -879.783E+03
           31085    -887.423E+03    -87.4237E+03              0.    -886.146E+03
           31086    -880.425E+03    -91.1489E+03              0.    -892.680E+03
           31087    -872.908E+03    -95.3828E+03              0.    -899.380E+03
           31088    -864.852E+03    -100.138E+03              0.    -906.244E+03
           31089    -856.235E+03    -105.429E+03              0.    -913.267E+03
           31090    -847.035E+03    -111.269E+03              0.    -920.446E+03
           31091    -837.231E+03    -117.673E+03              0.    -927.778E+03
           31092    -826.798E+03    -124.655E+03              0.    -935.258E+03
           31093    -815.713E+03    -132.231E+03              0.    -942.884E+03
           31094    -803.951E+03    -140.417E+03              0.    -950.652E+03
           31095    -791.484E+03    -149.229E+03              0.    -958.558E+03
           31096    -778.285E+03    -158.685E+03              0.    -966.599E+03
           31097    -764.327E+03    -168.802E+03              0.    -974.773E+03
           31098    -749.580E+03    -179.598E+03              0.    -983.074E+03
           31099    -734.012E+03    -191.091E+03              0.    -991.501E+03
           31100    -717.593E+03    -203.302E+03              0.    -1.00005E+06
           31101    -700.290E+03    -216.251E+03              0.    -1.00872E+06
           31102    -682.067E+03    -229.957E+03              0.    -1.01750E+06
           31103    -662.890E+03    -244.443E+03              0.    -1.02640E+06
           31104    -642.722E+03    -259.730E+03              0.    -1.03540E+06
           31105    -621.525E+03    -275.841E+03              0.    -1.04451E+06
           31106    -599.258E+03    -292.800E+03              0.    -1.05372E+06
           31107    -575.881E+03    -310.629E+03              0.    -1.06304E+06
           31108    -551.352E+03    -329.355E+03              0.    -1.07245E+06
           31109    -525.624E+03    -349.003E+03              0.    -1.08195E+06
           31110    -498.654E+03    -369.599E+03              0.    -1.09155E+06
           31111    -470.393E+03    -391.169E+03              0.    -1.10123E+06
           31112    -440.792E+03    -413.743E+03              0.    -1.11101E+06
           31113    -409.799E+03    -437.348E+03              0.    -1.12086E+06
           31114    -377.363E+03    -462.015E+03              0.    -1.13079E+06
           31115    -343.427E+03    -487.772E+03              0.    -1.14080E+06
           31116    -307.935E+03    -514.653E+03              0.    -1.15089E+06
           31117    -270.827E+03    -542.687E+03              0.    -1.16105E+06
           31118    -232.044E+03    -571.909E+03              0.    -1.17128E+06
           31119    -191.521E+03    -602.352E+03              0.    -1.18158E+06
           31120    -149.193E+03    -634.050E+03              0.    -1.19195E+06
           31121    -104.992E+03    -667.039E+03              0.    -1.20238E+06
           31122    -58.8483E+03    -701.356E+03              0.    -1.21287E+06
           31123    -10.6883E+03    -737.037E+03              0.    -1.22342E+06
           31124     39.5631E+03    -774.121E+03              0.    -1.23403E+06
           31125     91.9838E+03    -812.646E+03              0.    -1.24470E+06
           31126     146.655E+03    -852.653E+03              0.    -1.25542E+06
           31127     203.659E+03    -894.182E+03              0.    -1.26620E+06
           31128     263.084E+03    -937.275E+03              0.    -1.27704E+06
           31129     325.018E+03    -981.975E+03              0.    -1.28792E+06
           31130     389.554E+03    -1.02833E+06              0.    -1.29886E+06
           31131     456.788E+03    -1.07637E+06              0.    -1.30985E+06
           31132     526.819E+03    -1.12616E+06              0.    -1.32089E+06
           31133     599.749E+03    -1.17773E+06              0.    -1.33199E+06
           31134     675.684E+03    -1.23113E+06              0.    -1.34313E+06
           31135     754.735E+03    -1.28642E+06              0.    -1.35433E+06
           31136     837.013E+03    -1.34364E+06              0.    -1.36559E+06
           31137     922.636E+03    -1.40283E+06              0.    -1.37690E+06
           31138     1.01173E+06    -1.46406E+06              0.    -1.38826E+06
           31139     1.10441E+06    -1.52736E+06              0.    -1.39969E+06
           31140     1.20081E+06    -1.59280E+06              0.    -1.41117E+06
           31141     1.30106E+06    -1.66042E+06              0.    -1.42272E+06
           31142     1.40531E+06    -1.73028E+06              0.    -1.43434E+06
           31143     1.51369E+06    -1.80243E+06              0.    -1.44603E+06
           31144     1.62636E+06    -1.87692E+06              0.    -1.45779E+06
           31145     1.74345E+06    -1.95381E+06              0.    -1.46964E+06
           31146     1.86514E+06    -2.03316E+06              0.    -1.48157E+06
           31147     1.99159E+06    -2.11501E+06              0.    -1.49359E+06
           31148     2.12295E+06    -2.19943E+06              0.    -1.50571E+06
           31149     2.25940E+06    -2.28647E+06              0.    -1.51793E+06
           31150     2.40113E+06    -2.37618E+06              0.    -1.53027E+06
           31151     2.54831E+06    -2.46861E+06              0.    -1.54274E+06
           31152     2.70114E+06    -2.56383E+06              0.    -1.55533E+06
           31153     2.85981E+06    -2.66189E+06              0.    -1.56807E+06
           31154     3.02453E+06    -2.76283E+06              0.    -1.58096E+06
           31155     3.19549E+06    -2.86672E+06              0.    -1.59402E+06
           31156     3.37292E+06    -2.97361E+06              0.    -1.60725E+06
           31157     3.55705E+06    -3.08354E+06              0.    -1.62068E+06
           31158     3.74808E+06    -3.19657E+06              0.    -1.63432E+06
           31159     3.94627E+06    -3.31273E+06              0.    -1.64819E+06
           31160     4.15185E+06    -3.43209E+06              0.    -1.66229E+06
           31161     4.36508E+06    -3.55468E+06              0.    -1.67666E+06
           31162     4.58621E+06    -3.68055E+06              0.    -1.69131E+06
           31163      4.8155E+06    -3.80972E+06              0.    -1.70626E+06
           31164     5.05323E+06    -3.94225E+06              0.    -1.72154E+06
           31165     5.29968E+06    -4.07815E+06              0.    -1.73717E+06
           31166     5.55514E+06    -4.21746E+06              0.    -1.75317E+06
           31167     5.81990E+06    -4.36021E+06              0.    -1.76957E+06
           31168     6.09427E+06    -4.50641E+06              0.    -1.78640E+06
           31169     6.37856E+06    -4.65608E+06              0.    -1.80370E+06
           31170     6.67310E+06    -4.80922E+06              0.    -1.82148E+06
           31171     6.97822E+06    -4.96583E+06              0.    -1.83979E+06
           31172     7.29425E+06    -5.12592E+06              0.    -1.85866E+06
           31173     7.62155E+06    -5.28946E+06              0.    -1.87812E+06
           31174     7.96048E+06    -5.45645E+06              0.    -1.89822E+06
           31175     8.31139E+06    -5.62684E+06              0.    -1.91899E+06
           31176     8.67468E+06    -5.80059E+06              0.    -1.94048E+06
           31177     9.05072E+06    -5.97767E+06              0.    -1.96273E+06
           31178     9.43992E+06    -6.15799E+06              0.    -1.98579E+06
           31179     9.84267E+06    -6.34149E+06              0.    -2.00969E+06
           31180     10.2594E+06    -6.52808E+06              0.    -2.03450E+06
           31181     10.6905E+06    -6.71765E+06              0.    -2.06025E+06
           31182     11.1365E+06    -6.91008E+06              0.    -2.08701E+06
           31183     11.5977E+06    -7.10523E+06              0.    -2.11482E+06
           31184     12.0747E+06    -7.30294E+06              0.    -2.14374E+06
           31185     12.5678E+06    -7.50304E+06              0.    -2.17382E+06
           31186     13.0776E+06    -7.70531E+06              0.    -2.20512E+06
           31187     13.6045E+06    -7.90953E+06              0.    -2.23770E+06
           31188     14.1490E+06    -8.11546E+06              0.    -2.27161E+06
           31189     14.7117E+06    -8.32280E+06              0.    -2.30692E+06
           31190     15.2930E+06    -8.53124E+06              0.    -2.34368E+06
           31191     15.8934E+06    -8.74045E+06              0.    -2.38195E+06
           31192     16.5134E+06    -8.95003E+06              0.    -2.42179E+06
           31193     17.1536E+06    -9.15957E+06              0.    -2.46326E+06
           31194     17.8144E+06    -9.36861E+06              0.    -2.50641E+06
           31195     18.4965E+06    -9.57663E+06              0.    -2.55129E+06
           31196     19.2003E+06    -9.78310E+06              0.    -2.59797E+06
           31197     19.9264E+06    -9.98739E+06              0.    -2.64648E+06
           31198     20.6753E+06    -10.1889E+06              0.    -2.69688E+06
           31199     21.4475E+06    -10.3868E+06              0.    -2.74921E+06
           31200     22.2436E+06    -10.5803E+06              0.    -2.80350E+06
           31201     23.0640E+06    -10.7687E+06              0.    -2.85980E+06
           31202     23.9094E+06    -10.9510E+06              0.    -2.91811E+06
           31203     24.7802E+06    -11.1261E+06              0.    -2.97847E+06
           31204     25.6769E+06    -11.2931E+06              0.    -3.04089E+06
           31205     26.6000E+06    -11.4506E+06              0.    -3.10537E+06
           31206     27.5500E+06    -11.5974E+06              0.    -3.17189E+06
           31207     28.5272E+06    -11.7322E+06              0.    -3.24044E+06
           31208     29.5323E+06    -11.8534E+06              0.    -3.31100E+06
           31209     30.5655E+06    -11.9595E+06              0.    -3.38350E+06
           31210     31.6271E+06    -12.0486E+06              0.    -3.45790E+06
           31211     32.7177E+06    -12.1189E+06              0.    -3.53411E+06
           31212     33.8374E+06    -12.1684E+06              0.    -3.61205E+06
           31213     34.9864E+06    -12.1948E+06              0.    -3.69158E+06
           31214     36.1651E+06    -12.1959E+06              0.    -3.77259E+06
           31215     37.3735E+06    -12.1690E+06              0.    -3.85490E+06
           31216     38.6118E+06    -12.1115E+06              0.    -3.93834E+06
           31217     39.8799E+06    -12.0205E+06              0.    -4.02270E+06
           31218     41.1777E+06    -11.8927E+06              0.    -4.10774E+06
           31219     42.5053E+06    -11.7249E+06              0.    -4.19319E+06
           31220     43.8622E+06    -11.5134E+06              0.    -4.27875E+06
           31221     45.2482E+06    -11.2544E+06              0.    -4.36410E+06
           31222     46.6628E+06    -10.9436E+06              0.    -4.44887E+06
           31223     48.1055E+06    -10.5766E+06              0.    -4.53265E+06
           31224     49.5756E+06    -10.1488E+06              0.    -4.61500E+06
           31225     51.0722E+06    -9.65488E+06              0.    -4.69546E+06
           31226     52.5945E+06    -9.08954E+06              0.    -4.77349E+06
           31227     54.1412E+06    -8.44694E+06              0.    -4.84854E+06
           31228     55.7110E+06    -7.72089E+06              0.    -4.92000E+06
           31229     57.3026E+06    -6.90476E+06              0.    -4.98723E+06
           31230     58.9142E+06    -5.99152E+06              0.    -5.04954E+06
           31231     60.5440E+06    -4.97366E+06              0.    -5.10620E+06
           31232     62.1898E+06    -3.84319E+06              0.    -5.15644E+06
           31233     63.8494E+06    -2.59161E+06              0.    -5.19943E+06
           31234     65.5203E+06    -1.20989E+06              0.    -5.23433E+06
           31235     67.1996E+06     311.554E+03              0.    -5.26023E+06
           31236     68.8844E+06     1.98291E+06              0.    -5.27621E+06
           31237     70.5714E+06     3.81494E+06              0.    -5.28131E+06
           31238     72.2570E+06     5.81911E+06              0.    -5.27452E+06
           31239     73.9373E+06     8.00748E+06              0.    -5.25485E+06
           31240     75.6085E+06     10.3929E+06              0.    -5.22125E+06
           31241     77.2659E+06     12.9888E+06              0.    -5.17269E+06
           31242     78.9052E+06     15.8096E+06              0.    -5.10811E+06
           31243     80.5213E+06     18.8702E+06              0.    -5.02648E+06
           31244     82.1091E+06     22.1864E+06              0.    -4.92678E+06
           31245     83.6634E+06     25.7751E+06              0.    -4.80802E+06
           31246     85.1783E+06     29.6537E+06              0.    -4.66924E+06
           31247      86.648E+06     33.8405E+06              0.    -4.50956E+06
           31248     88.4488E+06     38.5095E+06              0.    -4.55209E+06
           31249    -871.701E+03    -391.309E+03              0.     -879.69E+03
           31250    -870.203E+03    -377.232E+03              0.    -878.147E+03
           31251    -874.783E+03    -365.976E+03              0.    -869.742E+03
           31252    -879.334E+03    -354.793E+03              0.    -861.783E+03
           31253    -883.850E+03    -343.695E+03              0.    -854.260E+03
           31254    -888.321E+03    -332.695E+03              0.    -847.166E+03
           31255    -892.741E+03    -321.803E+03              0.    -840.494E+03
           31256    -897.103E+03    -311.032E+03              0.    -834.236E+03
           31257    -901.398E+03    -300.391E+03              0.    -828.386E+03
           31258    -905.621E+03    -289.891E+03              0.    -822.935E+03
           31259    -909.764E+03    -279.541E+03              0.    -817.878E+03
           31260    -913.822E+03    -269.351E+03              0.    -813.208E+03
           31261    -917.787E+03    -259.329E+03              0.    -808.917E+03
           31262    -921.654E+03    -249.484E+03              0.    -805.000E+03
           31263    -925.417E+03    -239.823E+03              0.    -801.449E+03
           31264    -929.069E+03    -230.355E+03              0.    -798.259E+03
           31265    -932.605E+03    -221.087E+03              0.    -795.424E+03
           31266    -936.018E+03    -212.026E+03              0.    -792.937E+03
           31267    -939.303E+03    -203.180E+03              0.    -790.792E+03
           31268    -942.453E+03    -194.555E+03              0.    -788.985E+03
           31269    -945.464E+03    -186.158E+03              0.    -787.508E+03
           31270    -948.328E+03    -177.996E+03              0.    -786.357E+03
           31271    -951.039E+03    -170.075E+03              0.    -785.525E+03
           31272    -953.592E+03    -162.402E+03              0.    -785.008E+03
           31273    -955.980E+03    -154.983E+03              0.    -784.801E+03
           31274    -958.196E+03    -147.824E+03              0.    -784.897E+03
           31275    -960.234E+03    -140.931E+03              0.    -785.293E+03
           31276    -962.088E+03    -134.312E+03              0.    -785.982E+03
           31277    -963.749E+03    -127.971E+03              0.    -786.961E+03
           31278    -965.212E+03    -121.915E+03              0.    -788.224E+03
           31279    -966.468E+03    -116.152E+03              0.    -789.766E+03
           31280    -967.510E+03    -110.686E+03              0.    -791.584E+03
           31281    -968.331E+03    -105.525E+03              0.    -793.672E+03
           31282    -968.921E+03    -100.675E+03              0.    -796.025E+03
           31283    -969.273E+03    -96.1436E+03              0.    -798.641E+03
           31284    -969.377E+03    -91.9364E+03              0.    -801.513E+03
           31285    -969.225E+03    -88.0609E+03              0.    -804.639E+03
           31286    -968.808E+03    -84.5244E+03              0.    -808.014E+03
           31287    -968.114E+03    -81.3339E+03              0.    -811.633E+03
           31288    -967.135E+03    -78.4972E+03              0.    -815.493E+03
           31289    -965.860E+03    -76.0220E+03              0.    -819.591E+03
           31290    -964.277E+03    -73.9161E+03              0.    -823.921E+03
           31291    -962.374E+03    -72.1877E+03              0.    -828.481E+03
           31292    -960.141E+03    -70.8454E+03              0.    -833.266E+03
           31293    -957.565E+03    -69.8977E+03              0.    -838.274E+03
           31294    -954.633E+03    -69.3537E+03              0.    -843.499E+03
           31295    -951.330E+03    -69.2226E+03              0.    -848.940E+03
           31296    -947.644E+03    -69.5141E+03              0.    -854.593E+03
           31297    -943.560E+03    -70.2380E+03              0.    -860.453E+03
           31298    -939.063E+03    -71.4045E+03              0.    -866.519E+03
           31299    -934.136E+03    -73.0244E+03              0.    -872.786E+03
           31300    -928.763E+03    -75.1084E+03              0.    -879.251E+03
           31301    -922.928E+03    -77.6680E+03              0.    -885.912E+03
           31302    -916.612E+03    -80.7148E+03              0.    -892.765E+03
           31303    -909.798E+03    -84.2610E+03              0.    -899.808E+03
           31304    -902.465E+03    -88.3192E+03              0.    -907.037E+03
           31305    -894.593E+03    -92.9024E+03              0.    -914.449E+03
           31306    -886.163E+03    -98.0239E+03              0.    -922.042E+03
           31307    -877.152E+03    -103.698E+03              0.    -929.813E+03
           31308    -867.538E+03    -109.938E+03              0.    -937.760E+03
           31309    -857.297E+03    -116.760E+03              0.    -945.879E+03
           31310    -846.405E+03    -124.179E+03              0.    -954.168E+03
           31311    -834.838E+03    -132.211E+03              0.    -962.625E+03
           31312    -822.568E+03    -140.871E+03              0.    -971.248E+03
           31313    -809.568E+03    -150.179E+03              0.    -980.033E+03
           31314    -795.811E+03    -160.149E+03              0.    -988.979E+03
           31315    -781.266E+03    -170.802E+03              0.    -998.083E+03
           31316    -765.904E+03    -182.155E+03              0.    -1.00734E+06
           31317    -749.692E+03    -194.229E+03              0.    -1.01676E+06
           31318    -732.597E+03    -207.042E+03              0.    -1.02633E+06
           31319    -714.586E+03    -220.616E+03              0.    -1.03604E+06
           31320    -695.623E+03    -234.971E+03              0.    -1.04591E+06
           31321    -675.672E+03    -250.130E+03              0.    -1.05592E+06
           31322    -654.693E+03    -266.116E+03              0.    -1.06608E+06
           31323    -632.648E+03    -282.950E+03              0.    -1.07638E+06
           31324    -609.495E+03    -300.659E+03              0.    -1.08682E+06
           31325    -585.193E+03    -319.266E+03              0.    -1.09740E+06
           31326    -559.696E+03    -338.796E+03              0.    -1.10812E+06
           31327    -532.958E+03    -359.277E+03              0.    -1.11898E+06
           31328    -504.933E+03    -380.734E+03              0.    -1.12998E+06
           31329    -475.572E+03    -403.196E+03              0.    -1.14111E+06
           31330    -444.822E+03    -426.692E+03              0.    -1.15238E+06
           31331    -412.632E+03    -451.250E+03              0.    -1.16378E+06
           31332    -378.947E+03    -476.901E+03              0.    -1.17531E+06
           31333    -343.709E+03    -503.676E+03              0.    -1.18698E+06
           31334    -306.860E+03    -531.606E+03              0.    -1.19878E+06
           31335    -268.339E+03    -560.725E+03              0.    -1.21071E+06
           31336    -228.084E+03    -591.066E+03              0.    -1.22277E+06
           31337    -186.027E+03    -622.663E+03              0.    -1.23497E+06
           31338    -142.103E+03    -655.552E+03              0.    -1.24730E+06
           31339    -96.2410E+03    -689.768E+03              0.    -1.25976E+06
           31340    -48.3682E+03    -725.350E+03              0.    -1.27236E+06
           31341     1.59032E+03    -762.334E+03              0.    -1.28509E+06
           31342     53.7122E+03    -800.760E+03              0.    -1.29796E+06
           31343     108.078E+03    -840.668E+03              0.    -1.31096E+06
           31344     164.771E+03    -882.097E+03              0.    -1.32411E+06
           31345     223.877E+03    -925.090E+03              0.    -1.33739E+06
           31346     285.485E+03    -969.688E+03              0.    -1.35082E+06
           31347     349.687E+03    -1.01594E+06              0.    -1.36439E+06
           31348     416.580E+03    -1.06388E+06              0.    -1.37811E+06
           31349     486.260E+03    -1.11356E+06              0.    -1.39199E+06
           31350     558.831E+03    -1.16502E+06              0.    -1.40601E+06
           31351     634.398E+03    -1.21832E+06              0.    -1.42020E+06
           31352     713.069E+03    -1.27349E+06              0.    -1.43455E+06
           31353     794.958E+03    -1.33059E+06              0.    -1.44907E+06
           31354     880.180E+03    -1.38967E+06              0.    -1.46376E+06
           31355     968.857E+03    -1.45077E+06              0.    -1.47862E+06
           31356     1.06111E+06    -1.51395E+06              0.    -1.49368E+06
           31357     1.15707E+06    -1.57925E+06              0.    -1.50892E+06
           31358     1.25688E+06    -1.64673E+06              0.    -1.52436E+06
           31359     1.36066E+06    -1.71645E+06              0.    -1.54000E+06
           31360     1.46855E+06    -1.78845E+06              0.    -1.55586E+06
           31361     1.58072E+06    -1.86279E+06              0.    -1.57194E+06
           31362     1.69730E+06    -1.93951E+06              0.    -1.58826E+06
           31363     1.81845E+06    -2.01869E+06              0.    -1.60481E+06
           31364     1.94433E+06    -2.10036E+06              0.    -1.62162E+06
           31365     2.07512E+06    -2.18459E+06              0.    -1.63870E+06
           31366     2.21097E+06    -2.27142E+06              0.    -1.65605E+06
           31367     2.35208E+06    -2.36092E+06              0.    -1.67369E+06
           31368     2.49861E+06    -2.45313E+06              0.    -1.69163E+06
           31369     2.65076E+06    -2.54811E+06              0.    -1.70990E+06
           31370     2.80873E+06    -2.64592E+06              0.    -1.72850E+06
           31371     2.97271E+06    -2.74660E+06              0.    -1.74746E+06
           31372     3.14291E+06    -2.85020E+06              0.    -1.76679E+06
           31373     3.31955E+06    -2.95679E+06              0.    -1.78651E+06
           31374     3.50283E+06    -3.06641E+06              0.    -1.80664E+06
           31375     3.69300E+06    -3.17910E+06              0.    -1.82720E+06
           31376     3.89028E+06    -3.29491E+06              0.    -1.84823E+06
           31377     4.09491E+06    -3.41389E+06              0.    -1.86973E+06
           31378     4.30714E+06    -3.53608E+06              0.    -1.89173E+06
           31379     4.52722E+06    -3.66152E+06              0.    -1.91427E+06
           31380     4.75542E+06    -3.79025E+06              0.    -1.93737E+06
           31381     4.99200E+06    -3.92230E+06              0.    -1.96107E+06
           31382     5.23725E+06    -4.05771E+06              0.    -1.98538E+06
           31383     5.49145E+06    -4.19649E+06              0.    -2.01035E+06
           31384     5.75490E+06    -4.33867E+06              0.    -2.03601E+06
           31385     6.02788E+06    -4.48427E+06              0.    -2.06239E+06
           31386     6.31072E+06    -4.63331E+06              0.    -2.08954E+06
           31387     6.60374E+06    -4.78578E+06              0.    -2.11749E+06
           31388     6.90725E+06    -4.94170E+06              0.    -2.14629E+06
           31389     7.22160E+06    -5.10104E+06              0.    -2.17597E+06
           31390     7.54714E+06    -5.26381E+06              0.    -2.20659E+06
           31391     7.88421E+06    -5.42997E+06              0.    -2.23818E+06
           31392     8.23319E+06    -5.59949E+06              0.    -2.27079E+06
           31393     8.59443E+06    -5.77233E+06              0.    -2.30449E+06
           31394     8.96833E+06    -5.94845E+06              0.    -2.33931E+06
           31395     9.35527E+06    -6.12776E+06              0.    -2.37531E+06
           31396     9.75566E+06    -6.31021E+06              0.    -2.41254E+06
           31397     10.1699E+06    -6.49569E+06              0.    -2.45107E+06
           31398     10.5984E+06    -6.68409E+06              0.    -2.49094E+06
           31399     11.0416E+06    -6.87531E+06              0.    -2.53222E+06
           31400     11.5000E+06    -7.06919E+06              0.    -2.57497E+06
           31401     11.9739E+06    -7.26558E+06              0.    -2.61925E+06
           31402     12.4639E+06    -7.46429E+06              0.    -2.66512E+06
           31403     12.9704E+06    -7.66512E+06              0.    -2.71264E+06
           31404     13.4938E+06    -7.86785E+06              0.    -2.76188E+06
           31405     14.0347E+06    -8.07222E+06              0.    -2.81291E+06
           31406     14.5935E+06    -8.27796E+06              0.    -2.86578E+06
           31407     15.1708E+06    -8.48474E+06              0.    -2.92055E+06
           31408     15.7670E+06    -8.69222E+06              0.    -2.97730E+06
           31409     16.3826E+06    -8.90003E+06              0.    -3.03608E+06
           31410     17.0182E+06    -9.10774E+06              0.    -3.09695E+06
           31411     17.6743E+06    -9.31490E+06              0.    -3.15997E+06
           31412     18.3513E+06    -9.52100E+06              0.    -3.22520E+06
           31413     19.0499E+06     -9.7255E+06              0.    -3.29268E+06
           31414     19.7705E+06    -9.92779E+06              0.    -3.36247E+06
           31415     20.5137E+06    -10.1272E+06              0.    -3.43460E+06
           31416     21.2799E+06    -10.3231E+06              0.    -3.50912E+06
           31417     22.0698E+06    -10.5145E+06              0.    -3.58606E+06
           31418     22.8837E+06    -10.7008E+06              0.    -3.66543E+06
           31419     23.7224E+06    -10.8810E+06              0.    -3.74727E+06
           31420     24.5861E+06    -11.0540E+06              0.    -3.83156E+06
           31421     25.4755E+06    -11.2188E+06              0.    -3.91832E+06
           31422     26.3911E+06    -11.3743E+06              0.    -4.00752E+06
           31423     27.3332E+06    -11.5191E+06              0.    -4.09913E+06
           31424     28.3023E+06    -11.6519E+06              0.    -4.19312E+06
           31425     29.2988E+06    -11.7713E+06              0.    -4.28942E+06
           31426     30.3232E+06    -11.8755E+06              0.    -4.38796E+06
           31427     31.3758E+06    -11.9629E+06              0.    -4.48864E+06
           31428     32.4570E+06    -12.0316E+06              0.    -4.59135E+06
           31429     33.5670E+06    -12.0796E+06              0.    -4.69595E+06
           31430     34.7060E+06    -12.1048E+06              0.    -4.80227E+06
           31431     35.8744E+06    -12.1049E+06              0.    -4.91013E+06
           31432     37.0721E+06    -12.0772E+06              0.    -5.01931E+06
           31433     38.2994E+06    -12.0192E+06              0.    -5.12956E+06
           31434     39.5563E+06    -11.9279E+06              0.    -5.24060E+06
           31435     40.8426E+06    -11.8002E+06              0.    -5.35212E+06
           31436     42.1582E+06    -11.6329E+06              0.    -5.46377E+06
           31437     43.5029E+06    -11.4222E+06              0.    -5.57515E+06
           31438     44.8765E+06    -11.1645E+06              0.    -5.68583E+06
           31439     46.2783E+06    -10.8555E+06              0.    -5.79535E+06
           31440     47.7080E+06    -10.4909E+06              0.    -5.90319E+06
           31441     49.1647E+06    -10.0660E+06              0.    -6.00878E+06
           31442     50.6478E+06    -9.57567E+06              0.    -6.11151E+06
           31443     52.1561E+06    -9.01461E+06              0.    -6.21071E+06
           31444     53.6887E+06    -8.37706E+06              0.    -6.30568E+06
           31445     55.2442E+06    -7.65685E+06              0.    -6.39565E+06
           31446     56.8212E+06    -6.84745E+06              0.    -6.47981E+06
           31447     58.4180E+06    -5.94185E+06              0.    -6.55727E+06
           31448     60.0326E+06    -4.93263E+06              0.    -6.62713E+06
           31449     61.6632E+06    -3.81185E+06              0.    -6.68841E+06
           31450     63.3073E+06    -2.57107E+06              0.    -6.74006E+06
           31451     64.9625E+06    -1.20135E+06              0.    -6.78103E+06
           31452     66.6258E+06     306.876E+03              0.    -6.81019E+06
           31453     68.2945E+06     1.96370E+06              0.    -6.82636E+06
           31454     69.9650E+06     3.77984E+06              0.    -6.82833E+06
           31455     71.6340E+06     5.76669E+06              0.    -6.81487E+06
           31456     73.2974E+06     7.93627E+06              0.    -6.78471E+06
           31457     74.9513E+06     10.3014E+06              0.    -6.73654E+06
           31458     76.5913E+06     12.8754E+06              0.    -6.66906E+06
           31459     78.2127E+06     15.6726E+06              0.    -6.58096E+06
           31460     79.8105E+06     18.7081E+06              0.    -6.47094E+06
           31461     81.3796E+06     21.9975E+06              0.    -6.33773E+06
           31462     82.9145E+06     25.5577E+06              0.    -6.18009E+06
           31463     84.4097E+06     29.4061E+06              0.    -5.99683E+06
           31464     85.8593E+06     33.5612E+06              0.    -5.78684E+06
           31465     87.6452E+06     38.1955E+06              0.    -5.83925E+06
           31466    -892.103E+03    -400.508E+03              0.    -874.963E+03
           31467    -890.544E+03    -385.857E+03              0.    -873.427E+03
           31468    -895.310E+03    -374.149E+03              0.    -865.047E+03
           31469    -900.047E+03    -362.521E+03              0.    -857.120E+03
           31470    -904.746E+03    -350.986E+03              0.    -849.639E+03
           31471    -909.400E+03    -339.556E+03              0.    -842.594E+03
           31472    -914.001E+03    -328.243E+03              0.    -835.978E+03
           31473    -918.541E+03    -317.057E+03              0.    -829.784E+03
           31474    -923.015E+03    -306.009E+03              0.    -824.004E+03
           31475    -927.414E+03    -295.109E+03              0.    -818.630E+03
           31476    -931.733E+03    -284.366E+03              0.    -813.657E+03
           31477    -935.966E+03    -273.790E+03              0.    -809.076E+03
           31478    -940.105E+03    -263.388E+03              0.    -804.881E+03
           31479    -944.145E+03    -253.170E+03              0.    -801.066E+03
           31480    -948.080E+03    -243.142E+03              0.    -797.623E+03
           31481    -951.904E+03    -233.313E+03              0.    -794.547E+03
           31482    -955.611E+03    -223.691E+03              0.    -791.832E+03
           31483    -959.195E+03    -214.281E+03              0.    -789.471E+03
           31484    -962.650E+03    -205.092E+03              0.    -787.458E+03
           31485    -965.971E+03    -196.131E+03              0.    -785.788E+03
           31486    -969.152E+03    -187.402E+03              0.    -784.454E+03
           31487    -972.186E+03    -178.914E+03              0.    -783.453E+03
           31488    -975.067E+03    -170.673E+03              0.    -782.777E+03
           31489    -977.789E+03    -162.684E+03              0.    -782.422E+03
           31490    -980.347E+03    -154.955E+03              0.    -782.383E+03
           31491    -982.734E+03    -147.491E+03              0.    -782.654E+03
           31492    -984.943E+03    -140.298E+03              0.    -783.231E+03
           31493    -986.967E+03    -133.383E+03              0.    -784.108E+03
           31494    -988.800E+03    -126.752E+03              0.    -785.282E+03
           31495    -990.434E+03    -120.411E+03              0.    -786.747E+03
           31496    -991.863E+03    -114.366E+03              0.    -788.499E+03
           31497    -993.078E+03    -108.623E+03              0.    -790.534E+03
           31498    -994.072E+03    -103.190E+03              0.    -792.848E+03
           31499    -994.837E+03    -98.0716E+03              0.    -795.435E+03
           31500    -995.364E+03    -93.2756E+03              0.    -798.293E+03
           31501    -995.645E+03    -88.8083E+03              0.    -801.417E+03
           31502    -995.671E+03    -84.6768E+03              0.    -804.803E+03
           31503    -995.431E+03    -80.8880E+03              0.    -808.448E+03
           31504    -994.918E+03    -77.4493E+03              0.    -812.347E+03
           31505    -994.119E+03    -74.3680E+03              0.    -816.498E+03
           31506    -993.026E+03    -71.6517E+03              0.    -820.896E+03
           31507    -991.626E+03    -69.3084E+03              0.    -825.539E+03
           31508    -989.909E+03    -67.3461E+03              0.    -830.422E+03
           31509    -987.863E+03    -65.7733E+03              0.    -835.544E+03
           31510    -985.474E+03    -64.5984E+03              0.    -840.900E+03
           31511    -982.732E+03    -63.8305E+03              0.    -846.487E+03
           31512    -979.621E+03    -63.4787E+03              0.    -852.304E+03
           31513    -976.128E+03    -63.5525E+03              0.    -858.346E+03
           31514    -972.239E+03    -64.0617E+03              0.    -864.611E+03
           31515    -967.939E+03    -65.0166E+03              0.    -871.096E+03
           31516    -963.212E+03    -66.4276E+03              0.    -877.799E+03
           31517    -958.040E+03    -68.3055E+03              0.    -884.717E+03
           31518    -952.409E+03    -70.6618E+03              0.    -891.848E+03
           31519    -946.299E+03    -73.5079E+03              0.    -899.189E+03
           31520    -939.693E+03    -76.8560E+03              0.    -906.739E+03
           31521    -932.571E+03    -80.7185E+03              0.    -914.494E+03
           31522    -924.913E+03    -85.1084E+03              0.    -922.453E+03
           31523    -916.699E+03     -90.039E+03              0.    -930.614E+03
           31524    -907.907E+03    -95.5241E+03              0.    -938.975E+03
           31525    -898.514E+03    -101.578E+03              0.    -947.534E+03
           31526    -888.498E+03    -108.216E+03              0.    -956.290E+03
           31527    -877.835E+03    -115.452E+03              0.    -965.240E+03
           31528    -866.498E+03    -123.303E+03              0.    -974.384E+03
           31529    -854.462E+03    -131.786E+03              0.    -983.720E+03
           31530    -841.701E+03    -140.916E+03              0.    -993.246E+03
           31531    -828.185E+03    -150.711E+03              0.    -1.00296E+06
           31532    -813.885E+03    -161.191E+03              0.    -1.01287E+06
           31533    -798.771E+03    -172.372E+03              0.    -1.02296E+06
           31534    -782.812E+03    -184.275E+03              0.    -1.03323E+06
           31535    -765.974E+03    -196.918E+03              0.    -1.04370E+06
           31536    -748.224E+03    -210.324E+03              0.    -1.05434E+06
           31537    -729.527E+03    -224.512E+03              0.    -1.06518E+06
           31538    -709.845E+03    -239.506E+03              0.    -1.07619E+06
           31539    -689.141E+03    -255.326E+03              0.    -1.08739E+06
           31540    -667.375E+03    -271.996E+03              0.    -1.09877E+06
           31541    -644.507E+03    -289.541E+03              0.    -1.11034E+06
           31542    -620.494E+03    -307.985E+03              0.    -1.12209E+06
           31543    -595.292E+03    -327.352E+03              0.    -1.13402E+06
           31544    -568.855E+03    -347.670E+03              0.    -1.14614E+06
           31545    -541.137E+03    -368.966E+03              0.    -1.15844E+06
           31546    -512.088E+03    -391.266E+03              0.    -1.17093E+06
           31547    -481.657E+03    -414.598E+03              0.    -1.18361E+06
           31548    -449.793E+03    -438.994E+03              0.    -1.19647E+06
           31549    -416.439E+03    -464.482E+03              0.    -1.20952E+06
           31550    -381.541E+03    -491.092E+03              0.    -1.22276E+06
           31551    -345.039E+03    -518.858E+03              0.    -1.23619E+06
           31552    -306.873E+03    -547.811E+03              0.    -1.24982E+06
           31553    -266.980E+03    -577.985E+03              0.    -1.26364E+06
           31554    -225.294E+03    -609.414E+03              0.    -1.27766E+06
           31555    -181.750E+03    -642.133E+03              0.    -1.29189E+06
           31556    -136.277E+03    -676.177E+03              0.    -1.30631E+06
           31557    -88.8021E+03    -711.585E+03              0.    -1.32094E+06
           31558    -39.2519E+03    -748.393E+03              0.    -1.33579E+06
           31559     12.4512E+03    -786.640E+03              0.    -1.35085E+06
           31560     66.3874E+03    -826.365E+03              0.    -1.36612E+06
           31561     122.639E+03    -867.609E+03              0.    -1.38162E+06
           31562     181.292E+03    -910.413E+03              0.    -1.39735E+06
           31563     242.435E+03    -954.819E+03              0.    -1.41331E+06
           31564     306.159E+03    -1.00087E+06              0.    -1.42951E+06
           31565     372.560E+03    -1.04861E+06              0.    -1.44595E+06
           31566     441.734E+03    -1.09808E+06              0.    -1.46264E+06
           31567     513.784E+03    -1.14933E+06              0.    -1.47959E+06
           31568     588.813E+03    -1.20241E+06              0.    -1.49680E+06
           31569     666.931E+03    -1.25736E+06              0.    -1.51429E+06
           31570     748.249E+03    -1.31423E+06              0.    -1.53205E+06
           31571     832.883E+03    -1.37307E+06              0.    -1.55011E+06
           31572     920.952E+03    -1.43392E+06              0.    -1.56846E+06
           31573     1.01258E+06    -1.49685E+06              0.    -1.58713E+06
           31574     1.10789E+06    -1.56189E+06              0.    -1.60611E+06
           31575     1.20702E+06    -1.62910E+06              0.    -1.62542E+06
           31576     1.31011E+06    -1.69853E+06              0.    -1.64507E+06
           31577     1.41729E+06    -1.77024E+06              0.    -1.66508E+06
           31578     1.52871E+06    -1.84427E+06              0.    -1.68546E+06
           31579     1.64452E+06    -1.92068E+06              0.    -1.70622E+06
           31580     1.76487E+06    -1.99952E+06              0.    -1.72737E+06
           31581     1.88993E+06    -2.08085E+06              0.    -1.74894E+06
           31582     2.01985E+06    -2.16472E+06              0.    -1.77094E+06
           31583     2.15481E+06    -2.25118E+06              0.    -1.79339E+06
           31584     2.29499E+06    -2.34028E+06              0.    -1.81630E+06
           31585     2.44056E+06    -2.43209E+06              0.    -1.83970E+06
           31586     2.59171E+06    -2.52664E+06              0.    -1.86360E+06
           31587     2.74863E+06    -2.62400E+06              0.    -1.88804E+06
           31588     2.91153E+06    -2.72421E+06              0.    -1.91302E+06
           31589     3.08060E+06    -2.82733E+06              0.    -1.93858E+06
           31590     3.25605E+06    -2.93341E+06              0.    -1.96474E+06
           31591     3.43811E+06    -3.04249E+06              0.    -1.99153E+06
           31592     3.62700E+06    -3.15461E+06              0.    -2.01898E+06
           31593     3.82295E+06    -3.26984E+06              0.    -2.04710E+06
           31594     4.02619E+06    -3.38821E+06              0.    -2.07595E+06
           31595     4.23697E+06    -3.50975E+06              0.    -2.10554E+06
           31596     4.45554E+06    -3.63452E+06              0.    -2.13591E+06
           31597     4.68216E+06    -3.76254E+06              0.    -2.16711E+06
           31598     4.91710E+06    -3.89385E+06              0.    -2.19915E+06
           31599     5.16062E+06    -4.02847E+06              0.    -2.23209E+06
           31600     5.41302E+06    -4.16644E+06              0.    -2.26595E+06
           31601     5.67458E+06    -4.30777E+06              0.    -2.30080E+06
           31602     5.94560E+06    -4.45248E+06              0.    -2.33666E+06
           31603     6.22638E+06    -4.60058E+06              0.    -2.37358E+06
           31604     6.51725E+06    -4.75208E+06              0.    -2.41162E+06
           31605     6.81851E+06    -4.90697E+06              0.    -2.45081E+06
           31606     7.13051E+06    -5.06525E+06              0.    -2.49121E+06
           31607     7.45359E+06    -5.22689E+06              0.    -2.53288E+06
           31608     7.78809E+06    -5.39189E+06              0.    -2.57586E+06
           31609     8.13437E+06    -5.56019E+06              0.    -2.62021E+06
           31610     8.49280E+06    -5.73176E+06              0.    -2.66599E+06
           31611     8.86375E+06    -5.90655E+06              0.    -2.71326E+06
           31612     9.24761E+06    -6.08448E+06              0.    -2.76208E+06
           31613     9.64477E+06    -6.26549E+06              0.    -2.81252E+06
           31614     10.0556E+06    -6.44947E+06              0.    -2.86463E+06
           31615     10.4806E+06    -6.63632E+06              0.    -2.91848E+06
           31616     10.9201E+06    -6.82592E+06              0.    -2.97414E+06
           31617     11.3746E+06    -7.01812E+06              0.    -3.03167E+06
           31618     11.8445E+06    -7.21277E+06              0.    -3.09115E+06
           31619     12.3303E+06    -7.40967E+06              0.    -3.15264E+06
           31620     12.8323E+06    -7.60864E+06              0.    -3.21621E+06
           31621     13.3512E+06    -7.80944E+06              0.    -3.28194E+06
           31622     13.8872E+06    -8.01182E+06              0.    -3.34988E+06
           31623     14.4410E+06    -8.21550E+06              0.    -3.42012E+06
           31624     15.0130E+06    -8.42017E+06              0.    -3.49271E+06
           31625     15.6038E+06    -8.62548E+06              0.    -3.56772E+06
           31626     16.2137E+06    -8.83106E+06              0.    -3.64523E+06
           31627     16.8433E+06    -9.03649E+06              0.    -3.72528E+06
           31628     17.4931E+06    -9.24132E+06              0.    -3.80794E+06
           31629     18.1636E+06    -9.44505E+06              0.    -3.89327E+06
           31630     18.8554E+06    -9.64713E+06              0.    -3.98132E+06
           31631     19.5690E+06    -9.84696E+06              0.    -4.07212E+06
           31632     20.3048E+06    -10.0439E+06              0.    -4.16573E+06
           31633     21.0634E+06    -10.2372E+06              0.    -4.26217E+06
           31634     21.8453E+06    -10.4262E+06              0.    -4.36148E+06
           31635     22.6510E+06    -10.6100E+06              0.    -4.46366E+06
           31636     23.4811E+06    -10.7876E+06              0.    -4.56872E+06
           31637     24.3359E+06    -10.9582E+06              0.    -4.67666E+06
           31638     25.2160E+06    -11.1205E+06              0.    -4.78746E+06
           31639     26.1220E+06    -11.2736E+06              0.    -4.90109E+06
           31640     27.0541E+06    -11.4161E+06              0.    -5.01749E+06
           31641     28.0129E+06    -11.5466E+06              0.     -5.1366E+06
           31642     28.9988E+06    -11.6638E+06              0.    -5.25834E+06
           31643     30.0122E+06    -11.7659E+06              0.    -5.38260E+06
           31644     31.0534E+06    -11.8515E+06              0.    -5.50926E+06
           31645     32.1228E+06    -11.9185E+06              0.    -5.63815E+06
           31646     33.2206E+06    -11.9650E+06              0.    -5.76909E+06
           31647     34.3471E+06    -11.9889E+06              0.    -5.90189E+06
           31648     35.5026E+06    -11.9879E+06              0.    -6.03630E+06
           31649     36.6871E+06    -11.9595E+06              0.    -6.17203E+06
           31650     37.9007E+06    -11.9011E+06              0.    -6.30879E+06
           31651     39.1435E+06    -11.8098E+06              0.    -6.44622E+06
           31652     40.4154E+06    -11.6826E+06              0.    -6.58393E+06
           31653     41.7163E+06    -11.5161E+06              0.    -6.72149E+06
           31654     43.0459E+06    -11.3069E+06              0.    -6.85841E+06
           31655     44.4039E+06    -11.0511E+06              0.    -6.99418E+06
           31656     45.7899E+06    -10.7447E+06              0.    -7.12821E+06
           31657     47.2034E+06    -10.3834E+06              0.    -7.25987E+06
           31658     48.6436E+06    -9.96244E+06              0.    -7.38847E+06
           31659     50.1098E+06    -9.47695E+06              0.    -7.51326E+06
           31660     51.6010E+06    -8.92156E+06              0.    -7.63346E+06
           31661     53.1161E+06    -8.29060E+06              0.    -7.74818E+06
           31662     54.6539E+06    -7.57800E+06              0.    -7.85651E+06
           31663     56.2127E+06    -6.77726E+06              0.    -7.95746E+06
           31664     57.7911E+06    -5.88149E+06              0.    -8.04998E+06
           31665     59.3872E+06     -4.8833E+06              0.    -8.13294E+06
           31666     60.9988E+06    -3.77486E+06              0.    -8.20518E+06
           31667     62.6238E+06    -2.54780E+06              0.    -8.26545E+06
           31668     64.2594E+06    -1.19323E+06              0.    -8.31246E+06
           31669     65.9031E+06     298.301E+03              0.    -8.34485E+06
           31670     67.5517E+06     1.93683E+06              0.    -8.36121E+06
           31671     69.2020E+06     3.73300E+06              0.    -8.36009E+06
           31672     70.8503E+06     5.69814E+06              0.    -8.33998E+06
           31673     72.4928E+06     7.84418E+06              0.    -8.29935E+06
           31674     74.1255E+06     10.1839E+06              0.    -8.23665E+06
           31675     75.7437E+06     12.7306E+06              0.    -8.15029E+06
           31676     77.3430E+06     15.4984E+06              0.    -8.03870E+06
           31677     78.9182E+06     18.5025E+06              0.    -7.90031E+06
           31678     80.4640E+06     21.7585E+06              0.    -7.73358E+06
           31679     81.9750E+06     25.2831E+06              0.    -7.53700E+06
           31680     83.4454E+06     29.0939E+06              0.    -7.30916E+06
           31681     84.8688E+06     33.2091E+06              0.    -7.04870E+06
           31682     86.6348E+06     37.7995E+06              0.    -7.11024E+06
           31683    -912.482E+03    -409.696E+03              0.    -870.047E+03
           31684    -910.860E+03    -394.460E+03              0.    -868.517E+03
           31685    -915.817E+03    -382.291E+03              0.    -860.164E+03
           31686    -920.742E+03    -370.210E+03              0.    -852.272E+03
           31687    -925.629E+03    -358.231E+03              0.    -844.833E+03
           31688    -930.468E+03    -346.364E+03              0.    -837.839E+03
           31689    -935.253E+03    -334.622E+03              0.    -831.281E+03
           31690    -939.976E+03    -323.015E+03              0.    -825.151E+03
           31691    -944.631E+03    -311.554E+03              0.    -819.443E+03
           31692    -949.211E+03    -300.247E+03              0.    -814.147E+03
           31693    -953.710E+03    -289.105E+03              0.    -809.258E+03
           31694    -958.121E+03    -278.136E+03              0.    -804.768E+03
           31695    -962.438E+03    -267.348E+03              0.    -800.670E+03
           31696    -966.655E+03    -256.750E+03              0.    -796.957E+03
           31697    -970.767E+03    -246.350E+03              0.    -793.623E+03
           31698    -974.767E+03    -236.155E+03              0.    -790.662E+03
           31699    -978.650E+03    -226.172E+03              0.    -788.067E+03
           31700    -982.409E+03    -216.408E+03              0.    -785.831E+03
           31701    -986.040E+03    -206.870E+03              0.    -783.951E+03
           31702    -989.536E+03    -197.566E+03              0.    -782.418E+03
           31703    -992.892E+03    -188.500E+03              0.    -781.228E+03
           31704    -996.101E+03    -179.680E+03              0.    -780.376E+03
           31705    -999.159E+03    -171.112E+03              0.    -779.856E+03
           31706    -1.00206E+06    -162.802E+03              0.    -779.663E+03
           31707    -1.00479E+06    -154.756E+03              0.    -779.791E+03
           31708    -1.00736E+06    -146.981E+03              0.    -780.236E+03
           31709    -1.00974E+06    -139.481E+03              0.    -780.994E+03
           31710    -1.01194E+06    -132.264E+03              0.    -782.059E+03
           31711    -1.01396E+06    -125.335E+03              0.    -783.427E+03
           31712    -1.01577E+06    -118.701E+03              0.    -785.094E+03
           31713    -1.01738E+06    -112.367E+03              0.    -787.056E+03
           31714    -1.01878E+06    -106.340E+03              0.    -789.307E+03
           31715    -1.01996E+06    -100.625E+03              0.    -791.845E+03
           31716    -1.02091E+06    -95.2306E+03              0.    -794.665E+03
           31717    -1.02162E+06    -90.1617E+03              0.    -797.764E+03
           31718    -1.02209E+06    -85.4255E+03              0.    -801.138E+03
           31719    -1.02230E+06    -81.0285E+03              0.    -804.783E+03
           31720    -1.02225E+06    -76.9778E+03              0.    -808.696E+03
           31721    -1.02193E+06    -73.2806E+03              0.    -812.874E+03
           31722    -1.02133E+06    -69.9442E+03              0.    -817.313E+03
           31723    -1.02043E+06    -66.9760E+03              0.    -822.011E+03
           31724    -1.01923E+06    -64.3839E+03              0.    -826.964E+03
           31725    -1.01771E+06    -62.1759E+03              0.    -832.170E+03
           31726    -1.01587E+06    -60.3602E+03              0.    -837.625E+03
           31727    -1.01368E+06    -58.9454E+03              0.    -843.328E+03
           31728    -1.01115E+06    -57.9401E+03              0.    -849.275E+03
           31729    -1.00825E+06    -57.3537E+03              0.    -855.465E+03
           31730    -1.00497E+06    -57.1953E+03              0.    -861.894E+03
           31731    -1.00129E+06    -57.4749E+03              0.    -868.561E+03
           31732    -997.212E+03    -58.2023E+03              0.    -875.464E+03
           31733    -992.706E+03    -59.3882E+03              0.    -882.600E+03
           31734    -987.759E+03    -61.0431E+03              0.    -889.968E+03
           31735    -982.355E+03    -63.1783E+03              0.    -897.566E+03
           31736    -976.476E+03    -65.8054E+03              0.    -905.393E+03
           31737    -970.103E+03    -68.9362E+03              0.    -913.446E+03
           31738    -963.219E+03    -72.5832E+03              0.    -921.724E+03
           31739    -955.803E+03    -76.7592E+03              0.    -930.227E+03
           31740    -947.834E+03    -81.4774E+03              0.    -938.952E+03
           31741    -939.291E+03    -86.7515E+03              0.    -947.900E+03
           31742    -930.152E+03    -92.5957E+03              0.    -957.068E+03
           31743    -920.394E+03    -99.0247E+03              0.    -966.456E+03
           31744    -909.993E+03    -106.054E+03              0.    -976.064E+03
           31745    -898.923E+03    -113.698E+03              0.    -985.890E+03
           31746    -887.159E+03    -121.975E+03              0.    -995.935E+03
           31747    -874.674E+03    -130.900E+03              0.    -1.00620E+06
           31748    -861.439E+03    -140.492E+03              0.    -1.01668E+06
           31749    -847.427E+03    -150.767E+03              0.    -1.02738E+06
           31750    -832.606E+03    -161.745E+03              0.    -1.03829E+06
           31751    -816.944E+03    -173.444E+03              0.    -1.04943E+06
           31752    -800.411E+03    -185.885E+03              0.    -1.06078E+06
           31753    -782.971E+03    -199.087E+03              0.    -1.07236E+06
           31754    -764.590E+03    -213.072E+03              0.    -1.08415E+06
           31755    -745.231E+03    -227.861E+03              0.    -1.09616E+06
           31756    -724.857E+03    -243.477E+03              0.    -1.10840E+06
           31757    -703.428E+03    -259.942E+03              0.    -1.12086E+06
           31758    -680.904E+03    -277.281E+03              0.    -1.13354E+06
           31759    -657.243E+03    -295.518E+03              0.    -1.14645E+06
           31760    -632.401E+03    -314.677E+03              0.    -1.15959E+06
           31761    -606.332E+03    -334.786E+03              0.    -1.17296E+06
           31762    -578.990E+03    -355.870E+03              0.    -1.18656E+06
           31763    -550.326E+03    -377.957E+03              0.    -1.20040E+06
           31764    -520.290E+03    -401.075E+03              0.    -1.21447E+06
           31765    -488.830E+03    -425.253E+03              0.    -1.22879E+06
           31766    -455.890E+03    -450.522E+03              0.    -1.24335E+06
           31767    -421.416E+03    -476.911E+03              0.    -1.25815E+06
           31768    -385.349E+03    -504.451E+03              0.    -1.27321E+06
           31769    -347.629E+03    -533.176E+03              0.    -1.28852E+06
           31770    -308.193E+03    -563.119E+03              0.    -1.30409E+06
           31771    -266.978E+03    -594.312E+03              0.    -1.31993E+06
           31772    -223.916E+03    -626.792E+03              0.    -1.33603E+06
           31773    -178.938E+03    -660.593E+03              0.    -1.35241E+06
           31774    -131.972E+03    -695.752E+03              0.    -1.36907E+06
           31775     -82.945E+03    -732.307E+03              0.    -1.38601E+06
           31776    -31.7798E+03    -770.295E+03              0.    -1.40325E+06
           31777     21.6030E+03    -809.756E+03              0.    -1.42078E+06
           31778     77.2852E+03    -850.730E+03              0.    -1.43862E+06
           31779     135.352E+03    -893.257E+03              0.    -1.45678E+06
           31780     195.891E+03    -937.380E+03              0.    -1.47525E+06
           31781     258.993E+03     -983.14E+03              0.    -1.49406E+06
           31782     324.752E+03    -1.03058E+06              0.    -1.51320E+06
           31783     393.265E+03    -1.07975E+06              0.    -1.53270E+06
           31784     464.633E+03    -1.13068E+06              0.    -1.55255E+06
           31785     538.958E+03    -1.18344E+06              0.    -1.57277E+06
           31786     616.349E+03    -1.23805E+06              0.    -1.59337E+06
           31787     696.917E+03    -1.29457E+06              0.    -1.61436E+06
           31788     780.775E+03    -1.35306E+06              0.    -1.63576E+06
           31789     868.042E+03    -1.41354E+06              0.    -1.65758E+06
           31790     958.841E+03    -1.47609E+06              0.    -1.67983E+06
           31791     1.05330E+06    -1.54074E+06              0.    -1.70252E+06
           31792     1.15154E+06    -1.60754E+06              0.    -1.72568E+06
           31793     1.25371E+06    -1.67655E+06              0.    -1.74931E+06
           31794     1.35994E+06    -1.74782E+06              0.    -1.77344E+06
           31795     1.47037E+06     -1.8214E+06              0.    -1.79808E+06
           31796     1.58516E+06    -1.89734E+06              0.    -1.82325E+06
           31797     1.70445E+06    -1.97570E+06              0.    -1.84898E+06
           31798     1.82841E+06    -2.05652E+06              0.    -1.87527E+06
           31799     1.95719E+06    -2.13986E+06              0.    -1.90216E+06
           31800     2.09097E+06    -2.22577E+06              0.    -1.92966E+06
           31801     2.22992E+06    -2.31431E+06              0.    -1.95780E+06
           31802     2.37421E+06    -2.40552E+06              0.    -1.98661E+06
           31803     2.52403E+06    -2.49946E+06              0.    -2.01611E+06
           31804     2.67958E+06    -2.59618E+06              0.    -2.04632E+06
           31805     2.84104E+06    -2.69573E+06              0.    -2.07729E+06
           31806     3.00862E+06    -2.79815E+06              0.    -2.10903E+06
           31807     3.18253E+06    -2.90350E+06              0.    -2.14157E+06
           31808     3.36297E+06    -3.01183E+06              0.    -2.17496E+06
           31809     3.55018E+06    -3.12317E+06              0.    -2.20923E+06
           31810     3.74438E+06    -3.23758E+06              0.    -2.24440E+06
           31811     3.94580E+06    -3.35509E+06              0.    -2.28052E+06
           31812     4.15468E+06    -3.47575E+06              0.    -2.31763E+06
           31813     4.37127E+06    -3.59959E+06              0.    -2.35576E+06
           31814     4.59583E+06    -3.72665E+06              0.    -2.39496E+06
           31815     4.82862E+06    -3.85695E+06              0.    -2.43528E+06
           31816     5.06990E+06    -3.99053E+06              0.    -2.47675E+06
           31817     5.31996E+06    -4.12740E+06              0.    -2.51943E+06
           31818     5.57908E+06    -4.26760E+06              0.    -2.56337E+06
           31819     5.84756E+06    -4.41112E+06              0.    -2.60860E+06
           31820     6.12569E+06    -4.55799E+06              0.    -2.65520E+06
           31821     6.41379E+06    -4.70820E+06              0.    -2.70321E+06
           31822     6.71216E+06    -4.86176E+06              0.    -2.75269E+06
           31823     7.02115E+06    -5.01864E+06              0.    -2.80369E+06
           31824     7.34108E+06    -5.17884E+06              0.    -2.85629E+06
           31825     7.67229E+06    -5.34233E+06              0.    -2.91053E+06
           31826     8.01514E+06    -5.50907E+06              0.    -2.96648E+06
           31827     8.36998E+06    -5.67902E+06              0.    -3.02422E+06
           31828     8.73719E+06    -5.85212E+06              0.    -3.08379E+06
           31829     9.11715E+06     -6.0283E+06              0.    -3.14528E+06
           31830     9.51024E+06    -6.20749E+06              0.    -3.20876E+06
           31831     9.91685E+06    -6.38959E+06              0.    -3.27429E+06
           31832     10.3374E+06    -6.57449E+06              0.    -3.34194E+06
           31833     10.7723E+06    -6.76207E+06              0.    -3.41180E+06
           31834     11.2219E+06    -6.95219E+06              0.    -3.48393E+06
           31835     11.6868E+06    -7.14469E+06              0.    -3.55842E+06
           31836     12.1673E+06    -7.33937E+06              0.    -3.63533E+06
           31837     12.6638E+06    -7.53605E+06              0.    -3.71474E+06
           31838     13.1769E+06    -7.73449E+06              0.    -3.79673E+06
           31839     13.7070E+06    -7.93445E+06              0.    -3.88137E+06
           31840     14.2546E+06    -8.13564E+06              0.    -3.96873E+06
           31841     14.8201E+06    -8.33776E+06              0.    -4.05889E+06
           31842     15.4040E+06    -8.54046E+06              0.    -4.15192E+06
           31843     16.0069E+06    -8.74336E+06              0.    -4.24789E+06
           31844     16.6292E+06    -8.94607E+06              0.    -4.34686E+06
           31845     17.2713E+06    -9.14813E+06              0.    -4.44889E+06
           31846     17.9339E+06    -9.34903E+06              0.    -4.55403E+06
           31847     18.6174E+06    -9.54825E+06              0.    -4.66234E+06
           31848     19.3224E+06    -9.74520E+06              0.    -4.77387E+06
           31849     20.0492E+06    -9.93922E+06              0.    -4.88864E+06
           31850     20.7985E+06    -10.1296E+06              0.    -5.00669E+06
           31851     21.5708E+06    -10.3157E+06              0.    -5.12804E+06
           31852     22.3665E+06    -10.4965E+06              0.    -5.25269E+06
           31853     23.1861E+06    -10.6712E+06              0.    -5.38065E+06
           31854     24.0301E+06    -10.8389E+06              0.    -5.51189E+06
           31855     24.8991E+06    -10.9985E+06              0.    -5.64638E+06
           31856     25.7934E+06    -11.1488E+06              0.    -5.78407E+06
           31857     26.7136E+06    -11.2886E+06              0.    -5.92490E+06
           31858     27.6600E+06    -11.4165E+06              0.    -6.06877E+06
           31859     28.6330E+06    -11.5313E+06              0.    -6.21558E+06
           31860     29.6331E+06    -11.6312E+06              0.    -6.36519E+06
           31861     30.6606E+06    -11.7146E+06              0.    -6.51744E+06
           31862     31.7159E+06    -11.7798E+06              0.    -6.67215E+06
           31863     32.7992E+06    -11.8247E+06              0.    -6.82907E+06
           31864     33.9107E+06    -11.8473E+06              0.    -6.98798E+06
           31865     35.0507E+06    -11.8453E+06              0.    -7.14856E+06
           31866     36.2193E+06    -11.8163E+06              0.    -7.31049E+06
           31867     37.4166E+06    -11.7577E+06              0.    -7.47340E+06
           31868     38.6427E+06    -11.6666E+06              0.    -7.63686E+06
           31869     39.8974E+06    -11.5401E+06              0.    -7.80043E+06
           31870     41.1806E+06    -11.3749E+06              0.    -7.96357E+06
           31871     42.4922E+06    -11.1676E+06              0.    -8.12572E+06
           31872     43.8317E+06    -10.9144E+06              0.    -8.28625E+06
           31873     45.1988E+06    -10.6114E+06              0.    -8.44450E+06
           31874     46.5930E+06    -10.2542E+06              0.    -8.59970E+06
           31875     48.0136E+06    -9.83834E+06              0.    -8.75105E+06
           31876     49.4597E+06    -9.35883E+06              0.    -8.89768E+06
           31877     50.9304E+06    -8.81046E+06              0.    -9.03864E+06
           31878     52.4247E+06    -8.18763E+06              0.    -9.17291E+06
           31879     53.9413E+06    -7.48434E+06              0.    -9.29943E+06
           31880     55.4787E+06    -6.69419E+06              0.    -9.41701E+06
           31881     57.0352E+06    -5.81037E+06              0.    -9.52444E+06
           31882     58.6091E+06    -4.82559E+06              0.    -9.62041E+06
           31883     60.1982E+06    -3.73209E+06              0.    -9.70353E+06
           31884     61.8003E+06    -2.52160E+06              0.    -9.77235E+06
           31885     63.4128E+06    -1.18533E+06              0.    -9.82536E+06
           31886     65.0330E+06     286.094E+03              0.    -9.86097E+06
           31887     66.6578E+06     1.90261E+06              0.    -9.87752E+06
           31888     68.2839E+06     3.67478E+06              0.    -9.87331E+06
           31889     69.9077E+06     5.61383E+06              0.    -9.84659E+06
           31890     71.5254E+06     7.73164E+06              0.    -9.79554E+06
           31891     73.1327E+06     10.0408E+06              0.    -9.71835E+06
           31892     74.7252E+06     12.5548E+06              0.    -9.61316E+06
           31893     76.2980E+06     15.2875E+06              0.    -9.47811E+06
           31894     77.8463E+06     18.2540E+06              0.    -9.31137E+06
           31895     79.3646E+06     21.4700E+06              0.     -9.1111E+06
           31896     80.8472E+06     24.9521E+06              0.    -8.87554E+06
           31897     82.2883E+06     28.7178E+06              0.    -8.60297E+06
           31898     83.6816E+06     32.7856E+06              0.    -8.29182E+06
           31899     85.4248E+06     37.3241E+06              0.    -8.36117E+06
           31900    -932.832E+03    -418.872E+03              0.    -864.937E+03
           31901    -931.146E+03    -403.041E+03              0.    -863.414E+03
           31902    -936.297E+03    -390.402E+03              0.    -855.090E+03
           31903    -941.415E+03    -377.860E+03              0.    -847.235E+03
           31904    -946.492E+03    -365.428E+03              0.    -839.840E+03
           31905    -951.520E+03    -353.118E+03              0.    -832.898E+03
           31906    -956.493E+03    -340.940E+03              0.    -826.399E+03
           31907    -961.403E+03    -328.905E+03              0.    -820.335E+03
           31908    -966.243E+03    -317.023E+03              0.    -814.699E+03
           31909    -971.007E+03    -305.303E+03              0.    -809.483E+03
           31910    -975.688E+03    -293.755E+03              0.    -804.679E+03
           31911    -980.282E+03    -282.387E+03              0.    -800.280E+03
           31912    -984.780E+03    -271.208E+03              0.    -796.279E+03
           31913    -989.179E+03    -260.225E+03              0.     -792.67E+03
           31914    -993.471E+03    -249.446E+03              0.    -789.445E+03
           31915    -997.652E+03    -238.879E+03              0.    -786.598E+03
           31916    -1.00171E+06    -228.530E+03              0.    -784.124E+03
           31917    -1.00565E+06    -218.406E+03              0.    -782.015E+03
           31918    -1.00947E+06    -208.514E+03              0.    -780.265E+03
           31919    -1.01314E+06    -198.861E+03              0.    -778.870E+03
           31920    -1.01668E+06    -189.452E+03              0.    -777.824E+03
           31921    -1.02007E+06    -180.294E+03              0.    -777.121E+03
           31922    -1.02331E+06    -171.393E+03              0.    -776.756E+03
           31923    -1.02639E+06    -162.756E+03              0.    -776.723E+03
           31924    -1.02931E+06    -154.387E+03              0.    -777.019E+03
           31925    -1.03205E+06    -146.294E+03              0.    -777.638E+03
           31926    -1.03463E+06    -138.481E+03              0.    -778.576E+03
           31927    -1.03701E+06    -130.955E+03              0.    -779.827E+03
           31928    -1.03921E+06    -123.721E+03              0.    -781.389E+03
           31929    -1.04122E+06    -116.786E+03              0.    -783.256E+03
           31930    -1.04302E+06    -110.156E+03              0.    -785.425E+03
           31931    -1.04461E+06    -103.836E+03              0.    -787.892E+03
           31932    -1.04598E+06    -97.8336E+03              0.    -790.653E+03
           31933    -1.04712E+06    -92.1539E+03              0.    -793.704E+03
           31934    -1.04803E+06    -86.8036E+03              0.    -797.043E+03
           31935    -1.04870E+06    -81.7894E+03              0.    -800.664E+03
           31936    -1.04911E+06    -77.1177E+03              0.    -804.567E+03
           31937    -1.04927E+06    -72.7956E+03              0.    -808.746E+03
           31938    -1.04915E+06    -68.8299E+03              0.    -813.201E+03
           31939    -1.04875E+06    -65.2279E+03              0.    -817.927E+03
           31940    -1.04807E+06     -61.997E+03              0.    -822.921E+03
           31941    -1.04708E+06    -59.1448E+03              0.    -828.183E+03
           31942    -1.04578E+06    -56.6793E+03              0.    -833.708E+03
           31943    -1.04415E+06    -54.6086E+03              0.    -839.495E+03
           31944    -1.04219E+06    -52.9410E+03              0.    -845.541E+03
           31945    -1.03988E+06    -51.6853E+03              0.    -851.845E+03
           31946    -1.03720E+06    -50.8503E+03              0.    -858.405E+03
           31947    -1.03416E+06    -50.4455E+03              0.    -865.219E+03
           31948    -1.03072E+06    -50.4804E+03              0.    -872.285E+03
           31949    -1.02687E+06    -50.9649E+03              0.    -879.601E+03
           31950    -1.02261E+06    -51.9094E+03              0.    -887.167E+03
           31951    -1.01791E+06    -53.3245E+03              0.    -894.982E+03
           31952    -1.01276E+06    -55.2212E+03              0.    -903.043E+03
           31953    -1.00713E+06    -57.6109E+03              0.    -911.351E+03
           31954    -1.00102E+06    -60.5055E+03              0.    -919.904E+03
           31955    -994.401E+03    -63.9172E+03              0.    -928.701E+03
           31956    -987.254E+03    -67.8587E+03              0.    -937.743E+03
           31957    -979.559E+03    -72.3431E+03              0.    -947.028E+03
           31958    -971.296E+03    -77.3840E+03              0.    -956.557E+03
           31959    -962.442E+03    -82.9954E+03              0.    -966.329E+03
           31960    -952.975E+03    -89.1919E+03              0.    -976.345E+03
           31961    -942.870E+03    -95.9886E+03              0.    -986.605E+03
           31962    -932.102E+03    -103.401E+03              0.    -997.108E+03
           31963    -920.647E+03    -111.445E+03              0.    -1.00786E+06
           31964    -908.477E+03    -120.137E+03              0.    -1.01885E+06
           31965    -895.564E+03    -129.495E+03              0.    -1.03009E+06
           31966    -881.880E+03    -139.537E+03              0.    -1.04158E+06
           31967    -867.395E+03    -150.280E+03              0.    -1.05331E+06
           31968    -852.077E+03    -161.743E+03              0.    -1.06530E+06
           31969    -835.895E+03    -173.947E+03              0.    -1.07754E+06
           31970    -818.814E+03    -186.911E+03              0.    -1.09003E+06
           31971    -800.800E+03    -200.656E+03              0.    -1.10277E+06
           31972    -781.818E+03    -215.203E+03              0.    -1.11578E+06
           31973    -761.828E+03    -230.576E+03              0.    -1.12904E+06
           31974    -740.794E+03    -246.796E+03              0.    -1.14257E+06
           31975    -718.674E+03    -263.887E+03              0.    -1.15636E+06
           31976    -695.426E+03    -281.873E+03              0.    -1.17043E+06
           31977    -671.008E+03    -300.779E+03              0.    -1.18476E+06
           31978    -645.374E+03    -320.632E+03              0.    -1.19937E+06
           31979    -618.478E+03    -341.456E+03              0.    -1.21426E+06
           31980    -590.272E+03    -363.280E+03              0.    -1.22944E+06
           31981    -560.705E+03    -386.131E+03              0.     -1.2449E+06
           31982    -529.726E+03    -410.039E+03              0.    -1.26066E+06
           31983    -497.282E+03    -435.032E+03              0.    -1.27671E+06
           31984    -463.316E+03    -461.141E+03              0.    -1.29307E+06
           31985    -427.771E+03    -488.397E+03              0.    -1.30974E+06
           31986    -390.588E+03    -516.832E+03              0.    -1.32672E+06
           31987    -351.704E+03    -546.478E+03              0.    -1.34403E+06
           31988    -311.056E+03    -577.370E+03              0.    -1.36166E+06
           31989    -268.578E+03    -609.542E+03              0.    -1.37963E+06
           31990    -224.201E+03    -643.028E+03              0.    -1.39795E+06
           31991    -177.854E+03    -677.866E+03              0.    -1.41662E+06
           31992    -129.464E+03    -714.091E+03              0.    -1.43564E+06
           31993    -78.9555E+03    -751.742E+03              0.    -1.45504E+06
           31994    -26.2490E+03    -790.858E+03              0.    -1.47481E+06
           31995     28.7362E+03    -831.477E+03              0.    -1.49498E+06
           31996     86.0842E+03    -873.641E+03              0.    -1.51554E+06
           31997     145.882E+03     -917.39E+03              0.    -1.53651E+06
           31998     208.219E+03    -962.766E+03              0.    -1.55790E+06
           31999     273.189E+03    -1.00981E+06              0.    -1.57972E+06
           32000     340.887E+03    -1.05857E+06              0.    -1.60200E+06
           32001     411.413E+03    -1.10909E+06              0.    -1.62473E+06
           32002     484.869E+03    -1.16141E+06              0.    -1.64793E+06
           32003     561.361E+03    -1.21558E+06              0.    -1.67162E+06
           32004     641.000E+03    -1.27165E+06              0.    -1.69581E+06
           32005     723.897E+03    -1.32966E+06              0.    -1.72053E+06
           32006     810.171E+03    -1.38966E+06              0.    -1.74577E+06
           32007     899.942E+03    -1.45170E+06              0.    -1.77158E+06
           32008     993.333E+03    -1.51582E+06              0.    -1.79795E+06
           32009     1.09048E+06    -1.58209E+06              0.    -1.82492E+06
           32010     1.19150E+06    -1.65054E+06              0.    -1.85249E+06
           32011     1.29655E+06    -1.72123E+06              0.    -1.88070E+06
           32012     1.40576E+06    -1.79421E+06              0.    -1.90957E+06
           32013     1.51927E+06    -1.86953E+06              0.    -1.93911E+06
           32014     1.63725E+06    -1.94725E+06              0.    -1.96936E+06
           32015     1.75984E+06    -2.02740E+06              0.    -2.00033E+06
           32016     1.88721E+06    -2.11005E+06              0.    -2.03206E+06
           32017     2.01952E+06    -2.19525E+06              0.    -2.06457E+06
           32018     2.15694E+06    -2.28304E+06              0.    -2.09789E+06
           32019     2.29964E+06    -2.37349E+06              0.    -2.13205E+06
           32020     2.44782E+06    -2.46662E+06              0.    -2.16709E+06
           32021     2.60166E+06    -2.56251E+06              0.    -2.20303E+06
           32022     2.76134E+06    -2.66120E+06              0.    -2.23991E+06
           32023     2.92707E+06    -2.76273E+06              0.    -2.27776E+06
           32024     3.09906E+06    -2.86715E+06              0.    -2.31662E+06
           32025     3.27751E+06    -2.97450E+06              0.    -2.35654E+06
           32026     3.46264E+06    -3.08484E+06              0.    -2.39755E+06
           32027     3.65467E+06    -3.19821E+06              0.    -2.43968E+06
           32028     3.85384E+06    -3.31463E+06              0.    -2.48300E+06
           32029     4.06038E+06    -3.43416E+06              0.    -2.52754E+06
           32030     4.27454E+06    -3.55683E+06              0.    -2.57334E+06
           32031     4.49656E+06    -3.68267E+06              0.    -2.62046E+06
           32032     4.72671E+06    -3.81171E+06              0.    -2.66895E+06
           32033     4.96524E+06    -3.94397E+06              0.    -2.71886E+06
           32034     5.21244E+06    -4.07948E+06              0.    -2.77024E+06
           32035     5.46857E+06    -4.21826E+06              0.    -2.82315E+06
           32036     5.73394E+06    -4.36031E+06              0.    -2.87765E+06
           32037     6.00882E+06    -4.50565E+06              0.    -2.93380E+06
           32038     6.29354E+06    -4.65427E+06              0.    -2.99166E+06
           32039     6.58840E+06    -4.80618E+06              0.    -3.05128E+06
           32040     6.89371E+06    -4.96135E+06              0.    -3.11275E+06
           32041     7.20981E+06    -5.11978E+06              0.    -3.17613E+06
           32042     7.53704E+06    -5.28143E+06              0.    -3.24148E+06
           32043     7.87573E+06    -5.44627E+06              0.    -3.30888E+06
           32044     8.22624E+06    -5.61424E+06              0.    -3.37839E+06
           32045     8.58893E+06    -5.78530E+06              0.    -3.45010E+06
           32046     8.96418E+06    -5.95938E+06              0.    -3.52408E+06
           32047     9.35235E+06    -6.13638E+06              0.    -3.60041E+06
           32048     9.75385E+06    -6.31623E+06              0.    -3.67916E+06
           32049     10.1691E+06    -6.49880E+06              0.    -3.76042E+06
           32050     10.5984E+06    -6.68398E+06              0.    -3.84426E+06
           32051     11.0422E+06    -6.87162E+06              0.    -3.93077E+06
           32052     11.5010E+06    -7.06155E+06              0.    -4.02003E+06
           32053     11.9752E+06    -7.25361E+06              0.    -4.11212E+06
           32054     12.4652E+06    -7.44759E+06              0.    -4.20713E+06
           32055     12.9715E+06    -7.64326E+06              0.    -4.30512E+06
           32056     13.4945E+06    -7.84037E+06              0.    -4.40619E+06
           32057     14.0347E+06    -8.03864E+06              0.    -4.51042E+06
           32058     14.5925E+06    -8.23777E+06              0.    -4.61787E+06
           32059     15.1684E+06    -8.43742E+06              0.    -4.72862E+06
           32060     15.7629E+06    -8.63723E+06              0.    -4.84275E+06
           32061     16.3764E+06    -8.83677E+06              0.    -4.96031E+06
           32062     17.0096E+06    -9.03561E+06              0.    -5.08139E+06
           32063     17.6628E+06    -9.23326E+06              0.    -5.20602E+06
           32064     18.3365E+06    -9.42919E+06              0.    -5.33426E+06
           32065     19.0313E+06    -9.62281E+06              0.    -5.46615E+06
           32066     19.7476E+06    -9.81349E+06              0.    -5.60173E+06
           32067     20.4860E+06    -10.0006E+06              0.    -5.74102E+06
           32068     21.2469E+06    -10.1832E+06              0.    -5.88404E+06
           32069     22.0308E+06    -10.3607E+06              0.    -6.03078E+06
           32070     22.8383E+06    -10.5322E+06              0.    -6.18123E+06
           32071     23.6697E+06    -10.6966E+06              0.    -6.33537E+06
           32072     24.5255E+06    -10.8530E+06              0.    -6.49315E+06
           32073     25.4063E+06    -11.0002E+06              0.    -6.65450E+06
           32074     26.3124E+06    -11.1370E+06              0.    -6.81933E+06
           32075     27.2444E+06    -11.2622E+06              0.    -6.98755E+06
           32076     28.2024E+06    -11.3742E+06              0.    -7.15900E+06
           32077     29.1871E+06    -11.4716E+06              0.    -7.33354E+06
           32078     30.1987E+06    -11.5528E+06              0.    -7.51096E+06
           32079     31.2374E+06    -11.6160E+06              0.    -7.69104E+06
           32080     32.3038E+06    -11.6592E+06              0.    -7.87352E+06
           32081     33.3979E+06    -11.6804E+06              0.    -8.05809E+06
           32082     34.5199E+06    -11.6774E+06              0.    -8.24443E+06
           32083     35.6701E+06    -11.6478E+06              0.    -8.43214E+06
           32084     36.8484E+06    -11.5891E+06              0.    -8.62078E+06
           32085     38.0550E+06    -11.4985E+06              0.    -8.80988E+06
           32086     39.2897E+06    -11.3731E+06              0.    -8.99890E+06
           32087     40.5525E+06    -11.2096E+06              0.    -9.18723E+06
           32088     41.8431E+06    -11.0047E+06              0.    -9.37424E+06
           32089     43.1612E+06    -10.7548E+06              0.    -9.55919E+06
           32090     44.5065E+06    -10.4558E+06              0.    -9.74131E+06
           32091     45.8783E+06    -10.1037E+06              0.    -9.91973E+06
           32092     47.2760E+06    -9.69381E+06              0.    -10.0935E+06
           32093     48.6989E+06    -9.22144E+06              0.    -10.2617E+06
           32094     50.1460E+06    -8.68141E+06              0.    -10.4232E+06
           32095     51.6161E+06    -8.06819E+06              0.    -10.5768E+06
           32096     53.1082E+06    -7.37590E+06              0.    -10.7213E+06
           32097     54.6206E+06    -6.59822E+06              0.    -10.8553E+06
           32098     56.1518E+06    -5.72844E+06              0.    -10.9775E+06
           32099     57.7000E+06    -4.75938E+06              0.    -11.0863E+06
           32100     59.2631E+06    -3.68338E+06              0.    -11.1802E+06
           32101     60.8387E+06    -2.49228E+06              0.    -11.2575E+06
           32102     62.4245E+06    -1.17739E+06              0.    -11.3165E+06
           32103     64.0175E+06     270.558E+03              0.    -11.3553E+06
           32104     65.6147E+06     1.86139E+06              0.    -11.3720E+06
           32105     67.2129E+06     3.60557E+06              0.    -11.3648E+06
           32106     68.8083E+06     5.51424E+06              0.    -11.3315E+06
           32107     70.3972E+06     7.59916E+06              0.    -11.2700E+06
           32108     71.9752E+06     9.87288E+06              0.    -11.1784E+06
           32109     73.5378E+06     12.3486E+06              0.    -11.0545E+06
           32110     75.0803E+06     15.0405E+06              0.    -10.8960E+06
           32111     76.5974E+06     17.9633E+06              0.    -10.7009E+06
           32112     78.0838E+06     21.1327E+06              0.    -10.4671E+06
           32113     79.5336E+06     24.5653E+06              0.    -10.1925E+06
           32114     80.9411E+06     28.2787E+06              0.    -9.87524E+06
           32115     82.2999E+06     32.2913E+06              0.    -9.51331E+06
           32116     84.0170E+06     36.7697E+06              0.    -9.59005E+06
           32117    -953.149E+03    -428.034E+03              0.    -859.630E+03
           32118    -951.398E+03    -411.596E+03              0.    -858.115E+03
           32119    -956.747E+03    -398.479E+03              0.    -849.821E+03
           32120    -962.061E+03    -385.469E+03              0.    -842.004E+03
           32121    -967.332E+03    -372.577E+03              0.    -834.656E+03
           32122    -972.552E+03    -359.815E+03              0.    -827.767E+03
           32123    -977.716E+03    -347.194E+03              0.    -821.328E+03
           32124    -982.815E+03    -334.725E+03              0.    -815.332E+03
           32125    -987.844E+03    -322.416E+03              0.    -809.769E+03
           32126    -992.795E+03    -310.277E+03              0.    -804.633E+03
           32127    -997.664E+03    -298.317E+03              0.    -799.915E+03
           32128    -1.00244E+06    -286.545E+03              0.    -795.609E+03
           32129    -1.00713E+06    -274.968E+03              0.    -791.706E+03
           32130    -1.01171E+06    -263.594E+03              0.      -788.2E+03
           32131    -1.01619E+06    -252.431E+03              0.    -785.085E+03
           32132    -1.02055E+06    -241.486E+03              0.    -782.353E+03
           32133    -1.02480E+06    -230.765E+03              0.    -779.998E+03
           32134    -1.02893E+06    -220.275E+03              0.    -778.015E+03
           32135    -1.03292E+06    -210.023E+03              0.    -776.398E+03
           32136    -1.03678E+06    -200.016E+03              0.    -775.140E+03
           32137    -1.04051E+06    -190.258E+03              0.    -774.236E+03
           32138    -1.04408E+06    -180.757E+03              0.    -773.682E+03
           32139    -1.04751E+06    -171.517E+03              0.    -773.471E+03
           32140    -1.05078E+06    -162.546E+03              0.    -773.599E+03
           32141    -1.05389E+06    -153.848E+03              0.    -774.061E+03
           32142    -1.05682E+06    -145.431E+03              0.    -774.852E+03
           32143    -1.05959E+06    -137.298E+03              0.    -775.968E+03
           32144    -1.06217E+06    -129.456E+03              0.    -777.405E+03
           32145    -1.06456E+06    -121.911E+03              0.    -779.159E+03
           32146    -1.06676E+06    -114.669E+03              0.    -781.225E+03
           32147    -1.06876E+06    -107.735E+03              0.    -783.600E+03
           32148    -1.07055E+06    -101.115E+03              0.    -786.280E+03
           32149    -1.07212E+06    -94.8161E+03              0.    -789.262E+03
           32150    -1.07347E+06    -88.8433E+03              0.    -792.543E+03
           32151    -1.07459E+06    -83.2032E+03              0.    -796.118E+03
           32152    -1.07547E+06    -77.9022E+03              0.    -799.986E+03
           32153    -1.07609E+06    -72.9467E+03              0.    -804.143E+03
           32154    -1.07646E+06    -68.3435E+03              0.    -808.587E+03
           32155    -1.07656E+06    -64.0994E+03              0.    -813.315E+03
           32156    -1.07639E+06    -60.2216E+03              0.    -818.324E+03
           32157    -1.07592E+06    -56.7173E+03              0.    -823.613E+03
           32158    -1.07516E+06    -53.5939E+03              0.    -829.179E+03
           32159    -1.07409E+06    -50.8593E+03              0.    -835.021E+03
           32160    -1.07270E+06    -48.5214E+03              0.    -841.136E+03
           32161    -1.07098E+06    -46.5885E+03              0.    -847.523E+03
           32162    -1.06891E+06    -45.0691E+03              0.    -854.180E+03
           32163    -1.06648E+06    -43.9721E+03              0.    -861.106E+03
           32164    -1.06368E+06    -43.3066E+03              0.    -868.300E+03
           32165    -1.06050E+06    -43.0820E+03              0.    -875.760E+03
           32166    -1.05692E+06    -43.3082E+03              0.    -883.487E+03
           32167    -1.05292E+06    -43.9953E+03              0.    -891.478E+03
           32168    -1.04848E+06    -45.1538E+03              0.    -899.734E+03
           32169    -1.04361E+06    -46.7945E+03              0.    -908.254E+03
           32170    -1.03826E+06    -48.9289E+03              0.    -917.038E+03
           32171    -1.03243E+06    -51.5684E+03              0.    -926.085E+03
           32172    -1.02610E+06    -54.7253E+03              0.    -935.396E+03
           32173    -1.01925E+06    -58.4120E+03              0.    -944.972E+03
           32174    -1.01186E+06    -62.6415E+03              0.    -954.811E+03
           32175    -1.00391E+06    -67.4272E+03              0.    -964.916E+03
           32176    -995.372E+03    -72.7829E+03              0.    -975.286E+03
           32177    -986.228E+03    -78.7231E+03              0.    -985.923E+03
           32178    -976.453E+03    -85.2627E+03              0.    -996.828E+03
           32179    -966.023E+03    -92.4169E+03              0.    -1.00800E+06
           32180    -954.913E+03    -100.202E+03              0.    -1.01945E+06
           32181    -943.096E+03    -108.634E+03              0.    -1.03116E+06
           32182    -930.545E+03    -117.729E+03              0.    -1.04316E+06
           32183    -917.231E+03    -127.507E+03              0.    -1.05542E+06
           32184    -903.125E+03    -137.984E+03              0.    -1.06797E+06
           32185    -888.196E+03    -149.179E+03              0.    -1.08080E+06
           32186    -872.411E+03    -161.113E+03              0.    -1.09391E+06
           32187    -855.738E+03    -173.804E+03              0.    -1.10731E+06
           32188    -838.142E+03    -187.273E+03              0.    -1.12100E+06
           32189    -819.588E+03    -201.542E+03              0.    -1.13499E+06
           32190    -800.038E+03    -216.632E+03              0.    -1.14927E+06
           32191    -779.455E+03    -232.566E+03              0.    -1.16385E+06
           32192    -757.797E+03    -249.368E+03              0.    -1.17875E+06
           32193    -735.025E+03    -267.060E+03              0.    -1.19395E+06
           32194    -711.094E+03    -285.669E+03              0.    -1.20947E+06
           32195    -685.961E+03    -305.219E+03              0.    -1.22531E+06
           32196    -659.580E+03    -325.736E+03              0.    -1.24147E+06
           32197    -631.903E+03    -347.247E+03              0.    -1.25797E+06
           32198    -602.880E+03    -369.780E+03              0.    -1.27481E+06
           32199    -572.461E+03    -393.363E+03              0.    -1.29199E+06
           32200    -540.591E+03    -418.025E+03              0.    -1.30953E+06
           32201    -507.217E+03    -443.797E+03              0.    -1.32743E+06
           32202    -472.281E+03    -470.709E+03              0.    -1.34569E+06
           32203    -435.725E+03    -498.793E+03              0.    -1.36433E+06
           32204    -397.487E+03    -528.080E+03              0.    -1.38335E+06
           32205    -357.503E+03    -558.604E+03              0.    -1.40277E+06
           32206    -315.710E+03    -590.400E+03              0.    -1.42259E+06
           32207    -272.039E+03    -623.501E+03              0.    -1.44282E+06
           32208    -226.419E+03    -657.944E+03              0.    -1.46348E+06
           32209    -178.779E+03    -693.765E+03              0.    -1.48457E+06
           32210    -129.044E+03    -731.001E+03              0.    -1.50610E+06
           32211    -77.1351E+03    -769.691E+03              0.    -1.52809E+06
           32212    -22.9732E+03    -809.873E+03              0.    -1.55055E+06
           32213     33.5250E+03    -851.586E+03              0.    -1.57349E+06
           32214     92.4453E+03    -894.873E+03              0.    -1.59694E+06
           32215     153.876E+03    -939.774E+03              0.    -1.62089E+06
           32216     217.910E+03    -986.330E+03              0.    -1.64536E+06
           32217     284.641E+03    -1.03459E+06              0.    -1.67038E+06
           32218     354.167E+03    -1.08458E+06              0.    -1.69596E+06
           32219     426.590E+03    -1.13637E+06              0.    -1.72211E+06
           32220     502.014E+03    -1.18999E+06              0.    -1.74886E+06
           32221     580.548E+03    -1.24548E+06              0.    -1.77622E+06
           32222     662.302E+03    -1.30290E+06              0.    -1.80421E+06
           32223     747.392E+03    -1.36230E+06              0.    -1.83285E+06
           32224     835.938E+03    -1.42371E+06              0.    -1.86217E+06
           32225     928.061E+03    -1.48719E+06              0.    -1.89219E+06
           32226     1.02389E+06    -1.55278E+06              0.    -1.92292E+06
           32227     1.12356E+06    -1.62054E+06              0.    -1.95439E+06
           32228     1.22719E+06    -1.69051E+06              0.    -1.98664E+06
           32229     1.33494E+06    -1.76275E+06              0.    -2.01968E+06
           32230     1.44694E+06    -1.83731E+06              0.    -2.05355E+06
           32231     1.56335E+06    -1.91422E+06              0.    -2.08826E+06
           32232     1.68431E+06    -1.99356E+06              0.    -2.12386E+06
           32233     1.80998E+06    -2.07536E+06              0.    -2.16037E+06
           32234     1.94054E+06    -2.15967E+06              0.    -2.19783E+06
           32235     2.07614E+06    -2.24655E+06              0.    -2.23626E+06
           32236     2.21696E+06    -2.33604E+06              0.    -2.27572E+06
           32237     2.36317E+06    -2.42820E+06              0.    -2.31622E+06
           32238     2.51497E+06    -2.52306E+06              0.    -2.35781E+06
           32239     2.67254E+06    -2.62069E+06              0.    -2.40053E+06
           32240     2.83607E+06    -2.72112E+06              0.    -2.44441E+06
           32241     3.00577E+06    -2.82441E+06              0.    -2.48952E+06
           32242     3.18184E+06    -2.93059E+06              0.    -2.53587E+06
           32243     3.36451E+06    -3.03971E+06              0.    -2.58354E+06
           32244     3.55397E+06    -3.15180E+06              0.    -2.63255E+06
           32245     3.75047E+06    -3.26691E+06              0.    -2.68296E+06
           32246     3.95424E+06    -3.38508E+06              0.    -2.73482E+06
           32247     4.16550E+06    -3.50633E+06              0.    -2.78819E+06
           32248     4.38452E+06    -3.63071E+06              0.    -2.84312E+06
           32249     4.61154E+06    -3.75822E+06              0.    -2.89967E+06
           32250     4.84682E+06    -3.88891E+06              0.    -2.95789E+06
           32251     5.09063E+06    -4.02279E+06              0.    -3.01785E+06
           32252     5.34324E+06    -4.15987E+06              0.    -3.07960E+06
           32253     5.60493E+06    -4.30017E+06              0.    -3.14323E+06
           32254     5.87600E+06    -4.44369E+06              0.    -3.20878E+06
           32255     6.15674E+06    -4.59043E+06              0.    -3.27633E+06
           32256     6.44745E+06    -4.74038E+06              0.    -3.34596E+06
           32257     6.74845E+06    -4.89354E+06              0.    -3.41773E+06
           32258     7.06006E+06    -5.04988E+06              0.    -3.49172E+06
           32259     7.38261E+06    -5.20937E+06              0.    -3.56800E+06
           32260     7.71643E+06    -5.37197E+06              0.    -3.64665E+06
           32261     8.06186E+06    -5.53763E+06              0.    -3.72776E+06
           32262     8.41927E+06    -5.70630E+06              0.    -3.81140E+06
           32263     8.78902E+06    -5.87791E+06              0.    -3.89766E+06
           32264     9.17146E+06    -6.05237E+06              0.    -3.98663E+06
           32265     9.56699E+06    -6.22959E+06              0.    -4.07838E+06
           32266     9.97598E+06    -6.40946E+06              0.    -4.17300E+06
           32267     10.3988E+06    -6.59185E+06              0.    -4.27059E+06
           32268     10.8360E+06    -6.77663E+06              0.    -4.37123E+06
           32269     11.2877E+06    -6.96362E+06              0.      -4.475E+06
           32270     11.7546E+06    -7.15265E+06              0.    -4.58200E+06
           32271     12.2370E+06    -7.34352E+06              0.    -4.69231E+06
           32272     12.7354E+06    -7.53600E+06              0.    -4.80603E+06
           32273     13.2502E+06    -7.72985E+06              0.    -4.92323E+06
           32274     13.7818E+06    -7.92479E+06              0.    -5.04399E+06
           32275     14.3306E+06    -8.12052E+06              0.    -5.16841E+06
           32276     14.8973E+06    -8.31670E+06              0.    -5.29655E+06
           32277     15.4822E+06    -8.51296E+06              0.    -5.42849E+06
           32278     16.0857E+06    -8.70892E+06              0.    -5.56431E+06
           32279     16.7085E+06    -8.90412E+06              0.    -5.70406E+06
           32280     17.3509E+06    -9.09808E+06              0.    -5.84780E+06
           32281     18.0134E+06    -9.29029E+06              0.    -5.99558E+06
           32282     18.6966E+06    -9.48016E+06              0.    -6.14744E+06
           32283     19.4008E+06    -9.66709E+06              0.    -6.30342E+06
           32284     20.1266E+06    -9.85039E+06              0.    -6.46354E+06
           32285     20.8745E+06    -10.0293E+06              0.    -6.62779E+06
           32286     21.6450E+06    -10.2031E+06              0.    -6.79619E+06
           32287     22.4385E+06    -10.3709E+06              0.    -6.96870E+06
           32288     23.2554E+06    -10.5317E+06              0.    -7.14529E+06
           32289     24.0963E+06    -10.6845E+06              0.    -7.32589E+06
           32290     24.9616E+06    -10.8283E+06              0.    -7.51043E+06
           32291     25.8518E+06    -10.9618E+06              0.    -7.69880E+06
           32292     26.7671E+06    -11.0838E+06              0.    -7.89087E+06
           32293     27.7082E+06    -11.1929E+06              0.    -8.08649E+06
           32294     28.6752E+06    -11.2877E+06              0.    -8.28546E+06
           32295     29.6686E+06    -11.3664E+06              0.    -8.48757E+06
           32296     30.6886E+06    -11.4274E+06              0.    -8.69254E+06
           32297     31.7357E+06    -11.4688E+06              0.    -8.90008E+06
           32298     32.8099E+06    -11.4886E+06              0.    -9.10985E+06
           32299     33.9115E+06    -11.4846E+06              0.    -9.32146E+06
           32300     35.0407E+06    -11.4545E+06              0.    -9.53446E+06
           32301     36.1975E+06    -11.3959E+06              0.    -9.74837E+06
           32302     37.3819E+06    -11.3060E+06              0.    -9.96264E+06
           32303     38.5940E+06    -11.1819E+06              0.    -10.1767E+06
           32304     39.8335E+06    -11.0205E+06              0.    -10.3898E+06
           32305     41.1003E+06    -10.8185E+06              0.    -10.6012E+06
           32306     42.3941E+06    -10.5724E+06              0.    -10.8102E+06
           32307     43.7145E+06    -10.2782E+06              0.    -11.0158E+06
           32308     45.0609E+06    -9.93190E+06              0.    -11.2170E+06
           32309     46.4327E+06    -9.52906E+06              0.    -11.4129E+06
           32310     47.8292E+06    -9.06495E+06              0.    -11.6023E+06
           32311     49.2494E+06    -8.53452E+06              0.    -11.7840E+06
           32312     50.6922E+06    -7.93237E+06              0.    -11.9567E+06
           32313     52.1564E+06    -7.25270E+06              0.    -12.1189E+06
           32314     53.6406E+06    -6.48932E+06              0.    -12.2692E+06
           32315     55.1431E+06    -5.63563E+06              0.    -12.4059E+06
           32316     56.6621E+06    -4.68455E+06              0.    -12.5275E+06
           32317     58.1956E+06    -3.62855E+06              0.    -12.6321E+06
           32318     59.7412E+06    -2.45959E+06              0.    -12.7178E+06
           32319     61.2966E+06    -1.16911E+06              0.    -12.7826E+06
           32320     62.8588E+06     252.047E+03              0.    -12.8246E+06
           32321     64.4248E+06     1.81360E+06              0.    -12.8416E+06
           32322     65.9912E+06     3.52587E+06              0.    -12.8312E+06
           32323     67.5545E+06     5.39989E+06              0.    -12.7914E+06
           32324     69.1107E+06     7.44732E+06              0.    -12.7197E+06
           32325     70.6555E+06     9.68060E+06              0.    -12.6137E+06
           32326     72.1843E+06     12.1129E+06              0.    -12.4710E+06
           32327     73.6923E+06     14.7581E+06              0.    -12.2892E+06
           32328     75.1742E+06     17.6311E+06              0.    -12.0658E+06
           32329     76.6245E+06     20.7474E+06              0.    -11.7985E+06
           32330     78.0372E+06     24.1237E+06              0.    -11.4848E+06
           32331     79.4062E+06     27.7773E+06              0.    -11.1227E+06
           32332     80.7247E+06     31.7266E+06              0.    -10.7098E+06
           32333     82.4104E+06     36.1353E+06              0.    -10.7926E+06
           32334    -973.427E+03    -437.180E+03              0.    -854.122E+03
           32335    -971.610E+03    -420.124E+03              0.    -852.615E+03
           32336    -977.160E+03    -406.521E+03              0.    -844.354E+03
           32337    -982.673E+03    -393.034E+03              0.    -836.578E+03
           32338    -988.141E+03    -379.675E+03              0.    -829.277E+03
           32339    -993.558E+03    -366.455E+03              0.    -822.443E+03
           32340    -998.915E+03    -353.385E+03              0.    -816.066E+03
           32341    -1.00421E+06    -340.474E+03              0.    -810.138E+03
           32342    -1.00943E+06    -327.732E+03              0.    -804.650E+03
           32343    -1.01457E+06    -315.168E+03              0.    -799.595E+03
           32344    -1.01963E+06    -302.790E+03              0.    -794.964E+03
           32345    -1.02460E+06    -290.607E+03              0.    -790.750E+03
           32346    -1.02947E+06    -278.627E+03              0.    -786.945E+03
           32347    -1.03424E+06    -266.857E+03              0.    -783.543E+03
           32348    -1.03891E+06    -255.304E+03              0.    -780.537E+03
           32349    -1.04346E+06    -243.975E+03              0.    -777.920E+03
           32350    -1.04790E+06    -232.877E+03              0.    -775.686E+03
           32351    -1.05221E+06    -222.016E+03              0.    -773.829E+03
           32352    -1.05640E+06    -211.399E+03              0.    -772.342E+03
           32353    -1.06045E+06    -201.031E+03              0.    -771.221E+03
           32354    -1.06437E+06    -190.919E+03              0.    -770.460E+03
           32355    -1.06814E+06    -181.068E+03              0.    -770.053E+03
           32356    -1.07176E+06    -171.485E+03              0.    -769.995E+03
           32357    -1.07522E+06    -162.174E+03              0.    -770.282E+03
           32358    -1.07852E+06    -153.141E+03              0.    -770.909E+03
           32359    -1.08166E+06    -144.393E+03              0.    -771.871E+03
           32360    -1.08462E+06    -135.934E+03              0.    -773.165E+03
           32361    -1.08740E+06    -127.770E+03              0.    -774.785E+03
           32362    -1.09000E+06    -119.907E+03              0.    -776.729E+03
           32363    -1.09241E+06    -112.350E+03              0.    -778.992E+03
           32364    -1.09461E+06    -105.106E+03              0.    -781.571E+03
           32365    -1.09661E+06    -98.1786E+03              0.    -784.462E+03
           32366    -1.09839E+06    -91.5751E+03              0.    -787.663E+03
           32367    -1.09996E+06    -85.3012E+03              0.    -791.170E+03
           32368    -1.10129E+06    -79.3629E+03              0.     -794.98E+03
           32369    -1.10239E+06    -73.7664E+03              0.    -799.091E+03
           32370    -1.10324E+06    -68.5181E+03              0.    -803.500E+03
           32371    -1.10383E+06    -63.6246E+03              0.    -808.205E+03
           32372    -1.10416E+06    -59.0924E+03              0.    -813.203E+03
           32373    -1.10422E+06    -54.9286E+03              0.    -818.492E+03
           32374    -1.10400E+06    -51.1402E+03              0.    -824.072E+03
           32375    -1.10348E+06    -47.7347E+03              0.    -829.939E+03
           32376    -1.10265E+06    -44.7195E+03              0.    -836.093E+03
           32377    -1.10151E+06    -42.1025E+03              0.    -842.532E+03
           32378    -1.10004E+06    -39.8919E+03              0.    -849.255E+03
           32379    -1.09823E+06    -38.0959E+03              0.    -856.261E+03
           32380    -1.09607E+06    -36.7233E+03              0.    -863.549E+03
           32381    -1.09354E+06    -35.7830E+03              0.    -871.119E+03
           32382    -1.09063E+06    -35.2843E+03              0.    -878.969E+03
           32383    -1.08732E+06    -35.2369E+03              0.    -887.100E+03
           32384    -1.08361E+06    -35.6508E+03              0.    -895.511E+03
           32385    -1.07947E+06    -36.5362E+03              0.    -904.203E+03
           32386    -1.07489E+06    -37.9039E+03              0.    -913.176E+03
           32387    -1.06985E+06    -39.7649E+03              0.    -922.430E+03
           32388    -1.06433E+06    -42.1308E+03              0.    -931.966E+03
           32389    -1.05832E+06    -45.0135E+03              0.    -941.784E+03
           32390    -1.05179E+06    -48.4253E+03              0.    -951.886E+03
           32391    -1.04473E+06    -52.3789E+03              0.    -962.273E+03
           32392    -1.03712E+06    -56.8876E+03              0.    -972.946E+03
           32393    -1.02893E+06    -61.9651E+03              0.    -983.906E+03
           32394    -1.02014E+06    -67.6255E+03              0.    -995.157E+03
           32395    -1.01073E+06    -73.8835E+03              0.    -1.00670E+06
           32396    -1.00067E+06    -80.7543E+03              0.    -1.01853E+06
           32397    -989.943E+03    -88.2535E+03              0.    -1.03067E+06
           32398    -978.517E+03    -96.3973E+03              0.    -1.04310E+06
           32399    -966.367E+03    -105.203E+03              0.    -1.05583E+06
           32400    -953.465E+03    -114.687E+03              0.    -1.06887E+06
           32401    -939.780E+03    -124.867E+03              0.    -1.08222E+06
           32402    -925.283E+03    -135.763E+03              0.    -1.09588E+06
           32403    -909.942E+03    -147.393E+03              0.    -1.10986E+06
           32404    -893.725E+03    -159.777E+03              0.    -1.12416E+06
           32405    -876.597E+03    -172.934E+03              0.    -1.13878E+06
           32406    -858.523E+03    -186.888E+03              0.    -1.15373E+06
           32407    -839.467E+03    -201.657E+03              0.    -1.16902E+06
           32408    -819.390E+03    -217.266E+03              0.    -1.18465E+06
           32409    -798.254E+03    -233.737E+03              0.    -1.20063E+06
           32410    -776.017E+03    -251.093E+03              0.    -1.21696E+06
           32411    -752.638E+03    -269.360E+03              0.    -1.23364E+06
           32412    -728.072E+03    -288.561E+03              0.    -1.25070E+06
           32413    -702.273E+03    -308.723E+03              0.    -1.26813E+06
           32414    -675.196E+03    -329.872E+03              0.    -1.28593E+06
           32415    -646.791E+03    -352.036E+03              0.    -1.30413E+06
           32416    -617.007E+03    -375.242E+03              0.    -1.32272E+06
           32417    -585.792E+03    -399.519E+03              0.    -1.34172E+06
           32418    -553.092E+03    -424.897E+03              0.    -1.36114E+06
           32419    -518.851E+03    -451.406E+03              0.    -1.38098E+06
           32420    -483.010E+03    -479.078E+03              0.    -1.40125E+06
           32421    -445.510E+03    -507.943E+03              0.    -1.42197E+06
           32422    -406.287E+03    -538.035E+03              0.    -1.44315E+06
           32423    -365.278E+03    -569.387E+03              0.    -1.46480E+06
           32424    -322.416E+03    -602.034E+03              0.    -1.48692E+06
           32425    -277.631E+03    -636.010E+03              0.    -1.50954E+06
           32426    -230.853E+03    -671.352E+03              0.    -1.53267E+06
           32427    -182.006E+03    -708.097E+03              0.    -1.55631E+06
           32428    -131.016E+03    -746.280E+03              0.    -1.58049E+06
           32429    -77.8020E+03    -785.942E+03              0.    -1.60522E+06
           32430    -22.2830E+03    -827.121E+03              0.    -1.63052E+06
           32431     35.6256E+03    -869.858E+03              0.    -1.65640E+06
           32432     96.0112E+03    -914.191E+03              0.    -1.68288E+06
           32433     158.964E+03    -960.164E+03              0.    -1.70997E+06
           32434     224.578E+03    -1.00782E+06              0.    -1.73771E+06
           32435     292.949E+03    -1.05720E+06              0.    -1.76610E+06
           32436     364.177E+03    -1.10834E+06              0.    -1.79516E+06
           32437     438.365E+03    -1.16130E+06              0.    -1.82492E+06
           32438     515.619E+03    -1.21612E+06              0.    -1.85541E+06
           32439     596.049E+03    -1.27284E+06              0.    -1.88664E+06
           32440     679.769E+03    -1.33150E+06              0.    -1.91863E+06
           32441     766.895E+03    -1.39217E+06              0.    -1.95141E+06
           32442     857.549E+03    -1.45487E+06              0.    -1.98502E+06
           32443     951.856E+03    -1.51967E+06              0.    -2.01947E+06
           32444     1.04994E+06    -1.58660E+06              0.    -2.05479E+06
           32445     1.15194E+06    -1.65572E+06              0.    -2.09102E+06
           32446     1.25800E+06    -1.72707E+06              0.    -2.12818E+06
           32447     1.36824E+06    -1.80071E+06              0.    -2.16631E+06
           32448     1.48283E+06    -1.87669E+06              0.    -2.20543E+06
           32449     1.60190E+06    -1.95504E+06              0.    -2.24559E+06
           32450     1.72562E+06    -2.03583E+06              0.    -2.28682E+06
           32451     1.85414E+06    -2.11909E+06              0.    -2.32915E+06
           32452     1.98763E+06    -2.20489E+06              0.    -2.37263E+06
           32453     2.12626E+06    -2.29326E+06              0.    -2.41729E+06
           32454     2.27020E+06    -2.38425E+06              0.    -2.46318E+06
           32455     2.41964E+06    -2.47791E+06              0.    -2.51034E+06
           32456     2.57475E+06    -2.57429E+06              0.    -2.55881E+06
           32457     2.73574E+06    -2.67344E+06              0.    -2.60864E+06
           32458     2.90280E+06    -2.77538E+06              0.    -2.65989E+06
           32459     3.07612E+06    -2.88018E+06              0.    -2.71259E+06
           32460     3.25593E+06    -2.98786E+06              0.    -2.76680E+06
           32461     3.44243E+06    -3.09847E+06              0.    -2.82258E+06
           32462     3.63585E+06    -3.21204E+06              0.    -2.87997E+06
           32463     3.83641E+06    -3.32862E+06              0.    -2.93905E+06
           32464     4.04434E+06    -3.44822E+06              0.    -2.99986E+06
           32465     4.25989E+06    -3.57088E+06              0.    -3.06247E+06
           32466     4.48331E+06    -3.69663E+06              0.    -3.12694E+06
           32467     4.71484E+06    -3.82548E+06              0.    -3.19333E+06
           32468     4.95475E+06    -3.95746E+06              0.    -3.26172E+06
           32469     5.20330E+06    -4.09258E+06              0.    -3.33218E+06
           32470     5.46078E+06    -4.23085E+06              0.    -3.40477E+06
           32471     5.72746E+06    -4.37226E+06              0.    -3.47956E+06
           32472     6.00363E+06    -4.51683E+06              0.    -3.55665E+06
           32473     6.28960E+06    -4.66454E+06              0.    -3.63609E+06
           32474     6.58565E+06    -4.81537E+06              0.    -3.71797E+06
           32475     6.89212E+06    -4.96931E+06              0.    -3.80238E+06
           32476     7.20931E+06    -5.12632E+06              0.    -3.88939E+06
           32477     7.53756E+06    -5.28636E+06              0.    -3.97910E+06
           32478     7.87720E+06    -5.44938E+06              0.    -4.07158E+06
           32479     8.22857E+06    -5.61533E+06              0.    -4.16693E+06
           32480     8.59203E+06    -5.78413E+06              0.    -4.26524E+06
           32481     8.96794E+06    -5.95569E+06              0.    -4.36659E+06
           32482     9.35667E+06    -6.12993E+06              0.    -4.47109E+06
           32483     9.75859E+06    -6.30673E+06              0.    -4.57881E+06
           32484     10.1741E+06    -6.48596E+06              0.    -4.68987E+06
           32485     10.6035E+06    -6.66749E+06              0.    -4.80435E+06
           32486     11.0474E+06    -6.85115E+06              0.    -4.92234E+06
           32487     11.5060E+06    -7.03677E+06              0.    -5.04395E+06
           32488     11.9797E+06    -7.22413E+06              0.    -5.16926E+06
           32489     12.4691E+06    -7.41303E+06              0.    -5.29836E+06
           32490     12.9746E+06    -7.60322E+06              0.    -5.43135E+06
           32491     13.4965E+06    -7.79442E+06              0.    -5.56831E+06
           32492     14.0353E+06    -7.98633E+06              0.    -5.70933E+06
           32493     14.5915E+06    -8.17863E+06              0.    -5.85448E+06
           32494     15.1655E+06    -8.37094E+06              0.    -6.00386E+06
           32495     15.7578E+06    -8.56289E+06              0.    -6.15753E+06
           32496     16.3688E+06    -8.75403E+06              0.    -6.31554E+06
           32497     16.9990E+06    -8.94390E+06              0.    -6.47797E+06
           32498     17.6489E+06    -9.13197E+06              0.    -6.64486E+06
           32499     18.3189E+06    -9.31769E+06              0.    -6.81625E+06
           32500     19.0096E+06    -9.50044E+06              0.    -6.99218E+06
           32501     19.7213E+06    -9.67958E+06              0.    -7.17265E+06
           32502     20.4546E+06    -9.85437E+06              0.    -7.35767E+06
           32503     21.2099E+06    -10.0240E+06              0.    -7.54723E+06
           32504     21.9877E+06    -10.1877E+06              0.    -7.74130E+06
           32505     22.7884E+06    -10.3446E+06              0.    -7.93983E+06
           32506     23.6126E+06    -10.4935E+06              0.    -8.14275E+06
           32507     24.4605E+06    -10.6336E+06              0.    -8.34995E+06
           32508     25.3327E+06    -10.7635E+06              0.    -8.56133E+06
           32509     26.2295E+06    -10.8821E+06              0.    -8.77674E+06
           32510     27.1514E+06     -10.988E+06              0.    -8.99598E+06
           32511     28.0987E+06    -11.0798E+06              0.    -9.21885E+06
           32512     29.0718E+06    -11.1559E+06              0.    -9.44508E+06
           32513     30.0708E+06    -11.2145E+06              0.    -9.67440E+06
           32514     31.0963E+06    -11.2540E+06              0.    -9.90646E+06
           32515     32.1483E+06    -11.2723E+06              0.    -10.1409E+06
           32516     33.2270E+06    -11.2674E+06              0.    -10.3772E+06
           32517     34.3327E+06    -11.2369E+06              0.    -10.6150E+06
           32518     35.4654E+06    -11.1784E+06              0.    -10.8536E+06
           32519     36.6251E+06    -11.0894E+06              0.    -11.0926E+06
           32520     37.8118E+06    -10.9669E+06              0.    -11.3311E+06
           32521     39.0253E+06    -10.8080E+06              0.    -11.5685E+06
           32522     40.2656E+06    -10.6094E+06              0.    -11.8038E+06
           32523     41.5322E+06    -10.3676E+06              0.    -12.0364E+06
           32524     42.8247E+06    -10.0789E+06              0.    -12.2650E+06
           32525     44.1428E+06    -9.73920E+06              0.    -12.4887E+06
           32526     45.4857E+06    -9.34429E+06              0.    -12.7063E+06
           32527     46.8526E+06    -8.88952E+06              0.    -12.9166E+06
           32528     48.2428E+06    -8.36994E+06              0.    -13.1182E+06
           32529      49.655E+06    -7.78025E+06              0.    -13.3095E+06
           32530     51.0881E+06    -7.11478E+06              0.    -13.4892E+06
           32531     52.5407E+06    -6.36748E+06              0.    -13.6555E+06
           32532     54.0111E+06    -5.53185E+06              0.    -13.8067E+06
           32533     55.4976E+06    -4.60096E+06              0.    -13.9408E+06
           32534     56.9980E+06    -3.56741E+06              0.    -14.0559E+06
           32535     58.5102E+06    -2.42329E+06              0.    -14.1499E+06
           32536     60.0316E+06    -1.16017E+06              0.    -14.2206E+06
           32537     61.5594E+06     230.953E+03              0.    -14.2657E+06
           32538     63.0905E+06     1.75967E+06              0.    -14.2828E+06
           32539     64.6216E+06     3.43618E+06              0.    -14.2695E+06
           32540     66.1490E+06     5.27137E+06              0.    -14.2232E+06
           32541     67.6687E+06     7.27678E+06              0.    -14.1412E+06
           32542     69.1765E+06     9.46474E+06              0.    -14.0209E+06
           32543     70.6677E+06     11.8483E+06              0.    -13.8596E+06
           32544     72.1373E+06     14.4412E+06              0.    -13.6545E+06
           32545     73.5800E+06     17.2583E+06              0.    -13.4029E+06
           32546     74.9901E+06     20.3151E+06              0.    -13.1020E+06
           32547     76.3616E+06     23.6280E+06              0.    -12.7493E+06
           32548     77.6880E+06     27.2146E+06              0.    -12.3421E+06
           32549     78.9629E+06     31.0933E+06              0.    -11.8780E+06
           32550     80.6147E+06     35.4242E+06              0.    -11.9652E+06
           32551    -993.662E+03    -446.305E+03              0.    -848.410E+03
           32552    -991.777E+03    -428.623E+03              0.    -846.911E+03
           32553    -997.532E+03    -414.526E+03              0.    -838.685E+03
           32554    -1.00325E+06    -400.555E+03              0.    -830.951E+03
           32555    -1.00892E+06    -386.721E+03              0.    -823.701E+03
           32556    -1.01453E+06    -373.036E+03              0.    -816.923E+03
           32557    -1.02009E+06    -359.510E+03              0.    -810.609E+03
           32558    -1.02558E+06    -346.151E+03              0.    -804.751E+03
           32559    -1.03099E+06    -332.970E+03              0.    -799.339E+03
           32560    -1.03633E+06    -319.974E+03              0.    -794.365E+03
           32561    -1.04158E+06    -307.173E+03              0.    -789.821E+03
           32562    -1.04674E+06    -294.574E+03              0.      -785.7E+03
           32563    -1.05181E+06    -282.185E+03              0.    -781.994E+03
           32564    -1.05677E+06    -270.013E+03              0.    -778.696E+03
           32565    -1.06163E+06    -258.065E+03              0.    -775.799E+03
           32566    -1.06638E+06    -246.347E+03              0.    -773.297E+03
           32567    -1.07101E+06    -234.867E+03              0.    -771.183E+03
           32568    -1.07552E+06    -223.629E+03              0.    -769.451E+03
           32569    -1.07990E+06    -212.641E+03              0.    -768.095E+03
           32570    -1.08415E+06    -201.908E+03              0.    -767.109E+03
           32571    -1.08826E+06    -191.436E+03              0.    -766.489E+03
           32572    -1.09222E+06    -181.231E+03              0.    -766.228E+03
           32573    -1.09604E+06    -171.297E+03              0.    -766.322E+03
           32574    -1.09971E+06    -161.641E+03              0.    -766.767E+03
           32575    -1.10321E+06    -152.268E+03              0.    -767.557E+03
           32576    -1.10655E+06    -143.183E+03              0.    -768.689E+03
           32577    -1.10972E+06    -134.391E+03              0.    -770.158E+03
           32578    -1.11271E+06    -125.899E+03              0.    -771.960E+03
           32579    -1.11552E+06    -117.711E+03              0.    -774.091E+03
           32580    -1.11813E+06    -109.833E+03              0.    -776.549E+03
           32581    -1.12055E+06    -102.270E+03              0.    -779.329E+03
           32582    -1.12277E+06    -95.0286E+03              0.    -782.429E+03
           32583    -1.12477E+06    -88.1134E+03              0.    -785.846E+03
           32584    -1.12656E+06    -81.5304E+03              0.    -789.576E+03
           32585    -1.12812E+06    -75.2857E+03              0.    -793.618E+03
           32586    -1.12945E+06    -69.3853E+03              0.    -797.968E+03
           32587    -1.13054E+06    -63.8353E+03              0.    -802.626E+03
           32588    -1.13137E+06    -58.6422E+03              0.    -807.588E+03
           32589    -1.13194E+06    -53.8123E+03              0.    -812.852E+03
           32590    -1.13225E+06    -49.3526E+03              0.    -818.418E+03
           32591    -1.13227E+06    -45.2698E+03              0.    -824.284E+03
           32592    -1.13201E+06    -41.5712E+03              0.    -830.448E+03
           32593    -1.13144E+06    -38.2642E+03              0.    -836.910E+03
           32594    -1.13057E+06    -35.3564E+03              0.    -843.668E+03
           32595    -1.12937E+06    -32.8557E+03              0.    -850.722E+03
           32596    -1.12784E+06    -30.7704E+03              0.    -858.072E+03
           32597    -1.12595E+06    -29.1089E+03              0.    -865.716E+03
           32598    -1.12371E+06    -27.8800E+03              0.    -873.656E+03
           32599    -1.12110E+06    -27.0929E+03              0.    -881.890E+03
           32600    -1.11809E+06    -26.7569E+03              0.    -890.419E+03
           32601    -1.11468E+06    -26.8818E+03              0.    -899.245E+03
           32602    -1.11086E+06    -27.4779E+03              0.    -908.366E+03
           32603    -1.10659E+06    -28.5556E+03              0.    -917.785E+03
           32604    -1.10188E+06    -30.1257E+03              0.    -927.502E+03
           32605     -1.0967E+06    -32.1996E+03              0.    -937.519E+03
           32606    -1.09103E+06    -34.7890E+03              0.    -947.837E+03
           32607    -1.08486E+06    -37.9060E+03              0.    -958.458E+03
           32608    -1.07816E+06    -41.5631E+03              0.    -969.384E+03
           32609    -1.07091E+06    -45.7733E+03              0.    -980.617E+03
           32610    -1.06310E+06    -50.5502E+03              0.    -992.159E+03
           32611    -1.05469E+06    -55.9075E+03              0.    -1.00401E+06
           32612    -1.04568E+06    -61.8599E+03              0.    -1.01618E+06
           32613    -1.03603E+06    -68.4221E+03              0.    -1.02867E+06
           32614    -1.02572E+06    -75.6096E+03              0.    -1.04148E+06
           32615    -1.01472E+06    -83.4384E+03              0.    -1.05462E+06
           32616    -1.00301E+06    -91.9249E+03              0.    -1.06808E+06
           32617    -990.562E+03    -101.086E+03              0.    -1.08188E+06
           32618    -977.341E+03    -110.940E+03              0.    -1.09602E+06
           32619    -963.320E+03    -121.505E+03              0.    -1.11050E+06
           32620    -948.469E+03    -132.798E+03              0.    -1.12533E+06
           32621    -932.755E+03    -144.841E+03              0.    -1.14051E+06
           32622    -916.144E+03    -157.652E+03              0.    -1.15605E+06
           32623    -898.602E+03    -171.253E+03              0.    -1.17196E+06
           32624    -880.092E+03    -185.665E+03              0.    -1.18824E+06
           32625    -860.578E+03    -200.909E+03              0.    -1.20490E+06
           32626    -840.021E+03    -217.009E+03              0.    -1.22195E+06
           32627    -818.380E+03    -233.987E+03              0.    -1.23939E+06
           32628    -795.613E+03    -251.867E+03              0.    -1.25723E+06
           32629    -771.679E+03    -270.675E+03              0.    -1.27548E+06
           32630    -746.530E+03    -290.435E+03              0.    -1.29415E+06
           32631    -720.123E+03    -311.173E+03              0.    -1.31325E+06
           32632    -692.407E+03    -332.917E+03              0.    -1.33278E+06
           32633    -663.335E+03    -355.694E+03              0.    -1.35277E+06
           32634    -632.853E+03    -379.533E+03              0.    -1.37321E+06
           32635    -600.908E+03    -404.461E+03              0.    -1.39412E+06
           32636    -567.446E+03    -430.510E+03              0.    -1.41552E+06
           32637    -532.409E+03    -457.709E+03              0.    -1.43740E+06
           32638    -495.737E+03    -486.090E+03              0.    -1.45980E+06
           32639    -457.370E+03    -515.686E+03              0.    -1.48271E+06
           32640    -417.244E+03    -546.529E+03              0.    -1.50615E+06
           32641    -375.293E+03    -578.652E+03              0.    -1.53014E+06
           32642    -331.449E+03    -612.091E+03              0.    -1.55470E+06
           32643    -285.642E+03    -646.881E+03              0.    -1.57983E+06
           32644    -237.799E+03    -683.057E+03              0.    -1.60556E+06
           32645    -187.845E+03    -720.657E+03              0.    -1.63190E+06
           32646    -135.702E+03    -759.718E+03              0.    -1.65886E+06
           32647    -81.2900E+03    -800.279E+03              0.    -1.68648E+06
           32648    -24.5256E+03    -842.378E+03              0.    -1.71476E+06
           32649     34.6771E+03    -886.056E+03              0.    -1.74373E+06
           32650     96.4069E+03    -931.352E+03              0.    -1.77341E+06
           32651     160.756E+03    -978.310E+03              0.    -1.80381E+06
           32652     227.818E+03    -1.02697E+06              0.    -1.83497E+06
           32653     297.692E+03    -1.07738E+06              0.    -1.86691E+06
           32654     370.478E+03    -1.12957E+06              0.    -1.89964E+06
           32655     446.282E+03    -1.18360E+06              0.    -1.93320E+06
           32656     525.210E+03    -1.23950E+06              0.    -1.96761E+06
           32657     607.375E+03    -1.29733E+06              0.    -2.00291E+06
           32658     692.891E+03    -1.35712E+06              0.    -2.03911E+06
           32659     781.877E+03    -1.41893E+06              0.    -2.07625E+06
           32660     874.456E+03    -1.48280E+06              0.    -2.11436E+06
           32661     970.753E+03    -1.54878E+06              0.    -2.15347E+06
           32662     1.07090E+06    -1.61691E+06              0.    -2.19361E+06
           32663     1.17503E+06    -1.68724E+06              0.    -2.23483E+06
           32664     1.28328E+06    -1.75982E+06              0.    -2.27715E+06
           32665     1.39580E+06    -1.83470E+06              0.    -2.32061E+06
           32666     1.51272E+06    -1.91193E+06              0.    -2.36525E+06
           32667     1.63422E+06    -1.99154E+06              0.    -2.41112E+06
           32668     1.76043E+06    -2.07360E+06              0.    -2.45825E+06
           32669     1.89153E+06    -2.15814E+06              0.    -2.50668E+06
           32670     2.02767E+06    -2.24522E+06              0.    -2.55647E+06
           32671     2.16904E+06    -2.33487E+06              0.    -2.60766E+06
           32672     2.31580E+06    -2.42715E+06              0.    -2.66029E+06
           32673     2.46814E+06    -2.52210E+06              0.    -2.71442E+06
           32674     2.62624E+06    -2.61976E+06              0.    -2.77009E+06
           32675     2.79030E+06    -2.72017E+06              0.    -2.82737E+06
           32676     2.96051E+06    -2.82338E+06              0.    -2.88630E+06
           32677     3.13709E+06    -2.92942E+06              0.    -2.94695E+06
           32678     3.32023E+06    -3.03833E+06              0.    -3.00937E+06
           32679     3.51016E+06    -3.15014E+06              0.    -3.07363E+06
           32680     3.70709E+06    -3.26489E+06              0.    -3.13978E+06
           32681     3.91126E+06    -3.38261E+06              0.    -3.20789E+06
           32682     4.12290E+06    -3.50333E+06              0.    -3.27804E+06
           32683     4.34224E+06    -3.62706E+06              0.    -3.35029E+06
           32684     4.56954E+06    -3.75383E+06              0.    -3.42470E+06
           32685     4.80505E+06    -3.88366E+06              0.    -3.50136E+06
           32686     5.04904E+06    -4.01655E+06              0.    -3.58034E+06
           32687     5.30176E+06    -4.15252E+06              0.    -3.66172E+06
           32688     5.56349E+06    -4.29156E+06              0.    -3.74558E+06
           32689     5.83453E+06    -4.43367E+06              0.    -3.83200E+06
           32690     6.11514E+06    -4.57884E+06              0.    -3.92106E+06
           32691     6.40564E+06    -4.72706E+06              0.    -4.01285E+06
           32692     6.70632E+06    -4.87829E+06              0.    -4.10746E+06
           32693     7.01750E+06    -5.03251E+06              0.    -4.20498E+06
           32694     7.33949E+06    -5.18967E+06              0.    -4.30551E+06
           32695     7.67262E+06    -5.34973E+06              0.    -4.40912E+06
           32696     8.01723E+06    -5.51262E+06              0.    -4.51593E+06
           32697     8.37366E+06    -5.67827E+06              0.    -4.62602E+06
           32698     8.74225E+06     -5.8466E+06              0.    -4.73949E+06
           32699     9.12336E+06    -6.01751E+06              0.    -4.85645E+06
           32700     9.51736E+06    -6.19088E+06              0.    -4.97699E+06
           32701     9.92462E+06    -6.36660E+06              0.    -5.10122E+06
           32702     10.3455E+06    -6.54452E+06              0.    -5.22922E+06
           32703     10.7805E+06    -6.72448E+06              0.    -5.36111E+06
           32704     11.2298E+06    -6.90630E+06              0.    -5.49698E+06
           32705     11.6940E+06    -7.08978E+06              0.    -5.63693E+06
           32706     12.1734E+06    -7.27471E+06              0.    -5.78106E+06
           32707     12.6684E+06    -7.46084E+06              0.    -5.92947E+06
           32708     13.1795E+06    -7.64790E+06              0.    -6.08223E+06
           32709     13.7071E+06    -7.83560E+06              0.    -6.23946E+06
           32710     14.2517E+06    -8.02360E+06              0.    -6.40122E+06
           32711     14.8136E+06    -8.21157E+06              0.    -6.56760E+06
           32712     15.3933E+06    -8.39911E+06              0.    -6.73868E+06
           32713     15.9913E+06    -8.58578E+06              0.    -6.91451E+06
           32714     16.6080E+06    -8.77114E+06              0.    -7.09517E+06
           32715     17.2439E+06    -8.95467E+06              0.    -7.28069E+06
           32716     17.8994E+06    -9.13583E+06              0.    -7.47112E+06
           32717     18.5749E+06    -9.31403E+06              0.    -7.66649E+06
           32718     19.2710E+06    -9.48860E+06              0.    -7.86680E+06
           32719     19.9881E+06    -9.65886E+06              0.    -8.07207E+06
           32720     20.7267E+06    -9.82405E+06              0.    -8.28226E+06
           32721     21.4871E+06    -9.98333E+06              0.    -8.49734E+06
           32722     22.2699E+06    -10.1358E+06              0.    -8.71725E+06
           32723     23.0755E+06    -10.2806E+06              0.    -8.94191E+06
           32724     23.9042E+06    -10.4165E+06              0.    -9.17121E+06
           32725     24.7565E+06    -10.5425E+06              0.    -9.40502E+06
           32726     25.6329E+06    -10.6574E+06              0.    -9.64316E+06
           32727     26.5336E+06    -10.7599E+06              0.    -9.88543E+06
           32728     27.4591E+06    -10.8485E+06              0.    -10.1316E+06
           32729     28.4097E+06    -10.9217E+06              0.    -10.3814E+06
           32730     29.3856E+06    -10.9780E+06              0.    -10.6344E+06
           32731     30.3872E+06    -11.0154E+06              0.    -10.8904E+06
           32732     31.4146E+06    -11.0322E+06              0.    -11.1489E+06
           32733     32.4682E+06    -11.0262E+06              0.    -11.4093E+06
           32734     33.5479E+06    -10.9953E+06              0.    -11.6713E+06
           32735     34.6540E+06    -10.9372E+06              0.    -11.9341E+06
           32736     35.7864E+06    -10.8491E+06              0.    -12.1971E+06
           32737     36.9451E+06    -10.7285E+06              0.    -12.4596E+06
           32738     38.1300E+06    -10.5724E+06              0.    -12.7206E+06
           32739     39.3408E+06    -10.3776E+06              0.    -12.9795E+06
           32740     40.5774E+06    -10.1407E+06              0.    -13.2350E+06
           32741     41.8393E+06    -9.85808E+06              0.    -13.4862E+06
           32742     43.1261E+06    -9.52584E+06              0.    -13.7319E+06
           32743     44.4370E+06    -9.13976E+06              0.    -13.9708E+06
           32744     45.7714E+06    -8.69536E+06              0.    -14.2015E+06
           32745     47.1284E+06    -8.18780E+06              0.    -14.4226E+06
           32746     48.5069E+06    -7.61193E+06              0.    -14.6324E+06
           32747     49.9057E+06    -6.96220E+06              0.    -14.8292E+06
           32748     51.3234E+06    -6.23268E+06              0.    -15.0113E+06
           32749     52.7585E+06    -5.41704E+06              0.    -15.1766E+06
           32750     54.2090E+06    -4.50848E+06              0.    -15.3230E+06
           32751     55.6731E+06    -3.49975E+06              0.    -15.4485E+06
           32752     57.1483E+06    -2.38309E+06              0.    -15.5507E+06
           32753     58.6322E+06    -1.15022E+06              0.    -15.6272E+06
           32754     60.1221E+06     207.707E+03              0.    -15.6754E+06
           32755     61.6147E+06     1.70013E+06              0.    -15.6928E+06
           32756     63.1069E+06     3.33709E+06              0.    -15.6765E+06
           32757     64.5948E+06     5.12935E+06              0.    -15.6237E+06
           32758     66.0744E+06     7.08829E+06              0.    -15.5316E+06
           32759     67.5415E+06     9.22609E+06              0.    -15.3971E+06
           32760     68.9912E+06     11.5557E+06              0.    -15.2172E+06
           32761     70.4186E+06     14.0908E+06              0.    -14.9889E+06
           32762     71.8182E+06     16.8460E+06              0.    -14.7091E+06
           32763     73.1843E+06     19.8368E+06              0.    -14.3748E+06
           32764     74.5105E+06     23.0796E+06              0.    -13.9829E+06
           32765     75.7905E+06     26.5918E+06              0.    -13.5306E+06
           32766     77.0170E+06     30.3916E+06              0.    -13.0150E+06
           32767     78.6306E+06     34.6362E+06              0.    -13.1054E+06
           32768    -1.01385E+06    -455.409E+03              0.    -842.491E+03
           32769    -1.01189E+06    -437.089E+03              0.    -841.001E+03
           32770    -1.01786E+06    -422.491E+03              0.    -832.812E+03
           32771    -1.02378E+06    -408.029E+03              0.    -825.122E+03
           32772    -1.02965E+06    -393.714E+03              0.    -817.923E+03
           32773    -1.03547E+06    -379.557E+03              0.    -811.203E+03
           32774    -1.04122E+06    -365.568E+03              0.    -804.954E+03
           32775    -1.04691E+06    -351.755E+03              0.    -799.166E+03
           32776    -1.05253E+06    -338.129E+03              0.    -793.831E+03
           32777    -1.05806E+06    -324.696E+03              0.    -788.939E+03
           32778    -1.06351E+06    -311.466E+03              0.    -784.483E+03
           32779    -1.06887E+06    -298.446E+03              0.    -780.456E+03
           32780    -1.07413E+06    -285.643E+03              0.    -776.848E+03
           32781    -1.07929E+06    -273.063E+03              0.    -773.654E+03
           32782    -1.08435E+06    -260.714E+03              0.    -770.867E+03
           32783    -1.08929E+06    -248.603E+03              0.    -768.479E+03
           32784    -1.09412E+06    -236.735E+03              0.    -766.484E+03
           32785    -1.09882E+06    -225.116E+03              0.    -764.876E+03
           32786    -1.10340E+06    -213.751E+03              0.    -763.650E+03
           32787    -1.10785E+06    -202.648E+03              0.    -762.799E+03
           32788    -1.11216E+06    -191.811E+03              0.    -762.318E+03
           32789    -1.11633E+06    -181.245E+03              0.    -762.203E+03
           32790    -1.12036E+06    -170.956E+03              0.    -762.448E+03
           32791    -1.12423E+06    -160.949E+03              0.    -763.048E+03
           32792    -1.12794E+06    -151.229E+03              0.    -764.000E+03
           32793    -1.13149E+06    -141.802E+03              0.    -765.299E+03
           32794    -1.13487E+06    -132.672E+03              0.    -766.941E+03
           32795    -1.13807E+06    -123.845E+03              0.    -768.922E+03
           32796    -1.14110E+06    -115.326E+03              0.    -771.239E+03
           32797    -1.14394E+06    -107.120E+03              0.    -773.888E+03
           32798    -1.14658E+06    -99.2322E+03              0.    -776.867E+03
           32799    -1.14902E+06    -91.6684E+03              0.    -780.172E+03
           32800    -1.15126E+06    -84.4339E+03              0.    -783.801E+03
           32801    -1.15328E+06    -77.5343E+03              0.    -787.752E+03
           32802    -1.15508E+06    -70.9753E+03              0.    -792.021E+03
           32803    -1.15665E+06    -64.7626E+03              0.    -796.608E+03
           32804    -1.15798E+06    -58.9022E+03              0.    -801.509E+03
           32805    -1.15906E+06    -53.4005E+03              0.    -806.724E+03
           32806    -1.15989E+06    -48.2635E+03              0.    -812.251E+03
           32807    -1.16046E+06    -43.4980E+03              0.    -818.089E+03
           32808    -1.16074E+06    -39.1106E+03              0.    -824.236E+03
           32809    -1.16075E+06    -35.1084E+03              0.    -830.692E+03
           32810    -1.16046E+06    -31.4984E+03              0.    -837.457E+03
           32811    -1.15986E+06    -28.2882E+03              0.    -844.529E+03
           32812    -1.15895E+06    -25.4856E+03              0.    -851.908E+03
           32813    -1.15771E+06    -23.0984E+03              0.    -859.595E+03
           32814    -1.15613E+06    -21.1349E+03              0.    -867.590E+03
           32815    -1.15419E+06    -19.6039E+03              0.    -875.893E+03
           32816    -1.15189E+06    -18.5140E+03              0.    -884.504E+03
           32817    -1.14920E+06    -17.8747E+03              0.    -893.425E+03
           32818    -1.14612E+06    -17.6954E+03              0.    -902.657E+03
           32819    -1.14263E+06    -17.9861E+03              0.    -912.201E+03
           32820    -1.13871E+06    -18.7570E+03              0.    -922.058E+03
           32821    -1.13435E+06    -20.0189E+03              0.    -932.230E+03
           32822    -1.12953E+06    -21.7827E+03              0.    -942.720E+03
           32823    -1.12422E+06      -24.06E+03              0.    -953.529E+03
           32824    -1.11843E+06    -26.8626E+03              0.    -964.660E+03
           32825    -1.11212E+06    -30.2029E+03              0.    -976.116E+03
           32826    -1.10527E+06    -34.0935E+03              0.    -987.899E+03
           32827    -1.09786E+06    -38.5477E+03              0.    -1.00001E+06
           32828    -1.08988E+06    -43.5792E+03              0.    -1.01246E+06
           32829    -1.08129E+06    -49.2021E+03              0.    -1.02525E+06
           32830    -1.07208E+06    -55.4311E+03              0.    -1.03838E+06
           32831    -1.06223E+06    -62.2812E+03              0.    -1.05186E+06
           32832    -1.05169E+06    -69.7683E+03              0.    -1.06568E+06
           32833    -1.04046E+06    -77.9084E+03              0.    -1.07987E+06
           32834    -1.02850E+06    -86.7185E+03              0.    -1.09441E+06
           32835    -1.01579E+06    -96.2156E+03              0.    -1.10933E+06
           32836    -1.00229E+06    -106.418E+03              0.    -1.12461E+06
           32837    -987.969E+03    -117.343E+03              0.    -1.14028E+06
           32838    -972.805E+03    -129.012E+03              0.    -1.15633E+06
           32839    -956.759E+03    -141.442E+03              0.    -1.17278E+06
           32840    -939.800E+03    -154.655E+03              0.    -1.18963E+06
           32841    -921.890E+03    -168.671E+03              0.    -1.20688E+06
           32842    -902.993E+03    -183.512E+03              0.    -1.22455E+06
           32843    -883.071E+03    -199.200E+03              0.    -1.24265E+06
           32844    -862.084E+03    -215.758E+03              0.    -1.26118E+06
           32845    -839.992E+03     -233.21E+03              0.    -1.28016E+06
           32846    -816.753E+03    -251.579E+03              0.    -1.29958E+06
           32847    -792.321E+03    -270.891E+03              0.    -1.31948E+06
           32848    -766.652E+03    -291.172E+03              0.    -1.33984E+06
           32849    -739.698E+03    -312.446E+03              0.    -1.36070E+06
           32850    -711.410E+03    -334.743E+03              0.    -1.38205E+06
           32851    -681.739E+03    -358.089E+03              0.    -1.40391E+06
           32852    -650.630E+03    -382.513E+03              0.    -1.42630E+06
           32853    -618.030E+03    -408.044E+03              0.    -1.44922E+06
           32854    -583.883E+03    -434.712E+03              0.    -1.47269E+06
           32855    -548.130E+03    -462.549E+03              0.    -1.49673E+06
           32856    -510.711E+03    -491.585E+03              0.    -1.52134E+06
           32857    -471.564E+03    -521.853E+03              0.    -1.54656E+06
           32858    -430.625E+03    -553.386E+03              0.    -1.57238E+06
           32859    -387.826E+03    -586.218E+03              0.    -1.59884E+06
           32860    -343.099E+03    -620.383E+03              0.    -1.62595E+06
           32861    -296.371E+03    -655.917E+03              0.    -1.65372E+06
           32862    -247.570E+03    -692.855E+03              0.    -1.68218E+06
           32863    -196.620E+03    -731.236E+03              0.    -1.71135E+06
           32864    -143.440E+03    -771.095E+03              0.    -1.74124E+06
           32865    -87.9499E+03    -812.472E+03              0.    -1.77189E+06
           32866    -30.0652E+03    -855.406E+03              0.    -1.80330E+06
           32867     30.3012E+03    -899.937E+03              0.    -1.83552E+06
           32868     93.2392E+03    -946.103E+03              0.    -1.86855E+06
           32869     158.842E+03    -993.948E+03              0.    -1.90243E+06
           32870     227.205E+03    -1.04351E+06              0.    -1.93719E+06
           32871     298.428E+03    -1.09484E+06              0.    -1.97284E+06
           32872     372.613E+03    -1.14797E+06              0.    -2.00943E+06
           32873     449.865E+03    -1.20295E+06              0.    -2.04697E+06
           32874     530.294E+03    -1.25982E+06              0.    -2.08551E+06
           32875     614.012E+03    -1.31863E+06              0.    -2.12506E+06
           32876     701.136E+03    -1.37942E+06              0.    -2.16567E+06
           32877     791.784E+03    -1.44224E+06              0.    -2.20738E+06
           32878     886.082E+03    -1.50713E+06              0.    -2.25021E+06
           32879     984.155E+03    -1.57414E+06              0.    -2.29420E+06
           32880     1.08614E+06    -1.64332E+06              0.    -2.33939E+06
           32881     1.19216E+06    -1.71470E+06              0.    -2.38583E+06
           32882     1.30237E+06    -1.78835E+06              0.    -2.43355E+06
           32883     1.41690E+06    -1.86429E+06              0.    -2.48260E+06
           32884     1.53591E+06    -1.94259E+06              0.    -2.53301E+06
           32885     1.65955E+06    -2.02328E+06              0.    -2.58485E+06
           32886     1.78797E+06    -2.10641E+06              0.    -2.63815E+06
           32887     1.92135E+06    -2.19202E+06              0.    -2.69296E+06
           32888     2.05983E+06    -2.28017E+06              0.    -2.74935E+06
           32889     2.20361E+06    -2.37088E+06              0.    -2.80734E+06
           32890     2.35285E+06    -2.46421E+06              0.    -2.86702E+06
           32891     2.50773E+06    -2.56020E+06              0.    -2.92842E+06
           32892     2.66845E+06    -2.65889E+06              0.    -2.99161E+06
           32893     2.83520E+06    -2.76031E+06              0.    -3.05665E+06
           32894     3.00817E+06    -2.86450E+06              0.    -3.12361E+06
           32895     3.18757E+06    -2.97150E+06              0.    -3.19254E+06
           32896     3.37362E+06    -3.08135E+06              0.    -3.26351E+06
           32897     3.56651E+06    -3.19406E+06              0.    -3.33660E+06
           32898     3.76649E+06    -3.30967E+06              0.    -3.41186E+06
           32899     3.97377E+06    -3.42821E+06              0.    -3.48939E+06
           32900     4.18859E+06    -3.54969E+06              0.    -3.56924E+06
           32901     4.41119E+06    -3.67413E+06              0.    -3.65151E+06
           32902     4.64181E+06    -3.80156E+06              0.    -3.73626E+06
           32903     4.88072E+06    -3.93197E+06              0.    -3.82358E+06
           32904     5.12816E+06    -4.06537E+06              0.    -3.91355E+06
           32905     5.38441E+06    -4.20176E+06              0.    -4.00627E+06
           32906     5.64974E+06    -4.34114E+06              0.    -4.10181E+06
           32907     5.92443E+06    -4.48350E+06              0.    -4.20028E+06
           32908     6.20876E+06    -4.62881E+06              0.    -4.30175E+06
           32909     6.50304E+06    -4.77704E+06              0.    -4.40633E+06
           32910     6.80756E+06    -4.92817E+06              0.    -4.51411E+06
           32911     7.12263E+06    -5.08215E+06              0.    -4.62520E+06
           32912     7.44857E+06    -5.23893E+06              0.    -4.73968E+06
           32913     7.78570E+06    -5.39845E+06              0.    -4.85766E+06
           32914     8.13435E+06    -5.56063E+06              0.    -4.97926E+06
           32915     8.49485E+06    -5.72539E+06              0.    -5.10455E+06
           32916     8.86757E+06    -5.89262E+06              0.    -5.23367E+06
           32917     9.25283E+06    -6.06223E+06              0.    -5.36670E+06
           32918     9.65102E+06    -6.23408E+06              0.    -5.50375E+06
           32919     10.0625E+06    -6.40803E+06              0.    -5.64494E+06
           32920     10.4876E+06    -6.58393E+06              0.    -5.79037E+06
           32921     10.9268E+06    -6.76159E+06              0.    -5.94014E+06
           32922     11.3804E+06    -6.94082E+06              0.    -6.09435E+06
           32923     11.8488E+06    -7.12140E+06              0.    -6.25311E+06
           32924     12.3324E+06    -7.30310E+06              0.    -6.41652E+06
           32925     12.8316E+06    -7.48564E+06              0.    -6.58467E+06
           32926     13.3469E+06    -7.66873E+06              0.    -6.75767E+06
           32927     13.8787E+06    -7.85207E+06              0.    -6.93558E+06
           32928     14.4273E+06    -8.03529E+06              0.    -7.11850E+06
           32929     14.9933E+06    -8.21802E+06              0.    -7.30651E+06
           32930     15.5770E+06    -8.39984E+06              0.    -7.49967E+06
           32931     16.1788E+06    -8.58029E+06              0.    -7.69805E+06
           32932     16.7993E+06    -8.75890E+06              0.    -7.90168E+06
           32933     17.4389E+06    -8.93511E+06              0.    -8.11062E+06
           32934     18.0979E+06    -9.10835E+06              0.    -8.32488E+06
           32935     18.7769E+06    -9.27799E+06              0.    -8.54448E+06
           32936     19.4763E+06    -9.44334E+06              0.    -8.76941E+06
           32937     20.1965E+06    -9.60367E+06              0.    -8.99964E+06
           32938     20.9379E+06    -9.75818E+06              0.    -9.23514E+06
           32939     21.7011E+06    -9.90599E+06              0.    -9.47583E+06
           32940     22.4863E+06    -10.0462E+06              0.    -9.72162E+06
           32941     23.2941E+06    -10.1777E+06              0.    -9.97238E+06
           32942     24.1247E+06    -10.2996E+06              0.    -10.2280E+06
           32943     24.9787E+06    -10.4105E+06              0.    -10.4882E+06
           32944     25.8563E+06    -10.5092E+06              0.    -10.7529E+06
           32945     26.7580E+06    -10.5945E+06              0.    -11.0217E+06
           32946     27.6840E+06    -10.6647E+06              0.    -11.2943E+06
           32947     28.6346E+06    -10.7183E+06              0.    -11.5705E+06
           32948     29.6101E+06    -10.7536E+06              0.    -11.8497E+06
           32949     30.6108E+06    -10.7687E+06              0.    -12.1315E+06
           32950     31.6368E+06    -10.7617E+06              0.    -12.4155E+06
           32951     32.6882E+06    -10.7305E+06              0.    -12.7010E+06
           32952     33.7652E+06    -10.6727E+06              0.    -12.9873E+06
           32953     34.8678E+06    -10.5858E+06              0.    -13.2737E+06
           32954     35.9959E+06    -10.4673E+06              0.    -13.5595E+06
           32955     37.1495E+06    -10.3143E+06              0.    -13.8437E+06
           32956     38.3283E+06    -10.1237E+06              0.    -14.1254E+06
           32957     39.5321E+06    -9.89218E+06              0.    -14.4034E+06
           32958     40.7606E+06    -9.61627E+06              0.    -14.6767E+06
           32959     42.0131E+06    -9.29215E+06              0.    -14.9438E+06
           32960     43.2892E+06    -8.91575E+06              0.    -15.2035E+06
           32961     44.5881E+06    -8.48270E+06              0.    -15.4542E+06
           32962     45.9089E+06    -7.98830E+06              0.    -15.6944E+06
           32963     47.2505E+06    -7.42753E+06              0.    -15.9222E+06
           32964     48.6119E+06    -6.79500E+06              0.    -16.1359E+06
           32965     49.9916E+06    -6.08492E+06              0.    -16.3333E+06
           32966     51.3880E+06    -5.29112E+06              0.    -16.5125E+06
           32967     52.7993E+06    -4.40695E+06              0.    -16.6712E+06
           32968     54.2236E+06    -3.42534E+06              0.    -16.8069E+06
           32969     55.6585E+06    -2.33868E+06              0.    -16.9171E+06
           32970     57.1016E+06    -1.13888E+06              0.    -16.9993E+06
           32971     58.5501E+06     182.769E+03              0.    -17.0506E+06
           32972     60.0008E+06     1.63552E+06              0.    -17.0681E+06
           32973     61.4504E+06     3.22924E+06              0.    -17.0489E+06
           32974     62.8953E+06     4.97454E+06              0.    -16.9898E+06
           32975     64.3312E+06     6.88263E+06              0.    -16.8876E+06
           32976     65.7539E+06     8.96555E+06              0.     -16.739E+06
           32977     67.1586E+06     11.2361E+06              0.    -16.5407E+06
           32978     68.5401E+06     13.7078E+06              0.    -16.2893E+06
           32979     69.8930E+06     16.3952E+06              0.    -15.9815E+06
           32980     71.2111E+06     19.3136E+06              0.    -15.6137E+06
           32981     72.4884E+06     22.4794E+06              0.    -15.1827E+06
           32982     73.7181E+06     25.9100E+06              0.    -14.6853E+06
           32983     74.8933E+06     29.6238E+06              0.    -14.1183E+06
           32984     76.4663E+06     33.7740E+06              0.    -14.2105E+06
           32985    -1.03398E+06    -464.489E+03              0.    -836.361E+03
           32986    -1.03195E+06    -445.521E+03              0.    -834.880E+03
           32987    -1.03813E+06    -430.414E+03              0.    -826.730E+03
           32988    -1.04426E+06    -415.454E+03              0.    -819.087E+03
           32989    -1.05034E+06    -400.651E+03              0.    -811.941E+03
           32990    -1.05636E+06    -386.016E+03              0.    -805.281E+03
           32991    -1.06232E+06    -371.558E+03              0.    -799.098E+03
           32992    -1.06821E+06    -357.286E+03              0.    -793.381E+03
           32993    -1.07402E+06    -343.208E+03              0.    -788.123E+03
           32994    -1.07976E+06    -329.333E+03              0.    -783.315E+03
           32995    -1.08541E+06    -315.669E+03              0.    -778.948E+03
           32996    -1.09097E+06    -302.221E+03              0.    -775.014E+03
           32997    -1.09643E+06    -288.999E+03              0.    -771.505E+03
           32998    -1.10179E+06    -276.007E+03              0.    -768.415E+03
           32999    -1.10705E+06    -263.253E+03              0.    -765.736E+03
           33000    -1.11219E+06    -250.742E+03              0.    -763.462E+03
           33001    -1.11722E+06    -238.481E+03              0.    -761.586E+03
           33002    -1.12213E+06    -226.475E+03              0.    -760.101E+03
           33003    -1.12691E+06    -214.730E+03              0.    -759.003E+03
           33004    -1.13156E+06    -203.251E+03              0.    -758.286E+03
           33005    -1.13608E+06    -192.043E+03              0.    -757.943E+03
           33006    -1.14046E+06    -181.112E+03              0.    -757.971E+03
           33007    -1.14469E+06    -170.462E+03              0.    -758.365E+03
           33008    -1.14877E+06    -160.099E+03              0.    -759.119E+03
           33009    -1.15270E+06    -150.027E+03              0.    -760.230E+03
           33010    -1.15647E+06    -140.252E+03              0.    -761.694E+03
           33011    -1.16007E+06    -130.778E+03              0.    -763.506E+03
           33012    -1.16349E+06    -121.610E+03              0.    -765.664E+03
           33013    -1.16674E+06    -112.753E+03              0.    -768.163E+03
           33014    -1.16981E+06    -104.213E+03              0.    -771.001E+03
           33015    -1.17268E+06    -95.9939E+03              0.    -774.175E+03
           33016    -1.17536E+06    -88.1013E+03              0.    -777.682E+03
           33017    -1.17784E+06    -80.5404E+03              0.    -781.520E+03
           33018    -1.18010E+06    -73.3166E+03              0.    -785.687E+03
           33019    -1.18215E+06    -66.4353E+03              0.    -790.180E+03
           33020    -1.18397E+06    -59.9023E+03              0.    -794.998E+03
           33021    -1.18556E+06    -53.7231E+03              0.    -800.140E+03
           33022    -1.18690E+06    -47.9039E+03              0.    -805.603E+03
           33023    -1.18800E+06    -42.4507E+03              0.    -811.387E+03
           33024    -1.18883E+06    -37.3698E+03              0.    -817.491E+03
           33025    -1.18940E+06    -32.6679E+03              0.    -823.914E+03
           33026    -1.18969E+06    -28.3515E+03              0.    -830.657E+03
           33027    -1.18969E+06    -24.4278E+03              0.    -837.718E+03
           33028    -1.18938E+06    -20.9039E+03              0.    -845.098E+03
           33029    -1.18877E+06    -17.7875E+03              0.    -852.796E+03
           33030    -1.18784E+06    -15.0861E+03              0.    -860.814E+03
           33031    -1.18657E+06    -12.8079E+03              0.    -869.152E+03
           33032    -1.18496E+06    -10.9613E+03              0.    -877.812E+03
           33033    -1.18299E+06    -9.55487E+03              0.    -886.793E+03
           33034    -1.18064E+06    -8.59767E+03              0.    -896.098E+03
           33035    -1.17791E+06    -8.09902E+03              0.    -905.728E+03
           33036    -1.17477E+06    -8.06860E+03              0.    -915.686E+03
           33037    -1.17122E+06    -8.51645E+03              0.    -925.973E+03
           33038    -1.16723E+06    -9.45299E+03              0.    -936.591E+03
           33039    -1.16279E+06    -10.8890E+03              0.    -947.544E+03
           33040    -1.15788E+06    -12.8357E+03              0.    -958.835E+03
           33041    -1.15249E+06    -15.3048E+03              0.    -970.466E+03
           33042    -1.14659E+06    -18.3082E+03              0.    -982.441E+03
           33043    -1.14017E+06    -21.8584E+03              0.    -994.764E+03
           33044    -1.13320E+06    -25.9684E+03              0.    -1.00744E+06
           33045    -1.12567E+06    -30.6515E+03              0.    -1.02047E+06
           33046    -1.11754E+06    -35.9216E+03              0.    -1.03386E+06
           33047    -1.10881E+06    -41.7930E+03              0.    -1.04762E+06
           33048    -1.09944E+06    -48.2806E+03              0.    -1.06175E+06
           33049    -1.08941E+06    -55.3998E+03              0.    -1.07626E+06
           33050    -1.07869E+06    -63.1663E+03              0.    -1.09115E+06
           33051    -1.06726E+06    -71.5968E+03              0.    -1.10642E+06
           33052    -1.05509E+06    -80.7079E+03              0.    -1.12210E+06
           33053    -1.04216E+06    -90.5174E+03              0.    -1.13818E+06
           33054    -1.02842E+06    -101.043E+03              0.    -1.15466E+06
           33055    -1.01385E+06    -112.304E+03              0.    -1.17157E+06
           33056    -998.417E+03    -124.319E+03              0.    -1.18890E+06
           33057    -982.089E+03    -137.109E+03              0.    -1.20667E+06
           33058    -964.830E+03    -150.693E+03              0.    -1.22488E+06
           33059    -946.604E+03    -165.093E+03              0.    -1.24355E+06
           33060    -927.374E+03    -180.330E+03              0.    -1.26268E+06
           33061    -907.100E+03    -196.428E+03              0.    -1.28228E+06
           33062    -885.743E+03    -213.408E+03              0.    -1.30237E+06
           33063    -863.261E+03    -231.296E+03              0.    -1.32295E+06
           33064    -839.610E+03    -250.114E+03              0.    -1.34404E+06
           33065    -814.747E+03    -269.889E+03              0.    -1.36565E+06
           33066    -788.625E+03    -290.646E+03              0.    -1.38780E+06
           33067    -761.196E+03    -312.412E+03              0.    -1.41049E+06
           33068    -732.410E+03    -335.213E+03              0.    -1.43375E+06
           33069    -702.215E+03    -359.079E+03              0.    -1.45758E+06
           33070    -670.560E+03    -384.037E+03              0.    -1.48200E+06
           33071    -637.387E+03    -410.116E+03              0.    -1.50702E+06
           33072    -602.641E+03    -437.348E+03              0.    -1.53267E+06
           33073    -566.263E+03    -465.763E+03              0.    -1.55897E+06
           33074    -528.190E+03    -495.392E+03              0.    -1.58592E+06
           33075    -488.361E+03    -526.268E+03              0.    -1.61354E+06
           33076    -446.709E+03    -558.424E+03              0.    -1.64187E+06
           33077    -403.168E+03    -591.894E+03              0.    -1.67091E+06
           33078    -357.666E+03    -626.712E+03              0.    -1.70069E+06
           33079    -310.133E+03    -662.914E+03              0.    -1.73123E+06
           33080    -260.493E+03    -700.536E+03              0.    -1.76256E+06
           33081    -208.669E+03    -739.613E+03              0.    -1.79469E+06
           33082    -154.581E+03    -780.185E+03              0.    -1.82765E+06
           33083    -98.1465E+03    -822.289E+03              0.    -1.86147E+06
           33084     -39.281E+03    -865.963E+03              0.    -1.89617E+06
           33085     22.1039E+03    -911.248E+03              0.    -1.93178E+06
           33086     86.0990E+03    -958.183E+03              0.    -1.96833E+06
           33087     152.798E+03    -1.00681E+06              0.    -2.00585E+06
           33088     222.298E+03    -1.05717E+06              0.    -2.04437E+06
           33089     294.699E+03    -1.10930E+06              0.    -2.08391E+06
           33090     370.104E+03    -1.16325E+06              0.    -2.12453E+06
           33091     448.620E+03    -1.21906E+06              0.    -2.16624E+06
           33092     530.357E+03    -1.27677E+06              0.    -2.20908E+06
           33093     615.427E+03    -1.33642E+06              0.    -2.25310E+06
           33094     703.949E+03    -1.39807E+06              0.    -2.29832E+06
           33095     796.042E+03    -1.46175E+06              0.    -2.34480E+06
           33096     891.831E+03    -1.52751E+06              0.    -2.39256E+06
           33097     991.444E+03    -1.59539E+06              0.    -2.44165E+06
           33098     1.09501E+06    -1.66544E+06              0.    -2.49212E+06
           33099     1.20268E+06    -1.73771E+06              0.    -2.54401E+06
           33100     1.31457E+06    -1.81223E+06              0.    -2.59737E+06
           33101     1.43084E+06    -1.88905E+06              0.    -2.65224E+06
           33102     1.55164E+06    -1.96822E+06              0.    -2.70869E+06
           33103     1.67712E+06    -2.04978E+06              0.    -2.76675E+06
           33104     1.80744E+06    -2.13377E+06              0.    -2.82648E+06
           33105     1.94276E+06    -2.22023E+06              0.    -2.88794E+06
           33106     2.08324E+06    -2.30922E+06              0.    -2.95119E+06
           33107     2.22907E+06    -2.40076E+06              0.    -3.01629E+06
           33108     2.38041E+06    -2.49489E+06              0.    -3.08329E+06
           33109     2.53746E+06    -2.59166E+06              0.    -3.15227E+06
           33110     2.70039E+06    -2.69111E+06              0.    -3.22328E+06
           33111     2.86940E+06    -2.79326E+06              0.    -3.29640E+06
           33112     3.04469E+06    -2.89815E+06              0.    -3.37169E+06
           33113     3.22646E+06    -3.00580E+06              0.    -3.44923E+06
           33114     3.41492E+06    -3.11626E+06              0.    -3.52908E+06
           33115     3.61029E+06    -3.22955E+06              0.    -3.61134E+06
           33116     3.81278E+06    -3.34568E+06              0.    -3.69606E+06
           33117     4.02263E+06    -3.46468E+06              0.    -3.78335E+06
           33118     4.24007E+06    -3.58656E+06              0.    -3.87327E+06
           33119     4.46533E+06    -3.71134E+06              0.    -3.96592E+06
           33120     4.69867E+06    -3.83902E+06              0.    -4.06138E+06
           33121     4.94032E+06    -3.96961E+06              0.    -4.15974E+06
           33122     5.19056E+06    -4.10309E+06              0.    -4.26109E+06
           33123     5.44964E+06    -4.23948E+06              0.    -4.36553E+06
           33124     5.71784E+06    -4.37874E+06              0.    -4.47316E+06
           33125     5.99543E+06    -4.52086E+06              0.    -4.58406E+06
           33126     6.28270E+06    -4.66582E+06              0.    -4.69836E+06
           33127     6.57993E+06    -4.81357E+06              0.    -4.81613E+06
           33128     6.88743E+06    -4.96407E+06              0.    -4.93750E+06
           33129     7.20551E+06    -5.11727E+06              0.    -5.06256E+06
           33130     7.53446E+06    -5.27310E+06              0.    -5.19143E+06
           33131     7.87462E+06    -5.43150E+06              0.    -5.32420E+06
           33132     8.22630E+06    -5.59236E+06              0.    -5.46100E+06
           33133     8.58985E+06    -5.75561E+06              0.    -5.60193E+06
           33134     8.96559E+06    -5.92111E+06              0.    -5.74711E+06
           33135     9.35387E+06    -6.08876E+06              0.    -5.89664E+06
           33136     9.75506E+06    -6.25840E+06              0.    -6.05064E+06
           33137     10.1695E+06    -6.42989E+06              0.    -6.20922E+06
           33138     10.5976E+06    -6.60304E+06              0.    -6.37248E+06
           33139     11.0396E+06    -6.77766E+06              0.    -6.54054E+06
           33140     11.4961E+06    -6.95353E+06              0.    -6.71351E+06
           33141     11.9673E+06    -7.13042E+06              0.    -6.89148E+06
           33142     12.4536E+06    -7.30807E+06              0.    -7.07456E+06
           33143     12.9555E+06    -7.48620E+06              0.    -7.26285E+06
           33144     13.4734E+06    -7.66448E+06              0.    -7.45643E+06
           33145     14.0076E+06    -7.84258E+06              0.    -7.65539E+06
           33146     14.5586E+06    -8.02012E+06              0.    -7.85981E+06
           33147     15.1268E+06    -8.19670E+06              0.    -8.06977E+06
           33148     15.7125E+06    -8.37188E+06              0.    -8.28531E+06
           33149     16.3164E+06    -8.54518E+06              0.    -8.50650E+06
           33150     16.9386E+06    -8.71607E+06              0.    -8.73336E+06
           33151     17.5798E+06    -8.88398E+06              0.    -8.96593E+06
           33152     18.2402E+06    -9.04831E+06              0.    -9.20420E+06
           33153     18.9204E+06    -9.20840E+06              0.    -9.44818E+06
           33154     19.6207E+06    -9.36351E+06              0.    -9.69782E+06
           33155     20.3416E+06    -9.51289E+06              0.    -9.95309E+06
           33156     21.0834E+06    -9.65569E+06              0.    -10.2139E+06
           33157     21.8467E+06    -9.79100E+06              0.    -10.4801E+06
           33158     22.6317E+06    -9.91785E+06              0.    -10.7517E+06
           33159     23.4389E+06    -10.0352E+06              0.    -11.0284E+06
           33160     24.2686E+06    -10.1419E+06              0.    -11.3100E+06
           33161     25.1212E+06    -10.2367E+06              0.    -11.5963E+06
           33162     25.9971E+06    -10.3183E+06              0.    -11.8871E+06
           33163     26.8965E+06    -10.3852E+06              0.    -12.1819E+06
           33164     27.8197E+06    -10.4361E+06              0.    -12.4804E+06
           33165     28.7670E+06    -10.4691E+06              0.    -12.7821E+06
           33166     29.7387E+06    -10.4825E+06              0.    -13.0867E+06
           33167     30.7348E+06    -10.4745E+06              0.    -13.3934E+06
           33168     31.7557E+06    -10.4429E+06              0.    -13.7017E+06
           33169     32.8012E+06    -10.3855E+06              0.    -14.0108E+06
           33170     33.8715E+06    -10.3000E+06              0.    -14.3201E+06
           33171     34.9666E+06    -10.1838E+06              0.    -14.6285E+06
           33172     36.0863E+06    -10.0342E+06              0.    -14.9352E+06
           33173     37.2304E+06    -9.84810E+06              0.    -15.2390E+06
           33174     38.3988E+06    -9.62246E+06              0.    -15.5389E+06
           33175     39.5910E+06    -9.35381E+06              0.    -15.8336E+06
           33176     40.8066E+06    -9.03850E+06              0.    -16.1216E+06
           33177     42.0449E+06    -8.67257E+06              0.    -16.4016E+06
           33178     43.3053E+06    -8.25179E+06              0.    -16.6718E+06
           33179     44.5869E+06    -7.77163E+06              0.    -16.9306E+06
           33180     45.8887E+06    -7.22719E+06              0.    -17.1761E+06
           33181     47.2096E+06    -6.61326E+06              0.    -17.4062E+06
           33182     48.5481E+06    -5.92421E+06              0.    -17.6188E+06
           33183     49.9026E+06    -5.15402E+06              0.    -17.8116E+06
           33184     51.2716E+06    -4.29624E+06              0.    -17.9821E+06
           33185     52.6528E+06    -3.34396E+06              0.    -18.1278E+06
           33186     54.0441E+06    -2.28976E+06              0.    -18.2460E+06
           33187     55.4430E+06    -1.12573E+06              0.    -18.3338E+06
           33188     56.8467E+06     156.641E+03              0.    -18.3881E+06
           33189     58.2522E+06     1.56642E+06              0.    -18.4059E+06
           33190     59.6559E+06     3.11332E+06              0.    -18.3837E+06
           33191     61.0542E+06     4.80772E+06              0.    -18.3183E+06
           33192     62.4430E+06     6.66068E+06              0.    -18.2062E+06
           33193     63.8179E+06     8.68407E+06              0.    -18.0436E+06
           33194     65.1740E+06     10.8905E+06              0.    -17.8271E+06
           33195     66.5060E+06     13.2934E+06              0.    -17.5528E+06
           33196     67.8084E+06     15.9071E+06              0.    -17.2169E+06
           33197     69.0752E+06     18.7469E+06              0.    -16.8159E+06
           33198     70.2997E+06     21.8290E+06              0.    -16.3459E+06
           33199     71.4750E+06     25.1706E+06              0.    -15.8033E+06
           33200     72.5935E+06     28.7901E+06              0.    -15.1846E+06
           33201     74.1203E+06     32.8361E+06              0.    -15.2772E+06
           33202    -1.05404E+06    -473.541E+03              0.    -830.018E+03
           33203    -1.05195E+06    -453.917E+03              0.    -828.547E+03
           33204    -1.05834E+06    -438.294E+03              0.    -820.438E+03
           33205    -1.06468E+06    -422.828E+03              0.    -812.844E+03
           33206    -1.07097E+06    -407.531E+03              0.    -805.752E+03
           33207    -1.07720E+06    -392.412E+03              0.    -799.153E+03
           33208    -1.08336E+06    -377.479E+03              0.    -793.037E+03
           33209    -1.08946E+06    -362.741E+03              0.    -787.394E+03
           33210    -1.09548E+06    -348.207E+03              0.    -782.214E+03
           33211    -1.10142E+06    -333.884E+03              0.    -777.489E+03
           33212    -1.10727E+06    -319.780E+03              0.    -773.211E+03
           33213    -1.11303E+06    -305.901E+03              0.    -769.370E+03
           33214    -1.11870E+06    -292.254E+03              0.    -765.961E+03
           33215    -1.12426E+06    -278.845E+03              0.    -762.974E+03
           33216    -1.12972E+06    -265.680E+03              0.    -760.403E+03
           33217    -1.13507E+06    -252.766E+03              0.    -758.242E+03
           33218    -1.14031E+06    -240.107E+03              0.    -756.483E+03
           33219    -1.14542E+06    -227.710E+03              0.    -755.122E+03
           33220    -1.15041E+06    -215.579E+03              0.    -754.151E+03
           33221    -1.15527E+06    -203.720E+03              0.    -753.565E+03
           33222    -1.16000E+06    -192.137E+03              0.    -753.359E+03
           33223    -1.16459E+06    -180.835E+03              0.    -753.529E+03
           33224    -1.16904E+06    -169.819E+03              0.    -754.069E+03
           33225    -1.17334E+06    -159.094E+03              0.    -754.975E+03
           33226    -1.17749E+06    -148.665E+03              0.    -756.243E+03
           33227    -1.18148E+06    -138.536E+03              0.    -757.868E+03
           33228    -1.18530E+06    -128.712E+03              0.    -759.848E+03
           33229    -1.18896E+06    -119.198E+03              0.    -762.179E+03
           33230    -1.19244E+06    -109.997E+03              0.    -764.857E+03
           33231    -1.19574E+06    -101.116E+03              0.    -767.881E+03
           33232    -1.19886E+06    -92.5594E+03              0.    -771.246E+03
           33233    -1.20178E+06    -84.3312E+03              0.    -774.951E+03
           33234    -1.20450E+06    -76.4369E+03              0.    -778.994E+03
           33235    -1.20702E+06    -68.8815E+03              0.    -783.372E+03
           33236    -1.20932E+06    -61.6705E+03              0.    -788.085E+03
           33237    -1.21140E+06    -54.8091E+03              0.    -793.129E+03
           33238    -1.21326E+06    -48.3029E+03              0.    -798.506E+03
           33239    -1.21487E+06    -42.1576E+03              0.    -804.212E+03
           33240    -1.21625E+06    -36.3792E+03              0.    -810.248E+03
           33241    -1.21736E+06    -30.9737E+03              0.    -816.612E+03
           33242    -1.21822E+06    -25.9474E+03              0.    -823.306E+03
           33243    -1.21881E+06    -21.3068E+03              0.    -830.328E+03
           33244    -1.21911E+06    -17.0587E+03              0.    -837.679E+03
           33245    -1.21912E+06    -13.2102E+03              0.    -845.360E+03
           33246    -1.21882E+06    -9.76832E+03              0.    -853.371E+03
           33247    -1.21822E+06    -6.74078E+03              0.    -861.712E+03
           33248    -1.21728E+06    -4.13531E+03              0.    -870.386E+03
           33249    -1.21601E+06    -1.96008E+03              0.    -879.394E+03
           33250    -1.21439E+06        -223.474              0.    -888.737E+03
           33251    -1.21240E+06     1.06576E+03              0.    -898.417E+03
           33252    -1.21003E+06     1.89854E+03              0.    -908.437E+03
           33253    -1.20727E+06     2.26545E+03              0.    -918.799E+03
           33254    -1.20410E+06     2.15673E+03              0.    -929.506E+03
           33255    -1.20051E+06     1.56220E+03              0.    -940.561E+03
           33256    -1.19648E+06         471.367              0.    -951.967E+03
           33257    -1.19199E+06    -1.12670E+03              0.    -963.728E+03
           33258    -1.18703E+06    -3.24336E+03              0.    -975.848E+03
           33259    -1.18157E+06    -5.89031E+03              0.    -988.331E+03
           33260    -1.17560E+06    -9.07974E+03              0.    -1.00118E+06
           33261    -1.16910E+06    -12.8243E+03              0.    -1.01440E+06
           33262    -1.16204E+06    -17.1370E+03              0.    -1.02801E+06
           33263    -1.15441E+06    -22.0314E+03              0.    -1.04199E+06
           33264    -1.14619E+06    -27.5215E+03              0.    -1.05636E+06
           33265    -1.13734E+06    -33.6218E+03              0.    -1.07113E+06
           33266    -1.12785E+06    -40.3474E+03              0.    -1.08630E+06
           33267    -1.11768E+06    -47.7136E+03              0.    -1.10188E+06
           33268    -1.10682E+06    -55.7367E+03              0.    -1.11788E+06
           33269    -1.09524E+06    -64.4331E+03              0.    -1.13430E+06
           33270    -1.08290E+06    -73.8200E+03              0.    -1.15115E+06
           33271    -1.06979E+06    -83.9151E+03              0.    -1.16844E+06
           33272    -1.05586E+06    -94.7366E+03              0.    -1.18618E+06
           33273    -1.04109E+06    -106.303E+03              0.    -1.20438E+06
           33274    -1.02544E+06    -118.635E+03              0.    -1.22305E+06
           33275    -1.00888E+06    -131.751E+03              0.    -1.24220E+06
           33276    -991.381E+03    -145.673E+03              0.    -1.26183E+06
           33277    -972.896E+03    -160.421E+03              0.    -1.28197E+06
           33278    -953.392E+03    -176.018E+03              0.    -1.30262E+06
           33279    -932.829E+03    -192.486E+03              0.    -1.32380E+06
           33280    -911.166E+03    -209.848E+03              0.    -1.34551E+06
           33281    -888.361E+03    -228.129E+03              0.    -1.36778E+06
           33282    -864.371E+03    -247.352E+03              0.    -1.39061E+06
           33283    -839.149E+03    -267.544E+03              0.    -1.41402E+06
           33284    -812.649E+03    -288.729E+03              0.    -1.43802E+06
           33285    -784.823E+03    -310.935E+03              0.    -1.46264E+06
           33286    -755.621E+03    -334.189E+03              0.    -1.48788E+06
           33287    -724.989E+03    -358.519E+03              0.    -1.51377E+06
           33288    -692.875E+03    -383.953E+03              0.    -1.54032E+06
           33289    -659.222E+03    -410.522E+03              0.    -1.56755E+06
           33290    -623.973E+03    -438.254E+03              0.    -1.59548E+06
           33291    -587.068E+03    -467.182E+03              0.    -1.62413E+06
           33292    -548.445E+03    -497.336E+03              0.    -1.65352E+06
           33293    -508.041E+03    -528.749E+03              0.    -1.68367E+06
           33294    -465.790E+03    -561.455E+03              0.    -1.71461E+06
           33295    -421.622E+03    -595.486E+03              0.    -1.74636E+06
           33296    -375.468E+03    -630.877E+03              0.    -1.77893E+06
           33297    -327.255E+03    -667.663E+03              0.    -1.81237E+06
           33298    -276.907E+03    -705.880E+03              0.    -1.84669E+06
           33299    -224.346E+03    -745.565E+03              0.    -1.88191E+06
           33300    -169.492E+03    -786.754E+03              0.    -1.91808E+06
           33301    -112.262E+03    -829.486E+03              0.    -1.95522E+06
           33302    -52.5695E+03    -873.798E+03              0.    -1.99335E+06
           33303     9.67340E+03    -919.731E+03              0.    -2.03251E+06
           33304     74.5586E+03    -967.322E+03              0.    -2.07273E+06
           33305     142.180E+03    -1.01661E+06              0.    -2.11405E+06
           33306     212.637E+03    -1.06764E+06              0.    -2.15650E+06
           33307     286.027E+03    -1.12046E+06              0.    -2.20011E+06
           33308     362.457E+03    -1.17509E+06              0.    -2.24493E+06
           33309     442.032E+03    -1.23159E+06              0.    -2.29099E+06
           33310     524.863E+03    -1.29000E+06              0.    -2.33833E+06
           33311     611.065E+03    -1.35035E+06              0.    -2.38700E+06
           33312     700.753E+03    -1.41270E+06              0.    -2.43703E+06
           33313     794.050E+03    -1.47708E+06              0.    -2.48848E+06
           33314     891.081E+03    -1.54354E+06              0.    -2.54138E+06
           33315     991.973E+03    -1.61213E+06              0.    -2.59579E+06
           33316     1.09686E+06    -1.68288E+06              0.    -2.65175E+06
           33317     1.20588E+06    -1.75583E+06              0.    -2.70932E+06
           33318     1.31916E+06    -1.83104E+06              0.    -2.76855E+06
           33319     1.43687E+06    -1.90853E+06              0.    -2.82949E+06
           33320     1.55914E+06    -1.98837E+06              0.    -2.89220E+06
           33321     1.68613E+06    -2.07057E+06              0.    -2.95674E+06
           33322     1.81799E+06    -2.15520E+06              0.    -3.02316E+06
           33323     1.95489E+06    -2.24228E+06              0.    -3.09153E+06
           33324     2.09700E+06    -2.33185E+06              0.    -3.16192E+06
           33325     2.24449E+06    -2.42396E+06              0.    -3.23439E+06
           33326     2.39753E+06    -2.51863E+06              0.    -3.30901E+06
           33327     2.55630E+06    -2.61591E+06              0.    -3.38584E+06
           33328       2.721E+06    -2.71583E+06              0.    -3.46496E+06
           33329     2.89181E+06    -2.81841E+06              0.    -3.54645E+06
           33330     3.06894E+06    -2.92368E+06              0.    -3.63039E+06
           33331     3.25257E+06    -3.03168E+06              0.    -3.71684E+06
           33332     3.44293E+06    -3.14243E+06              0.    -3.80590E+06
           33333     3.64023E+06    -3.25594E+06              0.    -3.89764E+06
           33334     3.84468E+06    -3.37223E+06              0.    -3.99216E+06
           33335     4.05651E+06    -3.49132E+06              0.    -4.08954E+06
           33336     4.27595E+06    -3.61322E+06              0.    -4.18987E+06
           33337     4.50323E+06    -3.73793E+06              0.    -4.29324E+06
           33338     4.73861E+06    -3.86545E+06              0.    -4.39976E+06
           33339     4.98232E+06    -3.99578E+06              0.    -4.50951E+06
           33340     5.23462E+06    -4.12891E+06              0.    -4.62260E+06
           33341     5.49578E+06    -4.26482E+06              0.    -4.73914E+06
           33342     5.76606E+06    -4.40349E+06              0.    -4.85921E+06
           33343     6.04573E+06    -4.54489E+06              0.    -4.98293E+06
           33344     6.33508E+06    -4.68898E+06              0.    -5.11042E+06
           33345     6.63438E+06    -4.83572E+06              0.    -5.24177E+06
           33346     6.94394E+06    -4.98505E+06              0.    -5.37710E+06
           33347     7.26406E+06    -5.13690E+06              0.    -5.51652E+06
           33348     7.59503E+06    -5.29120E+06              0.    -5.66015E+06
           33349     7.93717E+06    -5.44787E+06              0.    -5.80810E+06
           33350     8.29080E+06    -5.60681E+06              0.    -5.96049E+06
           33351     8.65625E+06    -5.76789E+06              0.    -6.11744E+06
           33352     9.03384E+06    -5.93101E+06              0.    -6.27906E+06
           33353     9.42393E+06    -6.09602E+06              0.    -6.44546E+06
           33354     9.82684E+06    -6.26276E+06              0.    -6.61677E+06
           33355     10.2429E+06    -6.43105E+06              0.    -6.79311E+06
           33356     10.6726E+06    -6.60072E+06              0.    -6.97457E+06
           33357     11.1161E+06    -6.77154E+06              0.    -7.16128E+06
           33358     11.5739E+06    -6.94328E+06              0.    -7.35334E+06
           33359     12.0464E+06    -7.11568E+06              0.    -7.55086E+06
           33360     12.5338E+06    -7.28848E+06              0.    -7.75393E+06
           33361     13.0367E+06    -7.46135E+06              0.    -7.96266E+06
           33362     13.5554E+06    -7.63396E+06              0.    -8.17712E+06
           33363     14.0903E+06    -7.80596E+06              0.    -8.39741E+06
           33364     14.6418E+06    -7.97694E+06              0.    -8.62358E+06
           33365     15.2103E+06    -8.14647E+06              0.    -8.85571E+06
           33366     15.7961E+06    -8.31410E+06              0.    -9.09384E+06
           33367     16.3998E+06    -8.47930E+06              0.    -9.33801E+06
           33368     17.0217E+06    -8.64153E+06              0.    -9.58824E+06
           33369     17.6622E+06    -8.80020E+06              0.    -9.84455E+06
           33370     18.3217E+06    -8.95466E+06              0.    -10.1069E+06
           33371     19.0006E+06    -9.10422E+06              0.    -10.3753E+06
           33372     19.6994E+06    -9.24813E+06              0.    -10.6496E+06
           33373     20.4184E+06    -9.38559E+06              0.    -10.9298E+06
           33374     21.1580E+06    -9.51571E+06              0.    -11.2158E+06
           33375     21.9186E+06    -9.63755E+06              0.    -11.5074E+06
           33376     22.7006E+06    -9.75010E+06              0.    -11.8045E+06
           33377     23.5043E+06    -9.85226E+06              0.    -12.1067E+06
           33378     24.3300E+06    -9.94285E+06              0.    -12.4140E+06
           33379     25.1782E+06    -10.0206E+06              0.    -12.7259E+06
           33380     26.0490E+06    -10.0842E+06              0.    -13.0421E+06
           33381     26.9429E+06    -10.1320E+06              0.    -13.3622E+06
           33382     27.8599E+06    -10.1626E+06              0.    -13.6857E+06
           33383     28.8005E+06    -10.1743E+06              0.    -14.0121E+06
           33384     29.7646E+06    -10.1651E+06              0.    -14.3408E+06
           33385     30.7525E+06    -10.1332E+06              0.    -14.6712E+06
           33386     31.7643E+06    -10.0763E+06              0.    -15.0024E+06
           33387     32.8000E+06    -9.99226E+06              0.    -15.3336E+06
           33388     33.8595E+06    -9.87855E+06              0.    -15.6640E+06
           33389     34.9429E+06    -9.73254E+06              0.    -15.9924E+06
           33390     36.0498E+06    -9.55138E+06              0.    -16.3178E+06
           33391     37.1801E+06    -9.33202E+06              0.    -16.6389E+06
           33392     38.3334E+06    -9.07117E+06              0.    -16.9543E+06
           33393     39.5092E+06    -8.76529E+06              0.    -17.2627E+06
           33394     40.7070E+06    -8.41058E+06              0.    -17.5623E+06
           33395     41.9261E+06    -8.00295E+06              0.    -17.8515E+06
           33396     43.1656E+06    -7.53803E+06              0.    -18.1285E+06
           33397     44.4246E+06    -7.01110E+06              0.    -18.3911E+06
           33398     45.7019E+06    -6.41709E+06              0.    -18.6372E+06
           33399     46.9961E+06    -5.75056E+06              0.    -18.8645E+06
           33400     48.3058E+06    -5.00568E+06              0.    -19.0706E+06
           33401     49.6291E+06    -4.17619E+06              0.    -19.2528E+06
           33402     50.9642E+06    -3.25537E+06              0.    -19.4084E+06
           33403     52.3087E+06    -2.23600E+06              0.    -19.5343E+06
           33404     53.6602E+06    -1.11036E+06              0.    -19.6276E+06
           33405     55.0158E+06     129.837E+03              0.    -19.6849E+06
           33406     56.3726E+06     1.49347E+06              0.    -19.7028E+06
           33407     57.7271E+06     2.99003E+06              0.    -19.6779E+06
           33408     59.0756E+06     4.62971E+06              0.    -19.6063E+06
           33409     60.4139E+06     6.42337E+06              0.    -19.4843E+06
           33410     61.7375E+06     8.38267E+06              0.    -19.3080E+06
           33411     63.0416E+06     10.5200E+06              0.    -19.0733E+06
           33412     64.3208E+06     12.8488E+06              0.    -18.7762E+06
           33413     65.5694E+06     15.3830E+06              0.    -18.4126E+06
           33414     66.7812E+06     18.1379E+06              0.    -17.9784E+06
           33415     67.9495E+06     21.1296E+06              0.    -17.4694E+06
           33416     69.0672E+06     24.3753E+06              0.    -16.8816E+06
           33417     70.1268E+06     27.8932E+06              0.    -16.2112E+06
           33418     71.6050E+06     31.8269E+06              0.    -16.3019E+06
           33419    -1.07404E+06    -482.563E+03              0.    -823.458E+03
           33420    -1.07188E+06    -462.273E+03              0.    -821.996E+03
           33421    -1.07848E+06    -446.127E+03              0.    -813.932E+03
           33422    -1.08504E+06    -430.150E+03              0.    -806.388E+03
           33423    -1.09154E+06    -414.352E+03              0.    -799.353E+03
           33424    -1.09798E+06    -398.743E+03              0.    -792.817E+03
           33425    -1.10436E+06    -383.329E+03              0.    -786.769E+03
           33426    -1.11066E+06    -368.121E+03              0.    -781.200E+03
           33427    -1.11689E+06    -353.125E+03              0.    -776.099E+03
           33428    -1.12303E+06    -338.349E+03              0.    -771.458E+03
           33429    -1.12909E+06    -323.800E+03              0.    -767.269E+03
           33430    -1.13506E+06    -309.484E+03              0.    -763.523E+03
           33431    -1.14093E+06    -295.408E+03              0.    -760.211E+03
           33432    -1.14670E+06    -281.577E+03              0.    -757.328E+03
           33433    -1.15237E+06    -267.998E+03              0.    -754.865E+03
           33434    -1.15793E+06    -254.675E+03              0.    -752.816E+03
           33435    -1.16337E+06    -241.615E+03              0.    -751.174E+03
           33436    -1.16870E+06    -228.821E+03              0.    -749.933E+03
           33437    -1.17390E+06    -216.300E+03              0.    -749.088E+03
           33438    -1.17897E+06    -204.055E+03              0.    -748.632E+03
           33439    -1.18392E+06    -192.092E+03              0.    -748.561E+03
           33440    -1.18873E+06    -180.415E+03              0.    -748.870E+03
           33441    -1.19339E+06    -169.029E+03              0.    -749.554E+03
           33442    -1.19792E+06    -157.937E+03              0.    -750.609E+03
           33443    -1.20229E+06    -147.145E+03              0.    -752.031E+03
           33444    -1.20651E+06    -136.658E+03              0.    -753.816E+03
           33445    -1.21056E+06    -126.478E+03              0.    -755.960E+03
           33446    -1.21445E+06    -116.611E+03              0.    -758.460E+03
           33447    -1.21818E+06    -107.062E+03              0.    -761.314E+03
           33448    -1.22172E+06    -97.8340E+03              0.    -764.519E+03
           33449    -1.22508E+06    -88.9327E+03              0.    -768.072E+03
           33450    -1.22826E+06    -80.3623E+03              0.    -771.970E+03
           33451    -1.23123E+06    -72.1277E+03              0.    -776.213E+03
           33452    -1.23401E+06    -64.2338E+03              0.    -780.798E+03
           33453    -1.23658E+06    -56.6856E+03              0.    -785.725E+03
           33454    -1.23893E+06    -49.4883E+03              0.    -790.991E+03
           33455    -1.24107E+06    -42.6470E+03              0.    -796.596E+03
           33456    -1.24297E+06    -36.1674E+03              0.    -802.540E+03
           33457    -1.24463E+06    -30.0550E+03              0.    -808.821E+03
           33458    -1.24604E+06    -24.3157E+03              0.    -815.441E+03
           33459    -1.24720E+06    -18.9556E+03              0.    -822.398E+03
           33460    -1.24810E+06    -13.9809E+03              0.    -829.693E+03
           33461    -1.24871E+06    -9.39817E+03              0.    -837.327E+03
           33462    -1.24905E+06    -5.21409E+03              0.    -845.301E+03
           33463    -1.24909E+06    -1.43569E+03              0.    -853.616E+03
           33464    -1.24882E+06     1.92975E+03              0.    -862.274E+03
           33465    -1.24824E+06     4.87471E+03              0.    -871.275E+03
           33466    -1.24732E+06     7.39129E+03              0.    -880.622E+03
           33467    -1.24606E+06     9.47138E+03              0.    -890.318E+03
           33468    -1.24445E+06     11.1065E+03              0.    -900.364E+03
           33469    -1.24247E+06     12.2878E+03              0.    -910.764E+03
           33470    -1.24011E+06     13.0063E+03              0.    -921.520E+03
           33471    -1.23735E+06     13.2523E+03              0.    -932.637E+03
           33472    -1.23418E+06     13.0161E+03              0.    -944.117E+03
           33473    -1.23057E+06     12.2875E+03              0.    -955.965E+03
           33474    -1.22653E+06     11.0558E+03              0.    -968.185E+03
           33475    -1.22202E+06     9.30991E+03              0.    -980.782E+03
           33476    -1.21703E+06     7.03855E+03              0.    -993.760E+03
           33477    -1.21154E+06     4.22983E+03              0.    -1.00713E+06
           33478    -1.20553E+06         871.457              0.    -1.02088E+06
           33479    -1.19899E+06    -3.04928E+03              0.    -1.03504E+06
           33480    -1.19188E+06    -7.54561E+03              0.    -1.04960E+06
           33481    -1.18419E+06    -12.6311E+03              0.    -1.06457E+06
           33482    -1.17590E+06    -18.3199E+03              0.    -1.07997E+06
           33483    -1.16698E+06    -24.6267E+03              0.    -1.09578E+06
           33484    -1.15740E+06    -31.5666E+03              0.    -1.11204E+06
           33485    -1.14715E+06    -39.1553E+03              0.    -1.12873E+06
           33486    -1.13619E+06    -47.4088E+03              0.    -1.14588E+06
           33487    -1.12450E+06    -56.3438E+03              0.    -1.16348E+06
           33488    -1.11205E+06    -65.9778E+03              0.    -1.18156E+06
           33489    -1.09881E+06    -76.3284E+03              0.    -1.20011E+06
           33490    -1.08474E+06    -87.4140E+03              0.    -1.21916E+06
           33491    -1.06982E+06    -99.2537E+03              0.    -1.23871E+06
           33492    -1.05402E+06    -111.867E+03              0.    -1.25877E+06
           33493    -1.03729E+06    -125.274E+03              0.    -1.27936E+06
           33494    -1.01960E+06    -139.495E+03              0.    -1.30048E+06
           33495    -1.00092E+06    -154.552E+03              0.    -1.32215E+06
           33496    -981.213E+03    -170.467E+03              0.    -1.34439E+06
           33497    -960.430E+03    -187.263E+03              0.    -1.36721E+06
           33498    -938.532E+03    -204.962E+03              0.    -1.39062E+06
           33499    -915.479E+03    -223.589E+03              0.    -1.41464E+06
           33500    -891.225E+03    -243.168E+03              0.    -1.43929E+06
           33501    -865.726E+03    -263.725E+03              0.    -1.46457E+06
           33502    -838.932E+03    -285.286E+03              0.    -1.49052E+06
           33503    -810.797E+03    -307.876E+03              0.    -1.51714E+06
           33504    -781.268E+03    -331.524E+03              0.    -1.54446E+06
           33505    -750.293E+03    -356.258E+03              0.    -1.57250E+06
           33506    -717.817E+03    -382.106E+03              0.    -1.60127E+06
           33507    -683.785E+03    -409.097E+03              0.    -1.63080E+06
           33508    -648.139E+03    -437.262E+03              0.    -1.66111E+06
           33509    -610.818E+03    -466.631E+03              0.    -1.69222E+06
           33510    -571.759E+03    -497.236E+03              0.    -1.72416E+06
           33511    -530.899E+03    -529.109E+03              0.    -1.75694E+06
           33512    -488.170E+03    -562.283E+03              0.    -1.79061E+06
           33513    -443.505E+03    -596.791E+03              0.    -1.82517E+06
           33514    -396.832E+03    -632.667E+03              0.    -1.86067E+06
           33515    -348.078E+03    -669.947E+03              0.    -1.89712E+06
           33516    -297.166E+03    -708.665E+03              0.    -1.93456E+06
           33517    -244.019E+03    -748.857E+03              0.    -1.97302E+06
           33518    -188.556E+03    -790.561E+03              0.    -2.01253E+06
           33519    -130.692E+03    -833.814E+03              0.    -2.05312E+06
           33520    -70.3424E+03    -878.653E+03              0.    -2.09483E+06
           33521    -7.41753E+03    -925.117E+03              0.    -2.13769E+06
           33522     58.1744E+03    -973.244E+03              0.    -2.18174E+06
           33523     126.528E+03    -1.02307E+06              0.    -2.22701E+06
           33524     197.742E+03    -1.07465E+06              0.    -2.27356E+06
           33525     271.916E+03    -1.12800E+06              0.    -2.32140E+06
           33526     349.155E+03    -1.18318E+06              0.    -2.37060E+06
           33527     429.565E+03    -1.24023E+06              0.    -2.42119E+06
           33528     513.258E+03    -1.29918E+06              0.    -2.47321E+06
           33529     600.348E+03    -1.36007E+06              0.    -2.52671E+06
           33530     690.952E+03    -1.42296E+06              0.    -2.58175E+06
           33531     785.190E+03    -1.48787E+06              0.    -2.63837E+06
           33532     883.189E+03    -1.55486E+06              0.    -2.69661E+06
           33533     985.075E+03    -1.62396E+06              0.    -2.75654E+06
           33534     1.09098E+06    -1.69521E+06              0.    -2.81822E+06
           33535     1.20105E+06    -1.76865E+06              0.    -2.88168E+06
           33536     1.31541E+06    -1.84433E+06              0.    -2.94700E+06
           33537     1.43421E+06    -1.92229E+06              0.    -3.01424E+06
           33538     1.55760E+06    -2.00256E+06              0.    -3.08345E+06
           33539     1.68573E+06    -2.08519E+06              0.    -3.15471E+06
           33540     1.81876E+06    -2.17020E+06              0.    -3.22807E+06
           33541     1.95686E+06    -2.25764E+06              0.    -3.30360E+06
           33542     2.10018E+06    -2.34755E+06              0.    -3.38139E+06
           33543     2.24890E+06    -2.43995E+06              0.    -3.46149E+06
           33544     2.40319E+06    -2.53489E+06              0.    -3.54398E+06
           33545     2.56323E+06    -2.63238E+06              0.    -3.62895E+06
           33546     2.72922E+06    -2.73246E+06              0.    -3.71647E+06
           33547     2.90133E+06    -2.83516E+06              0.    -3.80662E+06
           33548     3.07977E+06    -2.94049E+06              0.    -3.89948E+06
           33549     3.26473E+06    -3.04849E+06              0.    -3.99515E+06
           33550     3.45642E+06    -3.15917E+06              0.    -4.09371E+06
           33551     3.65505E+06    -3.27254E+06              0.    -4.19525E+06
           33552     3.86084E+06    -3.38862E+06              0.    -4.29986E+06
           33553     4.07401E+06    -3.50741E+06              0.    -4.40765E+06
           33554     4.29478E+06    -3.62892E+06              0.    -4.51870E+06
           33555     4.52340E+06    -3.75315E+06              0.    -4.63313E+06
           33556     4.76009E+06    -3.88008E+06              0.    -4.75103E+06
           33557     5.00511E+06    -4.00971E+06              0.    -4.87250E+06
           33558     5.25870E+06    -4.14201E+06              0.    -4.99767E+06
           33559     5.52112E+06    -4.27697E+06              0.    -5.12662E+06
           33560     5.79263E+06    -4.41455E+06              0.    -5.25948E+06
           33561      6.0735E+06    -4.55471E+06              0.    -5.39636E+06
           33562     6.36401E+06    -4.69741E+06              0.    -5.53738E+06
           33563     6.66443E+06    -4.84258E+06              0.    -5.68264E+06
           33564     6.97505E+06    -4.99017E+06              0.    -5.83228E+06
           33565     7.29617E+06    -5.14010E+06              0.    -5.98640E+06
           33566     7.62807E+06    -5.29227E+06              0.    -6.14514E+06
           33567     7.97108E+06    -5.44660E+06              0.    -6.30860E+06
           33568     8.32550E+06    -5.60296E+06              0.    -6.47692E+06
           33569     8.69164E+06    -5.76124E+06              0.    -6.65021E+06
           33570     9.06983E+06    -5.92129E+06              0.    -6.82860E+06
           33571     9.46039E+06    -6.08296E+06              0.    -7.01220E+06
           33572     9.86367E+06    -6.24609E+06              0.    -7.20114E+06
           33573     10.2800E+06    -6.41047E+06              0.    -7.39554E+06
           33574     10.7097E+06    -6.57590E+06              0.    -7.59550E+06
           33575     11.1532E+06    -6.74215E+06              0.    -7.80114E+06
           33576     11.6108E+06    -6.90898E+06              0.    -8.01257E+06
           33577     12.0829E+06    -7.07609E+06              0.    -8.22990E+06
           33578     12.5698E+06    -7.24321E+06              0.    -8.45321E+06
           33579     13.0719E+06    -7.40999E+06              0.    -8.68260E+06
           33580     13.5895E+06    -7.57610E+06              0.    -8.91815E+06
           33581     14.1232E+06    -7.74113E+06              0.    -9.15994E+06
           33582     14.6732E+06    -7.90467E+06              0.    -9.40802E+06
           33583     15.2399E+06    -8.06627E+06              0.    -9.66246E+06
           33584     15.8237E+06    -8.22544E+06              0.    -9.92327E+06
           33585     16.4250E+06    -8.38164E+06              0.    -10.1905E+06
           33586     17.0442E+06    -8.53430E+06              0.    -10.4641E+06
           33587     17.6817E+06    -8.68281E+06              0.    -10.7442E+06
           33588     18.3379E+06    -8.82648E+06              0.    -11.0305E+06
           33589     19.0131E+06    -8.96461E+06              0.    -11.3232E+06
           33590     19.7077E+06    -9.09640E+06              0.    -11.6221E+06
           33591     20.4221E+06    -9.22102E+06              0.    -11.9270E+06
           33592     21.1566E+06    -9.33756E+06              0.    -12.2379E+06
           33593     21.9117E+06    -9.44505E+06              0.    -12.5545E+06
           33594     22.6877E+06    -9.54243E+06              0.    -12.8766E+06
           33595     23.4848E+06    -9.62859E+06              0.    -13.2039E+06
           33596     24.3034E+06    -9.70228E+06              0.    -13.5362E+06
           33597     25.1438E+06    -9.76222E+06              0.    -13.8729E+06
           33598     26.0063E+06    -9.80697E+06              0.    -14.2138E+06
           33599     26.8911E+06    -9.83504E+06              0.    -14.5583E+06
           33600     27.7984E+06    -9.84478E+06              0.    -14.9057E+06
           33601     28.7284E+06    -9.83444E+06              0.    -15.2556E+06
           33602     29.6813E+06    -9.80213E+06              0.    -15.6072E+06
           33603     30.6570E+06    -9.74580E+06              0.    -15.9597E+06
           33604     31.6558E+06    -9.66329E+06              0.    -16.3121E+06
           33605     32.6774E+06    -9.55222E+06              0.    -16.6636E+06
           33606     33.7219E+06    -9.41007E+06              0.    -17.0130E+06
           33607     34.7892E+06    -9.23411E+06              0.    -17.3592E+06
           33608     35.8788E+06    -9.02142E+06              0.    -17.7007E+06
           33609     36.9906E+06    -8.76883E+06              0.    -18.0363E+06
           33610      38.124E+06    -8.47296E+06              0.    -18.3643E+06
           33611     39.2786E+06    -8.13016E+06              0.    -18.6830E+06
           33612     40.4535E+06    -7.73651E+06              0.    -18.9906E+06
           33613     41.6482E+06    -7.28778E+06              0.    -19.2851E+06
           33614     42.8615E+06    -6.77944E+06              0.    -19.5643E+06
           33615     44.0923E+06    -6.20660E+06              0.    -19.8260E+06
           33616     45.3393E+06    -5.56403E+06              0.    -20.0677E+06
           33617     46.6010E+06    -4.84607E+06              0.    -20.2868E+06
           33618     47.8757E+06    -4.04668E+06              0.    -20.4803E+06
           33619     49.1615E+06    -3.15935E+06              0.    -20.6455E+06
           33620     50.4560E+06    -2.17707E+06              0.    -20.7791E+06
           33621     51.7569E+06    -1.09235E+06              0.    -20.8777E+06
           33622     53.0614E+06     102.899E+03              0.    -20.9379E+06
           33623     54.3664E+06     1.41731E+06              0.    -20.9561E+06
           33624     55.6684E+06     2.86014E+06              0.    -20.9283E+06
           33625     56.9637E+06     4.44139E+06              0.    -20.8507E+06
           33626     58.2483E+06     6.17167E+06              0.    -20.7190E+06
           33627     59.5174E+06     8.06245E+06              0.    -20.5290E+06
           33628     60.7663E+06     10.1260E+06              0.    -20.2765E+06
           33629     61.9894E+06     12.3752E+06              0.    -19.9568E+06
           33630     63.1809E+06     14.8244E+06              0.    -19.5657E+06
           33631     64.3345E+06     17.4882E+06              0.    -19.0984E+06
           33632     65.4434E+06     20.3829E+06              0.    -18.5506E+06
           33633     66.5002E+06     23.5254E+06              0.    -17.9177E+06
           33634     67.4971E+06     26.9339E+06              0.    -17.1955E+06
           33635     68.9228E+06     30.7466E+06              0.    -17.2832E+06
           33636    -1.09397E+06    -491.552E+03              0.    -816.678E+03
           33637    -1.09173E+06    -470.588E+03              0.    -815.227E+03
           33638    -1.09855E+06    -453.913E+03              0.    -807.209E+03
           33639    -1.10533E+06    -437.418E+03              0.    -799.718E+03
           33640    -1.11204E+06    -421.113E+03              0.    -792.742E+03
           33641    -1.11870E+06    -405.007E+03              0.    -786.270E+03
           33642    -1.12529E+06    -389.108E+03              0.    -780.292E+03
           33643    -1.13180E+06    -373.424E+03              0.    -774.797E+03
           33644    -1.13824E+06    -357.961E+03              0.    -769.776E+03
           33645    -1.14459E+06    -342.727E+03              0.    -765.220E+03
           33646    -1.15086E+06    -327.729E+03              0.    -761.120E+03
           33647    -1.15704E+06    -312.972E+03              0.    -757.467E+03
           33648    -1.16312E+06    -298.462E+03              0.    -754.255E+03
           33649    -1.16910E+06    -284.205E+03              0.    -751.474E+03
           33650    -1.17498E+06    -270.206E+03              0.    -749.117E+03
           33651    -1.18075E+06    -256.471E+03              0.    -747.179E+03
           33652    -1.18640E+06    -243.004E+03              0.    -745.653E+03
           33653    -1.19194E+06    -229.810E+03              0.    -744.532E+03
           33654    -1.19736E+06    -216.893E+03              0.    -743.810E+03
           33655    -1.20266E+06    -204.259E+03              0.    -743.483E+03
           33656    -1.20782E+06    -191.912E+03              0.    -743.544E+03
           33657    -1.21285E+06    -179.855E+03              0.    -743.990E+03
           33658    -1.21774E+06    -168.093E+03              0.    -744.816E+03
           33659    -1.22249E+06    -156.630E+03              0.    -746.017E+03
           33660    -1.22710E+06    -145.471E+03              0.    -747.589E+03
           33661    -1.23155E+06    -134.619E+03              0.    -749.530E+03
           33662    -1.23584E+06    -124.079E+03              0.    -751.835E+03
           33663    -1.23998E+06    -113.855E+03              0.    -754.501E+03
           33664    -1.24394E+06    -103.950E+03              0.    -757.527E+03
           33665    -1.24774E+06    -94.3698E+03              0.    -760.908E+03
           33666    -1.25135E+06    -85.1181E+03              0.    -764.644E+03
           33667    -1.25479E+06    -76.1992E+03              0.    -768.731E+03
           33668    -1.25803E+06    -67.6179E+03              0.    -773.170E+03
           33669    -1.26108E+06    -59.3786E+03              0.    -777.957E+03
           33670    -1.26392E+06    -51.4861E+03              0.    -783.092E+03
           33671    -1.26656E+06    -43.9454E+03              0.    -788.573E+03
           33672    -1.26897E+06    -36.7613E+03              0.    -794.402E+03
           33673    -1.27117E+06    -29.9392E+03              0.    -800.576E+03
           33674    -1.27313E+06    -23.4845E+03              0.    -807.097E+03
           33675    -1.27485E+06    -17.4026E+03              0.    -813.964E+03
           33676    -1.27633E+06    -11.6995E+03              0.    -821.177E+03
           33677    -1.27754E+06    -6.38111E+03              0.    -828.738E+03
           33678    -1.27849E+06    -1.45366E+03              0.    -836.648E+03
           33679    -1.27916E+06     3.07637E+03              0.    -844.907E+03
           33680    -1.27955E+06     7.20225E+03              0.    -853.518E+03
           33681    -1.27964E+06     10.9170E+03              0.    -862.482E+03
           33682    -1.27942E+06     14.2133E+03              0.    -871.802E+03
           33683    -1.27888E+06     17.0836E+03              0.    -881.479E+03
           33684    -1.27800E+06     19.5201E+03              0.    -891.517E+03
           33685    -1.27679E+06     21.5146E+03              0.    -901.919E+03
           33686    -1.27521E+06     23.0586E+03              0.    -912.688E+03
           33687    -1.27327E+06     24.1432E+03              0.    -923.828E+03
           33688    -1.27093E+06     24.7593E+03              0.    -935.343E+03
           33689    -1.26820E+06     24.8973E+03              0.    -947.237E+03
           33690    -1.26505E+06     24.5474E+03              0.    -959.514E+03
           33691    -1.26147E+06     23.6992E+03              0.    -972.181E+03
           33692    -1.25744E+06     22.3421E+03              0.    -985.241E+03
           33693    -1.25295E+06     20.4651E+03              0.    -998.701E+03
           33694    -1.24796E+06     18.0565E+03              0.    -1.01257E+06
           33695    -1.24248E+06     15.1045E+03              0.    -1.02684E+06
           33696    -1.23647E+06     11.5967E+03              0.    -1.04154E+06
           33697    -1.22992E+06     7.52033E+03              0.    -1.05666E+06
           33698    -1.22280E+06     2.86216E+03              0.    -1.07222E+06
           33699    -1.21510E+06    -2.39159E+03              0.    -1.08822E+06
           33700    -1.20678E+06    -8.25512E+03              0.    -1.10467E+06
           33701    -1.19783E+06    -14.7431E+03              0.    -1.12157E+06
           33702    -1.18822E+06    -21.8709E+03              0.    -1.13895E+06
           33703    -1.17793E+06    -29.6540E+03              0.    -1.15680E+06
           33704    -1.16692E+06    -38.1088E+03              0.    -1.17514E+06
           33705    -1.15517E+06    -47.2520E+03              0.    -1.19398E+06
           33706    -1.14266E+06    -57.1010E+03              0.    -1.21333E+06
           33707    -1.12934E+06    -67.6737E+03              0.    -1.23320E+06
           33708    -1.11520E+06    -78.9885E+03              0.    -1.25360E+06
           33709    -1.10019E+06    -91.0643E+03              0.    -1.27455E+06
           33710    -1.08429E+06    -103.921E+03              0.    -1.29606E+06
           33711    -1.06746E+06    -117.578E+03              0.    -1.31815E+06
           33712    -1.04966E+06    -132.058E+03              0.    -1.34082E+06
           33713    -1.03085E+06    -147.380E+03              0.    -1.36409E+06
           33714    -1.01101E+06    -163.568E+03              0.    -1.38798E+06
           33715    -990.080E+03    -180.643E+03              0.    -1.41251E+06
           33716    -968.027E+03    -198.630E+03              0.    -1.43769E+06
           33717    -944.807E+03    -217.551E+03              0.    -1.46353E+06
           33718    -920.375E+03    -237.433E+03              0.    -1.49007E+06
           33719    -894.686E+03    -258.299E+03              0.    -1.51731E+06
           33720    -867.690E+03    -280.176E+03              0.    -1.54528E+06
           33721    -839.340E+03    -303.090E+03              0.    -1.57399E+06
           33722    -809.584E+03    -327.069E+03              0.    -1.60347E+06
           33723    -778.368E+03    -352.140E+03              0.    -1.63375E+06
           33724    -745.639E+03    -378.332E+03              0.    -1.66483E+06
           33725    -711.340E+03    -405.675E+03              0.    -1.69676E+06
           33726    -675.411E+03    -434.197E+03              0.    -1.72954E+06
           33727    -637.793E+03    -463.930E+03              0.    -1.76322E+06
           33728    -598.424E+03    -494.905E+03              0.    -1.79780E+06
           33729    -557.237E+03    -527.153E+03              0.    -1.83333E+06
           33730    -514.168E+03    -560.708E+03              0.    -1.86983E+06
           33731    -469.145E+03    -595.601E+03              0.    -1.90733E+06
           33732    -422.099E+03    -631.868E+03              0.    -1.94587E+06
           33733    -372.956E+03    -669.542E+03              0.    -1.98546E+06
           33734    -321.639E+03    -708.658E+03              0.    -2.02615E+06
           33735    -268.070E+03    -749.252E+03              0.    -2.06797E+06
           33736    -212.167E+03    -791.360E+03              0.    -2.11096E+06
           33737    -153.848E+03    -835.018E+03              0.    -2.15515E+06
           33738    -93.0263E+03    -880.263E+03              0.    -2.20057E+06
           33739    -29.6118E+03    -927.134E+03              0.    -2.24728E+06
           33740     36.4870E+03    -975.667E+03              0.    -2.29531E+06
           33741     105.365E+03    -1.02590E+06              0.    -2.34470E+06
           33742     177.119E+03    -1.07788E+06              0.    -2.39549E+06
           33743     251.851E+03    -1.13163E+06              0.    -2.44774E+06
           33744     329.665E+03    -1.18720E+06              0.    -2.50148E+06
           33745     410.668E+03    -1.24464E+06              0.    -2.55676E+06
           33746     494.969E+03    -1.30397E+06              0.    -2.61364E+06
           33747     582.683E+03    -1.36523E+06              0.    -2.67217E+06
           33748     673.927E+03    -1.42848E+06              0.    -2.73240E+06
           33749     768.821E+03    -1.49374E+06              0.    -2.79437E+06
           33750     867.490E+03    -1.56106E+06              0.    -2.85816E+06
           33751     970.061E+03    -1.63047E+06              0.    -2.92382E+06
           33752     1.07667E+06    -1.70202E+06              0.    -2.99140E+06
           33753     1.18744E+06    -1.77575E+06              0.    -3.06098E+06
           33754     1.30252E+06    -1.85168E+06              0.    -3.13261E+06
           33755     1.42206E+06    -1.92987E+06              0.    -3.20636E+06
           33756     1.54620E+06    -2.01034E+06              0.    -3.28231E+06
           33757     1.67508E+06    -2.09313E+06              0.    -3.36051E+06
           33758     1.80887E+06    -2.17828E+06              0.    -3.44104E+06
           33759     1.94773E+06    -2.26582E+06              0.    -3.52398E+06
           33760     2.09182E+06    -2.35578E+06              0.    -3.60940E+06
           33761     2.24131E+06    -2.44819E+06              0.    -3.69739E+06
           33762     2.39638E+06    -2.54309E+06              0.    -3.78802E+06
           33763     2.55719E+06    -2.64049E+06              0.    -3.88138E+06
           33764     2.72394E+06    -2.74042E+06              0.    -3.97755E+06
           33765     2.89681E+06    -2.84290E+06              0.    -4.07663E+06
           33766     3.07600E+06    -2.94796E+06              0.    -4.17870E+06
           33767     3.26169E+06    -3.05560E+06              0.    -4.28385E+06
           33768     3.45410E+06    -3.16584E+06              0.    -4.39219E+06
           33769     3.65344E+06    -3.27870E+06              0.    -4.50381E+06
           33770     3.85990E+06    -3.39417E+06              0.    -4.61881E+06
           33771     4.07372E+06    -3.51225E+06              0.    -4.73730E+06
           33772     4.29512E+06    -3.63295E+06              0.    -4.85937E+06
           33773     4.52431E+06    -3.75625E+06              0.    -4.98514E+06
           33774     4.76155E+06    -3.88214E+06              0.    -5.11472E+06
           33775     5.00706E+06    -4.01059E+06              0.    -5.24822E+06
           33776     5.26110E+06    -4.14160E+06              0.    -5.38575E+06
           33777     5.52390E+06    -4.27510E+06              0.    -5.52744E+06
           33778     5.79574E+06    -4.41108E+06              0.    -5.67339E+06
           33779     6.07686E+06    -4.54948E+06              0.    -5.82373E+06
           33780     6.36754E+06    -4.69023E+06              0.    -5.97858E+06
           33781     6.66805E+06    -4.83328E+06              0.    -6.13806E+06
           33782     6.97867E+06    -4.97855E+06              0.    -6.30230E+06
           33783     7.29968E+06    -5.12595E+06              0.    -6.47142E+06
           33784     7.63138E+06    -5.27538E+06              0.    -6.64555E+06
           33785     7.97405E+06    -5.42673E+06              0.    -6.82482E+06
           33786     8.32800E+06    -5.57987E+06              0.    -7.00935E+06
           33787     8.69354E+06    -5.73467E+06              0.    -7.19927E+06
           33788     9.07098E+06    -5.89097E+06              0.    -7.39469E+06
           33789     9.46063E+06    -6.04861E+06              0.    -7.59576E+06
           33790     9.86283E+06    -6.20740E+06              0.    -7.80258E+06
           33791     10.2779E+06    -6.36712E+06              0.    -8.01527E+06
           33792     10.7061E+06    -6.52757E+06              0.    -8.23396E+06
           33793     11.1479E+06    -6.68849E+06              0.    -8.45875E+06
           33794     11.6036E+06    -6.84961E+06              0.    -8.68975E+06
           33795     12.0735E+06    -7.01064E+06              0.    -8.92706E+06
           33796     12.5580E+06    -7.17127E+06              0.    -9.17077E+06
           33797     13.0575E+06    -7.33114E+06              0.    -9.42096E+06
           33798     13.5722E+06    -7.48989E+06              0.    -9.67772E+06
           33799     14.1025E+06    -7.64711E+06              0.    -9.94110E+06
           33800     14.6489E+06    -7.80236E+06              0.    -10.2111E+06
           33801     15.2117E+06    -7.95516E+06              0.    -10.4879E+06
           33802     15.7912E+06    -8.10501E+06              0.    -10.7714E+06
           33803     16.3879E+06    -8.25134E+06              0.    -11.0616E+06
           33804     17.0020E+06    -8.39356E+06              0.    -11.3586E+06
           33805      17.634E+06    -8.53103E+06              0.    -11.6622E+06
           33806     18.2842E+06    -8.66306E+06              0.    -11.9724E+06
           33807     18.9530E+06    -8.78889E+06              0.    -12.2891E+06
           33808     19.6407E+06    -8.90772E+06              0.    -12.6122E+06
           33809     20.3476E+06    -9.01868E+06              0.    -12.9415E+06
           33810     21.0742E+06    -9.12083E+06              0.    -13.2768E+06
           33811     21.8207E+06    -9.21319E+06              0.    -13.6179E+06
           33812     22.5875E+06    -9.29465E+06              0.    -13.9645E+06
           33813     23.3749E+06    -9.36407E+06              0.    -14.3162E+06
           33814     24.1830E+06    -9.42019E+06              0.    -14.6727E+06
           33815     25.0123E+06    -9.46166E+06              0.    -15.0334E+06
           33816     25.8629E+06    -9.48704E+06              0.    -15.3979E+06
           33817     26.7350E+06    -9.49478E+06              0.    -15.7656E+06
           33818     27.6288E+06    -9.48319E+06              0.    -16.1357E+06
           33819     28.5445E+06    -9.45048E+06              0.    -16.5077E+06
           33820     29.4821E+06    -9.39472E+06              0.    -16.8805E+06
           33821     30.4416E+06    -9.31381E+06              0.    -17.2533E+06
           33822     31.4231E+06    -9.20551E+06              0.    -17.6251E+06
           33823     32.4265E+06    -9.06742E+06              0.    -17.9946E+06
           33824     33.4516E+06    -8.89692E+06              0.    -18.3607E+06
           33825     34.4981E+06    -8.69124E+06              0.    -18.7220E+06
           33826     35.5658E+06    -8.44735E+06              0.    -19.0769E+06
           33827     36.6543E+06    -8.16202E+06              0.    -19.4238E+06
           33828     37.7629E+06    -7.83177E+06              0.    -19.7609E+06
           33829     38.8911E+06    -7.45284E+06              0.    -20.0862E+06
           33830     40.0381E+06    -7.02118E+06              0.    -20.3977E+06
           33831     41.2029E+06    -6.53245E+06              0.    -20.6931E+06
           33832     42.3844E+06    -5.98196E+06              0.    -20.9699E+06
           33833     43.5813E+06    -5.36468E+06              0.    -21.2255E+06
           33834     44.7922E+06    -4.67516E+06              0.    -21.4571E+06
           33835     46.0153E+06    -3.90759E+06              0.    -21.6617E+06
           33836     47.2487E+06    -3.05567E+06              0.    -21.8362E+06
           33837     48.4903E+06    -2.11264E+06              0.    -21.9772E+06
           33838     49.7375E+06    -1.07123E+06              0.    -22.0811E+06
           33839     50.9877E+06     76.3836E+03              0.    -22.1442E+06
           33840     52.2377E+06     1.33861E+06              0.    -22.1626E+06
           33841     53.4842E+06     2.72446E+06              0.    -22.1321E+06
           33842     54.7233E+06     4.24367E+06              0.    -22.0484E+06
           33843     55.9510E+06     5.90664E+06              0.    -21.9073E+06
           33844     57.1626E+06     7.72458E+06              0.    -21.7039E+06
           33845     58.3530E+06     9.70949E+06              0.    -21.4337E+06
           33846     59.5170E+06     11.8742E+06              0.    -21.0917E+06
           33847     60.6484E+06     14.2326E+06              0.    -20.6733E+06
           33848     61.7408E+06     16.7994E+06              0.    -20.1732E+06
           33849     62.7872E+06     19.5905E+06              0.    -19.5868E+06
           33850     63.7799E+06     22.6227E+06              0.    -18.9089E+06
           33851     64.7109E+06     25.9142E+06              0.    -18.1349E+06
           33852     66.0803E+06     29.5971E+06              0.    -18.2175E+06
           33853    -1.11381E+06    -500.505E+03              0.    -809.676E+03
           33854    -1.11150E+06    -478.858E+03              0.    -808.236E+03
           33855    -1.11854E+06    -461.647E+03              0.    -800.267E+03
           33856    -1.12554E+06    -444.629E+03              0.    -792.831E+03
           33857    -1.13247E+06    -427.812E+03              0.    -785.915E+03
           33858    -1.13934E+06    -411.205E+03              0.    -779.509E+03
           33859    -1.14615E+06    -394.815E+03              0.    -773.602E+03
           33860    -1.15288E+06    -378.649E+03              0.    -768.183E+03
           33861    -1.15953E+06    -362.715E+03              0.    -763.243E+03
           33862    -1.16609E+06    -347.019E+03              0.    -758.772E+03
           33863    -1.17257E+06    -331.567E+03              0.    -754.761E+03
           33864    -1.17896E+06    -316.364E+03              0.    -751.202E+03
           33865    -1.18526E+06    -301.416E+03              0.    -748.087E+03
           33866    -1.19145E+06    -286.728E+03              0.    -745.408E+03
           33867    -1.19754E+06    -272.306E+03              0.    -743.158E+03
           33868    -1.20353E+06    -258.154E+03              0.    -741.329E+03
           33869    -1.20940E+06    -244.276E+03              0.    -739.917E+03
           33870    -1.21515E+06    -230.678E+03              0.    -738.914E+03
           33871    -1.22079E+06    -217.363E+03              0.    -738.314E+03
           33872    -1.22631E+06    -204.335E+03              0.    -738.113E+03
           33873    -1.23170E+06    -191.598E+03              0.    -738.304E+03
           33874    -1.23695E+06    -179.157E+03              0.    -738.885E+03
           33875    -1.24208E+06    -167.016E+03              0.    -739.849E+03
           33876    -1.24706E+06    -155.177E+03              0.    -741.193E+03
           33877    -1.25190E+06    -143.645E+03              0.    -742.913E+03
           33878    -1.25659E+06    -132.425E+03              0.    -745.005E+03
           33879    -1.26113E+06    -121.519E+03              0.    -747.467E+03
           33880    -1.26551E+06    -110.932E+03              0.    -750.296E+03
           33881    -1.26973E+06    -100.667E+03              0.    -753.488E+03
           33882    -1.27378E+06    -90.7284E+03              0.    -757.042E+03
           33883    -1.27766E+06    -81.1205E+03              0.    -760.956E+03
           33884    -1.28136E+06    -71.8472E+03              0.    -765.227E+03
           33885    -1.28487E+06    -62.9127E+03              0.    -769.855E+03
           33886    -1.28820E+06    -54.3215E+03              0.    -774.838E+03
           33887    -1.29133E+06    -46.0779E+03              0.    -780.176E+03
           33888    -1.29425E+06    -38.1866E+03              0.    -785.867E+03
           33889    -1.29697E+06    -30.6522E+03              0.    -791.912E+03
           33890    -1.29947E+06    -23.4799E+03              0.    -798.311E+03
           33891    -1.30174E+06    -16.6747E+03              0.    -805.063E+03
           33892    -1.30378E+06    -10.2418E+03              0.    -812.170E+03
           33893    -1.30558E+06    -4.18679E+03              0.    -819.632E+03
           33894    -1.30713E+06     1.48464E+03              0.    -827.451E+03
           33895    -1.30842E+06     6.76647E+03              0.    -835.627E+03
           33896    -1.30945E+06     11.6526E+03              0.    -844.163E+03
           33897    -1.31019E+06     16.1365E+03              0.    -853.061E+03
           33898    -1.31065E+06     20.2115E+03              0.    -862.322E+03
           33899    -1.31081E+06     23.8708E+03              0.    -871.950E+03
           33900    -1.31066E+06     27.1069E+03              0.    -881.948E+03
           33901    -1.31019E+06     29.9123E+03              0.    -892.318E+03
           33902    -1.30939E+06     32.2792E+03              0.    -903.065E+03
           33903    -1.30823E+06     34.1994E+03              0.    -914.192E+03
           33904    -1.30672E+06     35.6645E+03              0.    -925.704E+03
           33905    -1.30484E+06     36.6654E+03              0.    -937.604E+03
           33906    -1.30257E+06     37.1931E+03              0.    -949.899E+03
           33907    -1.29990E+06     37.2380E+03              0.    -962.593E+03
           33908    -1.29680E+06     36.7902E+03              0.    -975.692E+03
           33909    -1.29328E+06     35.8393E+03              0.    -989.201E+03
           33910    -1.28930E+06     34.3746E+03              0.    -1.00313E+06
           33911    -1.28485E+06     32.3851E+03              0.    -1.01748E+06
           33912    -1.27991E+06     29.8591E+03              0.    -1.03226E+06
           33913    -1.27447E+06     26.7848E+03              0.    -1.04748E+06
           33914    -1.26850E+06     23.1496E+03              0.    -1.06315E+06
           33915    -1.26199E+06     18.9408E+03              0.    -1.07927E+06
           33916    -1.25490E+06     14.1451E+03              0.    -1.09586E+06
           33917    -1.24722E+06     8.74875E+03              0.    -1.11292E+06
           33918    -1.23893E+06     2.73741E+03              0.    -1.13046E+06
           33919    -1.23000E+06    -3.90371E+03              0.    -1.14849E+06
           33920    -1.22041E+06    -11.1897E+03              0.    -1.16703E+06
           33921    -1.21012E+06    -19.1364E+03              0.    -1.18609E+06
           33922    -1.19912E+06    -27.7602E+03              0.    -1.20567E+06
           33923    -1.18738E+06    -37.0777E+03              0.    -1.22578E+06
           33924    -1.17486E+06    -47.1064E+03              0.    -1.24645E+06
           33925    -1.16153E+06    -57.8641E+03              0.    -1.26769E+06
           33926    -1.14737E+06    -69.3693E+03              0.    -1.28950E+06
           33927    -1.13235E+06    -81.6411E+03              0.    -1.31191E+06
           33928    -1.11642E+06    -94.6990E+03              0.    -1.33492E+06
           33929    -1.09955E+06    -108.563E+03              0.    -1.35856E+06
           33930    -1.08171E+06    -123.255E+03              0.    -1.38284E+06
           33931    -1.06286E+06    -138.794E+03              0.    -1.40777E+06
           33932    -1.04296E+06    -155.205E+03              0.    -1.43338E+06
           33933    -1.02197E+06    -172.508E+03              0.    -1.45968E+06
           33934    -999.843E+03    -190.728E+03              0.    -1.48670E+06
           33935    -976.546E+03    -209.888E+03              0.    -1.51444E+06
           33936    -952.029E+03    -230.012E+03              0.    -1.54294E+06
           33937    -926.245E+03    -251.126E+03              0.    -1.57221E+06
           33938    -899.148E+03    -273.256E+03              0.    -1.60228E+06
           33939    -870.688E+03    -296.428E+03              0.    -1.63317E+06
           33940    -840.812E+03    -320.668E+03              0.    -1.66490E+06
           33941    -809.469E+03    -346.005E+03              0.    -1.69750E+06
           33942    -776.602E+03    -372.467E+03              0.    -1.73099E+06
           33943    -742.157E+03    -400.083E+03              0.    -1.76540E+06
           33944    -706.072E+03    -428.881E+03              0.    -1.80076E+06
           33945    -668.289E+03    -458.894E+03              0.    -1.83710E+06
           33946    -628.745E+03    -490.151E+03              0.    -1.87444E+06
           33947    -587.374E+03    -522.684E+03              0.    -1.91282E+06
           33948    -544.110E+03    -556.524E+03              0.    -1.95227E+06
           33949    -498.883E+03    -591.705E+03              0.    -1.99281E+06
           33950    -451.623E+03    -628.259E+03              0.    -2.03450E+06
           33951    -402.256E+03    -666.221E+03              0.    -2.07736E+06
           33952    -350.706E+03    -705.625E+03              0.    -2.12142E+06
           33953    -296.893E+03    -746.505E+03              0.    -2.16673E+06
           33954    -240.738E+03    -788.897E+03              0.    -2.21332E+06
           33955    -182.157E+03    -832.836E+03              0.    -2.26124E+06
           33956    -121.063E+03    -878.359E+03              0.    -2.31053E+06
           33957    -57.3678E+03    -925.502E+03              0.    -2.36122E+06
           33958     9.02048E+03    -974.302E+03              0.    -2.41338E+06
           33959     78.1962E+03    -1.02480E+06              0.    -2.46703E+06
           33960     150.257E+03    -1.07702E+06              0.    -2.52223E+06
           33961     225.303E+03    -1.13102E+06              0.    -2.57903E+06
           33962     303.437E+03    -1.18683E+06              0.    -2.63748E+06
           33963     384.767E+03    -1.24448E+06              0.    -2.69764E+06
           33964     469.402E+03    -1.30401E+06              0.    -2.75955E+06
           33965     557.454E+03    -1.36547E+06              0.    -2.82327E+06
           33966     649.041E+03    -1.42888E+06              0.    -2.88886E+06
           33967     744.281E+03    -1.49430E+06              0.    -2.95639E+06
           33968     843.299E+03    -1.56175E+06              0.    -3.02591E+06
           33969     946.220E+03    -1.63127E+06              0.    -3.09748E+06
           33970     1.05318E+06    -1.70290E+06              0.    -3.17118E+06
           33971     1.16430E+06    -1.77668E+06              0.    -3.24707E+06
           33972     1.27973E+06    -1.85263E+06              0.    -3.32521E+06
           33973     1.39961E+06    -1.93080E+06              0.    -3.40569E+06
           33974     1.52408E+06    -2.01122E+06              0.    -3.48858E+06
           33975     1.65329E+06    -2.09392E+06              0.    -3.57394E+06
           33976     1.78740E+06    -2.17894E+06              0.    -3.66187E+06
           33977     1.92657E+06    -2.26629E+06              0.    -3.75244E+06
           33978     2.07095E+06    -2.35602E+06              0.    -3.84574E+06
           33979     2.22071E+06    -2.44814E+06              0.    -3.94184E+06
           33980     2.37603E+06    -2.54268E+06              0.    -4.04085E+06
           33981     2.53708E+06    -2.63966E+06              0.    -4.14284E+06
           33982     2.70403E+06    -2.73911E+06              0.    -4.24791E+06
           33983     2.87708E+06    -2.84103E+06              0.    -4.35617E+06
           33984     3.05641E+06    -2.94544E+06              0.    -4.46769E+06
           33985     3.24221E+06    -3.05236E+06              0.    -4.58259E+06
           33986     3.43468E+06    -3.16179E+06              0.    -4.70097E+06
           33987     3.63403E+06    -3.27373E+06              0.    -4.82293E+06
           33988     3.84047E+06    -3.38818E+06              0.    -4.94858E+06
           33989     4.05420E+06    -3.50513E+06              0.    -5.07802E+06
           33990     4.27544E+06    -3.62458E+06              0.    -5.21138E+06
           33991     4.50443E+06    -3.74650E+06              0.    -5.34877E+06
           33992     4.74137E+06    -3.87088E+06              0.    -5.49029E+06
           33993     4.98652E+06    -3.99769E+06              0.    -5.63608E+06
           33994     5.24010E+06    -4.12688E+06              0.    -5.78625E+06
           33995     5.50235E+06    -4.25843E+06              0.    -5.94093E+06
           33996     5.77354E+06    -4.39227E+06              0.    -6.10024E+06
           33997     6.05390E+06    -4.52836E+06              0.    -6.26430E+06
           33998     6.34371E+06    -4.66661E+06              0.    -6.43324E+06
           33999     6.64322E+06    -4.80696E+06              0.    -6.60720E+06
           34000     6.95270E+06    -4.94931E+06              0.    -6.78629E+06
           34001     7.27242E+06    -5.09357E+06              0.    -6.97066E+06
           34002     7.60268E+06    -5.23963E+06              0.    -7.16044E+06
           34003     7.94374E+06    -5.38736E+06              0.    -7.35574E+06
           34004     8.29591E+06    -5.53662E+06              0.    -7.55671E+06
           34005     8.65947E+06    -5.68727E+06              0.    -7.76346E+06
           34006     9.03472E+06    -5.83913E+06              0.    -7.97614E+06
           34007     9.42198E+06    -5.99203E+06              0.    -8.19486E+06
           34008     9.82154E+06    -6.14575E+06              0.    -8.41974E+06
           34009     10.2337E+06    -6.30009E+06              0.    -8.65091E+06
           34010     10.6589E+06    -6.45479E+06              0.    -8.88848E+06
           34011     11.0973E+06    -6.60961E+06              0.    -9.13255E+06
           34012     11.5492E+06    -6.76425E+06              0.    -9.38324E+06
           34013     12.0152E+06    -6.91840E+06              0.    -9.64062E+06
           34014     12.4953E+06    -7.07174E+06              0.    -9.90480E+06
           34015     12.9901E+06    -7.22390E+06              0.    -10.1758E+06
           34016     13.4998E+06    -7.37448E+06              0.    -10.4538E+06
           34017     14.0247E+06    -7.52306E+06              0.    -10.7388E+06
           34018     14.5653E+06    -7.66918E+06              0.    -11.0307E+06
           34019     15.1219E+06    -7.81236E+06              0.    -11.3298E+06
           34020     15.6947E+06    -7.95205E+06              0.    -11.6358E+06
           34021     16.2842E+06    -8.08769E+06              0.    -11.9489E+06
           34022     16.8907E+06    -8.21866E+06              0.    -12.2689E+06
           34023     17.5146E+06    -8.34429E+06              0.    -12.5958E+06
           34024     18.1561E+06    -8.46386E+06              0.    -12.9295E+06
           34025     18.8157E+06    -8.57662E+06              0.    -13.2699E+06
           34026     19.4936E+06    -8.68172E+06              0.    -13.6168E+06
           34027     20.1901E+06    -8.77829E+06              0.    -13.9699E+06
           34028     20.9057E+06    -8.86536E+06              0.    -14.3291E+06
           34029     21.6405E+06    -8.94191E+06              0.    -14.6940E+06
           34030     22.3948E+06    -9.00683E+06              0.    -15.0642E+06
           34031     23.1690E+06    -9.05894E+06              0.    -15.4394E+06
           34032     23.9632E+06    -9.09696E+06              0.    -15.8191E+06
           34033     24.7777E+06    -9.11951E+06              0.    -16.2027E+06
           34034     25.6128E+06    -9.12513E+06              0.    -16.5896E+06
           34035     26.4684E+06    -9.11222E+06              0.    -16.9791E+06
           34036     27.3449E+06    -9.07907E+06              0.    -17.3704E+06
           34037     28.2422E+06    -9.02386E+06              0.    -17.7627E+06
           34038     29.1605E+06    -8.94461E+06              0.    -18.1550E+06
           34039     30.0996E+06    -8.83918E+06              0.    -18.5461E+06
           34040     31.0595E+06    -8.70531E+06              0.    -18.9350E+06
           34041     32.0402E+06    -8.54050E+06              0.    -19.3202E+06
           34042     33.0413E+06    -8.34213E+06              0.    -19.7003E+06
           34043     34.0625E+06    -8.10733E+06              0.    -20.0737E+06
           34044     35.1035E+06    -7.83302E+06              0.    -20.4387E+06
           34045     36.1637E+06    -7.51589E+06              0.    -20.7935E+06
           34046     37.2425E+06    -7.15236E+06              0.    -21.1359E+06
           34047     38.3391E+06    -6.73858E+06              0.    -21.4637E+06
           34048     39.4527E+06    -6.27040E+06              0.    -21.7746E+06
           34049     40.5821E+06    -5.74335E+06              0.    -22.0659E+06
           34050     41.7262E+06    -5.15261E+06              0.    -22.3350E+06
           34051     42.8833E+06    -4.49296E+06              0.    -22.5787E+06
           34052     44.0520E+06    -3.75881E+06              0.    -22.7941E+06
           34053     45.2302E+06    -2.94413E+06              0.    -22.9776E+06
           34054     46.4158E+06    -2.04239E+06              0.    -23.1258E+06
           34055     47.6065E+06    -1.04659E+06              0.    -23.2349E+06
           34056     48.7994E+06     50.8511E+03              0.    -23.3008E+06
           34057     49.9915E+06     1.25806E+06              0.    -23.3194E+06
           34058     51.1794E+06     2.58379E+06              0.    -23.2862E+06
           34059     52.3593E+06     4.03750E+06              0.    -23.1968E+06
           34060     53.5271E+06     5.62934E+06              0.    -23.0462E+06
           34061     54.6781E+06     7.37025E+06              0.    -22.8297E+06
           34062     55.8073E+06     9.27198E+06              0.    -22.5421E+06
           34063     56.9091E+06     11.3471E+06              0.    -22.1782E+06
           34064     57.9775E+06     13.6093E+06              0.    -21.7327E+06
           34065     59.0059E+06     16.0731E+06              0.    -21.2002E+06
           34066     59.9870E+06     18.7541E+06              0.    -20.5754E+06
           34067     60.9133E+06     21.6692E+06              0.    -19.8528E+06
           34068     61.7761E+06     24.8362E+06              0.    -19.0271E+06
           34069     63.0861E+06     28.3810E+06              0.    -19.1026E+06
           34070    -1.13356E+06    -509.418E+03              0.    -802.449E+03
           34071    -1.13118E+06    -487.081E+03              0.    -801.021E+03
           34072    -1.13845E+06    -469.329E+03              0.    -793.103E+03
           34073    -1.14566E+06    -451.781E+03              0.    -785.724E+03
           34074    -1.15282E+06    -434.447E+03              0.    -778.871E+03
           34075    -1.15991E+06    -417.333E+03              0.    -772.533E+03
           34076    -1.16693E+06    -400.447E+03              0.    -766.697E+03
           34077    -1.17387E+06    -383.796E+03              0.    -761.355E+03
           34078    -1.18074E+06    -367.386E+03              0.    -756.496E+03
           34079    -1.18752E+06    -351.223E+03              0.    -752.110E+03
           34080    -1.19422E+06    -335.313E+03              0.    -748.189E+03
           34081    -1.20082E+06    -319.660E+03              0.    -744.723E+03
           34082    -1.20733E+06    -304.271E+03              0.    -741.705E+03
           34083    -1.21374E+06    -289.149E+03              0.    -739.127E+03
           34084    -1.22005E+06    -274.299E+03              0.    -736.982E+03
           34085    -1.22625E+06    -259.726E+03              0.    -735.263E+03
           34086    -1.23234E+06    -245.434E+03              0.    -733.962E+03
           34087    -1.23832E+06    -231.427E+03              0.    -733.075E+03
           34088    -1.24418E+06    -217.709E+03              0.    -732.596E+03
           34089    -1.24992E+06    -204.283E+03              0.    -732.518E+03
           34090    -1.25554E+06    -191.154E+03              0.    -732.837E+03
           34091    -1.26103E+06    -178.325E+03              0.    -733.549E+03
           34092    -1.26638E+06    -165.799E+03              0.    -734.648E+03
           34093    -1.27161E+06    -153.580E+03              0.    -736.132E+03
           34094    -1.27669E+06    -141.672E+03              0.    -737.996E+03
           34095    -1.28162E+06    -130.078E+03              0.    -740.237E+03
           34096    -1.28641E+06    -118.802E+03              0.    -742.851E+03
           34097    -1.29105E+06    -107.847E+03              0.    -745.837E+03
           34098    -1.29552E+06    -97.2164E+03              0.    -749.192E+03
           34099    -1.29984E+06    -86.9146E+03              0.    -752.913E+03
           34100    -1.30398E+06    -76.9450E+03              0.    -756.999E+03
           34101    -1.30796E+06    -67.3114E+03              0.    -761.449E+03
           34102    -1.31175E+06    -58.0179E+03              0.    -766.261E+03
           34103    -1.31537E+06    -49.0684E+03              0.    -771.434E+03
           34104    -1.31879E+06    -40.4671E+03              0.    -776.968E+03
           34105    -1.32201E+06    -32.2184E+03              0.    -782.862E+03
           34106    -1.32503E+06    -24.3266E+03              0.    -789.117E+03
           34107    -1.32785E+06    -16.7966E+03              0.    -795.732E+03
           34108    -1.33044E+06    -9.63298E+03              0.    -802.709E+03
           34109    -1.33281E+06    -2.84086E+03              0.    -810.048E+03
           34110    -1.33495E+06     3.57457E+03              0.    -817.751E+03
           34111    -1.33684E+06     9.60793E+03              0.    -825.818E+03
           34112    -1.33849E+06     15.2535E+03              0.    -834.253E+03
           34113    -1.33988E+06     20.5054E+03              0.    -843.056E+03
           34114    -1.34100E+06     25.3576E+03              0.    -852.231E+03
           34115    -1.34184E+06     29.8037E+03              0.    -861.779E+03
           34116    -1.34240E+06     33.8369E+03              0.    -871.706E+03
           34117    -1.34266E+06     37.4504E+03              0.    -882.013E+03
           34118    -1.34260E+06     40.6369E+03              0.    -892.704E+03
           34119    -1.34223E+06     43.3889E+03              0.    -903.784E+03
           34120    -1.34152E+06     45.6986E+03              0.    -915.256E+03
           34121    -1.34046E+06     47.5578E+03              0.    -927.127E+03
           34122    -1.33905E+06     48.9579E+03              0.    -939.401E+03
           34123    -1.33726E+06     49.8903E+03              0.    -952.082E+03
           34124    -1.33508E+06     50.3456E+03              0.    -965.179E+03
           34125    -1.33250E+06     50.3144E+03              0.    -978.695E+03
           34126    -1.32950E+06     49.7866E+03              0.    -992.639E+03
           34127    -1.32606E+06     48.7519E+03              0.    -1.00702E+06
           34128    -1.32217E+06     47.1997E+03              0.    -1.02184E+06
           34129    -1.31781E+06     45.1188E+03              0.    -1.03711E+06
           34130    -1.31296E+06     42.4977E+03              0.    -1.05283E+06
           34131    -1.30760E+06     39.3244E+03              0.    -1.06903E+06
           34132    -1.30172E+06     35.5865E+03              0.    -1.08570E+06
           34133    -1.29528E+06     31.2712E+03              0.    -1.10285E+06
           34134    -1.28828E+06     26.3651E+03              0.    -1.12050E+06
           34135    -1.28068E+06     20.8544E+03              0.    -1.13866E+06
           34136    -1.27246E+06     14.7250E+03              0.    -1.15733E+06
           34137    -1.26360E+06     7.96201E+03              0.    -1.17653E+06
           34138    -1.25408E+06         550.279              0.    -1.19627E+06
           34139    -1.24386E+06    -7.52597E+03              0.    -1.21657E+06
           34140    -1.23293E+06    -16.2830E+03              0.    -1.23743E+06
           34141    -1.22125E+06    -25.7376E+03              0.    -1.25888E+06
           34142    -1.20879E+06    -35.9071E+03              0.    -1.28091E+06
           34143    -1.19552E+06    -46.8093E+03              0.    -1.30356E+06
           34144    -1.18141E+06    -58.4627E+03              0.    -1.32684E+06
           34145    -1.16643E+06    -70.8862E+03              0.    -1.35075E+06
           34146    -1.15055E+06    -84.0994E+03              0.    -1.37532E+06
           34147    -1.13373E+06    -98.1224E+03              0.    -1.40057E+06
           34148    -1.11593E+06    -112.976E+03              0.    -1.42652E+06
           34149    -1.09711E+06    -128.681E+03              0.    -1.45317E+06
           34150    -1.07724E+06    -145.260E+03              0.    -1.48056E+06
           34151    -1.05628E+06    -162.734E+03              0.    -1.50871E+06
           34152    -1.03418E+06    -181.128E+03              0.    -1.53763E+06
           34153    -1.01090E+06    -200.465E+03              0.    -1.56734E+06
           34154    -986.401E+03    -220.769E+03              0.    -1.59788E+06
           34155    -960.629E+03    -242.065E+03              0.    -1.62926E+06
           34156    -933.539E+03    -264.378E+03              0.    -1.66150E+06
           34157    -905.081E+03    -287.735E+03              0.    -1.69465E+06
           34158    -875.203E+03    -312.163E+03              0.    -1.72871E+06
           34159    -843.854E+03    -337.688E+03              0.    -1.76372E+06
           34160    -810.977E+03    -364.338E+03              0.    -1.79970E+06
           34161    -776.516E+03    -392.143E+03              0.    -1.83670E+06
           34162    -740.413E+03    -421.131E+03              0.    -1.87472E+06
           34163    -702.607E+03    -451.332E+03              0.    -1.91382E+06
           34164    -663.035E+03    -482.777E+03              0.    -1.95402E+06
           34165    -621.634E+03    -515.496E+03              0.    -1.99535E+06
           34166    -578.335E+03    -549.521E+03              0.    -2.03785E+06
           34167     -533.07E+03    -584.883E+03              0.    -2.08156E+06
           34168    -485.768E+03    -621.615E+03              0.    -2.12651E+06
           34169    -436.356E+03    -659.751E+03              0.    -2.17275E+06
           34170    -384.758E+03    -699.324E+03              0.    -2.22030E+06
           34171    -330.896E+03    -740.367E+03              0.    -2.26923E+06
           34172    -274.689E+03    -782.915E+03              0.    -2.31955E+06
           34173    -216.055E+03    -827.002E+03              0.    -2.37134E+06
           34174    -154.906E+03    -872.665E+03              0.    -2.42461E+06
           34175    -91.1561E+03    -919.938E+03              0.    -2.47944E+06
           34176    -24.7131E+03    -968.857E+03              0.    -2.53586E+06
           34177     44.5166E+03    -1.01946E+06              0.    -2.59392E+06
           34178     116.630E+03    -1.07178E+06              0.    -2.65368E+06
           34179     191.726E+03    -1.12585E+06              0.    -2.71519E+06
           34180     269.907E+03    -1.18171E+06              0.    -2.77850E+06
           34181     351.279E+03    -1.23941E+06              0.    -2.84368E+06
           34182     435.950E+03    -1.29896E+06              0.    -2.91079E+06
           34183     524.033E+03    -1.36041E+06              0.    -2.97987E+06
           34184     615.642E+03    -1.42380E+06              0.    -3.05101E+06
           34185     710.896E+03    -1.48916E+06              0.    -3.12426E+06
           34186     809.916E+03    -1.55653E+06              0.    -3.19969E+06
           34187     912.827E+03    -1.62594E+06              0.    -3.27736E+06
           34188     1.01976E+06    -1.69742E+06              0.    -3.35736E+06
           34189     1.13084E+06    -1.77101E+06              0.    -3.43975E+06
           34190     1.24621E+06    -1.84674E+06              0.    -3.52460E+06
           34191     1.36601E+06    -1.92464E+06              0.    -3.61201E+06
           34192     1.49038E+06    -2.00474E+06              0.    -3.70204E+06
           34193     1.61947E+06    -2.08708E+06              0.    -3.79478E+06
           34194     1.75342E+06    -2.17167E+06              0.    -3.89031E+06
           34195     1.89240E+06    -2.25854E+06              0.    -3.98872E+06
           34196     2.03656E+06    -2.34773E+06              0.    -4.09010E+06
           34197     2.18606E+06    -2.43924E+06              0.    -4.19454E+06
           34198     2.34108E+06    -2.53310E+06              0.    -4.30214E+06
           34199     2.50178E+06    -2.62933E+06              0.    -4.41299E+06
           34200     2.66834E+06    -2.72794E+06              0.    -4.52719E+06
           34201     2.84094E+06    -2.82894E+06              0.    -4.64485E+06
           34202     3.01977E+06    -2.93235E+06              0.    -4.76606E+06
           34203     3.20500E+06    -3.03815E+06              0.    -4.89094E+06
           34204     3.39684E+06    -3.14636E+06              0.    -5.01958E+06
           34205     3.59548E+06    -3.25697E+06              0.    -5.15212E+06
           34206     3.80112E+06    -3.36998E+06              0.    -5.28865E+06
           34207     4.01398E+06    -3.48536E+06              0.    -5.42929E+06
           34208     4.23425E+06    -3.60311E+06              0.    -5.57417E+06
           34209     4.46216E+06    -3.72319E+06              0.    -5.72340E+06
           34210     4.69794E+06    -3.84558E+06              0.    -5.87711E+06
           34211     4.94179E+06    -3.97024E+06              0.    -6.03542E+06
           34212     5.19396E+06    -4.09712E+06              0.    -6.19846E+06
           34213     5.45467E+06    -4.22618E+06              0.    -6.36635E+06
           34214     5.72417E+06    -4.35734E+06              0.    -6.53923E+06
           34215     6.00270E+06    -4.49056E+06              0.    -6.71724E+06
           34216     6.29051E+06    -4.62574E+06              0.    -6.90049E+06
           34217     6.58786E+06    -4.76280E+06              0.    -7.08913E+06
           34218     6.89499E+06    -4.90163E+06              0.    -7.28328E+06
           34219     7.21218E+06    -5.04214E+06              0.    -7.48309E+06
           34220     7.53969E+06    -5.18418E+06              0.    -7.68869E+06
           34221     7.87779E+06    -5.32764E+06              0.    -7.90021E+06
           34222     8.22677E+06    -5.47236E+06              0.    -8.11778E+06
           34223     8.58689E+06    -5.61817E+06              0.    -8.34153E+06
           34224     8.95845E+06    -5.76490E+06              0.    -8.57159E+06
           34225     9.34174E+06    -5.91234E+06              0.    -8.80809E+06
           34226     9.73704E+06    -6.06028E+06              0.    -9.05115E+06
           34227     10.1447E+06    -6.20849E+06              0.    -9.30088E+06
           34228     10.5649E+06    -6.35672E+06              0.    -9.55740E+06
           34229     10.9981E+06    -6.50467E+06              0.    -9.82080E+06
           34230     11.4445E+06    -6.65206E+06              0.    -10.0912E+06
           34231     11.9044E+06    -6.79857E+06              0.    -10.3687E+06
           34232     12.3783E+06    -6.94383E+06              0.    -10.6533E+06
           34233     12.8662E+06    -7.08748E+06              0.    -10.9451E+06
           34234     13.3687E+06    -7.22910E+06              0.    -11.2442E+06
           34235     13.8860E+06    -7.36825E+06              0.    -11.5506E+06
           34236     14.4185E+06    -7.50447E+06              0.    -11.8644E+06
           34237     14.9664E+06    -7.63723E+06              0.    -12.1854E+06
           34238     15.5301E+06    -7.76600E+06              0.    -12.5137E+06
           34239     16.1099E+06    -7.89017E+06              0.    -12.8493E+06
           34240     16.7061E+06    -8.00912E+06              0.    -13.1921E+06
           34241     17.3191E+06    -8.12217E+06              0.    -13.5419E+06
           34242     17.9492E+06    -8.22859E+06              0.    -13.8987E+06
           34243     18.5966E+06    -8.32758E+06              0.    -14.2622E+06
           34244     19.2616E+06    -8.41830E+06              0.    -14.6322E+06
           34245     19.9446E+06    -8.49986E+06              0.    -15.0085E+06
           34246     20.6459E+06    -8.57126E+06              0.    -15.3907E+06
           34247     21.3657E+06    -8.63148E+06              0.    -15.7785E+06
           34248     22.1042E+06    -8.67939E+06              0.    -16.1715E+06
           34249     22.8617E+06    -8.71378E+06              0.    -16.5691E+06
           34250     23.6384E+06    -8.73336E+06              0.    -16.9708E+06
           34251     24.4345E+06    -8.73673E+06              0.    -17.3759E+06
           34252     25.2502E+06    -8.72240E+06              0.    -17.7838E+06
           34253     26.0855E+06    -8.68877E+06              0.    -18.1935E+06
           34254     26.9405E+06    -8.63410E+06              0.    -18.6043E+06
           34255     27.8154E+06    -8.55652E+06              0.    -19.0150E+06
           34256     28.7101E+06    -8.45405E+06              0.    -19.4246E+06
           34257     29.6244E+06    -8.32452E+06              0.    -19.8317E+06
           34258     30.5584E+06    -8.16560E+06              0.    -20.2351E+06
           34259     31.5117E+06    -7.97480E+06              0.    -20.6332E+06
           34260     32.4841E+06    -7.74942E+06              0.    -21.0243E+06
           34261     33.4752E+06    -7.48655E+06              0.    -21.4066E+06
           34262     34.4845E+06    -7.18305E+06              0.    -21.7782E+06
           34263     35.5115E+06    -6.83555E+06              0.    -22.1369E+06
           34264     36.5552E+06    -6.44038E+06              0.    -22.4804E+06
           34265     37.6150E+06    -5.99362E+06              0.    -22.8062E+06
           34266     38.6897E+06    -5.49101E+06              0.    -23.1115E+06
           34267     39.7781E+06    -4.92795E+06              0.    -23.3935E+06
           34268     40.8788E+06    -4.29949E+06              0.    -23.6490E+06
           34269     41.9902E+06    -3.60027E+06              0.    -23.8746E+06
           34270     43.1105E+06    -2.82453E+06              0.    -24.0670E+06
           34271     44.2374E+06    -1.96600E+06              0.    -24.2221E+06
           34272     45.3686E+06    -1.01796E+06              0.    -24.3361E+06
           34273     46.5013E+06     26.8793E+03              0.    -24.4048E+06
           34274     47.6327E+06     1.17637E+06              0.    -24.4236E+06
           34275     48.7592E+06     2.43898E+06              0.    -24.3879E+06
           34276     49.8771E+06     3.82388E+06              0.    -24.2927E+06
           34277     50.9821E+06     5.34092E+06              0.    -24.1331E+06
           34278     52.0698E+06     7.00076E+06              0.    -23.9037E+06
           34279     53.1349E+06     8.81486E+06              0.    -23.5990E+06
           34280     54.1719E+06     10.7956E+06              0.    -23.2135E+06
           34281     55.1746E+06     12.9562E+06              0.    -22.7414E+06
           34282     56.1362E+06     15.3112E+06              0.    -22.1768E+06
           34283     57.0496E+06     17.8758E+06              0.    -21.5140E+06
           34284     57.9068E+06     20.6668E+06              0.    -20.7470E+06
           34285     58.6993E+06     23.7019E+06              0.    -19.8700E+06
           34286     59.9468E+06     27.1002E+06              0.    -19.9370E+06
           34287    -1.15322E+06    -518.288E+03              0.    -794.995E+03
           34288    -1.15076E+06    -495.254E+03              0.    -793.578E+03
           34289    -1.15826E+06    -476.954E+03              0.    -785.715E+03
           34290    -1.16570E+06    -458.873E+03              0.    -778.395E+03
           34291    -1.17308E+06    -441.016E+03              0.    -771.607E+03
           34292    -1.18039E+06    -423.391E+03              0.    -765.337E+03
           34293    -1.18763E+06    -406.005E+03              0.    -759.575E+03
           34294    -1.19479E+06    -388.864E+03              0.    -754.311E+03
           34295    -1.20187E+06    -371.974E+03              0.    -749.533E+03
           34296    -1.20887E+06    -355.340E+03              0.    -745.233E+03
           34297    -1.21579E+06    -338.968E+03              0.    -741.401E+03
           34298    -1.22261E+06    -322.862E+03              0.    -738.029E+03
           34299    -1.22933E+06    -307.027E+03              0.    -735.107E+03
           34300    -1.23596E+06    -291.467E+03              0.    -732.630E+03
           34301    -1.24249E+06    -276.186E+03              0.    -730.588E+03
           34302    -1.24891E+06    -261.189E+03              0.    -728.976E+03
           34303    -1.25523E+06    -246.479E+03              0.    -727.786E+03
           34304    -1.26143E+06    -232.060E+03              0.    -727.013E+03
           34305    -1.26752E+06    -217.935E+03              0.    -726.651E+03
           34306    -1.27349E+06    -204.108E+03              0.    -726.694E+03
           34307    -1.27934E+06    -190.582E+03              0.    -727.138E+03
           34308    -1.28506E+06    -177.361E+03              0.    -727.978E+03
           34309    -1.29066E+06    -164.447E+03              0.    -729.210E+03
           34310    -1.29612E+06    -151.844E+03              0.    -730.829E+03
           34311    -1.30145E+06    -139.555E+03              0.    -732.833E+03
           34312    -1.30663E+06    -127.584E+03              0.    -735.218E+03
           34313    -1.31168E+06    -115.932E+03              0.    -737.981E+03
           34314    -1.31657E+06    -104.605E+03              0.    -741.120E+03
           34315    -1.32131E+06    -93.6041E+03              0.    -744.631E+03
           34316    -1.32590E+06    -82.9339E+03              0.    -748.515E+03
           34317    -1.33032E+06    -72.5973E+03              0.    -752.768E+03
           34318    -1.33457E+06    -62.5980E+03              0.    -757.390E+03
           34319    -1.33866E+06    -52.9396E+03              0.    -762.380E+03
           34320    -1.34256E+06    -43.6259E+03              0.    -767.736E+03
           34321    -1.34629E+06    -34.6607E+03              0.    -773.460E+03
           34322    -1.34982E+06    -26.0480E+03              0.    -779.550E+03
           34323    -1.35316E+06    -17.7919E+03              0.    -786.007E+03
           34324    -1.35629E+06    -9.89697E+03              0.    -792.831E+03
           34325    -1.35922E+06    -2.36753E+03              0.    -800.024E+03
           34326    -1.36193E+06     4.79168E+03              0.    -807.587E+03
           34327    -1.36441E+06     11.5758E+03              0.    -815.521E+03
           34328    -1.36667E+06     17.9797E+03              0.    -823.829E+03
           34329    -1.36868E+06     23.9979E+03              0.    -832.512E+03
           34330    -1.37045E+06     29.6251E+03              0.    -841.572E+03
           34331    -1.37196E+06     34.8554E+03              0.    -851.014E+03
           34332    -1.37320E+06     39.6826E+03              0.    -860.839E+03
           34333    -1.37416E+06     44.1006E+03              0.    -871.052E+03
           34334    -1.37484E+06     48.1027E+03              0.    -881.657E+03
           34335    -1.37522E+06     51.6819E+03              0.    -892.657E+03
           34336    -1.37529E+06     54.8312E+03              0.    -904.058E+03
           34337    -1.37504E+06     57.5431E+03              0.    -915.863E+03
           34338    -1.37446E+06     59.8098E+03              0.    -928.079E+03
           34339    -1.37353E+06     61.6230E+03              0.    -940.712E+03
           34340    -1.37224E+06     62.9744E+03              0.    -953.766E+03
           34341    -1.37058E+06     63.8552E+03              0.    -967.250E+03
           34342    -1.36853E+06     64.2562E+03              0.    -981.169E+03
           34343    -1.36608E+06     64.1679E+03              0.    -995.531E+03
           34344    -1.36321E+06     63.5803E+03              0.    -1.01034E+06
           34345    -1.35990E+06     62.4831E+03              0.    -1.02561E+06
           34346    -1.35614E+06     60.8658E+03              0.    -1.04135E+06
           34347    -1.35191E+06     58.7171E+03              0.    -1.05757E+06
           34348    -1.34719E+06     56.0256E+03              0.    -1.07427E+06
           34349    -1.34197E+06     52.7793E+03              0.    -1.09146E+06
           34350    -1.33621E+06     48.9658E+03              0.    -1.10917E+06
           34351    -1.32991E+06     44.5724E+03              0.    -1.12739E+06
           34352    -1.32303E+06     39.5858E+03              0.    -1.14613E+06
           34353    -1.31556E+06     33.9922E+03              0.    -1.16542E+06
           34354    -1.30748E+06     27.7774E+03              0.    -1.18526E+06
           34355    -1.29875E+06     20.9267E+03              0.    -1.20567E+06
           34356    -1.28936E+06     13.4250E+03              0.    -1.22666E+06
           34357    -1.27927E+06     5.25647E+03              0.    -1.24824E+06
           34358    -1.26847E+06    -3.59491E+03              0.    -1.27043E+06
           34359    -1.25692E+06    -13.1460E+03              0.    -1.29324E+06
           34360    -1.24458E+06    -23.4138E+03              0.    -1.31669E+06
           34361    -1.23145E+06    -34.4163E+03              0.    -1.34080E+06
           34362    -1.21747E+06    -46.1718E+03              0.    -1.36559E+06
           34363    -1.20262E+06    -58.6990E+03              0.    -1.39106E+06
           34364    -1.18686E+06    -72.0174E+03              0.    -1.41725E+06
           34365    -1.17016E+06    -86.1470E+03              0.    -1.44417E+06
           34366    -1.15249E+06    -101.108E+03              0.    -1.47183E+06
           34367     -1.1338E+06    -116.922E+03              0.    -1.50027E+06
           34368    -1.11406E+06    -133.610E+03              0.    -1.52951E+06
           34369    -1.09322E+06    -151.196E+03              0.    -1.55956E+06
           34370    -1.07125E+06    -169.700E+03              0.    -1.59045E+06
           34371    -1.04809E+06    -189.148E+03              0.    -1.62220E+06
           34372    -1.02372E+06    -209.562E+03              0.    -1.65485E+06
           34373    -998.068E+03    -230.968E+03              0.    -1.68841E+06
           34374    -971.102E+03    -253.391E+03              0.    -1.72291E+06
           34375    -942.769E+03    -276.856E+03              0.    -1.75838E+06
           34376    -913.017E+03    -301.389E+03              0.    -1.79486E+06
           34377    -881.793E+03    -327.019E+03              0.    -1.83236E+06
           34378    -849.043E+03    -353.772E+03              0.    -1.87093E+06
           34379    -814.710E+03    -381.675E+03              0.    -1.91059E+06
           34380    -778.736E+03    -410.759E+03              0.    -1.95138E+06
           34381    -741.060E+03    -441.052E+03              0.    -1.99333E+06
           34382    -701.621E+03    -472.583E+03              0.    -2.03648E+06
           34383    -660.354E+03    -505.384E+03              0.    -2.08087E+06
           34384    -617.192E+03    -539.483E+03              0.    -2.12653E+06
           34385    -572.068E+03    -574.914E+03              0.    -2.17350E+06
           34386    -524.911E+03    -611.707E+03              0.    -2.22183E+06
           34387    -475.647E+03    -649.895E+03              0.    -2.27156E+06
           34388    -424.202E+03    -689.510E+03              0.    -2.32273E+06
           34389    -370.499E+03    -730.585E+03              0.    -2.37538E+06
           34390    -314.457E+03    -773.153E+03              0.    -2.42957E+06
           34391    -255.993E+03    -817.248E+03              0.    -2.48533E+06
           34392    -195.025E+03    -862.904E+03              0.    -2.54273E+06
           34393    -131.463E+03    -910.155E+03              0.    -2.60182E+06
           34394    -65.2174E+03    -959.035E+03              0.    -2.66264E+06
           34395     3.80383E+03    -1.00958E+06              0.    -2.72525E+06
           34396     75.6964E+03    -1.06182E+06              0.    -2.78971E+06
           34397     150.559E+03    -1.11579E+06              0.    -2.85607E+06
           34398     228.492E+03    -1.17154E+06              0.    -2.92440E+06
           34399     309.600E+03    -1.22908E+06              0.    -2.99476E+06
           34400     393.990E+03    -1.28846E+06              0.    -3.06722E+06
           34401     481.772E+03    -1.34971E+06              0.    -3.14183E+06
           34402      573.06E+03    -1.41286E+06              0.    -3.21867E+06
           34403     667.969E+03    -1.47795E+06              0.    -3.29780E+06
           34404     766.620E+03    -1.54500E+06              0.    -3.37931E+06
           34405     869.135E+03    -1.61406E+06              0.    -3.46326E+06
           34406     975.640E+03    -1.68515E+06              0.    -3.54973E+06
           34407     1.08627E+06    -1.75831E+06              0.    -3.63880E+06
           34408     1.20114E+06    -1.83355E+06              0.    -3.73055E+06
           34409     1.32041E+06    -1.91091E+06              0.    -3.82506E+06
           34410     1.44421E+06    -1.99042E+06              0.    -3.92242E+06
           34411     1.57268E+06    -2.07210E+06              0.    -4.02272E+06
           34412     1.70597E+06    -2.15598E+06              0.    -4.12605E+06
           34413     1.84424E+06    -2.24207E+06              0.    -4.23250E+06
           34414     1.98763E+06    -2.33039E+06              0.    -4.34216E+06
           34415     2.13631E+06    -2.42097E+06              0.    -4.45514E+06
           34416     2.29043E+06    -2.51382E+06              0.    -4.57153E+06
           34417     2.45018E+06    -2.60894E+06              0.    -4.69144E+06
           34418     2.61570E+06    -2.70635E+06              0.    -4.81497E+06
           34419     2.78719E+06    -2.80606E+06              0.    -4.94223E+06
           34420     2.96482E+06    -2.90806E+06              0.    -5.07333E+06
           34421     3.14876E+06    -3.01235E+06              0.    -5.20838E+06
           34422     3.33922E+06    -3.11894E+06              0.    -5.34751E+06
           34423     3.53637E+06    -3.22779E+06              0.    -5.49082E+06
           34424     3.74042E+06    -3.33892E+06              0.    -5.63843E+06
           34425     3.95156E+06    -3.45228E+06              0.    -5.79048E+06
           34426     4.16999E+06    -3.56786E+06              0.    -5.94707E+06
           34427     4.39593E+06    -3.68562E+06              0.    -6.10835E+06
           34428     4.62959E+06    -3.80552E+06              0.    -6.27443E+06
           34429     4.87117E+06    -3.92752E+06              0.    -6.44545E+06
           34430     5.12091E+06    -4.05157E+06              0.    -6.62155E+06
           34431     5.37903E+06    -4.17760E+06              0.    -6.80285E+06
           34432     5.64575E+06    -4.30554E+06              0.    -6.98948E+06
           34433     5.92131E+06    -4.43532E+06              0.    -7.18160E+06
           34434     6.20594E+06    -4.56684E+06              0.    -7.37932E+06
           34435     6.49989E+06    -4.70001E+06              0.    -7.58279E+06
           34436     6.80340E+06    -4.83472E+06              0.    -7.79216E+06
           34437     7.11673E+06    -4.97084E+06              0.    -8.00754E+06
           34438     7.44012E+06    -5.10825E+06              0.    -8.22909E+06
           34439     7.77383E+06    -5.24678E+06              0.    -8.45693E+06
           34440     8.11813E+06    -5.38628E+06              0.     -8.6912E+06
           34441     8.47328E+06    -5.52658E+06              0.    -8.93203E+06
           34442     8.83955E+06    -5.66748E+06              0.    -9.17955E+06
           34443     9.21721E+06    -5.80877E+06              0.    -9.43388E+06
           34444     9.60654E+06    -5.95021E+06              0.    -9.69514E+06
           34445     10.0078E+06    -6.09157E+06              0.    -9.96344E+06
           34446     10.4213E+06    -6.23257E+06              0.    -10.2389E+06
           34447     10.8474E+06    -6.37293E+06              0.    -10.5216E+06
           34448     11.2862E+06    -6.51233E+06              0.    -10.8116E+06
           34449     11.7381E+06    -6.65043E+06              0.    -11.1091E+06
           34450     12.2035E+06    -6.78687E+06              0.    -11.4140E+06
           34451     12.6825E+06    -6.92125E+06              0.    -11.7265E+06
           34452     13.1755E+06    -7.05316E+06              0.    -12.0465E+06
           34453     13.6828E+06    -7.18214E+06              0.    -12.3741E+06
           34454     14.2047E+06    -7.30770E+06              0.    -12.7093E+06
           34455     14.7414E+06    -7.42932E+06              0.    -13.0521E+06
           34456     15.2933E+06    -7.54644E+06              0.    -13.4023E+06
           34457     15.8608E+06    -7.65845E+06              0.    -13.7600E+06
           34458     16.4439E+06    -7.76472E+06              0.    -14.1250E+06
           34459     17.0432E+06    -7.86454E+06              0.    -14.4972E+06
           34460     17.6587E+06    -7.95717E+06              0.    -14.8763E+06
           34461     18.2909E+06    -8.04181E+06              0.    -15.2623E+06
           34462     18.9400E+06    -8.11762E+06              0.    -15.6547E+06
           34463     19.6063E+06    -8.18367E+06              0.    -16.0532E+06
           34464     20.2900E+06    -8.23899E+06              0.    -16.4576E+06
           34465     20.9912E+06    -8.28250E+06              0.    -16.8672E+06
           34466     21.7104E+06    -8.31310E+06              0.    -17.2817E+06
           34467     22.4476E+06    -8.32955E+06              0.    -17.7005E+06
           34468     23.2031E+06    -8.33055E+06              0.    -18.1228E+06
           34469     23.9769E+06    -8.31471E+06              0.    -18.5480E+06
           34470     24.7693E+06    -8.28052E+06              0.    -18.9751E+06
           34471     25.5802E+06    -8.22635E+06              0.    -19.4032E+06
           34472     26.4097E+06    -8.15046E+06              0.    -19.8314E+06
           34473     27.2579E+06    -8.05098E+06              0.    -20.2584E+06
           34474     28.1246E+06    -7.92589E+06              0.    -20.6828E+06
           34475     29.0098E+06    -7.77302E+06              0.    -21.1034E+06
           34476     29.9132E+06    -7.59001E+06              0.    -21.5185E+06
           34477     30.8345E+06    -7.37433E+06              0.    -21.9263E+06
           34478     31.7735E+06    -7.12327E+06              0.    -22.3251E+06
           34479     32.7295E+06    -6.83386E+06              0.    -22.7127E+06
           34480     33.7021E+06    -6.50293E+06              0.    -23.0870E+06
           34481     34.6906E+06    -6.12703E+06              0.    -23.4454E+06
           34482     35.6940E+06    -5.70246E+06              0.    -23.7853E+06
           34483     36.7115E+06    -5.22519E+06              0.    -24.1040E+06
           34484     37.7417E+06    -4.69088E+06              0.    -24.3983E+06
           34485     38.7834E+06    -4.09482E+06              0.    -24.6650E+06
           34486     39.8348E+06    -3.43193E+06              0.    -24.9006E+06
           34487     40.8944E+06    -2.69670E+06              0.    -25.1014E+06
           34488     41.9598E+06    -1.88319E+06              0.    -25.2633E+06
           34489     43.0288E+06    -984.938E+03              0.    -25.3821E+06
           34490     44.0988E+06     5.02936E+03              0.    -25.4534E+06
           34491     45.1666E+06     1.09426E+06              0.    -25.4724E+06
           34492     46.2289E+06     2.29090E+06              0.    -25.4342E+06
           34493     47.2821E+06     3.60381E+06              0.    -25.3336E+06
           34494     48.3217E+06     5.04253E+06              0.    -25.1651E+06
           34495     49.3434E+06     6.61740E+06              0.    -24.9231E+06
           34496     50.3418E+06     8.33958E+06              0.    -24.6017E+06
           34497     51.3114E+06     10.2211E+06              0.    -24.1950E+06
           34498     52.2459E+06     12.2751E+06              0.    -23.6967E+06
           34499     53.1384E+06     14.5155E+06              0.    -23.1006E+06
           34500     53.9817E+06     16.9575E+06              0.    -22.4002E+06
           34501     54.7673E+06     19.6175E+06              0.    -21.5892E+06
           34502     55.4862E+06     22.5131E+06              0.    -20.6611E+06
           34503     56.6667E+06     25.7555E+06              0.    -20.7176E+06
           34504    -1.17278E+06    -527.112E+03              0.    -787.311E+03
           34505    -1.17024E+06    -503.374E+03              0.    -785.906E+03
           34506    -1.17797E+06    -484.522E+03              0.    -778.100E+03
           34507    -1.18563E+06    -465.901E+03              0.    -770.842E+03
           34508    -1.19324E+06    -447.517E+03              0.     -764.12E+03
           34509    -1.20077E+06    -429.377E+03              0.    -757.921E+03
           34510    -1.20823E+06    -411.487E+03              0.    -752.234E+03
           34511    -1.21561E+06    -393.853E+03              0.    -747.048E+03
           34512    -1.22292E+06    -376.478E+03              0.    -742.353E+03
           34513    -1.23014E+06    -359.370E+03              0.    -738.138E+03
           34514    -1.23727E+06    -342.532E+03              0.    -734.396E+03
           34515    -1.24431E+06    -325.969E+03              0.    -731.116E+03
           34516    -1.25126E+06    -309.685E+03              0.    -728.290E+03
           34517    -1.25811E+06    -293.684E+03              0.    -725.912E+03
           34518    -1.26486E+06    -277.969E+03              0.    -723.973E+03
           34519    -1.27150E+06    -262.544E+03              0.    -722.466E+03
           34520    -1.27804E+06    -247.413E+03              0.    -721.385E+03
           34521    -1.28447E+06    -232.578E+03              0.    -720.724E+03
           34522    -1.29079E+06    -218.044E+03              0.    -720.477E+03
           34523    -1.29700E+06    -203.812E+03              0.    -720.638E+03
           34524    -1.30308E+06    -189.886E+03              0.    -721.204E+03
           34525    -1.30904E+06    -176.269E+03              0.    -722.169E+03
           34526    -1.31488E+06    -162.964E+03              0.    -723.529E+03
           34527    -1.32059E+06    -149.972E+03              0.    -725.281E+03
           34528    -1.32617E+06    -137.299E+03              0.    -727.420E+03
           34529    -1.33161E+06    -124.945E+03              0.    -729.944E+03
           34530    -1.33691E+06    -112.915E+03              0.    -732.851E+03
           34531    -1.34207E+06    -101.211E+03              0.    -736.137E+03
           34532    -1.34709E+06    -89.8352E+03              0.    -739.801E+03
           34533    -1.35195E+06    -78.7916E+03              0.    -743.841E+03
           34534    -1.35665E+06    -68.0832E+03              0.    -748.256E+03
           34535    -1.36119E+06    -57.7129E+03              0.    -753.044E+03
           34536    -1.36557E+06    -47.6843E+03              0.    -758.205E+03
           34537    -1.36978E+06    -38.0007E+03              0.    -763.738E+03
           34538    -1.37381E+06    -28.6656E+03              0.    -769.643E+03
           34539    -1.37766E+06    -19.6827E+03              0.    -775.922E+03
           34540    -1.38132E+06    -11.0559E+03              0.    -782.573E+03
           34541    -1.38479E+06    -2.78920E+03              0.    -789.598E+03
           34542    -1.38805E+06     5.11323E+03              0.    -796.999E+03
           34543    -1.39111E+06     12.6470E+03              0.    -804.777E+03
           34544    -1.39396E+06     19.8076E+03              0.    -812.933E+03
           34545    -1.39658E+06     26.5902E+03              0.    -821.471E+03
           34546    -1.39898E+06     32.9898E+03              0.    -830.392E+03
           34547    -1.40113E+06     39.0012E+03              0.    -839.700E+03
           34548    -1.40304E+06     44.6189E+03              0.    -849.397E+03
           34549    -1.40470E+06     49.8372E+03              0.    -859.488E+03
           34550    -1.40609E+06     54.6503E+03              0.    -869.976E+03
           34551     -1.4072E+06     59.0516E+03              0.    -880.866E+03
           34552    -1.40803E+06     63.0349E+03              0.    -892.162E+03
           34553    -1.40856E+06     66.5932E+03              0.    -903.870E+03
           34554    -1.40879E+06     69.7195E+03              0.    -915.995E+03
           34555    -1.40870E+06     72.4064E+03              0.    -928.543E+03
           34556    -1.40827E+06     74.6461E+03              0.    -941.519E+03
           34557    -1.40750E+06     76.4305E+03              0.    -954.931E+03
           34558    -1.40638E+06     77.7512E+03              0.    -968.786E+03
           34559    -1.40488E+06     78.5996E+03              0.    -983.091E+03
           34560    -1.40300E+06     78.9664E+03              0.    -997.854E+03
           34561    -1.40071E+06     78.8423E+03              0.    -1.01308E+06
           34562    -1.39801E+06     78.2173E+03              0.    -1.02879E+06
           34563    -1.39488E+06     77.0812E+03              0.    -1.04498E+06
           34564    -1.39129E+06     75.4234E+03              0.    -1.06166E+06
           34565    -1.38724E+06     73.2329E+03              0.    -1.07885E+06
           34566    -1.38270E+06     70.4982E+03              0.    -1.09655E+06
           34567    -1.37766E+06     67.2075E+03              0.    -1.11478E+06
           34568    -1.37208E+06     63.3484E+03              0.    -1.13354E+06
           34569    -1.36596E+06     58.9082E+03              0.    -1.15286E+06
           34570    -1.35928E+06     53.8737E+03              0.    -1.17274E+06
           34571    -1.35200E+06     48.2313E+03              0.    -1.19319E+06
           34572    -1.34410E+06     41.9668E+03              0.    -1.21424E+06
           34573    -1.33557E+06     35.0657E+03              0.    -1.23589E+06
           34574    -1.32637E+06     27.5129E+03              0.    -1.25816E+06
           34575    -1.31648E+06     19.2928E+03              0.    -1.28106E+06
           34576    -1.30588E+06     10.3894E+03              0.    -1.30462E+06
           34577    -1.29452E+06         786.035              0.    -1.32885E+06
           34578    -1.28240E+06    -9.53427E+03              0.    -1.35376E+06
           34579    -1.26946E+06    -20.5892E+03              0.    -1.37938E+06
           34580    -1.25570E+06    -32.3968E+03              0.    -1.40572E+06
           34581    -1.24106E+06    -44.9758E+03              0.    -1.43281E+06
           34582    -1.22552E+06    -58.3453E+03              0.    -1.46066E+06
           34583    -1.20904E+06    -72.5252E+03              0.    -1.48930E+06
           34584    -1.19158E+06    -87.5357E+03              0.    -1.51875E+06
           34585    -1.17312E+06    -103.398E+03              0.    -1.54903E+06
           34586    -1.15360E+06    -120.132E+03              0.    -1.58017E+06
           34587    -1.13299E+06    -137.762E+03              0.    -1.61219E+06
           34588    -1.11125E+06    -156.308E+03              0.    -1.64512E+06
           34589    -1.08834E+06    -175.796E+03              0.    -1.67898E+06
           34590    -1.06420E+06    -196.247E+03              0.    -1.71380E+06
           34591    -1.03880E+06    -217.686E+03              0.    -1.74961E+06
           34592    -1.01209E+06    -240.138E+03              0.    -1.78645E+06
           34593    -984.011E+03    -263.628E+03              0.    -1.82433E+06
           34594    -954.521E+03    -288.182E+03              0.    -1.86330E+06
           34595    -923.565E+03    -313.827E+03              0.    -1.90338E+06
           34596    -891.089E+03    -340.589E+03              0.    -1.94461E+06
           34597    -857.037E+03    -368.495E+03              0.    -1.98703E+06
           34598    -821.350E+03    -397.574E+03              0.    -2.03067E+06
           34599    -783.970E+03    -427.855E+03              0.    -2.07557E+06
           34600    -744.835E+03    -459.365E+03              0.    -2.12176E+06
           34601    -703.880E+03    -492.135E+03              0.    -2.16930E+06
           34602    -661.041E+03    -526.194E+03              0.    -2.21822E+06
           34603    -616.250E+03    -561.573E+03              0.    -2.26856E+06
           34604    -569.436E+03    -598.302E+03              0.    -2.32037E+06
           34605    -520.528E+03    -636.412E+03              0.    -2.37370E+06
           34606    -469.452E+03    -675.935E+03              0.    -2.42859E+06
           34607    -416.131E+03    -716.903E+03              0.    -2.48509E+06
           34608    -360.486E+03    -759.347E+03              0.    -2.54325E+06
           34609    -302.436E+03    -803.300E+03              0.    -2.60312E+06
           34610    -241.898E+03    -848.794E+03              0.    -2.66477E+06
           34611    -178.784E+03    -895.862E+03              0.    -2.72824E+06
           34612    -113.008E+03    -944.536E+03              0.    -2.79359E+06
           34613    -44.4763E+03    -994.850E+03              0.    -2.86088E+06
           34614     26.9037E+03    -1.04684E+06              0.    -2.93017E+06
           34615     101.229E+03    -1.10053E+06              0.    -3.00152E+06
           34616     178.599E+03    -1.15595E+06              0.    -3.07501E+06
           34617     259.115E+03    -1.21315E+06              0.    -3.15069E+06
           34618     342.883E+03    -1.27215E+06              0.    -3.22864E+06
           34619     430.011E+03    -1.33298E+06              0.    -3.30893E+06
           34620     520.610E+03    -1.39567E+06              0.    -3.39162E+06
           34621     614.793E+03    -1.46026E+06              0.    -3.47680E+06
           34622     712.677E+03    -1.52677E+06              0.    -3.56454E+06
           34623     814.383E+03    -1.59524E+06              0.    -3.65492E+06
           34624     920.034E+03    -1.66569E+06              0.    -3.74803E+06
           34625     1.02976E+06    -1.73814E+06              0.    -3.84394E+06
           34626     1.14368E+06    -1.81263E+06              0.    -3.94275E+06
           34627     1.26194E+06    -1.88917E+06              0.    -4.04454E+06
           34628     1.38466E+06    -1.96780E+06              0.    -4.14940E+06
           34629     1.51200E+06    -2.04853E+06              0.    -4.25744E+06
           34630     1.64409E+06    -2.13137E+06              0.    -4.36873E+06
           34631     1.78108E+06    -2.21636E+06              0.    -4.48339E+06
           34632     1.92312E+06    -2.30350E+06              0.    -4.60151E+06
           34633     2.07037E+06    -2.39280E+06              0.    -4.72320E+06
           34634     2.22297E+06    -2.48427E+06              0.    -4.84856E+06
           34635     2.38110E+06    -2.57793E+06              0.    -4.97771E+06
           34636     2.54492E+06    -2.67377E+06              0.    -5.11075E+06
           34637     2.71459E+06    -2.77179E+06              0.    -5.24779E+06
           34638     2.89028E+06    -2.87199E+06              0.    -5.38896E+06
           34639     3.07218E+06    -2.97436E+06              0.    -5.53437E+06
           34640     3.26046E+06    -3.07889E+06              0.    -5.68414E+06
           34641     3.45531E+06    -3.18557E+06              0.    -5.83840E+06
           34642     3.65690E+06    -3.29435E+06              0.    -5.99727E+06
           34643     3.86544E+06    -3.40523E+06              0.    -6.16088E+06
           34644     4.08111E+06    -3.51816E+06              0.    -6.32935E+06
           34645     4.30412E+06    -3.63311E+06              0.    -6.50283E+06
           34646     4.53467E+06    -3.75003E+06              0.    -6.68145E+06
           34647     4.77295E+06    -3.86886E+06              0.    -6.86533E+06
           34648     5.01919E+06    -3.98954E+06              0.    -7.05462E+06
           34649     5.27359E+06    -4.11199E+06              0.    -7.24945E+06
           34650     5.53637E+06    -4.23615E+06              0.    -7.44997E+06
           34651     5.80776E+06    -4.36192E+06              0.    -7.65631E+06
           34652     6.08796E+06    -4.48920E+06              0.    -7.86861E+06
           34653     6.37722E+06    -4.61789E+06              0.    -8.08702E+06
           34654     6.67577E+06    -4.74785E+06              0.    -8.31167E+06
           34655     6.98383E+06    -4.87897E+06              0.    -8.54271E+06
           34656     7.30166E+06    -5.01108E+06              0.    -8.78026E+06
           34657     7.62948E+06    -5.14404E+06              0.    -9.02447E+06
           34658     7.96754E+06    -5.27767E+06              0.    -9.27547E+06
           34659     8.31610E+06    -5.41178E+06              0.    -9.53338E+06
           34660     8.67540E+06    -5.54617E+06              0.    -9.79835E+06
           34661     9.04570E+06    -5.68060E+06              0.    -10.0705E+06
           34662     9.42725E+06    -5.81485E+06              0.    -10.3499E+06
           34663     9.82032E+06    -5.94865E+06              0.    -10.6367E+06
           34664     10.2252E+06    -6.08172E+06              0.    -10.9309E+06
           34665     10.6420E+06    -6.21377E+06              0.    -11.2328E+06
           34666     11.0712E+06    -6.34445E+06              0.    -11.5423E+06
           34667     11.5130E+06    -6.47342E+06              0.    -11.8595E+06
           34668     11.9676E+06    -6.60032E+06              0.    -12.1845E+06
           34669     12.4354E+06    -6.72473E+06              0.    -12.5174E+06
           34670     12.9165E+06    -6.84622E+06              0.    -12.8580E+06
           34671     13.4113E+06    -6.96433E+06              0.    -13.2064E+06
           34672     13.9201E+06    -7.07855E+06              0.    -13.5627E+06
           34673     14.4431E+06    -7.18837E+06              0.    -13.9267E+06
           34674     14.9805E+06    -7.29320E+06              0.    -14.2983E+06
           34675     15.5327E+06    -7.39243E+06              0.    -14.6776E+06
           34676     16.0999E+06    -7.48542E+06              0.    -15.0642E+06
           34677     16.6824E+06    -7.57146E+06              0.    -15.4580E+06
           34678     17.2805E+06    -7.64981E+06              0.    -15.8587E+06
           34679     17.8943E+06    -7.71965E+06              0.    -16.2662E+06
           34680     18.5242E+06    -7.78014E+06              0.    -16.6800E+06
           34681     19.1703E+06    -7.83035E+06              0.    -17.0998E+06
           34682     19.8329E+06    -7.86930E+06              0.    -17.5251E+06
           34683     20.5122E+06    -7.89593E+06              0.    -17.9554E+06
           34684     21.2083E+06    -7.90910E+06              0.    -18.3901E+06
           34685     21.9215E+06    -7.90761E+06              0.    -18.8285E+06
           34686     22.6519E+06    -7.89015E+06              0.    -19.2698E+06
           34687     23.3995E+06    -7.85531E+06              0.    -19.7132E+06
           34688     24.1645E+06    -7.80159E+06              0.    -20.1577E+06
           34689     24.9469E+06    -7.72738E+06              0.    -20.6022E+06
           34690     25.7467E+06    -7.63092E+06              0.    -21.0455E+06
           34691     26.5638E+06    -7.51034E+06              0.    -21.4862E+06
           34692     27.3981E+06    -7.36362E+06              0.    -21.9229E+06
           34693     28.2495E+06    -7.18857E+06              0.    -22.3540E+06
           34694     29.1176E+06    -6.98284E+06              0.    -22.7776E+06
           34695     30.0022E+06    -6.74388E+06              0.    -23.1919E+06
           34696     30.9028E+06    -6.46895E+06              0.    -23.5946E+06
           34697     31.8188E+06    -6.15507E+06              0.    -23.9835E+06
           34698     32.7496E+06    -5.79903E+06              0.    -24.3560E+06
           34699     33.6943E+06    -5.39734E+06              0.    -24.7094E+06
           34700     34.6521E+06    -4.94623E+06              0.    -25.0408E+06
           34701     35.6216E+06    -4.44161E+06              0.    -25.3469E+06
           34702     36.6017E+06    -3.87905E+06              0.    -25.6243E+06
           34703     37.5908E+06    -3.25376E+06              0.    -25.8694E+06
           34704     38.5870E+06    -2.56052E+06              0.    -26.0782E+06
           34705     39.5884E+06    -1.79367E+06              0.    -26.2465E+06
           34706     40.5926E+06    -947.101E+03              0.    -26.3700E+06
           34707     41.5971E+06    -14.1389E+03              0.    -26.4439E+06
           34708     42.5988E+06     1.01242E+06              0.    -26.4631E+06
           34709     43.5944E+06     2.14041E+06              0.    -26.4225E+06
           34710     44.5802E+06     3.37833E+06              0.    -26.3166E+06
           34711     45.5520E+06     4.73537E+06              0.    -26.1395E+06
           34712     46.5051E+06     6.22154E+06              0.    -25.8852E+06
           34713     47.4345E+06     7.84767E+06              0.    -25.5476E+06
           34714     48.3343E+06     9.62546E+06              0.    -25.1202E+06
           34715     49.1983E+06     11.5677E+06              0.    -24.5963E+06
           34716     50.0196E+06     13.6880E+06              0.    -23.9691E+06
           34717     50.7905E+06     16.0014E+06              0.    -23.2318E+06
           34718     51.5030E+06     18.5240E+06              0.    -22.3773E+06
           34719     52.1480E+06     21.2732E+06              0.    -21.3986E+06
           34720     53.2597E+06     24.3520E+06              0.    -21.4427E+06
           34721    -1.19222E+06    -535.887E+03              0.    -779.396E+03
           34722    -1.18960E+06    -511.438E+03              0.    -778.003E+03
           34723    -1.19756E+06    -492.030E+03              0.    -770.257E+03
           34724    -1.20546E+06    -472.865E+03              0.    -763.063E+03
           34725    -1.21329E+06    -453.950E+03              0.    -756.409E+03
           34726    -1.22105E+06    -435.291E+03              0.    -750.282E+03
           34727    -1.22873E+06    -416.892E+03              0.    -744.671E+03
           34728    -1.23634E+06    -398.760E+03              0.    -739.564E+03
           34729    -1.24386E+06    -380.899E+03              0.    -734.952E+03
           34730    -1.25130E+06    -363.313E+03              0.    -730.823E+03
           34731    -1.25866E+06    -346.006E+03              0.    -727.170E+03
           34732    -1.26592E+06    -328.983E+03              0.    -723.982E+03
           34733    -1.27309E+06    -312.247E+03              0.    -721.252E+03
           34734    -1.28016E+06    -295.801E+03              0.    -718.972E+03
           34735    -1.28714E+06    -279.648E+03              0.    -717.133E+03
           34736    -1.29401E+06    -263.793E+03              0.    -715.730E+03
           34737    -1.30078E+06    -248.238E+03              0.    -714.756E+03
           34738    -1.30744E+06    -232.985E+03              0.    -714.204E+03
           34739    -1.31399E+06    -218.037E+03              0.    -714.070E+03
           34740    -1.32043E+06    -203.397E+03              0.    -714.347E+03
           34741    -1.32676E+06    -189.068E+03              0.    -715.031E+03
           34742    -1.33296E+06    -175.052E+03              0.    -716.117E+03
           34743    -1.33905E+06    -161.352E+03              0.    -717.602E+03
           34744    -1.34501E+06    -147.969E+03              0.    -719.481E+03
           34745    -1.35084E+06    -134.907E+03              0.    -721.752E+03
           34746    -1.35654E+06    -122.168E+03              0.    -724.411E+03
           34747    -1.36211E+06    -109.755E+03              0.    -727.456E+03
           34748    -1.36754E+06    -97.6697E+03              0.    -730.885E+03
           34749    -1.37283E+06    -85.9151E+03              0.    -734.695E+03
           34750    -1.37797E+06    -74.4939E+03              0.    -738.885E+03
           34751    -1.38296E+06    -63.4089E+03              0.    -743.455E+03
           34752    -1.38780E+06    -52.6629E+03              0.    -748.403E+03
           34753    -1.39248E+06    -42.2589E+03              0.    -753.728E+03
           34754    -1.39700E+06    -32.2000E+03              0.    -759.430E+03
           34755    -1.40134E+06    -22.4894E+03              0.    -765.511E+03
           34756    -1.40552E+06    -13.1305E+03              0.    -771.969E+03
           34757    -1.40951E+06    -4.12673E+03              0.    -778.807E+03
           34758    -1.41332E+06     4.51816E+03              0.    -786.024E+03
           34759    -1.41694E+06     12.8004E+03              0.    -793.624E+03
           34760    -1.42036E+06     20.7158E+03              0.    -801.607E+03
           34761    -1.42357E+06     28.2603E+03              0.    -809.976E+03
           34762    -1.42657E+06     35.4295E+03              0.    -818.733E+03
           34763    -1.42936E+06     42.2186E+03              0.    -827.882E+03
           34764    -1.43192E+06     48.6228E+03              0.    -837.425E+03
           34765    -1.43424E+06     54.6369E+03              0.    -847.367E+03
           34766    -1.43632E+06     60.2557E+03              0.    -857.712E+03
           34767    -1.43814E+06     65.4736E+03              0.    -868.463E+03
           34768    -1.43971E+06     70.2846E+03              0.    -879.625E+03
           34769      -1.441E+06     74.6826E+03              0.    -891.204E+03
           34770    -1.44201E+06     78.6611E+03              0.    -903.206E+03
           34771    -1.44273E+06     82.2136E+03              0.    -915.635E+03
           34772    -1.44314E+06     85.3329E+03              0.    -928.499E+03
           34773    -1.44324E+06     88.0118E+03              0.    -941.804E+03
           34774    -1.44301E+06     90.2425E+03              0.    -955.558E+03
           34775    -1.44244E+06     92.0171E+03              0.    -969.768E+03
           34776    -1.44152E+06     93.3273E+03              0.    -984.441E+03
           34777    -1.44022E+06     94.1644E+03              0.    -999.587E+03
           34778    -1.43855E+06     94.5194E+03              0.    -1.01521E+06
           34779    -1.43648E+06     94.3830E+03              0.    -1.03133E+06
           34780    -1.43399E+06     93.7452E+03              0.    -1.04795E+06
           34781    -1.43108E+06     92.5961E+03              0.    -1.06508E+06
           34782    -1.42772E+06     90.9251E+03              0.    -1.08273E+06
           34783    -1.42389E+06     88.7212E+03              0.    -1.10092E+06
           34784    -1.41958E+06     85.9732E+03              0.    -1.11965E+06
           34785    -1.41477E+06     82.6692E+03              0.    -1.13894E+06
           34786    -1.40943E+06     78.7970E+03              0.    -1.15880E+06
           34787    -1.40356E+06     74.3441E+03              0.    -1.17924E+06
           34788    -1.39711E+06     69.2973E+03              0.    -1.20028E+06
           34789    -1.39009E+06     63.6433E+03              0.    -1.22194E+06
           34790    -1.38245E+06     57.3679E+03              0.    -1.24422E+06
           34791    -1.37417E+06     50.4568E+03              0.    -1.26715E+06
           34792    -1.36524E+06     42.8951E+03              0.    -1.29074E+06
           34793    -1.35562E+06     34.6672E+03              0.    -1.31501E+06
           34794    -1.34529E+06     25.7575E+03              0.    -1.33998E+06
           34795    -1.33422E+06     16.1496E+03              0.    -1.36566E+06
           34796    -1.32238E+06     5.82643E+03              0.    -1.39208E+06
           34797    -1.30973E+06    -5.22919E+03              0.    -1.41926E+06
           34798    -1.29626E+06    -17.0353E+03              0.    -1.44721E+06
           34799    -1.28192E+06    -29.6101E+03              0.    -1.47596E+06
           34800    -1.26669E+06    -42.9726E+03              0.    -1.50553E+06
           34801    -1.25053E+06    -57.1424E+03              0.    -1.53595E+06
           34802    -1.23339E+06    -72.1392E+03              0.    -1.56723E+06
           34803    -1.21526E+06    -87.9837E+03              0.    -1.59941E+06
           34804    -1.19607E+06    -104.697E+03              0.    -1.63251E+06
           34805    -1.17581E+06    -122.300E+03              0.    -1.66656E+06
           34806    -1.15442E+06    -140.816E+03              0.    -1.70159E+06
           34807    -1.13187E+06    -160.266E+03              0.    -1.73762E+06
           34808    -1.10810E+06    -180.675E+03              0.    -1.77469E+06
           34809    -1.08308E+06    -202.065E+03              0.    -1.81282E+06
           34810    -1.05675E+06    -224.461E+03              0.    -1.85205E+06
           34811    -1.02907E+06    -247.888E+03              0.    -1.89242E+06
           34812    -999.990E+03    -272.371E+03              0.    -1.93395E+06
           34813    -969.454E+03    -297.936E+03              0.    -1.97669E+06
           34814    -937.410E+03    -324.608E+03              0.    -2.02067E+06
           34815    -903.803E+03    -352.415E+03              0.    -2.06593E+06
           34816    -868.575E+03    -381.383E+03              0.    -2.11250E+06
           34817    -831.667E+03    -411.541E+03              0.    -2.16044E+06
           34818    -793.019E+03    -442.916E+03              0.    -2.20977E+06
           34819    -752.569E+03    -475.536E+03              0.    -2.26055E+06
           34820    -710.250E+03    -509.432E+03              0.    -2.31282E+06
           34821    -665.997E+03    -544.631E+03              0.    -2.36663E+06
           34822    -619.741E+03    -581.164E+03              0.    -2.42203E+06
           34823    -571.411E+03    -619.060E+03              0.    -2.47905E+06
           34824    -520.934E+03    -658.349E+03              0.    -2.53777E+06
           34825    -468.234E+03    -699.063E+03              0.    -2.59822E+06
           34826    -413.235E+03    -741.230E+03              0.    -2.66047E+06
           34827    -355.856E+03    -784.883E+03              0.    -2.72456E+06
           34828    -296.016E+03    -830.052E+03              0.    -2.79057E+06
           34829    -233.630E+03    -876.767E+03              0.    -2.85854E+06
           34830    -168.610E+03    -925.061E+03              0.    -2.92854E+06
           34831    -100.869E+03    -974.963E+03              0.    -3.00063E+06
           34832    -30.3135E+03    -1.02650E+06              0.    -3.07488E+06
           34833     43.1507E+03    -1.07972E+06              0.    -3.15136E+06
           34834     119.621E+03    -1.13463E+06              0.    -3.23013E+06
           34835     199.196E+03    -1.19127E+06              0.    -3.31127E+06
           34836     281.980E+03    -1.24967E+06              0.    -3.39485E+06
           34837     368.076E+03    -1.30986E+06              0.    -3.48095E+06
           34838     457.594E+03    -1.37187E+06              0.    -3.56964E+06
           34839     550.644E+03    -1.43572E+06              0.    -3.66100E+06
           34840     647.340E+03    -1.50144E+06              0.    -3.75512E+06
           34841     747.799E+03    -1.56906E+06              0.    -3.85208E+06
           34842     852.140E+03    -1.63859E+06              0.    -3.95197E+06
           34843     960.486E+03    -1.71008E+06              0.    -4.05487E+06
           34844     1.07296E+06    -1.78353E+06              0.    -4.16089E+06
           34845     1.18970E+06    -1.85896E+06              0.    -4.27010E+06
           34846     1.31082E+06    -1.93641E+06              0.    -4.38262E+06
           34847     1.43648E+06    -2.01587E+06              0.    -4.49854E+06
           34848     1.56679E+06    -2.09737E+06              0.    -4.61795E+06
           34849     1.70192E+06    -2.18092E+06              0.    -4.74098E+06
           34850     1.84199E+06    -2.26653E+06              0.    -4.86771E+06
           34851     1.98716E+06    -2.35420E+06              0.    -4.99826E+06
           34852     2.13758E+06    -2.44394E+06              0.    -5.13275E+06
           34853     2.29340E+06    -2.53576E+06              0.    -5.27128E+06
           34854     2.45479E+06    -2.62964E+06              0.    -5.41398E+06
           34855     2.62189E+06    -2.72558E+06              0.    -5.56095E+06
           34856     2.79488E+06    -2.82358E+06              0.    -5.71233E+06
           34857     2.97393E+06    -2.92360E+06              0.    -5.86824E+06
           34858     3.15920E+06    -3.02565E+06              0.    -6.02880E+06
           34859     3.35086E+06    -3.12968E+06              0.    -6.19414E+06
           34860     3.54911E+06    -3.23568E+06              0.    -6.36440E+06
           34861     3.75411E+06    -3.34360E+06              0.    -6.53970E+06
           34862     3.96605E+06    -3.45341E+06              0.    -6.72018E+06
           34863     4.18511E+06    -3.56505E+06              0.    -6.90597E+06
           34864      4.4115E+06    -3.67846E+06              0.    -7.09722E+06
           34865     4.64540E+06    -3.79359E+06              0.    -7.29406E+06
           34866     4.88700E+06    -3.91037E+06              0.    -7.49664E+06
           34867     5.13652E+06    -4.02871E+06              0.    -7.70509E+06
           34868     5.39414E+06    -4.14852E+06              0.    -7.91956E+06
           34869     5.66009E+06    -4.26970E+06              0.    -8.14020E+06
           34870     5.93456E+06    -4.39215E+06              0.    -8.36713E+06
           34871     6.21777E+06    -4.51575E+06              0.    -8.60050E+06
           34872     6.50994E+06    -4.64036E+06              0.    -8.84047E+06
           34873     6.81128E+06    -4.76585E+06              0.    -9.08715E+06
           34874     7.12201E+06    -4.89204E+06              0.    -9.34070E+06
           34875     7.44236E+06    -5.01878E+06              0.    -9.60125E+06
           34876     7.77256E+06    -5.14588E+06              0.    -9.86892E+06
           34877     8.11283E+06    -5.27314E+06              0.    -10.1438E+06
           34878     8.46340E+06    -5.40034E+06              0.    -10.4262E+06
           34879     8.82452E+06    -5.52726E+06              0.    -10.7160E+06
           34880     9.19641E+06    -5.65362E+06              0.    -11.0134E+06
           34881     9.57931E+06    -5.77918E+06              0.    -11.3185E+06
           34882     9.97346E+06    -5.90363E+06              0.    -11.6314E+06
           34883     10.3791E+06    -6.02667E+06              0.    -11.9521E+06
           34884     10.7965E+06    -6.14795E+06              0.    -12.2808E+06
           34885     11.2259E+06    -6.26713E+06              0.    -12.6175E+06
           34886     11.6675E+06    -6.38381E+06              0.    -12.9622E+06
           34887     12.1215E+06    -6.49758E+06              0.    -13.3150E+06
           34888     12.5883E+06    -6.60800E+06              0.    -13.6758E+06
           34889     13.0681E+06    -6.71461E+06              0.    -14.0446E+06
           34890     13.5611E+06    -6.81689E+06              0.    -14.4214E+06
           34891     14.0675E+06    -6.91431E+06              0.    -14.8060E+06
           34892     14.5877E+06    -7.00630E+06              0.    -15.1984E+06
           34893     15.1218E+06    -7.09224E+06              0.    -15.5984E+06
           34894     15.6700E+06    -7.17148E+06              0.    -16.0058E+06
           34895     16.2327E+06    -7.24331E+06              0.    -16.4204E+06
           34896     16.8100E+06    -7.30699E+06              0.    -16.8418E+06
           34897     17.4022E+06    -7.36172E+06              0.    -17.2698E+06
           34898     18.0095E+06    -7.40664E+06              0.    -17.7039E+06
           34899     18.6320E+06    -7.44084E+06              0.    -18.1437E+06
           34900     19.2700E+06    -7.46334E+06              0.    -18.5887E+06
           34901     19.9236E+06    -7.47309E+06              0.    -19.0381E+06
           34902     20.5930E+06    -7.46897E+06              0.    -19.4914E+06
           34903     21.2783E+06    -7.44977E+06              0.    -19.9478E+06
           34904     21.9795E+06    -7.41420E+06              0.    -20.4062E+06
           34905     22.6969E+06    -7.36087E+06              0.    -20.8659E+06
           34906     23.4304E+06    -7.28829E+06              0.    -21.3255E+06
           34907     24.1800E+06    -7.19485E+06              0.    -21.7840E+06
           34908     24.9457E+06    -7.07881E+06              0.    -22.2399E+06
           34909     25.7273E+06    -6.93833E+06              0.    -22.6916E+06
           34910     26.5247E+06    -6.77137E+06              0.    -23.1377E+06
           34911     27.3376E+06    -6.57577E+06              0.    -23.5760E+06
           34912     28.1658E+06    -6.34918E+06              0.    -24.0048E+06
           34913     29.0088E+06    -6.08905E+06              0.    -24.4217E+06
           34914      29.866E+06    -5.79263E+06              0.    -24.8243E+06
           34915     30.7369E+06    -5.45693E+06              0.    -25.2101E+06
           34916     31.6206E+06    -5.07872E+06              0.    -25.5762E+06
           34917     32.5163E+06    -4.65448E+06              0.    -25.9195E+06
           34918     33.4229E+06    -4.18041E+06              0.    -26.2367E+06
           34919     34.3390E+06    -3.65235E+06              0.    -26.5242E+06
           34920     35.2632E+06     -3.0658E+06              0.    -26.7783E+06
           34921     36.1937E+06    -2.41587E+06              0.    -26.9948E+06
           34922     37.1286E+06    -1.69722E+06              0.    -27.1693E+06
           34923     38.0656E+06    -904.060E+03              0.    -27.2972E+06
           34924     39.0021E+06    -30.0802E+03              0.    -27.3735E+06
           34925     39.9353E+06     931.581E+03              0.    -27.3930E+06
           34926     40.8617E+06     1.98838E+06              0.    -27.3501E+06
           34927     41.7778E+06     3.14847E+06              0.    -27.2390E+06
           34928     42.6793E+06     4.42065E+06              0.    -27.0537E+06
           34929     43.5616E+06     5.81458E+06              0.    -26.7876E+06
           34930     44.4196E+06     7.34070E+06              0.    -26.4342E+06
           34931     45.2474E+06     9.01036E+06              0.    -25.9866E+06
           34932     46.0389E+06     10.8359E+06              0.    -25.4376E+06
           34933     46.7870E+06     12.8308E+06              0.    -24.7801E+06
           34934     47.4839E+06     15.0096E+06              0.    -24.0064E+06
           34935     48.1211E+06     17.3881E+06              0.    -23.1091E+06
           34936     48.6893E+06     19.9834E+06              0.    -22.0805E+06
           34937     49.7275E+06     22.8893E+06              0.    -22.1108E+06
           34938    -1.21154E+06    -544.608E+03              0.    -771.247E+03
           34939    -1.20885E+06    -519.443E+03              0.    -769.867E+03
           34940    -1.21704E+06    -499.474E+03              0.    -762.183E+03
           34941    -1.22517E+06    -479.761E+03              0.    -755.056E+03
           34942    -1.23323E+06    -460.311E+03              0.    -748.472E+03
           34943    -1.24121E+06    -441.129E+03              0.    -742.419E+03
           34944    -1.24912E+06    -422.219E+03              0.    -736.885E+03
           34945    -1.25695E+06    -403.586E+03              0.    -731.858E+03
           34946    -1.26470E+06    -385.234E+03              0.    -727.329E+03
           34947    -1.27237E+06    -367.168E+03              0.    -723.287E+03
           34948    -1.27994E+06    -349.389E+03              0.    -719.722E+03
           34949    -1.28743E+06    -331.903E+03              0.    -716.626E+03
           34950    -1.29482E+06    -314.712E+03              0.    -713.990E+03
           34951    -1.30212E+06    -297.819E+03              0.    -711.806E+03
           34952    -1.30933E+06    -281.227E+03              0.    -710.067E+03
           34953    -1.31643E+06    -264.938E+03              0.    -708.766E+03
           34954    -1.32343E+06    -248.956E+03              0.    -707.896E+03
           34955    -1.33032E+06    -233.282E+03              0.    -707.452E+03
           34956    -1.33711E+06    -217.918E+03              0.    -707.427E+03
           34957    -1.34379E+06    -202.868E+03              0.    -707.816E+03
           34958    -1.35036E+06    -188.133E+03              0.    -708.615E+03
           34959    -1.35681E+06    -173.715E+03              0.    -709.819E+03
           34960    -1.36314E+06    -159.616E+03              0.    -711.424E+03
           34961    -1.36936E+06    -145.839E+03              0.    -713.427E+03
           34962    -1.37545E+06    -132.385E+03              0.    -715.824E+03
           34963    -1.38142E+06    -119.258E+03              0.    -718.614E+03
           34964    -1.38726E+06    -106.457E+03              0.    -721.792E+03
           34965    -1.39296E+06    -93.9877E+03              0.    -725.357E+03
           34966    -1.39853E+06    -81.8500E+03              0.    -729.308E+03
           34967    -1.40396E+06    -70.0470E+03              0.    -733.642E+03
           34968    -1.40924E+06    -58.5812E+03              0.    -738.360E+03
           34969    -1.41438E+06    -47.4548E+03              0.    -743.460E+03
           34970    -1.41937E+06    -36.6707E+03              0.    -748.943E+03
           34971    -1.42420E+06    -26.2316E+03              0.    -754.807E+03
           34972    -1.42887E+06    -16.1403E+03              0.    -761.054E+03
           34973    -1.43338E+06    -6.39977E+03              0.    -767.684E+03
           34974    -1.43771E+06     2.98679E+03              0.    -774.699E+03
           34975    -1.44187E+06     12.0160E+03              0.    -782.100E+03
           34976    -1.44585E+06     20.6843E+03              0.    -789.889E+03
           34977    -1.44963E+06     28.9882E+03              0.    -798.067E+03
           34978    -1.45323E+06     36.9237E+03              0.    -806.638E+03
           34979    -1.45662E+06     44.4868E+03              0.    -815.605E+03
           34980    -1.45981E+06     51.6731E+03              0.    -824.971E+03
           34981    -1.46278E+06     58.4782E+03              0.    -834.738E+03
           34982    -1.46552E+06     64.8974E+03              0.    -844.913E+03
           34983    -1.46804E+06     70.9255E+03              0.    -855.498E+03
           34984    -1.47032E+06     76.5576E+03              0.    -866.499E+03
           34985    -1.47234E+06     81.7879E+03              0.    -877.920E+03
           34986    -1.47411E+06     86.6109E+03              0.    -889.768E+03
           34987    -1.47562E+06     91.0204E+03              0.    -902.049E+03
           34988    -1.47684E+06     95.0102E+03              0.    -914.768E+03
           34989    -1.47778E+06     98.5736E+03              0.    -927.933E+03
           34990    -1.47842E+06     101.704E+03              0.    -941.550E+03
           34991    -1.47874E+06     104.394E+03              0.    -955.629E+03
           34992    -1.47875E+06     106.635E+03              0.    -970.175E+03
           34993    -1.47841E+06     108.421E+03              0.    -985.199E+03
           34994    -1.47773E+06     109.743E+03              0.    -1.00071E+06
           34995    -1.47669E+06     110.592E+03              0.    -1.01672E+06
           34996    -1.47526E+06     110.960E+03              0.    -1.03323E+06
           34997    -1.47345E+06     110.837E+03              0.    -1.05026E+06
           34998    -1.47123E+06     110.214E+03              0.    -1.06781E+06
           34999    -1.46858E+06     109.080E+03              0.    -1.08591E+06
           35000    -1.46549E+06     107.425E+03              0.    -1.10455E+06
           35001    -1.46195E+06     105.239E+03              0.    -1.12376E+06
           35002    -1.45792E+06     102.510E+03              0.    -1.14355E+06
           35003    -1.45340E+06     99.2263E+03              0.    -1.16392E+06
           35004    -1.44837E+06     95.3764E+03              0.    -1.18491E+06
           35005    -1.44280E+06     90.9477E+03              0.    -1.20651E+06
           35006    -1.43667E+06     85.9272E+03              0.    -1.22874E+06
           35007    -1.42995E+06     80.3016E+03              0.    -1.25163E+06
           35008    -1.42264E+06     74.0571E+03              0.    -1.27519E+06
           35009    -1.41470E+06     67.1796E+03              0.    -1.29944E+06
           35010    -1.40610E+06     59.6543E+03              0.    -1.32439E+06
           35011    -1.39683E+06     51.4661E+03              0.    -1.35006E+06
           35012    -1.38686E+06     42.5993E+03              0.    -1.37647E+06
           35013    -1.37615E+06     33.0379E+03              0.    -1.40366E+06
           35014    -1.36468E+06     22.7653E+03              0.    -1.43162E+06
           35015    -1.35242E+06     11.7643E+03              0.    -1.46040E+06
           35016    -1.33933E+06         17.4063              0.    -1.49000E+06
           35017    -1.32539E+06    -12.4934E+03              0.    -1.52046E+06
           35018    -1.31057E+06    -25.7868E+03              0.    -1.55180E+06
           35019    -1.29482E+06    -39.8816E+03              0.    -1.58404E+06
           35020    -1.27812E+06    -54.7977E+03              0.    -1.61722E+06
           35021    -1.26042E+06    -70.5550E+03              0.    -1.65135E+06
           35022    -1.24169E+06    -87.1740E+03              0.    -1.68647E+06
           35023    -1.22189E+06    -104.676E+03              0.    -1.72261E+06
           35024    -1.20098E+06    -123.082E+03              0.    -1.75980E+06
           35025    -1.17891E+06    -142.415E+03              0.    -1.79806E+06
           35026    -1.15565E+06    -162.697E+03              0.    -1.83744E+06
           35027    -1.13115E+06    -183.951E+03              0.    -1.87796E+06
           35028    -1.10535E+06    -206.201E+03              0.    -1.91966E+06
           35029    -1.07822E+06    -229.471E+03              0.    -1.96258E+06
           35030    -1.04971E+06    -253.785E+03              0.    -2.00676E+06
           35031    -1.01975E+06    -279.168E+03              0.    -2.05222E+06
           35032    -988.311E+03    -305.646E+03              0.    -2.09902E+06
           35033    -955.324E+03    -333.244E+03              0.    -2.14720E+06
           35034    -920.736E+03    -361.989E+03              0.    -2.19679E+06
           35035    -884.490E+03    -391.908E+03              0.    -2.24784E+06
           35036    -846.526E+03    -423.026E+03              0.    -2.30040E+06
           35037    -806.783E+03    -455.373E+03              0.    -2.35451E+06
           35038    -765.196E+03    -488.975E+03              0.    -2.41023E+06
           35039    -721.701E+03    -523.860E+03              0.    -2.46759E+06
           35040    -676.230E+03    -560.057E+03              0.    -2.52666E+06
           35041    -628.714E+03    -597.594E+03              0.    -2.58749E+06
           35042    -579.082E+03    -636.501E+03              0.    -2.65013E+06
           35043    -527.259E+03    -676.805E+03              0.    -2.71464E+06
           35044    -473.170E+03    -718.536E+03              0.    -2.78107E+06
           35045    -416.737E+03    -761.723E+03              0.    -2.84949E+06
           35046    -357.880E+03    -806.394E+03              0.    -2.91996E+06
           35047    -296.517E+03    -852.580E+03              0.    -2.99255E+06
           35048    -232.563E+03    -900.309E+03              0.    -3.06731E+06
           35049    -165.931E+03    -949.610E+03              0.    -3.14432E+06
           35050    -96.5315E+03    -1.00051E+06              0.    -3.22365E+06
           35051    -24.2724E+03    -1.05304E+06              0.    -3.30536E+06
           35052     50.9405E+03    -1.10722E+06              0.    -3.38954E+06
           35053     129.204E+03    -1.16309E+06              0.    -3.47625E+06
           35054     210.617E+03    -1.22067E+06              0.    -3.56559E+06
           35055     295.283E+03    -1.27999E+06              0.    -3.65762E+06
           35056     383.305E+03    -1.34107E+06              0.    -3.75243E+06
           35057     474.791E+03    -1.40393E+06              0.    -3.85010E+06
           35058     569.851E+03    -1.46860E+06              0.    -3.95072E+06
           35059     668.598E+03    -1.53511E+06              0.    -4.05439E+06
           35060     771.146E+03    -1.60347E+06              0.    -4.16119E+06
           35061     877.614E+03    -1.67370E+06              0.    -4.27122E+06
           35062     988.123E+03    -1.74582E+06              0.    -4.38457E+06
           35063     1.10280E+06    -1.81985E+06              0.    -4.50135E+06
           35064     1.22176E+06    -1.89579E+06              0.    -4.62165E+06
           35065     1.34515E+06    -1.97367E+06              0.    -4.74558E+06
           35066     1.47309E+06    -2.05350E+06              0.    -4.87325E+06
           35067     1.60571E+06    -2.13527E+06              0.    -5.00476E+06
           35068     1.74316E+06    -2.21900E+06              0.    -5.14024E+06
           35069     1.88559E+06    -2.30468E+06              0.    -5.27978E+06
           35070     2.03312E+06    -2.39232E+06              0.    -5.42351E+06
           35071     2.18590E+06    -2.48191E+06              0.    -5.57155E+06
           35072     2.34410E+06    -2.57344E+06              0.    -5.72402E+06
           35073     2.50785E+06    -2.66689E+06              0.    -5.88105E+06
           35074     2.67732E+06    -2.76226E+06              0.    -6.04275E+06
           35075     2.85267E+06    -2.85952E+06              0.    -6.20926E+06
           35076     3.03405E+06    -2.95864E+06              0.    -6.38072E+06
           35077     3.22162E+06    -3.05958E+06              0.    -6.55724E+06
           35078     3.41557E+06    -3.16232E+06              0.    -6.73897E+06
           35079     3.61604E+06    -3.26681E+06              0.    -6.92605E+06
           35080     3.82323E+06    -3.37300E+06              0.    -7.11861E+06
           35081     4.03729E+06    -3.48082E+06              0.    -7.31679E+06
           35082     4.25842E+06    -3.59023E+06              0.    -7.52073E+06
           35083     4.48678E+06    -3.70113E+06              0.    -7.73059E+06
           35084     4.72257E+06    -3.81346E+06              0.    -7.94649E+06
           35085     4.96597E+06    -3.92713E+06              0.    -8.16859E+06
           35086     5.21717E+06    -4.04203E+06              0.    -8.39702E+06
           35087     5.47635E+06    -4.15806E+06              0.    -8.63194E+06
           35088     5.74371E+06    -4.27509E+06              0.    -8.87349E+06
           35089     6.01945E+06    -4.39301E+06              0.    -9.12180E+06
           35090     6.30376E+06    -4.51166E+06              0.    -9.37702E+06
           35091     6.59684E+06    -4.63090E+06              0.    -9.63929E+06
           35092     6.89890E+06    -4.75055E+06              0.    -9.90875E+06
           35093     7.21014E+06    -4.87044E+06              0.    -10.1855E+06
           35094     7.53076E+06    -4.99037E+06              0.    -10.4697E+06
           35095     7.86097E+06    -5.11013E+06              0.    -10.7615E+06
           35096     8.20099E+06    -5.22950E+06              0.    -11.0610E+06
           35097     8.55102E+06    -5.34823E+06              0.    -11.3682E+06
           35098     8.91128E+06    -5.46607E+06              0.    -11.6834E+06
           35099     9.28198E+06    -5.58273E+06              0.    -12.0065E+06
           35100     9.66333E+06    -5.69791E+06              0.    -12.3377E+06
           35101     10.0556E+06    -5.81130E+06              0.    -12.6771E+06
           35102     10.4589E+06    -5.92254E+06              0.    -13.0246E+06
           35103     10.8735E+06    -6.03128E+06              0.    -13.3803E+06
           35104     11.2997E+06    -6.13713E+06              0.    -13.7443E+06
           35105     11.7376E+06    -6.23966E+06              0.    -14.1165E+06
           35106     12.1875E+06    -6.33844E+06              0.    -14.4969E+06
           35107     12.6495E+06    -6.43298E+06              0.    -14.8854E+06
           35108     13.1240E+06    -6.52280E+06              0.    -15.2820E+06
           35109     13.6111E+06    -6.60734E+06              0.    -15.6865E+06
           35110     14.1110E+06    -6.68603E+06              0.    -16.0988E+06
           35111     14.6240E+06    -6.75827E+06              0.    -16.5187E+06
           35112     15.1502E+06    -6.82340E+06              0.    -16.9460E+06
           35113     15.6899E+06    -6.88073E+06              0.    -17.3803E+06
           35114     16.2432E+06    -6.92952E+06              0.    -17.8212E+06
           35115     16.8103E+06    -6.96898E+06              0.    -18.2685E+06
           35116     17.3915E+06    -6.99826E+06              0.    -18.7216E+06
           35117     17.9869E+06    -7.01648E+06              0.    -19.1800E+06
           35118     18.5966E+06    -7.02265E+06              0.    -19.6431E+06
           35119     19.2207E+06    -7.01577E+06              0.    -20.1101E+06
           35120     19.8595E+06    -6.99472E+06              0.    -20.5802E+06
           35121     20.5129E+06    -6.95831E+06              0.    -21.0525E+06
           35122     21.1811E+06    -6.90529E+06              0.    -21.5261E+06
           35123     21.8640E+06    -6.83429E+06              0.    -21.9997E+06
           35124     22.5618E+06    -6.74383E+06              0.    -22.4722E+06
           35125     23.2743E+06    -6.63235E+06              0.    -22.9420E+06
           35126     24.0014E+06    -6.49814E+06              0.    -23.4077E+06
           35127     24.7430E+06    -6.33937E+06              0.    -23.8675E+06
           35128     25.4988E+06    -6.15403E+06              0.    -24.3195E+06
           35129     26.2686E+06    -5.94000E+06              0.    -24.7617E+06
           35130     27.0520E+06    -5.69493E+06              0.    -25.1917E+06
           35131     27.8484E+06    -5.41629E+06              0.    -25.6072E+06
           35132     28.6573E+06    -5.10136E+06              0.    -26.0053E+06
           35133     29.4779E+06    -4.74714E+06              0.    -26.3832E+06
           35134     30.3094E+06    -4.35040E+06              0.    -26.7377E+06
           35135     31.1507E+06    -3.90761E+06              0.    -27.0653E+06
           35136     32.0006E+06    -3.41491E+06              0.    -27.3624E+06
           35137     32.8576E+06    -2.86813E+06              0.    -27.6249E+06
           35138     33.7201E+06    -2.26270E+06              0.    -27.8486E+06
           35139     34.5862E+06    -1.59362E+06              0.    -28.0290E+06
           35140     35.4536E+06    -855.464E+03              0.    -28.1611E+06
           35141     36.3199E+06    -42.2808E+03              0.    -28.2397E+06
           35142     37.1821E+06     852.409E+03              0.    -28.2595E+06
           35143     38.0371E+06     1.83568E+06              0.    -28.2144E+06
           35144     38.8811E+06     2.91527E+06              0.    -28.0984E+06
           35145     39.7102E+06     4.09962E+06              0.    -27.9051E+06
           35146     40.5195E+06     5.39794E+06              0.    -27.6276E+06
           35147     41.3041E+06     6.82028E+06              0.    -27.2590E+06
           35148     42.0581E+06     8.37760E+06              0.    -26.7918E+06
           35149     42.7752E+06     10.0819E+06              0.    -26.2186E+06
           35150     43.4484E+06     11.9461E+06              0.    -25.5313E+06
           35151     44.0697E+06     13.9846E+06              0.    -24.7221E+06
           35152     44.6306E+06     16.2127E+06              0.    -23.7827E+06
           35153     45.1215E+06     18.6473E+06              0.    -22.7049E+06
           35154     46.0839E+06     21.3724E+06              0.    -22.7191E+06
           35155    -1.23074E+06    -553.273E+03              0.    -762.862E+03
           35156    -1.22797E+06    -527.386E+03              0.    -761.496E+03
           35157    -1.23640E+06    -506.852E+03              0.    -753.878E+03
           35158    -1.24476E+06    -486.589E+03              0.    -746.819E+03
           35159    -1.25305E+06    -466.600E+03              0.    -740.307E+03
           35160    -1.26126E+06    -446.892E+03              0.    -734.330E+03
           35161    -1.26940E+06    -427.467E+03              0.    -728.874E+03
           35162    -1.27745E+06    -408.331E+03              0.    -723.928E+03
           35163    -1.28543E+06    -389.486E+03              0.    -719.482E+03
           35164    -1.29332E+06    -370.935E+03              0.    -715.526E+03
           35165    -1.30112E+06    -352.683E+03              0.    -712.050E+03
           35166    -1.30883E+06    -334.731E+03              0.    -709.045E+03
           35167    -1.31645E+06    -317.083E+03              0.    -706.502E+03
           35168    -1.32398E+06    -299.740E+03              0.    -704.414E+03
           35169    -1.33141E+06    -282.706E+03              0.    -702.772E+03
           35170    -1.33874E+06    -265.982E+03              0.    -701.571E+03
           35171    -1.34598E+06    -249.570E+03              0.    -700.803E+03
           35172    -1.35311E+06    -233.472E+03              0.    -700.463E+03
           35173    -1.36013E+06    -217.690E+03              0.    -700.544E+03
           35174    -1.36706E+06    -202.227E+03              0.    -701.043E+03
           35175    -1.37387E+06    -187.083E+03              0.    -701.953E+03
           35176    -1.38057E+06    -172.260E+03              0.    -703.271E+03
           35177    -1.38716E+06    -157.761E+03              0.    -704.992E+03
           35178    -1.39363E+06    -143.586E+03              0.    -707.114E+03
           35179    -1.39999E+06    -129.738E+03              0.    -709.634E+03
           35180    -1.40622E+06    -116.218E+03              0.    -712.547E+03
           35181    -1.41233E+06    -103.028E+03              0.    -715.853E+03
           35182    -1.41832E+06    -90.1703E+03              0.    -719.549E+03
           35183    -1.42417E+06    -77.6459E+03              0.    -723.634E+03
           35184    -1.42989E+06    -65.4575E+03              0.    -728.106E+03
           35185    -1.43548E+06    -53.6067E+03              0.    -732.966E+03
           35186    -1.44092E+06    -42.0959E+03              0.    -738.211E+03
           35187    -1.44623E+06    -30.9273E+03              0.    -743.843E+03
           35188    -1.45138E+06    -20.1032E+03              0.    -749.861E+03
           35189    -1.45638E+06    -9.62626E+03              0.    -756.266E+03
           35190    -1.46122E+06         500.957              0.    -763.060E+03
           35191    -1.46591E+06     10.2757E+03              0.    -770.243E+03
           35192    -1.47042E+06     19.6949E+03              0.    -777.817E+03
           35193    -1.47476E+06     28.7554E+03              0.    -785.785E+03
           35194    -1.47893E+06     37.4540E+03              0.    -794.149E+03
           35195    -1.48291E+06     45.7871E+03              0.    -802.912E+03
           35196    -1.48671E+06     53.7511E+03              0.    -812.077E+03
           35197    -1.49030E+06     61.3420E+03              0.    -821.647E+03
           35198    -1.49369E+06     68.5556E+03              0.    -831.627E+03
           35199    -1.49688E+06     75.3878E+03              0.    -842.021E+03
           35200    -1.49984E+06     81.8338E+03              0.    -852.834E+03
           35201    -1.50258E+06     87.8888E+03              0.    -864.071E+03
           35202    -1.50509E+06     93.5478E+03              0.    -875.738E+03
           35203    -1.50735E+06     98.8054E+03              0.    -887.840E+03
           35204    -1.50936E+06     103.656E+03              0.    -900.384E+03
           35205    -1.51110E+06     108.094E+03              0.    -913.377E+03
           35206    -1.51258E+06     112.112E+03              0.    -926.827E+03
           35207    -1.51377E+06     115.706E+03              0.     -940.74E+03
           35208    -1.51467E+06     118.866E+03              0.    -955.125E+03
           35209    -1.51526E+06     121.588E+03              0.    -969.991E+03
           35210    -1.51554E+06     123.863E+03              0.    -985.347E+03
           35211    -1.51549E+06     125.683E+03              0.    -1.00120E+06
           35212    -1.51509E+06     127.041E+03              0.    -1.01757E+06
           35213    -1.51434E+06     127.928E+03              0.    -1.03445E+06
           35214    -1.51322E+06     128.335E+03              0.    -1.05187E+06
           35215    -1.51171E+06     128.253E+03              0.    -1.06983E+06
           35216    -1.50981E+06     127.673E+03              0.    -1.08834E+06
           35217    -1.50748E+06     126.585E+03              0.    -1.10742E+06
           35218    -1.50472E+06     124.979E+03              0.    -1.12708E+06
           35219    -1.50151E+06     122.844E+03              0.    -1.14734E+06
           35220    -1.49784E+06     120.169E+03              0.    -1.16821E+06
           35221    -1.49367E+06     116.943E+03              0.    -1.18970E+06
           35222    -1.48900E+06     113.153E+03              0.    -1.21183E+06
           35223    -1.48379E+06     108.789E+03              0.    -1.23462E+06
           35224    -1.47804E+06     103.836E+03              0.    -1.25808E+06
           35225    -1.47172E+06     98.2818E+03              0.    -1.28224E+06
           35226    -1.46481E+06     92.1132E+03              0.    -1.30710E+06
           35227    -1.45727E+06     85.3160E+03              0.    -1.33269E+06
           35228    -1.44910E+06     77.8759E+03              0.    -1.35904E+06
           35229    -1.44026E+06     69.7779E+03              0.    -1.38615E+06
           35230    -1.43072E+06     61.0068E+03              0.    -1.41405E+06
           35231    -1.42046E+06     51.5467E+03              0.    -1.44277E+06
           35232    -1.40946E+06     41.3814E+03              0.    -1.47233E+06
           35233    -1.39767E+06     30.4943E+03              0.    -1.50274E+06
           35234    -1.38508E+06     18.8681E+03              0.    -1.53405E+06
           35235    -1.37164E+06     6.48521E+03              0.    -1.56626E+06
           35236    -1.35733E+06    -6.67251E+03              0.    -1.59942E+06
           35237    -1.34212E+06    -20.6237E+03              0.    -1.63353E+06
           35238    -1.32596E+06    -35.3875E+03              0.    -1.66865E+06
           35239    -1.30882E+06    -50.9833E+03              0.    -1.70479E+06
           35240    -1.29067E+06    -67.4313E+03              0.    -1.74198E+06
           35241    -1.27146E+06    -84.7518E+03              0.    -1.78027E+06
           35242    -1.25116E+06    -102.966E+03              0.    -1.81967E+06
           35243    -1.22972E+06    -122.095E+03              0.    -1.86023E+06
           35244    -1.20711E+06    -142.162E+03              0.    -1.90197E+06
           35245    -1.18327E+06    -163.187E+03              0.    -1.94495E+06
           35246    -1.15816E+06    -185.195E+03              0.    -1.98918E+06
           35247    -1.13174E+06    -208.208E+03              0.    -2.03472E+06
           35248    -1.10396E+06    -232.250E+03              0.    -2.08160E+06
           35249    -1.07476E+06    -257.345E+03              0.    -2.12987E+06
           35250    -1.04410E+06    -283.518E+03              0.    -2.17956E+06
           35251    -1.01192E+06    -310.793E+03              0.    -2.23073E+06
           35252    -978.166E+03    -339.196E+03              0.    -2.28341E+06
           35253    -942.783E+03    -368.751E+03              0.    -2.33766E+06
           35254    -905.712E+03    -399.486E+03              0.    -2.39352E+06
           35255    -866.892E+03    -431.426E+03              0.    -2.45105E+06
           35256    -826.262E+03    -464.598E+03              0.    -2.51029E+06
           35257    -783.758E+03    -499.028E+03              0.    -2.57130E+06
           35258    -739.315E+03    -534.743E+03              0.    -2.63413E+06
           35259    -692.864E+03    -571.770E+03              0.    -2.69885E+06
           35260    -644.337E+03    -610.137E+03              0.    -2.76550E+06
           35261    -593.661E+03    -649.870E+03              0.    -2.83416E+06
           35262    -540.763E+03    -690.996E+03              0.    -2.90488E+06
           35263    -485.568E+03    -733.544E+03              0.    -2.97772E+06
           35264    -427.998E+03    -777.539E+03              0.    -3.05276E+06
           35265    -367.972E+03    -823.010E+03              0.    -3.13005E+06
           35266    -305.409E+03    -869.982E+03              0.    -3.20968E+06
           35267    -240.225E+03    -918.482E+03              0.    -3.29171E+06
           35268    -172.332E+03    -968.537E+03              0.    -3.37621E+06
           35269    -101.642E+03    -1.02017E+06              0.    -3.46327E+06
           35270    -28.0650E+03    -1.07341E+06              0.    -3.55296E+06
           35271     48.4939E+03    -1.12828E+06              0.    -3.64536E+06
           35272      128.13E+03    -1.18481E+06              0.    -3.74056E+06
           35273     210.941E+03    -1.24301E+06              0.    -3.83863E+06
           35274     297.029E+03    -1.30291E+06              0.    -3.93967E+06
           35275     386.495E+03    -1.36453E+06              0.    -4.04376E+06
           35276     479.446E+03    -1.42789E+06              0.    -4.15101E+06
           35277     575.990E+03    -1.49301E+06              0.    -4.26149E+06
           35278     676.236E+03    -1.55990E+06              0.    -4.37531E+06
           35279     780.298E+03    -1.62859E+06              0.    -4.49258E+06
           35280     888.291E+03    -1.69908E+06              0.    -4.61338E+06
           35281     1.00033E+06    -1.77139E+06              0.    -4.73782E+06
           35282     1.11655E+06    -1.84552E+06              0.    -4.86602E+06
           35283     1.23705E+06    -1.92149E+06              0.    -4.99807E+06
           35284     1.36197E+06    -1.99930E+06              0.    -5.13410E+06
           35285     1.49144E+06    -2.07895E+06              0.    -5.27421E+06
           35286     1.62559E+06    -2.16043E+06              0.    -5.41852E+06
           35287     1.76455E+06    -2.24376E+06              0.    -5.56715E+06
           35288     1.90845E+06    -2.32891E+06              0.    -5.72022E+06
           35289     2.05744E+06    -2.41588E+06              0.    -5.87786E+06
           35290     2.21165E+06    -2.50466E+06              0.    -6.04020E+06
           35291     2.37123E+06    -2.59522E+06              0.    -6.20735E+06
           35292     2.53632E+06    -2.68753E+06              0.    -6.37945E+06
           35293     2.70707E+06    -2.78158E+06              0.    -6.55664E+06
           35294     2.88364E+06    -2.87732E+06              0.    -6.73904E+06
           35295     3.06617E+06    -2.97472E+06              0.    -6.92680E+06
           35296     3.25481E+06    -3.07374E+06              0.    -7.12006E+06
           35297     3.44974E+06    -3.17431E+06              0.    -7.31895E+06
           35298     3.65109E+06    -3.27638E+06              0.    -7.52361E+06
           35299     3.85905E+06    -3.37989E+06              0.    -7.73420E+06
           35300     4.07376E+06    -3.48477E+06              0.    -7.95085E+06
           35301     4.29541E+06    -3.59092E+06              0.    -8.17371E+06
           35302     4.52414E+06    -3.69827E+06              0.    -8.40292E+06
           35303     4.76014E+06    -3.80672E+06              0.    -8.63863E+06
           35304     5.00357E+06    -3.91615E+06              0.    -8.88098E+06
           35305     5.25461E+06    -4.02645E+06              0.    -9.13012E+06
           35306     5.51343E+06    -4.13749E+06              0.    -9.38619E+06
           35307     5.78021E+06    -4.24914E+06              0.    -9.64934E+06
           35308     6.05512E+06    -4.36123E+06              0.     -9.9197E+06
           35309     6.33835E+06    -4.47362E+06              0.    -10.1974E+06
           35310     6.63008E+06    -4.58612E+06              0.    -10.4826E+06
           35311     6.93049E+06    -4.69854E+06              0.    -10.7754E+06
           35312     7.23976E+06    -4.81069E+06              0.    -11.0759E+06
           35313     7.55808E+06    -4.92233E+06              0.    -11.3843E+06
           35314     7.88564E+06    -5.03325E+06              0.    -11.7007E+06
           35315     8.22261E+06    -5.14318E+06              0.    -12.0251E+06
           35316     8.56920E+06    -5.25186E+06              0.    -12.3576E+06
           35317     8.92558E+06    -5.35901E+06              0.    -12.6984E+06
           35318     9.29195E+06    -5.46431E+06              0.    -13.0475E+06
           35319     9.66850E+06    -5.56744E+06              0.    -13.4050E+06
           35320     10.0554E+06    -5.66806E+06              0.    -13.7708E+06
           35321     10.4529E+06    -5.76580E+06              0.    -14.1450E+06
           35322     10.8611E+06    -5.86026E+06              0.    -14.5276E+06
           35323     11.2803E+06    -5.95103E+06              0.    -14.9186E+06
           35324     11.7106E+06    -6.03766E+06              0.    -15.3178E+06
           35325     12.1522E+06    -6.11968E+06              0.    -15.7253E+06
           35326     12.6053E+06    -6.19659E+06              0.    -16.1409E+06
           35327     13.0701E+06    -6.26786E+06              0.    -16.5644E+06
           35328     13.5468E+06    -6.33292E+06              0.    -16.9957E+06
           35329     14.0355E+06    -6.39118E+06              0.    -17.4344E+06
           35330     14.5365E+06    -6.44199E+06              0.    -17.8804E+06
           35331     15.0499E+06    -6.48467E+06              0.    -18.3332E+06
           35332     15.5758E+06    -6.51851E+06              0.    -18.7924E+06
           35333     16.1145E+06    -6.54272E+06              0.    -19.2576E+06
           35334     16.6660E+06     -6.5565E+06              0.    -19.7282E+06
           35335     17.2305E+06    -6.55896E+06              0.    -20.2036E+06
           35336     17.8082E+06    -6.54918E+06              0.    -20.6830E+06
           35337     18.3990E+06    -6.52615E+06              0.    -21.1657E+06
           35338     19.0032E+06    -6.48881E+06              0.    -21.6506E+06
           35339     19.6208E+06    -6.43600E+06              0.    -22.1368E+06
           35340     20.2517E+06    -6.36650E+06              0.    -22.6232E+06
           35341     20.8960E+06    -6.27899E+06              0.    -23.1084E+06
           35342     21.5537E+06    -6.17204E+06              0.    -23.5909E+06
           35343     22.2247E+06    -6.04412E+06              0.    -24.0693E+06
           35344     22.9088E+06    -5.89356E+06              0.    -24.5417E+06
           35345     23.6057E+06    -5.71859E+06              0.    -25.0061E+06
           35346     24.3153E+06    -5.51724E+06              0.    -25.4606E+06
           35347     25.0372E+06    -5.28742E+06              0.    -25.9027E+06
           35348     25.7709E+06    -5.02684E+06              0.    -26.3299E+06
           35349     26.5158E+06    -4.73300E+06              0.    -26.7395E+06
           35350     27.2713E+06    -4.40319E+06              0.    -27.1283E+06
           35351     28.0366E+06    -4.03446E+06              0.    -27.4931E+06
           35352     28.8105E+06    -3.62357E+06              0.    -27.8304E+06
           35353     29.5920E+06    -3.16699E+06              0.    -28.1364E+06
           35354     30.3798E+06    -2.66087E+06              0.    -28.4068E+06
           35355     31.1721E+06    -2.10099E+06              0.    -28.6373E+06
           35356     31.9671E+06    -1.48271E+06              0.    -28.8231E+06
           35357     32.7628E+06    -800.978E+03              0.    -28.9592E+06
           35358     33.5566E+06    -50.2372E+03              0.    -29.0401E+06
           35359     34.3458E+06     775.592E+03              0.    -29.0600E+06
           35360     35.1272E+06     1.68317E+06              0.    -29.0129E+06
           35361     35.8971E+06     2.67981E+06              0.    -28.8923E+06
           35362     36.6516E+06     3.77351E+06              0.    -28.6913E+06
           35363     37.3861E+06     4.97307E+06              0.    -28.4030E+06
           35364     38.0954E+06     6.28809E+06              0.    -28.0197E+06
           35365     38.7738E+06     7.72907E+06              0.    -27.5337E+06
           35366      39.415E+06     9.30759E+06              0.    -26.9369E+06
           35367     40.0118E+06     11.0362E+06              0.    -26.2209E+06
           35368     40.5564E+06     12.9288E+06              0.    -25.3771E+06
           35369     41.0401E+06     15.0003E+06              0.    -24.3967E+06
           35370     41.4535E+06     17.2674E+06              0.    -23.2706E+06
           35371     42.3379E+06     19.8042E+06              0.    -23.2676E+06
           35372    -1.24980E+06    -561.877E+03              0.    -754.240E+03
           35373    -1.24695E+06    -535.265E+03              0.    -752.888E+03
           35374    -1.25562E+06    -514.163E+03              0.    -745.338E+03
           35375    -1.26421E+06    -493.344E+03              0.    -738.351E+03
           35376    -1.27273E+06    -472.815E+03              0.    -731.913E+03
           35377    -1.28118E+06    -452.577E+03              0.    -726.012E+03
           35378    -1.28954E+06    -432.635E+03              0.    -720.636E+03
           35379    -1.29782E+06    -412.993E+03              0.    -715.772E+03
           35380    -1.30602E+06    -393.652E+03              0.    -711.410E+03
           35381    -1.31414E+06    -374.616E+03              0.    -707.540E+03
           35382    -1.32217E+06    -355.887E+03              0.    -704.152E+03
           35383    -1.33011E+06    -337.468E+03              0.    -701.237E+03
           35384    -1.33796E+06    -319.360E+03              0.    -698.787E+03
           35385    -1.34571E+06    -301.566E+03              0.    -696.792E+03
           35386    -1.35338E+06    -284.087E+03              0.    -695.247E+03
           35387    -1.36094E+06    -266.925E+03              0.    -694.143E+03
           35388    -1.36841E+06    -250.082E+03              0.    -693.475E+03
           35389    -1.37578E+06    -233.559E+03              0.    -693.236E+03
           35390    -1.38305E+06    -217.357E+03              0.    -693.421E+03
           35391    -1.39022E+06    -201.477E+03              0.    -694.025E+03
           35392    -1.39728E+06    -185.923E+03              0.    -695.042E+03
           35393    -1.40423E+06    -170.693E+03              0.    -696.470E+03
           35394    -1.41108E+06    -155.790E+03              0.    -698.303E+03
           35395    -1.41781E+06    -141.216E+03              0.    -700.539E+03
           35396    -1.42444E+06    -126.970E+03              0.    -703.175E+03
           35397    -1.43094E+06    -113.056E+03              0.    -706.208E+03
           35398    -1.43733E+06    -99.4728E+03              0.    -709.636E+03
           35399    -1.44360E+06    -86.2238E+03              0.    -713.456E+03
           35400    -1.44974E+06    -73.3096E+03              0.    -717.669E+03
           35401    -1.45576E+06    -60.7321E+03              0.    -722.272E+03
           35402    -1.46165E+06    -48.4929E+03              0.    -727.266E+03
           35403    -1.46741E+06    -36.5937E+03              0.    -732.649E+03
           35404    -1.47303E+06    -25.0365E+03              0.    -738.422E+03
           35405    -1.47851E+06    -13.8233E+03              0.    -744.586E+03
           35406    -1.48385E+06    -2.95620E+03              0.    -751.141E+03
           35407    -1.48904E+06     7.56249E+03              0.    -758.088E+03
           35408    -1.49408E+06     17.7304E+03              0.    -765.430E+03
           35409    -1.49896E+06     27.5449E+03              0.    -773.169E+03
           35410    -1.50368E+06     37.0031E+03              0.    -781.306E+03
           35411    -1.50823E+06     46.1023E+03              0.    -789.844E+03
           35412    -1.51261E+06     54.8392E+03              0.    -798.787E+03
           35413    -1.51681E+06     63.2106E+03              0.    -808.138E+03
           35414    -1.52082E+06     71.2129E+03              0.    -817.901E+03
           35415    -1.52465E+06     78.8423E+03              0.    -828.081E+03
           35416    -1.52828E+06     86.0950E+03              0.    -838.682E+03
           35417    -1.53170E+06     92.9668E+03              0.    -849.709E+03
           35418    -1.53492E+06     99.4532E+03              0.    -861.168E+03
           35419    -1.53791E+06     105.549E+03              0.    -873.065E+03
           35420    -1.54067E+06     111.251E+03              0.    -885.407E+03
           35421    -1.54320E+06     116.552E+03              0.    -898.199E+03
           35422    -1.54549E+06     121.448E+03              0.    -911.450E+03
           35423    -1.54751E+06     125.932E+03              0.    -925.166E+03
           35424    -1.54928E+06     129.999E+03              0.    -939.357E+03
           35425    -1.55076E+06     133.643E+03              0.    -954.031E+03
           35426    -1.55196E+06     136.856E+03              0.    -969.197E+03
           35427    -1.55287E+06     139.632E+03              0.    -984.865E+03
           35428    -1.55346E+06     141.964E+03              0.    -1.00104E+06
           35429    -1.55374E+06     143.844E+03              0.    -1.01775E+06
           35430    -1.55368E+06     145.264E+03              0.    -1.03498E+06
           35431    -1.55327E+06     146.216E+03              0.    -1.05276E+06
           35432    -1.55250E+06     146.691E+03              0.     -1.0711E+06
           35433    -1.55135E+06     146.682E+03              0.    -1.09001E+06
           35434    -1.54981E+06     146.177E+03              0.    -1.10950E+06
           35435    -1.54787E+06     145.168E+03              0.    -1.12959E+06
           35436    -1.54550E+06     143.645E+03              0.    -1.15029E+06
           35437    -1.54269E+06     141.597E+03              0.    -1.17162E+06
           35438    -1.53942E+06     139.014E+03              0.    -1.19359E+06
           35439    -1.53567E+06     135.884E+03              0.    -1.21622E+06
           35440    -1.53143E+06     132.196E+03              0.    -1.23953E+06
           35441    -1.52667E+06     127.938E+03              0.    -1.26354E+06
           35442    -1.52137E+06     123.097E+03              0.    -1.28825E+06
           35443    -1.51552E+06     117.661E+03              0.    -1.31370E+06
           35444    -1.50908E+06     111.616E+03              0.    -1.33990E+06
           35445    -1.50204E+06     104.949E+03              0.    -1.36688E+06
           35446    -1.49437E+06     97.6463E+03              0.    -1.39465E+06
           35447    -1.48604E+06     89.6926E+03              0.    -1.42324E+06
           35448    -1.47704E+06     81.0733E+03              0.    -1.45267E+06
           35449    -1.46733E+06     71.7729E+03              0.    -1.48296E+06
           35450    -1.45688E+06     61.7757E+03              0.    -1.51414E+06
           35451    -1.44568E+06     51.0654E+03              0.    -1.54624E+06
           35452    -1.43368E+06     39.6252E+03              0.    -1.57929E+06
           35453    -1.42085E+06     27.4381E+03              0.    -1.61330E+06
           35454    -1.40717E+06     14.4864E+03              0.    -1.64831E+06
           35455    -1.39260E+06         751.978              0.    -1.68435E+06
           35456    -1.37711E+06    -13.7836E+03              0.    -1.72145E+06
           35457    -1.36066E+06    -29.1393E+03              0.    -1.75965E+06
           35458    -1.34322E+06    -45.3346E+03              0.    -1.79897E+06
           35459    -1.32474E+06    -62.3893E+03              0.    -1.83945E+06
           35460    -1.30519E+06    -80.3236E+03              0.    -1.88112E+06
           35461    -1.28453E+06    -99.1583E+03              0.    -1.92403E+06
           35462    -1.26272E+06    -118.915E+03              0.    -1.96820E+06
           35463    -1.23971E+06    -139.614E+03              0.    -2.01368E+06
           35464    -1.21545E+06    -161.278E+03              0.    -2.06051E+06
           35465    -1.18991E+06    -183.930E+03              0.    -2.10873E+06
           35466    -1.16304E+06    -207.591E+03              0.    -2.15839E+06
           35467    -1.13478E+06    -232.286E+03              0.    -2.20952E+06
           35468    -1.10509E+06    -258.037E+03              0.    -2.26218E+06
           35469    -1.07392E+06    -284.868E+03              0.    -2.31640E+06
           35470    -1.04120E+06    -312.804E+03              0.    -2.37225E+06
           35471    -1.00690E+06    -341.868E+03              0.    -2.42976E+06
           35472    -970.940E+03    -372.086E+03              0.    -2.48900E+06
           35473    -933.274E+03    -403.481E+03              0.    -2.55001E+06
           35474    -893.839E+03    -436.079E+03              0.    -2.61286E+06
           35475    -852.574E+03    -469.906E+03              0.    -2.67759E+06
           35476    -809.414E+03    -504.986E+03              0.    -2.74427E+06
           35477    -764.295E+03    -541.344E+03              0.    -2.81295E+06
           35478    -717.149E+03    -579.007E+03              0.    -2.88371E+06
           35479    -667.907E+03    -617.999E+03              0.    -2.95659E+06
           35480    -616.498E+03    -658.346E+03              0.    -3.03168E+06
           35481    -562.849E+03    -700.073E+03              0.    -3.10903E+06
           35482    -506.884E+03    -743.205E+03              0.    -3.18872E+06
           35483    -448.528E+03    -787.767E+03              0.    -3.27082E+06
           35484    -387.700E+03    -833.783E+03              0.    -3.35540E+06
           35485    -324.321E+03    -881.278E+03              0.    -3.44254E+06
           35486    -258.306E+03    -930.274E+03              0.    -3.53232E+06
           35487    -189.571E+03    -980.795E+03              0.    -3.62481E+06
           35488    -118.028E+03    -1.03286E+06              0.    -3.72010E+06
           35489    -43.5880E+03    -1.08650E+06              0.    -3.81828E+06
           35490     33.8409E+03    -1.14173E+06              0.    -3.91943E+06
           35491     114.352E+03    -1.19857E+06              0.    -4.02364E+06
           35492     198.043E+03    -1.25703E+06              0.    -4.13101E+06
           35493     285.009E+03    -1.31714E+06              0.    -4.24162E+06
           35494     375.353E+03    -1.37892E+06              0.    -4.35557E+06
           35495     469.177E+03    -1.44237E+06              0.    -4.47296E+06
           35496     566.585E+03    -1.50751E+06              0.    -4.59390E+06
           35497     667.685E+03    -1.57435E+06              0.    -4.71849E+06
           35498     772.585E+03    -1.64290E+06              0.    -4.84682E+06
           35499     881.397E+03    -1.71317E+06              0.    -4.97902E+06
           35500     994.235E+03    -1.78517E+06              0.    -5.11519E+06
           35501     1.11122E+06    -1.85889E+06              0.    -5.25545E+06
           35502     1.23245E+06    -1.93433E+06              0.    -5.39991E+06
           35503     1.35807E+06    -2.01150E+06              0.    -5.54869E+06
           35504     1.48820E+06    -2.09038E+06              0.    -5.70192E+06
           35505     1.62294E+06    -2.17097E+06              0.    -5.85970E+06
           35506     1.76244E+06    -2.25325E+06              0.    -6.02218E+06
           35507     1.90683E+06    -2.33721E+06              0.    -6.18947E+06
           35508     2.05622E+06    -2.42282E+06              0.    -6.36172E+06
           35509     2.21076E+06    -2.51006E+06              0.    -6.53904E+06
           35510     2.37058E+06     -2.5989E+06              0.    -6.72158E+06
           35511     2.53581E+06    -2.68930E+06              0.    -6.90947E+06
           35512     2.70660E+06    -2.78122E+06              0.    -7.10285E+06
           35513     2.88308E+06    -2.87461E+06              0.    -7.30186E+06
           35514     3.06539E+06    -2.96942E+06              0.    -7.50663E+06
           35515     3.25369E+06    -3.06560E+06              0.    -7.71733E+06
           35516     3.44810E+06    -3.16307E+06              0.    -7.93408E+06
           35517     3.64879E+06    -3.26176E+06              0.    -8.15703E+06
           35518     3.85590E+06    -3.36159E+06              0.    -8.38633E+06
           35519     4.06957E+06    -3.46247E+06              0.    -8.62213E+06
           35520     4.28996E+06    -3.56431E+06              0.    -8.86457E+06
           35521     4.51722E+06    -3.66699E+06              0.    -9.11379E+06
           35522     4.75150E+06    -3.77040E+06              0.    -9.36994E+06
           35523     4.99295E+06    -3.87442E+06              0.    -9.63317E+06
           35524     5.24174E+06    -3.97890E+06              0.    -9.90361E+06
           35525     5.49802E+06    -4.08370E+06              0.    -10.1814E+06
           35526     5.76194E+06    -4.18867E+06              0.    -10.4667E+06
           35527     6.03366E+06    -4.29362E+06              0.    -10.7596E+06
           35528     6.31335E+06    -4.39838E+06              0.    -11.0603E+06
           35529     6.60115E+06    -4.50275E+06              0.    -11.3689E+06
           35530     6.89723E+06    -4.60651E+06              0.    -11.6854E+06
           35531     7.20175E+06    -4.70945E+06              0.    -12.0100E+06
           35532     7.51487E+06    -4.81132E+06              0.    -12.3429E+06
           35533     7.83675E+06    -4.91187E+06              0.    -12.6840E+06
           35534     8.16755E+06    -5.01082E+06              0.    -13.0335E+06
           35535     8.50743E+06    -5.10788E+06              0.    -13.3915E+06
           35536     8.85656E+06    -5.20275E+06              0.    -13.7579E+06
           35537     9.21509E+06    -5.29509E+06              0.    -14.1329E+06
           35538     9.58319E+06    -5.38456E+06              0.    -14.5164E+06
           35539     9.96101E+06    -5.47080E+06              0.    -14.9084E+06
           35540     10.3487E+06    -5.55340E+06              0.    -15.3089E+06
           35541     10.7465E+06    -5.63195E+06              0.    -15.7178E+06
           35542     11.1544E+06    -5.70603E+06              0.    -16.1351E+06
           35543     11.5728E+06    -5.77516E+06              0.    -16.5607E+06
           35544     12.0016E+06    -5.83885E+06              0.    -16.9943E+06
           35545     12.4411E+06    -5.89658E+06              0.    -17.4357E+06
           35546     12.8915E+06    -5.94781E+06              0.    -17.8848E+06
           35547     13.3528E+06    -5.99195E+06              0.    -18.3412E+06
           35548     13.8253E+06    -6.02837E+06              0.    -18.8046E+06
           35549     14.3089E+06    -6.05644E+06              0.    -19.2745E+06
           35550     14.8040E+06    -6.07544E+06              0.    -19.7505E+06
           35551     15.3106E+06    -6.08464E+06              0.    -20.2320E+06
           35552     15.8288E+06    -6.08326E+06              0.    -20.7184E+06
           35553     16.3588E+06    -6.07045E+06              0.    -21.2090E+06
           35554     16.9006E+06    -6.04532E+06              0.    -21.7028E+06
           35555     17.4542E+06    -6.00692E+06              0.    -22.1990E+06
           35556     18.0198E+06    -5.95423E+06              0.    -22.6966E+06
           35557     18.5974E+06    -5.88615E+06              0.    -23.1943E+06
           35558     19.1869E+06    -5.80151E+06              0.    -23.6909E+06
           35559     19.7883E+06    -5.69904E+06              0.    -24.1849E+06
           35560     20.4016E+06    -5.57738E+06              0.    -24.6747E+06
           35561     21.0266E+06    -5.43505E+06              0.    -25.1584E+06
           35562     21.6631E+06    -5.27047E+06              0.    -25.6341E+06
           35563     22.3108E+06    -5.08189E+06              0.    -26.0997E+06
           35564     22.9695E+06    -4.86745E+06              0.    -26.5528E+06
           35565     23.6387E+06    -4.62510E+06              0.    -26.9907E+06
           35566     24.3178E+06    -4.35261E+06              0.    -27.4106E+06
           35567     25.0063E+06    -4.04754E+06              0.    -27.8094E+06
           35568     25.7034E+06    -3.70723E+06              0.    -28.1837E+06
           35569     26.4080E+06    -3.32876E+06              0.    -28.5299E+06
           35570     27.1192E+06    -2.90892E+06              0.    -28.8440E+06
           35571     27.8356E+06    -2.44422E+06              0.    -29.1217E+06
           35572     28.5557E+06    -1.93079E+06              0.    -29.3585E+06
           35573     29.2777E+06    -1.36438E+06              0.    -29.5494E+06
           35574     29.9996E+06    -740.330E+03              0.    -29.6891E+06
           35575     30.7189E+06    -53.4997E+03              0.    -29.7721E+06
           35576     31.4330E+06     701.763E+03              0.    -29.7922E+06
           35577     32.1388E+06     1.53168E+06              0.    -29.7432E+06
           35578     32.8328E+06     2.44311E+06              0.    -29.6182E+06
           35579     33.5110E+06     3.44359E+06              0.    -29.4101E+06
           35580     34.1688E+06     4.54144E+06              0.    -29.1113E+06
           35581     34.8012E+06     5.74578E+06              0.    -28.7141E+06
           35582     35.4024E+06     7.06666E+06              0.    -28.2100E+06
           35583     35.9663E+06     8.51515E+06              0.    -27.5906E+06
           35584     36.4855E+06     10.1034E+06              0.    -26.8469E+06
           35585     36.9523E+06     11.8447E+06              0.    -25.9696E+06
           35586     37.3578E+06     13.7536E+06              0.    -24.9493E+06
           35587     37.6924E+06     15.8463E+06              0.    -23.7764E+06
           35588     38.4950E+06     18.1862E+06              0.    -23.7548E+06
           35589    -1.26872E+06    -570.417E+03              0.    -745.380E+03
           35590    -1.26579E+06    -543.075E+03              0.    -744.042E+03
           35591    -1.27470E+06    -521.402E+03              0.    -736.563E+03
           35592    -1.28352E+06    -500.026E+03              0.    -729.650E+03
           35593    -1.29228E+06    -478.952E+03              0.    -723.289E+03
           35594    -1.30095E+06    -458.184E+03              0.    -717.466E+03
           35595    -1.30955E+06    -437.723E+03              0.    -712.170E+03
           35596    -1.31806E+06    -417.572E+03              0.    -707.389E+03
           35597    -1.32649E+06    -397.734E+03              0.    -703.111E+03
           35598    -1.33483E+06    -378.210E+03              0.    -699.327E+03
           35599    -1.34309E+06    -359.003E+03              0.    -696.027E+03
           35600    -1.35126E+06    -340.114E+03              0.    -693.202E+03
           35601    -1.35933E+06    -321.546E+03              0.    -690.842E+03
           35602    -1.36732E+06    -303.298E+03              0.    -688.940E+03
           35603    -1.37522E+06    -285.373E+03              0.    -687.488E+03
           35604    -1.38302E+06    -267.772E+03              0.    -686.480E+03
           35605    -1.39073E+06    -250.495E+03              0.    -685.909E+03
           35606    -1.39834E+06    -233.544E+03              0.    -685.769E+03
           35607    -1.40585E+06    -216.920E+03              0.    -686.054E+03
           35608    -1.41326E+06    -200.624E+03              0.    -686.759E+03
           35609    -1.42058E+06    -184.656E+03              0.    -687.880E+03
           35610    -1.42779E+06    -169.018E+03              0.    -689.413E+03
           35611    -1.43489E+06    -153.710E+03              0.    -691.354E+03
           35612    -1.44189E+06    -138.733E+03              0.    -693.699E+03
           35613    -1.44878E+06    -124.088E+03              0.    -696.446E+03
           35614    -1.45557E+06    -109.776E+03              0.    -699.592E+03
           35615    -1.46224E+06    -95.7976E+03              0.    -703.136E+03
           35616    -1.46879E+06    -82.1547E+03              0.    -707.075E+03
           35617    -1.47523E+06    -68.8476E+03              0.    -711.408E+03
           35618    -1.48155E+06    -55.8781E+03              0.    -716.135E+03
           35619    -1.48775E+06    -43.2471E+03              0.    -721.255E+03
           35620    -1.49383E+06    -30.9561E+03              0.    -726.768E+03
           35621    -1.49977E+06    -19.0067E+03              0.    -732.675E+03
           35622    -1.50559E+06    -7.40046E+03              0.    -738.975E+03
           35623    -1.51127E+06     3.86089E+03              0.    -745.671E+03
           35624    -1.51681E+06     14.7754E+03              0.    -752.764E+03
           35625    -1.52221E+06     25.3412E+03              0.    -760.255E+03
           35626    -1.52746E+06     35.5558E+03              0.    -768.146E+03
           35627    -1.53256E+06     45.4169E+03              0.    -776.442E+03
           35628    -1.53751E+06     54.9221E+03              0.    -785.143E+03
           35629    -1.54229E+06     64.0685E+03              0.    -794.255E+03
           35630    -1.54691E+06     72.8534E+03              0.    -803.781E+03
           35631    -1.55135E+06     81.2734E+03              0.    -813.724E+03
           35632    -1.55562E+06     89.3253E+03              0.    -824.091E+03
           35633    -1.55971E+06     97.0056E+03              0.    -834.885E+03
           35634    -1.56360E+06     104.310E+03              0.    -846.112E+03
           35635    -1.56730E+06     111.236E+03              0.    -857.779E+03
           35636    -1.57079E+06     117.778E+03              0.    -869.891E+03
           35637    -1.57407E+06     123.932E+03              0.    -882.455E+03
           35638    -1.57713E+06     129.692E+03              0.    -895.479E+03
           35639    -1.57996E+06     135.055E+03              0.    -908.971E+03
           35640    -1.58256E+06     140.015E+03              0.    -922.937E+03
           35641    -1.58491E+06     144.566E+03              0.    -937.388E+03
           35642    -1.58700E+06     148.703E+03              0.    -952.332E+03
           35643    -1.58882E+06     152.419E+03              0.    -967.778E+03
           35644    -1.59037E+06     155.709E+03              0.    -983.737E+03
           35645    -1.59163E+06     158.564E+03              0.    -1.00022E+06
           35646    -1.59259E+06     160.979E+03              0.    -1.01724E+06
           35647    -1.59324E+06     162.946E+03              0.    -1.03480E+06
           35648    -1.59356E+06     164.457E+03              0.    -1.05292E+06
           35649    -1.59355E+06     165.504E+03              0.    -1.07161E+06
           35650    -1.59318E+06     166.079E+03              0.    -1.09089E+06
           35651    -1.59245E+06     166.174E+03              0.    -1.11077E+06
           35652    -1.59134E+06     165.779E+03              0.    -1.13126E+06
           35653    -1.58983E+06     164.885E+03              0.    -1.15238E+06
           35654    -1.58792E+06     163.482E+03              0.    -1.17414E+06
           35655    -1.58557E+06     161.560E+03              0.    -1.19656E+06
           35656    -1.58278E+06     159.109E+03              0.    -1.21966E+06
           35657    -1.57952E+06     156.117E+03              0.    -1.24346E+06
           35658    -1.57578E+06     152.574E+03              0.    -1.26797E+06
           35659    -1.57154E+06     148.468E+03              0.    -1.29321E+06
           35660    -1.56677E+06     143.786E+03              0.    -1.31921E+06
           35661    -1.56146E+06     138.517E+03              0.    -1.34598E+06
           35662    -1.55559E+06     132.648E+03              0.    -1.37355E+06
           35663    -1.54912E+06     126.164E+03              0.    -1.40194E+06
           35664    -1.54205E+06     119.054E+03              0.    -1.43117E+06
           35665    -1.53433E+06     111.302E+03              0.    -1.46126E+06
           35666    -1.52596E+06     102.894E+03              0.    -1.49225E+06
           35667    -1.51690E+06     93.8152E+03              0.    -1.52415E+06
           35668    -1.50712E+06     84.0503E+03              0.    -1.55700E+06
           35669    -1.49660E+06     73.5835E+03              0.    -1.59082E+06
           35670    -1.48531E+06     62.3987E+03              0.    -1.62565E+06
           35671    -1.47321E+06     50.4791E+03              0.    -1.66150E+06
           35672    -1.46028E+06     37.8079E+03              0.    -1.69841E+06
           35673    -1.44649E+06     24.3676E+03              0.    -1.73642E+06
           35674    -1.43180E+06     10.1403E+03              0.    -1.77555E+06
           35675    -1.41617E+06    -4.89226E+03              0.    -1.81585E+06
           35676    -1.39957E+06    -20.7488E+03              0.    -1.85734E+06
           35677    -1.38197E+06    -37.4483E+03              0.    -1.90006E+06
           35678    -1.36333E+06    -55.0103E+03              0.    -1.94406E+06
           35679    -1.34360E+06    -73.4547E+03              0.    -1.98936E+06
           35680    -1.32275E+06    -92.8017E+03              0.    -2.03601E+06
           35681    -1.30073E+06    -113.072E+03              0.    -2.08406E+06
           35682    -1.27750E+06    -134.286E+03              0.    -2.13354E+06
           35683    -1.25303E+06    -156.466E+03              0.    -2.18450E+06
           35684    -1.22725E+06    -179.633E+03              0.    -2.23699E+06
           35685    -1.20013E+06    -203.809E+03              0.    -2.29104E+06
           35686    -1.17161E+06    -229.017E+03              0.    -2.34672E+06
           35687    -1.14165E+06    -255.278E+03              0.    -2.40407E+06
           35688    -1.11020E+06    -282.616E+03              0.    -2.46314E+06
           35689    -1.07719E+06    -311.054E+03              0.    -2.52399E+06
           35690    -1.04258E+06    -340.614E+03              0.    -2.58667E+06
           35691    -1.00631E+06    -371.320E+03              0.    -2.65124E+06
           35692    -968.322E+03    -403.195E+03              0.    -2.71775E+06
           35693    -928.557E+03    -436.264E+03              0.    -2.78628E+06
           35694    -886.952E+03    -470.549E+03              0.    -2.85687E+06
           35695    -843.445E+03    -506.074E+03              0.    -2.92960E+06
           35696    -797.972E+03    -542.862E+03              0.    -3.00452E+06
           35697    -750.466E+03    -580.938E+03              0.    -3.08172E+06
           35698    -700.859E+03    -620.323E+03              0.    -3.16125E+06
           35699    -649.081E+03    -661.042E+03              0.    -3.24318E+06
           35700    -595.060E+03    -703.116E+03              0.    -3.32760E+06
           35701    -538.723E+03    -746.569E+03              0.    -3.41458E+06
           35702    -479.994E+03    -791.423E+03              0.    -3.50419E+06
           35703    -418.795E+03    -837.697E+03              0.    -3.59652E+06
           35704    -355.049E+03    -885.415E+03              0.    -3.69165E+06
           35705    -288.673E+03    -934.595E+03              0.    -3.78965E+06
           35706    -219.584E+03    -985.258E+03              0.    -3.89063E+06
           35707    -147.699E+03    -1.03742E+06              0.    -3.99466E+06
           35708    -72.9285E+03    -1.09110E+06              0.    -4.10185E+06
           35709     4.81465E+03    -1.14632E+06              0.    -4.21227E+06
           35710     85.6216E+03    -1.20308E+06              0.    -4.32603E+06
           35711     169.585E+03    -1.26141E+06              0.    -4.44323E+06
           35712     256.799E+03    -1.32132E+06              0.    -4.56397E+06
           35713     347.361E+03    -1.38281E+06              0.    -4.68835E+06
           35714     441.369E+03    -1.44590E+06              0.    -4.81647E+06
           35715     538.924E+03    -1.51059E+06              0.    -4.94844E+06
           35716     640.127E+03    -1.57689E+06              0.    -5.08438E+06
           35717     745.082E+03    -1.64481E+06              0.    -5.22439E+06
           35718     853.896E+03    -1.71433E+06              0.     -5.3686E+06
           35719     966.677E+03    -1.78545E+06              0.    -5.51711E+06
           35720     1.08353E+06    -1.85819E+06              0.    -5.67006E+06
           35721     1.20458E+06    -1.93251E+06              0.    -5.82755E+06
           35722     1.32992E+06    -2.00842E+06              0.    -5.98972E+06
           35723     1.45968E+06    -2.08589E+06              0.    -6.15670E+06
           35724     1.59397E+06    -2.16491E+06              0.    -6.32860E+06
           35725     1.73291E+06    -2.24545E+06              0.    -6.50557E+06
           35726     1.87662E+06    -2.32749E+06              0.    -6.68774E+06
           35727     2.02522E+06    -2.41099E+06              0.    -6.87524E+06
           35728     2.17882E+06    -2.49592E+06              0.    -7.06820E+06
           35729     2.33757E+06    -2.58223E+06              0.    -7.26678E+06
           35730     2.50157E+06    -2.66987E+06              0.    -7.47111E+06
           35731     2.67096E+06    -2.75880E+06              0.    -7.68133E+06
           35732     2.84587E+06    -2.84894E+06              0.    -7.89758E+06
           35733     3.02641E+06    -2.94024E+06              0.    -8.12001E+06
           35734     3.21273E+06    -3.03262E+06              0.    -8.34877E+06
           35735     3.40495E+06    -3.12599E+06              0.    -8.58400E+06
           35736     3.60320E+06    -3.22027E+06              0.    -8.82584E+06
           35737     3.80761E+06    -3.31536E+06              0.    -9.07445E+06
           35738     4.01831E+06    -3.41116E+06              0.    -9.32996E+06
           35739     4.23544E+06    -3.50755E+06              0.    -9.59253E+06
           35740     4.45914E+06    -3.60440E+06              0.    -9.86230E+06
           35741     4.68953E+06    -3.70159E+06              0.    -10.1394E+06
           35742     4.92674E+06    -3.79896E+06              0.    -10.4240E+06
           35743     5.17091E+06    -3.89637E+06              0.    -10.7162E+06
           35744     5.42219E+06    -3.99364E+06              0.    -11.0161E+06
           35745     5.68069E+06    -4.09060E+06              0.    -11.3239E+06
           35746     5.94655E+06    -4.18706E+06              0.    -11.6397E+06
           35747     6.21990E+06    -4.28282E+06              0.    -11.9637E+06
           35748     6.50089E+06    -4.37765E+06              0.    -12.2958E+06
           35749     6.78964E+06    -4.47132E+06              0.    -12.6363E+06
           35750     7.08629E+06    -4.56361E+06              0.    -12.9851E+06
           35751     7.39097E+06    -4.65423E+06              0.    -13.3425E+06
           35752     7.70380E+06    -4.74292E+06              0.    -13.7084E+06
           35753     8.02493E+06    -4.82939E+06              0.    -14.0829E+06
           35754     8.35448E+06    -4.91332E+06              0.    -14.4660E+06
           35755     8.69259E+06     -4.9944E+06              0.    -14.8577E+06
           35756     9.03938E+06    -5.07227E+06              0.    -15.2582E+06
           35757     9.39499E+06    -5.14658E+06              0.    -15.6672E+06
           35758     9.75954E+06    -5.21693E+06              0.    -16.0847E+06
           35759     10.1332E+06    -5.28293E+06              0.    -16.5107E+06
           35760     10.5160E+06    -5.34415E+06              0.    -16.9450E+06
           35761     10.9081E+06    -5.40013E+06              0.    -17.3875E+06
           35762     11.3097E+06    -5.45041E+06              0.    -17.8380E+06
           35763     11.7209E+06    -5.49448E+06              0.    -18.2962E+06
           35764     12.1417E+06    -5.53181E+06              0.    -18.7618E+06
           35765     12.5723E+06    -5.56185E+06              0.    -19.2345E+06
           35766     13.0129E+06    -5.58401E+06              0.    -19.7138E+06
           35767     13.4635E+06    -5.59767E+06              0.    -20.1993E+06
           35768     13.9242E+06    -5.60217E+06              0.    -20.6904E+06
           35769     14.3951E+06    -5.59681E+06              0.    -21.1865E+06
           35770     14.8763E+06    -5.58085E+06              0.    -21.6868E+06
           35771     15.3678E+06    -5.55351E+06              0.    -22.1905E+06
           35772     15.8698E+06    -5.51394E+06              0.    -22.6966E+06
           35773     16.3823E+06    -5.46126E+06              0.    -23.2041E+06
           35774     16.9052E+06    -5.39450E+06              0.    -23.7119E+06
           35775     17.4387E+06    -5.31264E+06              0.    -24.2185E+06
           35776     17.9825E+06    -5.21457E+06              0.    -24.7226E+06
           35777     18.5367E+06    -5.09911E+06              0.    -25.2224E+06
           35778     19.1012E+06    -4.96498E+06              0.    -25.7161E+06
           35779     19.6757E+06    -4.81078E+06              0.    -26.2019E+06
           35780     20.2600E+06    -4.63501E+06              0.    -26.6773E+06
           35781     20.8539E+06    -4.43601E+06              0.    -27.1401E+06
           35782     21.4569E+06    -4.21200E+06              0.    -27.5875E+06
           35783     22.0686E+06    -3.96102E+06              0.    -28.0167E+06
           35784     22.6884E+06    -3.68092E+06              0.    -28.4244E+06
           35785     23.3155E+06    -3.36934E+06              0.    -28.8073E+06
           35786     23.9491E+06    -3.02368E+06              0.    -29.1615E+06
           35787     24.5881E+06    -2.64109E+06              0.    -29.4830E+06
           35788     25.2313E+06    -2.21842E+06              0.    -29.7674E+06
           35789     25.8773E+06    -1.75220E+06              0.    -30.0099E+06
           35790     26.5244E+06    -1.23857E+06              0.    -30.2055E+06
           35791     27.1706E+06    -673.287E+03              0.    -30.3486E+06
           35792     27.8136E+06    -51.6529E+03              0.    -30.4335E+06
           35793     28.4508E+06     631.534E+03              0.    -30.4539E+06
           35794     29.0793E+06     1.38202E+06              0.    -30.4030E+06
           35795     29.6955E+06     2.20620E+06              0.    -30.2739E+06
           35796     30.2956E+06     3.11109E+06              0.    -30.0590E+06
           35797     30.8752E+06     4.10452E+06              0.    -29.7505E+06
           35798     31.4292E+06     5.19509E+06              0.    -29.3399E+06
           35799      31.952E+06     6.39232E+06              0.    -28.8187E+06
           35800     32.4373E+06     7.70677E+06              0.    -28.1777E+06
           35801     32.8781E+06     9.15004E+06              0.    -27.4074E+06
           35802     33.2663E+06     10.7350E+06              0.    -26.4979E+06
           35803     33.5932E+06     12.4756E+06              0.    -25.4391E+06
           35804     33.8488E+06     14.3877E+06              0.    -24.2205E+06
           35805     34.5671E+06     16.5226E+06              0.    -24.1787E+06
           35806    -1.28749E+06    -578.889E+03              0.    -736.280E+03
           35807    -1.28448E+06    -550.814E+03              0.    -734.957E+03
           35808    -1.29362E+06    -528.567E+03              0.    -727.553E+03
           35809    -1.30269E+06    -506.632E+03              0.    -720.716E+03
           35810    -1.31167E+06    -485.012E+03              0.    -714.433E+03
           35811    -1.32058E+06    -463.711E+03              0.    -708.690E+03
           35812    -1.32940E+06    -442.728E+03              0.    -703.476E+03
           35813    -1.33815E+06    -422.068E+03              0.    -698.778E+03
           35814    -1.34680E+06    -401.730E+03              0.    -694.585E+03
           35815    -1.35538E+06    -381.717E+03              0.    -690.887E+03
           35816    -1.36386E+06    -362.031E+03              0.    -687.674E+03
           35817    -1.37226E+06    -342.671E+03              0.    -684.936E+03
           35818    -1.38057E+06    -323.640E+03              0.    -682.666E+03
           35819    -1.38879E+06    -304.938E+03              0.    -680.855E+03
           35820    -1.39692E+06    -286.565E+03              0.    -679.495E+03
           35821    -1.40496E+06    -268.523E+03              0.    -678.580E+03
           35822    -1.41291E+06    -250.812E+03              0.    -678.103E+03
           35823    -1.42076E+06    -233.433E+03              0.    -678.058E+03
           35824    -1.42852E+06    -216.385E+03              0.    -678.440E+03
           35825    -1.43618E+06    -199.670E+03              0.    -679.244E+03
           35826    -1.44375E+06    -183.288E+03              0.    -680.464E+03
           35827    -1.45122E+06    -167.239E+03              0.    -682.098E+03
           35828    -1.45858E+06    -151.524E+03              0.    -684.141E+03
           35829    -1.46585E+06    -136.142E+03              0.    -686.590E+03
           35830    -1.47302E+06    -121.096E+03              0.    -689.442E+03
           35831    -1.48008E+06    -106.384E+03              0.    -692.696E+03
           35832    -1.48703E+06    -92.0087E+03              0.    -696.349E+03
           35833    -1.49388E+06    -77.9695E+03              0.    -700.400E+03
           35834    -1.50062E+06    -64.2672E+03              0.    -704.847E+03
           35835    -1.50725E+06    -50.9028E+03              0.    -709.691E+03
           35836    -1.51376E+06    -37.8772E+03              0.    -714.930E+03
           35837    -1.52015E+06    -25.1914E+03              0.    -720.565E+03
           35838    -1.52643E+06    -12.8464E+03              0.    -726.596E+03
           35839    -1.53258E+06        -843.622              0.    -733.024E+03
           35840    -1.53861E+06     10.8157E+03              0.    -739.852E+03
           35841    -1.54451E+06     22.1300E+03              0.    -747.079E+03
           35842    -1.55028E+06     33.0977E+03              0.    -754.709E+03
           35843    -1.55591E+06     43.7169E+03              0.    -762.743E+03
           35844    -1.56140E+06     53.9857E+03              0.    -771.186E+03
           35845    -1.56674E+06     63.9018E+03              0.    -780.039E+03
           35846    -1.57194E+06     73.4630E+03              0.    -789.308E+03
           35847    -1.57698E+06     82.6669E+03              0.    -798.995E+03
           35848    -1.58187E+06     91.5105E+03              0.    -809.106E+03
           35849    -1.58659E+06     99.9911E+03              0.    -819.646E+03
           35850    -1.59114E+06     108.106E+03              0.    -830.619E+03
           35851    -1.59551E+06     115.850E+03              0.    -842.032E+03
           35852    -1.59971E+06     123.222E+03              0.    -853.891E+03
           35853    -1.60371E+06     130.217E+03              0.    -866.203E+03
           35854    -1.60752E+06     136.831E+03              0.    -878.974E+03
           35855    -1.61112E+06     143.060E+03              0.    -892.213E+03
           35856    -1.61451E+06     148.899E+03              0.    -905.927E+03
           35857    -1.61769E+06     154.344E+03              0.    -920.126E+03
           35858    -1.62063E+06     159.389E+03              0.    -934.817E+03
           35859    -1.62334E+06     164.029E+03              0.    -950.011E+03
           35860    -1.62580E+06     168.258E+03              0.    -965.717E+03
           35861    -1.62801E+06     172.072E+03              0.    -981.947E+03
           35862    -1.62995E+06     175.462E+03              0.    -998.711E+03
           35863    -1.63161E+06     178.424E+03              0.    -1.01602E+06
           35864    -1.63298E+06     180.950E+03              0.    -1.03389E+06
           35865    -1.63406E+06     183.033E+03              0.    -1.05233E+06
           35866    -1.63482E+06     184.666E+03              0.    -1.07135E+06
           35867    -1.63526E+06     185.840E+03              0.    -1.09097E+06
           35868    -1.63536E+06     186.549E+03              0.    -1.11120E+06
           35869    -1.63510E+06     186.783E+03              0.    -1.13206E+06
           35870    -1.63448E+06     186.534E+03              0.    -1.15357E+06
           35871    -1.63348E+06     185.792E+03              0.    -1.17573E+06
           35872    -1.63208E+06     184.549E+03              0.    -1.19858E+06
           35873    -1.63026E+06     182.794E+03              0.    -1.22211E+06
           35874    -1.62802E+06     180.518E+03              0.    -1.24636E+06
           35875    -1.62533E+06     177.710E+03              0.    -1.27135E+06
           35876    -1.62217E+06     174.358E+03              0.    -1.29708E+06
           35877    -1.61852E+06     170.452E+03              0.    -1.32359E+06
           35878    -1.61437E+06     165.980E+03              0.    -1.35090E+06
           35879    -1.60969E+06     160.931E+03              0.    -1.37902E+06
           35880    -1.60447E+06     155.291E+03              0.    -1.40798E+06
           35881    -1.59867E+06     149.047E+03              0.    -1.43781E+06
           35882    -1.59229E+06     142.188E+03              0.    -1.46853E+06
           35883    -1.58529E+06     134.698E+03              0.    -1.50016E+06
           35884    -1.57765E+06     126.565E+03              0.    -1.53274E+06
           35885    -1.56934E+06     117.773E+03              0.    -1.56629E+06
           35886    -1.56034E+06     108.309E+03              0.    -1.60083E+06
           35887    -1.55062E+06     98.1558E+03              0.    -1.63641E+06
           35888    -1.54015E+06     87.2993E+03              0.    -1.67305E+06
           35889    -1.52891E+06     75.7232E+03              0.    -1.71077E+06
           35890    -1.51686E+06     63.4111E+03              0.    -1.74963E+06
           35891    -1.50397E+06     50.3462E+03              0.    -1.78964E+06
           35892    -1.49022E+06     36.5115E+03              0.    -1.83085E+06
           35893    -1.47556E+06     21.8894E+03              0.    -1.87328E+06
           35894    -1.45996E+06     6.46220E+03              0.    -1.91699E+06
           35895    -1.44338E+06    -9.78845E+03              0.    -1.96200E+06
           35896    -1.42580E+06    -26.8811E+03              0.    -2.00836E+06
           35897    -1.40717E+06    -44.8346E+03              0.    -2.05611E+06
           35898    -1.38745E+06    -63.6684E+03              0.    -2.10530E+06
           35899    -1.36661E+06    -83.4019E+03              0.    -2.15595E+06
           35900    -1.34460E+06    -104.055E+03              0.    -2.20814E+06
           35901    -1.32137E+06    -125.648E+03              0.    -2.26189E+06
           35902    -1.29689E+06    -148.201E+03              0.    -2.31725E+06
           35903    -1.27111E+06    -171.736E+03              0.    -2.37429E+06
           35904    -1.24398E+06    -196.272E+03              0.    -2.43304E+06
           35905    -1.21546E+06    -221.831E+03              0.    -2.49357E+06
           35906    -1.18549E+06    -248.435E+03              0.    -2.55593E+06
           35907    -1.15402E+06    -276.105E+03              0.    -2.62016E+06
           35908    -1.12101E+06    -304.862E+03              0.    -2.68635E+06
           35909    -1.08639E+06    -334.728E+03              0.    -2.75453E+06
           35910    -1.05011E+06    -365.726E+03              0.    -2.82478E+06
           35911    -1.01212E+06    -397.875E+03              0.    -2.89716E+06
           35912    -972.356E+03    -431.199E+03              0.    -2.97173E+06
           35913    -930.758E+03    -465.719E+03              0.    -3.04856E+06
           35914    -887.264E+03    -501.457E+03              0.    -3.12772E+06
           35915    -841.812E+03    -538.433E+03              0.    -3.20928E+06
           35916    -794.336E+03    -576.668E+03              0.    -3.29332E+06
           35917    -744.771E+03    -616.184E+03              0.    -3.37990E+06
           35918    -693.048E+03    -657.001E+03              0.    -3.46912E+06
           35919    -639.097E+03    -699.138E+03              0.    -3.56104E+06
           35920    -582.848E+03    -742.614E+03              0.    -3.65574E+06
           35921    -524.226E+03    -787.450E+03              0.    -3.75332E+06
           35922    -463.157E+03    -833.661E+03              0.    -3.85386E+06
           35923    -399.565E+03    -881.267E+03              0.    -3.95745E+06
           35924    -333.371E+03    -930.282E+03              0.    -4.06417E+06
           35925    -264.496E+03    -980.722E+03              0.    -4.17412E+06
           35926    -192.858E+03    -1.03260E+06              0.    -4.28739E+06
           35927    -118.374E+03    -1.08593E+06              0.    -4.40409E+06
           35928    -40.9585E+03    -1.14073E+06              0.    -4.52431E+06
           35929     39.4742E+03    -1.19700E+06              0.    -4.64815E+06
           35930     123.013E+03    -1.25475E+06              0.    -4.77572E+06
           35931     209.746E+03    -1.31399E+06              0.    -4.90712E+06
           35932     299.767E+03    -1.37473E+06              0.    -5.04248E+06
           35933     393.167E+03    -1.43696E+06              0.    -5.18188E+06
           35934     490.041E+03    -1.50068E+06              0.    -5.32546E+06
           35935     590.486E+03    -1.56590E+06              0.    -5.47332E+06
           35936     694.598E+03    -1.63261E+06              0.    -5.62559E+06
           35937     802.476E+03    -1.70080E+06              0.    -5.78238E+06
           35938     914.221E+03    -1.77047E+06              0.    -5.94383E+06
           35939     1.02993E+06    -1.84158E+06              0.    -6.11005E+06
           35940     1.14972E+06    -1.91414E+06              0.    -6.28117E+06
           35941     1.27368E+06    -1.98811E+06              0.    -6.45733E+06
           35942     1.40192E+06    -2.06348E+06              0.    -6.63865E+06
           35943     1.53454E+06    -2.14020E+06              0.    -6.82528E+06
           35944     1.67166E+06    -2.21826E+06              0.    -7.01734E+06
           35945     1.81338E+06    -2.29760E+06              0.    -7.21497E+06
           35946     1.95981E+06    -2.37819E+06              0.    -7.41832E+06
           35947     2.11106E+06    -2.45997E+06              0.    -7.62752E+06
           35948     2.26724E+06    -2.54289E+06              0.    -7.84271E+06
           35949     2.42846E+06    -2.62689E+06              0.    -8.06405E+06
           35950     2.59483E+06    -2.71190E+06              0.    -8.29167E+06
           35951     2.76647E+06    -2.79785E+06              0.    -8.52573E+06
           35952     2.94348E+06    -2.88465E+06              0.    -8.76635E+06
           35953     3.12598E+06    -2.97222E+06              0.     -9.0137E+06
           35954     3.31408E+06    -3.06045E+06              0.    -9.26792E+06
           35955     3.50790E+06    -3.14925E+06              0.    -9.52914E+06
           35956     3.70754E+06    -3.23850E+06              0.    -9.79752E+06
           35957     3.91311E+06    -3.32808E+06              0.    -10.0732E+06
           35958     4.12473E+06    -3.41786E+06              0.    -10.3563E+06
           35959     4.34251E+06    -3.50769E+06              0.    -10.6470E+06
           35960     4.56656E+06    -3.59743E+06              0.    -10.9454E+06
           35961     4.79698E+06    -3.68691E+06              0.    -11.2517E+06
           35962     5.03390E+06    -3.77596E+06              0.    -11.5659E+06
           35963     5.27740E+06    -3.86440E+06              0.    -11.8882E+06
           35964     5.52761E+06    -3.95203E+06              0.    -12.2187E+06
           35965     5.78464E+06    -4.03865E+06              0.    -12.5575E+06
           35966     6.04857E+06    -4.12403E+06              0.    -12.9047E+06
           35967     6.31953E+06    -4.20794E+06              0.    -13.2604E+06
           35968     6.59760E+06    -4.29013E+06              0.    -13.6247E+06
           35969     6.88291E+06    -4.37035E+06              0.    -13.9976E+06
           35970     7.17554E+06    -4.44831E+06              0.    -14.3792E+06
           35971     7.47560E+06    -4.52374E+06              0.    -14.7695E+06
           35972     7.78319E+06    -4.59632E+06              0.    -15.1686E+06
           35973      8.0984E+06    -4.66573E+06              0.    -15.5763E+06
           35974     8.42134E+06    -4.73164E+06              0.    -15.9927E+06
           35975     8.75209E+06    -4.79369E+06              0.    -16.4178E+06
           35976     9.09076E+06    -4.85151E+06              0.    -16.8513E+06
           35977     9.43745E+06    -4.90471E+06              0.    -17.2933E+06
           35978     9.79223E+06    -4.95288E+06              0.    -17.7435E+06
           35979     10.1552E+06    -4.99560E+06              0.    -18.2018E+06
           35980     10.5265E+06    -5.03240E+06              0.    -18.6678E+06
           35981     10.9061E+06    -5.06283E+06              0.    -19.1414E+06
           35982     11.2942E+06    -5.08637E+06              0.    -19.6221E+06
           35983     11.6908E+06    -5.10252E+06              0.    -20.1095E+06
           35984     12.0961E+06    -5.11073E+06              0.    -20.6031E+06
           35985     12.5100E+06    -5.11041E+06              0.    -21.1024E+06
           35986     12.9327E+06    -5.10095E+06              0.    -21.6068E+06
           35987     13.3643E+06    -5.08173E+06              0.    -22.1154E+06
           35988     13.8047E+06    -5.05205E+06              0.    -22.6275E+06
           35989     14.2540E+06    -5.01120E+06              0.    -23.1421E+06
           35990     14.7123E+06    -4.95841E+06              0.    -23.6582E+06
           35991     15.1795E+06    -4.89286E+06              0.    -24.1745E+06
           35992     15.6557E+06    -4.81368E+06              0.    -24.6898E+06
           35993     16.1408E+06    -4.71992E+06              0.    -25.2025E+06
           35994     16.6347E+06    -4.61058E+06              0.    -25.7110E+06
           35995     17.1373E+06    -4.48457E+06              0.    -26.2134E+06
           35996     17.6485E+06    -4.34070E+06              0.    -26.7077E+06
           35997     18.1681E+06    -4.17770E+06              0.    -27.1918E+06
           35998     18.6958E+06    -3.99415E+06              0.    -27.6630E+06
           35999     19.2312E+06    -3.78852E+06              0.    -28.1188E+06
           36000     19.7739E+06    -3.55914E+06              0.    -28.5561E+06
           36001     20.3234E+06    -3.30414E+06              0.    -28.9717E+06
           36002     20.8789E+06    -3.02149E+06              0.    -29.3621E+06
           36003     21.4398E+06    -2.70893E+06              0.    -29.7234E+06
           36004     22.0050E+06    -2.36396E+06              0.    -30.0515E+06
           36005     22.5734E+06    -1.98380E+06              0.    -30.3418E+06
           36006     23.1435E+06    -1.56538E+06              0.    -30.5895E+06
           36007     23.7140E+06    -1.10527E+06              0.    -30.7893E+06
           36008     24.2827E+06    -599.673E+03              0.    -30.9355E+06
           36009     24.8477E+06    -44.3307E+03              0.    -31.0222E+06
           36010     25.4064E+06     565.471E+03              0.    -31.0427E+06
           36011     25.9558E+06     1.23499E+06              0.    -30.9901E+06
           36012     26.4927E+06     1.97008E+06              0.    -30.8572E+06
           36013     27.0133E+06     2.77726E+06              0.    -30.6360E+06
           36014     27.5133E+06     3.66379E+06              0.    -30.3183E+06
           36015     27.9877E+06     4.63773E+06              0.    -29.8954E+06
           36016     28.4309E+06     5.70804E+06              0.    -29.3579E+06
           36017     28.8368E+06     6.88470E+06              0.    -28.6965E+06
           36018     29.1984E+06     8.17873E+06              0.    -27.9008E+06
           36019     29.5076E+06     9.60242E+06              0.    -26.9605E+06
           36020     29.7557E+06     11.1694E+06              0.    -25.8647E+06
           36021     29.9330E+06     12.8946E+06              0.    -24.6021E+06
           36022     30.5649E+06     14.8172E+06              0.    -24.5390E+06
           36023    -1.30609E+06    -587.289E+03              0.    -726.940E+03
           36024    -1.30301E+06    -558.478E+03              0.    -725.632E+03
           36025    -1.31239E+06    -535.656E+03              0.    -718.305E+03
           36026    -1.32169E+06    -513.160E+03              0.    -711.547E+03
           36027    -1.33091E+06    -490.992E+03              0.    -705.344E+03
           36028    -1.34005E+06    -469.156E+03              0.    -699.683E+03
           36029    -1.34911E+06    -447.651E+03              0.    -694.551E+03
           36030    -1.35808E+06    -426.479E+03              0.    -689.937E+03
           36031    -1.36697E+06    -405.641E+03              0.    -685.829E+03
           36032    -1.37577E+06    -385.138E+03              0.    -682.217E+03
           36033    -1.38449E+06    -364.971E+03              0.    -679.090E+03
           36034    -1.39312E+06    -345.140E+03              0.    -676.440E+03
           36035    -1.40166E+06    -325.645E+03              0.    -674.258E+03
           36036    -1.41011E+06    -306.487E+03              0.    -672.536E+03
           36037    -1.41848E+06    -287.666E+03              0.    -671.266E+03
           36038    -1.42676E+06    -269.183E+03              0.    -670.442E+03
           36039    -1.43494E+06    -251.036E+03              0.    -670.056E+03
           36040    -1.44304E+06    -233.227E+03              0.    -670.104E+03
           36041    -1.45105E+06    -215.755E+03              0.    -670.579E+03
           36042    -1.45896E+06    -198.620E+03              0.    -671.476E+03
           36043    -1.46678E+06    -181.822E+03              0.    -672.792E+03
           36044    -1.47451E+06    -165.361E+03              0.    -674.521E+03
           36045    -1.48214E+06    -149.237E+03              0.    -676.662E+03
           36046    -1.48968E+06    -133.450E+03              0.    -679.209E+03
           36047    -1.49712E+06    -118.001E+03              0.    -682.162E+03
           36048    -1.50446E+06    -102.888E+03              0.    -685.517E+03
           36049    -1.51171E+06    -88.1129E+03              0.    -689.273E+03
           36050    -1.51885E+06    -73.6754E+03              0.    -693.429E+03
           36051    -1.52589E+06    -59.5755E+03              0.    -697.983E+03
           36052    -1.53283E+06    -45.8141E+03              0.    -702.935E+03
           36053    -1.53966E+06    -32.3914E+03              0.    -708.285E+03
           36054    -1.54638E+06    -19.3079E+03              0.    -714.033E+03
           36055    -1.55299E+06    -6.56457E+03              0.    -720.180E+03
           36056    -1.55949E+06     5.83786E+03              0.    -726.728E+03
           36057    -1.56587E+06     17.8984E+03              0.    -733.677E+03
           36058    -1.57213E+06     29.6160E+03              0.    -741.029E+03
           36059    -1.57827E+06     40.9895E+03              0.    -748.787E+03
           36060    -1.58428E+06     52.0173E+03              0.    -756.953E+03
           36061    -1.59017E+06     62.6978E+03              0.    -765.532E+03
           36062    -1.59592E+06     73.0295E+03              0.    -774.525E+03
           36063    -1.60154E+06     83.0103E+03              0.    -783.938E+03
           36064    -1.60702E+06     92.6382E+03              0.    -793.775E+03
           36065    -1.61235E+06     101.911E+03              0.    -804.040E+03
           36066    -1.61753E+06     110.826E+03              0.    -814.738E+03
           36067    -1.62255E+06     119.380E+03              0.    -825.876E+03
           36068    -1.62742E+06     127.571E+03              0.    -837.460E+03
           36069    -1.63211E+06     135.396E+03              0.    -849.496E+03
           36070    -1.63664E+06     142.851E+03              0.    -861.991E+03
           36071    -1.64098E+06     149.933E+03              0.    -874.952E+03
           36072    -1.64514E+06     156.637E+03              0.    -888.389E+03
           36073    -1.64910E+06     162.960E+03              0.    -902.308E+03
           36074    -1.65287E+06     168.898E+03              0.    -916.719E+03
           36075    -1.65642E+06     174.446E+03              0.    -931.632E+03
           36076    -1.65976E+06     179.599E+03              0.    -947.056E+03
           36077    -1.66288E+06     184.352E+03              0.    -963.001E+03
           36078    -1.66575E+06     188.699E+03              0.    -979.480E+03
           36079    -1.66839E+06     192.636E+03              0.    -996.503E+03
           36080    -1.67077E+06     196.156E+03              0.    -1.01408E+06
           36081    -1.67289E+06     199.252E+03              0.    -1.03223E+06
           36082    -1.67473E+06     201.919E+03              0.    -1.05096E+06
           36083    -1.67628E+06     204.150E+03              0.    -1.07029E+06
           36084    -1.67754E+06     205.937E+03              0.    -1.09022E+06
           36085    -1.67849E+06     207.273E+03              0.    -1.11079E+06
           36086    -1.67911E+06     208.151E+03              0.    -1.13199E+06
           36087    -1.67939E+06     208.562E+03              0.    -1.15385E+06
           36088    -1.67933E+06     208.497E+03              0.    -1.17639E+06
           36089    -1.67890E+06     207.949E+03              0.    -1.19962E+06
           36090    -1.67809E+06     206.908E+03              0.    -1.22356E+06
           36091    -1.67688E+06     205.364E+03              0.    -1.24822E+06
           36092    -1.67526E+06     203.309E+03              0.    -1.27364E+06
           36093    -1.67321E+06     200.731E+03              0.    -1.29983E+06
           36094    -1.67071E+06     197.620E+03              0.    -1.32682E+06
           36095    -1.66774E+06     193.966E+03              0.    -1.35461E+06
           36096    -1.66430E+06     189.757E+03              0.    -1.38325E+06
           36097    -1.66034E+06     184.982E+03              0.    -1.41274E+06
           36098    -1.65586E+06     179.628E+03              0.    -1.44313E+06
           36099    -1.65084E+06     173.685E+03              0.    -1.47442E+06
           36100    -1.64524E+06     167.138E+03              0.    -1.50666E+06
           36101    -1.63906E+06     159.975E+03              0.    -1.53986E+06
           36102    -1.63226E+06     152.183E+03              0.    -1.57405E+06
           36103    -1.62482E+06     143.747E+03              0.    -1.60927E+06
           36104    -1.61671E+06     134.654E+03              0.    -1.64555E+06
           36105    -1.60792E+06     124.890E+03              0.    -1.68291E+06
           36106    -1.59840E+06     114.439E+03              0.    -1.72140E+06
           36107    -1.58814E+06     103.285E+03              0.    -1.76103E+06
           36108    -1.57711E+06     91.4147E+03              0.    -1.80186E+06
           36109    -1.56527E+06     78.8107E+03              0.    -1.84392E+06
           36110    -1.55259E+06     65.4570E+03              0.    -1.88723E+06
           36111    -1.53905E+06     51.3371E+03              0.    -1.93185E+06
           36112    -1.52460E+06     36.4340E+03              0.    -1.97781E+06
           36113    -1.50922E+06     20.7304E+03              0.    -2.02515E+06
           36114    -1.49287E+06     4.20870E+03              0.    -2.07392E+06
           36115    -1.47551E+06    -13.1490E+03              0.    -2.12416E+06
           36116    -1.45711E+06    -31.3608E+03              0.    -2.17591E+06
           36117    -1.43762E+06    -50.4451E+03              0.    -2.22922E+06
           36118    -1.41702E+06    -70.4208E+03              0.    -2.28415E+06
           36119    -1.39525E+06    -91.3067E+03              0.    -2.34074E+06
           36120    -1.37227E+06    -113.122E+03              0.    -2.39903E+06
           36121    -1.34805E+06    -135.886E+03              0.    -2.45909E+06
           36122    -1.32253E+06    -159.618E+03              0.    -2.52097E+06
           36123    -1.29568E+06    -184.338E+03              0.    -2.58473E+06
           36124    -1.26743E+06    -210.066E+03              0.    -2.65041E+06
           36125    -1.23776E+06    -236.822E+03              0.    -2.71809E+06
           36126    -1.20660E+06    -264.625E+03              0.    -2.78783E+06
           36127    -1.17390E+06    -293.495E+03              0.    -2.85968E+06
           36128    -1.13961E+06    -323.453E+03              0.    -2.93371E+06
           36129    -1.10368E+06    -354.517E+03              0.    -3.00999E+06
           36130    -1.06606E+06    -386.709E+03              0.    -3.08859E+06
           36131    -1.02668E+06    -420.047E+03              0.    -3.16958E+06
           36132    -985.486E+03    -454.550E+03              0.    -3.25302E+06
           36133    -942.421E+03    -490.238E+03              0.    -3.33901E+06
           36134    -897.423E+03    -527.129E+03              0.    -3.42760E+06
           36135    -850.429E+03    -565.242E+03              0.    -3.51889E+06
           36136    -801.375E+03    -604.594E+03              0.    -3.61295E+06
           36137    -750.196E+03    -645.202E+03              0.    -3.70986E+06
           36138    -696.824E+03    -687.083E+03              0.    -3.80971E+06
           36139    -641.192E+03    -730.252E+03              0.    -3.91259E+06
           36140    -583.230E+03    -774.726E+03              0.    -4.01859E+06
           36141    -522.865E+03    -820.516E+03              0.    -4.12780E+06
           36142    -460.026E+03    -867.638E+03              0.    -4.24031E+06
           36143    -394.639E+03    -916.102E+03              0.    -4.35621E+06
           36144    -326.627E+03    -965.919E+03              0.    -4.47562E+06
           36145    -255.914E+03    -1.01710E+06              0.    -4.59863E+06
           36146    -182.421E+03    -1.06965E+06              0.    -4.72533E+06
           36147    -106.069E+03    -1.12357E+06              0.    -4.85585E+06
           36148    -26.7770E+03    -1.17888E+06              0.    -4.99028E+06
           36149     55.5378E+03    -1.23557E+06              0.    -5.12874E+06
           36150     140.959E+03    -1.29364E+06              0.    -5.27134E+06
           36151     229.571E+03    -1.35309E+06              0.    -5.41819E+06
           36152     321.459E+03    -1.41392E+06              0.    -5.56942E+06
           36153     416.712E+03    -1.47612E+06              0.    -5.72513E+06
           36154     515.416E+03    -1.53968E+06              0.    -5.88546E+06
           36155     617.661E+03    -1.60458E+06              0.    -6.05053E+06
           36156     723.537E+03    -1.67081E+06              0.    -6.22046E+06
           36157     833.134E+03    -1.73836E+06              0.    -6.39538E+06
           36158     946.545E+03    -1.80719E+06              0.    -6.57542E+06
           36159     1.06386E+06    -1.87728E+06              0.    -6.76072E+06
           36160     1.18518E+06    -1.94859E+06              0.    -6.95141E+06
           36161     1.31058E+06    -2.02110E+06              0.    -7.14763E+06
           36162     1.44017E+06    -2.09477E+06              0.    -7.34951E+06
           36163     1.57405E+06    -2.16953E+06              0.    -7.55719E+06
           36164     1.71229E+06    -2.24535E+06              0.    -7.77082E+06
           36165     1.85501E+06    -2.32217E+06              0.    -7.99053E+06
           36166     2.00228E+06    -2.39993E+06              0.    -8.21647E+06
           36167     2.15422E+06    -2.47856E+06              0.    -8.44878E+06
           36168     2.31090E+06    -2.55798E+06              0.    -8.68761E+06
           36169     2.47243E+06    -2.63811E+06              0.    -8.93310E+06
           36170     2.63890E+06    -2.71886E+06              0.    -9.18540E+06
           36171     2.81040E+06    -2.80015E+06              0.    -9.44465E+06
           36172     2.98703E+06    -2.88185E+06              0.    -9.71099E+06
           36173     3.16887E+06    -2.96387E+06              0.    -9.98457E+06
           36174     3.35601E+06    -3.04608E+06              0.    -10.2655E+06
           36175     3.54855E+06    -3.12836E+06              0.    -10.5540E+06
           36176     3.74657E+06    -3.21056E+06              0.    -10.8501E+06
           36177     3.95016E+06    -3.29254E+06              0.    -11.1540E+06
           36178     4.15940E+06    -3.37415E+06              0.    -11.4659E+06
           36179     4.37438E+06    -3.45521E+06              0.    -11.7857E+06
           36180     4.59518E+06    -3.53554E+06              0.    -12.1138E+06
           36181     4.82188E+06    -3.61497E+06              0.    -12.4500E+06
           36182     5.05456E+06    -3.69329E+06              0.    -12.7947E+06
           36183     5.29330E+06    -3.77029E+06              0.    -13.1478E+06
           36184     5.53818E+06    -3.84575E+06              0.    -13.5095E+06
           36185     5.78926E+06    -3.91944E+06              0.    -13.8798E+06
           36186     6.04662E+06    -3.99111E+06              0.    -14.2588E+06
           36187     6.31033E+06    -4.06049E+06              0.    -14.6465E+06
           36188     6.58047E+06    -4.12734E+06              0.    -15.0430E+06
           36189     6.85709E+06    -4.19135E+06              0.    -15.4483E+06
           36190     7.14026E+06    -4.25223E+06              0.    -15.8623E+06
           36191     7.43005E+06    -4.30966E+06              0.    -16.2850E+06
           36192     7.72653E+06    -4.36334E+06              0.    -16.7165E+06
           36193     8.02975E+06    -4.41291E+06              0.    -17.1564E+06
           36194     8.33977E+06    -4.45802E+06              0.    -17.6049E+06
           36195     8.65665E+06    -4.49831E+06              0.    -18.0616E+06
           36196     8.98046E+06    -4.53338E+06              0.    -18.5264E+06
           36197     9.31125E+06    -4.56284E+06              0.    -18.9990E+06
           36198     9.64906E+06    -4.58627E+06              0.    -19.4792E+06
           36199     9.99397E+06    -4.60324E+06              0.    -19.9665E+06
           36200     10.3460E+06    -4.61329E+06              0.    -20.4606E+06
           36201     10.7053E+06    -4.61595E+06              0.    -20.9610E+06
           36202     11.0717E+06    -4.61071E+06              0.    -21.4672E+06
           36203     11.4455E+06    -4.59707E+06              0.    -21.9784E+06
           36204     11.8266E+06    -4.57448E+06              0.    -22.4939E+06
           36205     12.2150E+06    -4.54236E+06              0.    -23.0130E+06
           36206     12.6108E+06    -4.50011E+06              0.    -23.5346E+06
           36207     13.0140E+06    -4.44710E+06              0.    -24.0577E+06
           36208     13.4246E+06    -4.38264E+06              0.    -24.5812E+06
           36209     13.8426E+06    -4.30601E+06              0.    -25.1036E+06
           36210     14.2678E+06    -4.21645E+06              0.    -25.6235E+06
           36211     14.7004E+06    -4.11312E+06              0.    -26.1392E+06
           36212     15.1401E+06    -3.99512E+06              0.    -26.6488E+06
           36213     15.5868E+06    -3.86149E+06              0.    -27.1504E+06
           36214     16.0404E+06    -3.71117E+06              0.    -27.6417E+06
           36215     16.5006E+06    -3.54301E+06              0.    -28.1200E+06
           36216     16.9671E+06    -3.35573E+06              0.    -28.5829E+06
           36217     17.4395E+06    -3.14795E+06              0.    -29.0271E+06
           36218     17.9172E+06    -2.91810E+06              0.    -29.4494E+06
           36219     18.3998E+06    -2.66448E+06              0.    -29.8463E+06
           36220     18.8865E+06    -2.38518E+06              0.    -30.2138E+06
           36221     19.3763E+06    -2.07807E+06              0.    -30.5476E+06
           36222     19.8683E+06    -1.74076E+06              0.    -30.8431E+06
           36223     20.3611E+06    -1.37059E+06              0.    -31.0953E+06
           36224     20.8533E+06    -964.583E+03              0.    -31.2988E+06
           36225     21.3432E+06    -519.385E+03              0.    -31.4478E+06
           36226     21.8286E+06    -31.2340E+03              0.    -31.5360E+06
           36227     22.3072E+06     504.083E+03              0.    -31.5566E+06
           36228     22.7762E+06     1.09130E+06              0.    -31.5025E+06
           36229     23.2324E+06     1.73572E+06              0.    -31.3661E+06
           36230     23.6722E+06     2.44330E+06              0.    -31.1391E+06
           36231     24.0913E+06     3.22072E+06              0.    -30.8129E+06
           36232     24.4850E+06     4.07544E+06              0.    -30.3784E+06
           36233     24.8478E+06     5.01581E+06              0.    -29.8258E+06
           36234     25.1737E+06     6.05119E+06              0.    -29.1451E+06
           36235     25.4555E+06     7.19200E+06              0.    -28.3256E+06
           36236     25.6856E+06     8.44988E+06              0.    -27.3560E+06
           36237     25.8551E+06     9.83776E+06              0.    -26.2249E+06
           36238     25.9539E+06     11.3700E+06              0.    -24.9203E+06
           36239     26.4966E+06     13.0729E+06              0.    -24.8346E+06
           36240    -1.32453E+06    -595.614E+03              0.    -717.358E+03
           36241    -1.32136E+06    -566.065E+03              0.    -716.066E+03
           36242    -1.33099E+06    -542.665E+03              0.    -708.819E+03
           36243    -1.34052E+06    -519.607E+03              0.    -702.142E+03
           36244    -1.34998E+06    -496.891E+03              0.    -696.022E+03
           36245    -1.35935E+06    -474.518E+03              0.    -690.444E+03
           36246    -1.36864E+06    -452.490E+03              0.    -685.396E+03
           36247    -1.37785E+06    -430.806E+03              0.    -680.866E+03
           36248    -1.38696E+06    -409.467E+03              0.    -676.843E+03
           36249    -1.39600E+06    -388.473E+03              0.    -673.317E+03
           36250    -1.40495E+06    -367.825E+03              0.    -670.276E+03
           36251    -1.41381E+06    -347.521E+03              0.    -667.713E+03
           36252    -1.42258E+06    -327.563E+03              0.    -665.618E+03
           36253    -1.43127E+06    -307.949E+03              0.    -663.983E+03
           36254    -1.43988E+06    -288.679E+03              0.    -662.801E+03
           36255    -1.44839E+06    -269.753E+03              0.    -662.064E+03
           36256    -1.45682E+06    -251.170E+03              0.    -661.767E+03
           36257    -1.46516E+06    -232.930E+03              0.    -661.903E+03
           36258    -1.47342E+06    -215.033E+03              0.    -662.467E+03
           36259    -1.48159E+06    -197.477E+03              0.    -663.455E+03
           36260    -1.48966E+06    -180.263E+03              0.    -664.861E+03
           36261    -1.49765E+06    -163.389E+03              0.    -666.682E+03
           36262    -1.50555E+06    -146.856E+03              0.    -668.914E+03
           36263    -1.51336E+06    -130.662E+03              0.    -671.555E+03
           36264    -1.52108E+06    -114.808E+03              0.    -674.602E+03
           36265    -1.52871E+06    -99.2929E+03              0.    -678.052E+03
           36266    -1.53625E+06    -84.1167E+03              0.    -681.904E+03
           36267    -1.54369E+06    -69.2793E+03              0.    -686.158E+03
           36268    -1.55103E+06    -54.7801E+03              0.    -690.811E+03
           36269    -1.55828E+06    -40.6196E+03              0.    -695.864E+03
           36270    -1.56543E+06    -26.7977E+03              0.    -701.317E+03
           36271    -1.57248E+06    -13.3143E+03              0.    -707.170E+03
           36272    -1.57943E+06        -170.165              0.    -713.424E+03
           36273    -1.58628E+06     12.6346E+03              0.    -720.080E+03
           36274    -1.59302E+06     25.0993E+03              0.    -727.141E+03
           36275    -1.59965E+06     37.2232E+03              0.    -734.608E+03
           36276    -1.60617E+06     49.0057E+03              0.    -742.483E+03
           36277    -1.61257E+06     60.4456E+03              0.    -750.771E+03
           36278    -1.61886E+06     71.5417E+03              0.    -759.473E+03
           36279    -1.62503E+06     82.2929E+03              0.    -768.595E+03
           36280    -1.63107E+06     92.6975E+03              0.    -778.139E+03
           36281    -1.63698E+06     102.754E+03              0.    -788.111E+03
           36282    -1.64277E+06     112.460E+03              0.    -798.517E+03
           36283    -1.64841E+06     121.815E+03              0.    -809.360E+03
           36284    -1.65392E+06     130.815E+03              0.    -820.648E+03
           36285    -1.65928E+06     139.458E+03              0.    -832.387E+03
           36286    -1.66449E+06     147.742E+03              0.    -844.584E+03
           36287    -1.66954E+06     155.663E+03              0.    -857.245E+03
           36288    -1.67444E+06     163.219E+03              0.    -870.380E+03
           36289    -1.67916E+06     170.406E+03              0.    -883.995E+03
           36290    -1.68371E+06     177.221E+03              0.    -898.101E+03
           36291    -1.68807E+06     183.660E+03              0.    -912.706E+03
           36292    -1.69225E+06     189.718E+03              0.    -927.819E+03
           36293    -1.69623E+06     195.393E+03              0.    -943.453E+03
           36294    -1.70001E+06     200.678E+03              0.    -959.616E+03
           36295    -1.70357E+06     205.569E+03              0.    -976.321E+03
           36296    -1.70692E+06     210.061E+03              0.    -993.580E+03
           36297    -1.71003E+06     214.149E+03              0.    -1.01140E+06
           36298    -1.71291E+06     217.828E+03              0.    -1.02981E+06
           36299    -1.71553E+06     221.090E+03              0.    -1.04880E+06
           36300    -1.71790E+06     223.931E+03              0.    -1.06841E+06
           36301    -1.71999E+06     226.343E+03              0.    -1.08863E+06
           36302    -1.72180E+06     228.319E+03              0.    -1.10950E+06
           36303    -1.72332E+06     229.854E+03              0.    -1.13101E+06
           36304    -1.72453E+06     230.938E+03              0.    -1.15320E+06
           36305    -1.72542E+06     231.565E+03              0.    -1.17608E+06
           36306    -1.72598E+06     231.727E+03              0.    -1.19966E+06
           36307    -1.72619E+06     231.415E+03              0.    -1.22397E+06
           36308    -1.72604E+06     230.620E+03              0.    -1.24902E+06
           36309    -1.72552E+06     229.334E+03              0.    -1.27484E+06
           36310    -1.72460E+06     227.547E+03              0.    -1.30145E+06
           36311    -1.72328E+06     225.250E+03              0.    -1.32886E+06
           36312    -1.72153E+06     222.432E+03              0.    -1.35711E+06
           36313    -1.71933E+06     219.084E+03              0.    -1.38621E+06
           36314    -1.71668E+06     215.194E+03              0.    -1.41620E+06
           36315    -1.71354E+06     210.751E+03              0.    -1.44709E+06
           36316    -1.70991E+06     205.746E+03              0.    -1.47892E+06
           36317    -1.70576E+06     200.164E+03              0.    -1.51170E+06
           36318    -1.70106E+06     193.995E+03              0.    -1.54547E+06
           36319    -1.69580E+06     187.226E+03              0.    -1.58026E+06
           36320    -1.68996E+06     179.845E+03              0.    -1.61610E+06
           36321    -1.68350E+06     171.838E+03              0.    -1.65302E+06
           36322    -1.67642E+06     163.192E+03              0.    -1.69106E+06
           36323    -1.66867E+06     153.893E+03              0.    -1.73024E+06
           36324    -1.66025E+06     143.928E+03              0.    -1.77060E+06
           36325    -1.65111E+06     133.281E+03              0.    -1.81218E+06
           36326    -1.64123E+06     121.938E+03              0.    -1.85501E+06
           36327    -1.63058E+06     109.885E+03              0.    -1.89913E+06
           36328    -1.61914E+06     97.1045E+03              0.    -1.94459E+06
           36329    -1.60687E+06     83.5824E+03              0.    -1.99142E+06
           36330    -1.59374E+06     69.3024E+03              0.    -2.03967E+06
           36331    -1.57972E+06     54.2482E+03              0.    -2.08937E+06
           36332    -1.56478E+06     38.4034E+03              0.    -2.14059E+06
           36333    -1.54888E+06     21.7512E+03              0.    -2.19335E+06
           36334    -1.53198E+06     4.27464E+03              0.    -2.24771E+06
           36335    -1.51405E+06    -14.0435E+03              0.    -2.30371E+06
           36336    -1.49505E+06    -33.2206E+03              0.    -2.36142E+06
           36337    -1.47495E+06    -53.2744E+03              0.    -2.42088E+06
           36338    -1.45370E+06    -74.2224E+03              0.    -2.48215E+06
           36339    -1.43126E+06    -96.0827E+03              0.    -2.54527E+06
           36340    -1.40759E+06    -118.873E+03              0.    -2.61031E+06
           36341    -1.38265E+06    -142.612E+03              0.    -2.67734E+06
           36342    -1.35638E+06    -167.317E+03              0.    -2.74640E+06
           36343    -1.32876E+06    -193.007E+03              0.    -2.81756E+06
           36344    -1.29972E+06    -219.699E+03              0.    -2.89088E+06
           36345    -1.26923E+06    -247.412E+03              0.    -2.96644E+06
           36346    -1.23722E+06    -276.164E+03              0.    -3.04430E+06
           36347    -1.20366E+06    -305.971E+03              0.    -3.12453E+06
           36348    -1.16849E+06    -336.853E+03              0.    -3.20719E+06
           36349    -1.13165E+06    -368.826E+03              0.    -3.29238E+06
           36350    -1.09310E+06    -401.907E+03              0.    -3.38015E+06
           36351    -1.05277E+06    -436.113E+03              0.    -3.47060E+06
           36352    -1.01061E+06    -471.460E+03              0.    -3.56379E+06
           36353    -966.559E+03    -507.964E+03              0.    -3.65981E+06
           36354    -920.562E+03    -545.639E+03              0.    -3.75875E+06
           36355    -872.556E+03    -584.500E+03              0.    -3.86069E+06
           36356    -822.479E+03    -624.561E+03              0.    -3.96572E+06
           36357    -770.268E+03    -665.833E+03              0.    -4.07393E+06
           36358    -715.858E+03    -708.330E+03              0.    -4.18542E+06
           36359    -659.184E+03    -752.062E+03              0.    -4.30028E+06
           36360     -600.18E+03    -797.039E+03              0.    -4.41860E+06
           36361    -538.777E+03    -843.268E+03              0.    -4.54049E+06
           36362    -474.906E+03    -890.757E+03              0.    -4.66604E+06
           36363    -408.497E+03    -939.511E+03              0.    -4.79537E+06
           36364    -339.479E+03    -989.534E+03              0.    -4.92858E+06
           36365    -267.779E+03    -1.04083E+06              0.    -5.06578E+06
           36366    -193.326E+03    -1.09339E+06              0.    -5.20707E+06
           36367    -116.043E+03    -1.14723E+06              0.    -5.35258E+06
           36368    -35.8571E+03    -1.20233E+06              0.    -5.50242E+06
           36369     47.3083E+03    -1.25868E+06              0.    -5.65671E+06
           36370     133.530E+03    -1.31629E+06              0.    -5.81556E+06
           36371     222.884E+03    -1.37513E+06              0.    -5.97910E+06
           36372     315.449E+03    -1.43519E+06              0.    -6.14745E+06
           36373     411.304E+03    -1.49646E+06              0.    -6.32075E+06
           36374     510.527E+03    -1.55890E+06              0.    -6.49911E+06
           36375     613.197E+03    -1.62251E+06              0.    -6.68267E+06
           36376     719.394E+03    -1.68724E+06              0.    -6.87157E+06
           36377     829.197E+03    -1.75306E+06              0.    -7.06593E+06
           36378     942.686E+03    -1.81994E+06              0.    -7.26589E+06
           36379     1.05994E+06    -1.88784E+06              0.    -7.47159E+06
           36380     1.18104E+06    -1.95670E+06              0.    -7.68317E+06
           36381     1.30606E+06    -2.02648E+06              0.    -7.90077E+06
           36382     1.43509E+06    -2.09712E+06              0.    -8.12452E+06
           36383     1.56819E+06    -2.16855E+06              0.    -8.35458E+06
           36384     1.70546E+06    -2.24071E+06              0.    -8.59108E+06
           36385     1.84695E+06    -2.31352E+06              0.    -8.83417E+06
           36386     1.99276E+06    -2.38691E+06              0.    -9.08398E+06
           36387     2.14295E+06    -2.46077E+06              0.    -9.34067E+06
           36388     2.29760E+06    -2.53503E+06              0.    -9.60438E+06
           36389     2.45679E+06    -2.60957E+06              0.    -9.87524E+06
           36390     2.62057E+06    -2.68428E+06              0.    -10.1534E+06
           36391     2.78901E+06    -2.75906E+06              0.    -10.4390E+06
           36392     2.96220E+06    -2.83376E+06              0.    -10.7322E+06
           36393     3.14018E+06    -2.90827E+06              0.    -11.0330E+06
           36394     3.32303E+06    -2.98243E+06              0.    -11.3418E+06
           36395     3.51081E+06    -3.05609E+06              0.    -11.6584E+06
           36396     3.70357E+06    -3.12909E+06              0.    -11.9832E+06
           36397     3.90136E+06    -3.20127E+06              0.    -12.3161E+06
           36398     4.10425E+06    -3.27244E+06              0.    -12.6574E+06
           36399     4.31229E+06    -3.34241E+06              0.    -13.0071E+06
           36400     4.52552E+06    -3.41098E+06              0.    -13.3652E+06
           36401     4.74400E+06    -3.47794E+06              0.    -13.7320E+06
           36402     4.96776E+06    -3.54307E+06              0.    -14.1074E+06
           36403     5.19684E+06    -3.60614E+06              0.    -14.4915E+06
           36404     5.43129E+06    -3.66691E+06              0.    -14.8844E+06
           36405     5.67115E+06    -3.72513E+06              0.    -15.2861E+06
           36406     5.91645E+06    -3.78052E+06              0.    -15.6965E+06
           36407     6.16721E+06    -3.83283E+06              0.    -16.1157E+06
           36408     6.42348E+06    -3.88176E+06              0.    -16.5437E+06
           36409     6.68528E+06    -3.92701E+06              0.    -16.9803E+06
           36410     6.95264E+06    -3.96829E+06              0.    -17.4255E+06
           36411     7.22558E+06    -4.00527E+06              0.    -17.8792E+06
           36412     7.50413E+06    -4.03762E+06              0.    -18.3412E+06
           36413     7.78832E+06    -4.06501E+06              0.    -18.8113E+06
           36414     8.07816E+06    -4.08707E+06              0.    -19.2892E+06
           36415     8.37368E+06    -4.10346E+06              0.    -19.7746E+06
           36416     8.67490E+06    -4.11379E+06              0.    -20.2673E+06
           36417     8.98183E+06    -4.11767E+06              0.    -20.7668E+06
           36418     9.29450E+06    -4.11471E+06              0.    -21.2725E+06
           36419     9.61293E+06    -4.10448E+06              0.    -21.7840E+06
           36420     9.93713E+06    -4.08657E+06              0.    -22.3006E+06
           36421     10.2671E+06    -4.06051E+06              0.    -22.8216E+06
           36422     10.6029E+06    -4.02585E+06              0.    -23.3461E+06
           36423     10.9445E+06    -3.98210E+06              0.    -23.8732E+06
           36424     11.2918E+06    -3.92875E+06              0.    -24.4019E+06
           36425     11.6450E+06    -3.86526E+06              0.    -24.9309E+06
           36426     12.0039E+06    -3.79107E+06              0.    -25.4590E+06
           36427     12.3685E+06    -3.70557E+06              0.    -25.9845E+06
           36428     12.7388E+06    -3.60811E+06              0.    -26.5059E+06
           36429     13.1146E+06    -3.49799E+06              0.    -27.0213E+06
           36430     13.4959E+06    -3.37446E+06              0.    -27.5287E+06
           36431     13.8824E+06    -3.23671E+06              0.    -28.0257E+06
           36432     14.2740E+06    -3.08381E+06              0.    -28.5098E+06
           36433     14.6704E+06    -2.91478E+06              0.    -28.9784E+06
           36434     15.0712E+06    -2.72851E+06              0.    -29.4282E+06
           36435     15.4761E+06    -2.52377E+06              0.    -29.8561E+06
           36436     15.8844E+06    -2.29918E+06              0.    -30.2584E+06
           36437     16.2956E+06    -2.05318E+06              0.    -30.6310E+06
           36438     16.7088E+06    -1.78403E+06              0.    -30.9696E+06
           36439     17.1230E+06    -1.48976E+06              0.    -31.2695E+06
           36440     17.5371E+06    -1.16814E+06              0.    -31.5256E+06
           36441     17.9498E+06    -816.629E+03              0.    -31.7322E+06
           36442     18.3593E+06    -432.370E+03              0.    -31.8836E+06
           36443     18.7638E+06    -12.1074E+03              0.    -31.9730E+06
           36444     19.1610E+06     447.843E+03              0.    -31.9938E+06
           36445     19.5483E+06     951.655E+03              0.    -31.9383E+06
           36446     19.9226E+06     1.50407E+06              0.    -31.7986E+06
           36447     20.2805E+06     2.11042E+06              0.    -31.5664E+06
           36448     20.6178E+06     2.77678E+06              0.    -31.2325E+06
           36449     20.9300E+06     3.50997E+06              0.    -30.7873E+06
           36450     21.2117E+06     4.31768E+06              0.    -30.2208E+06
           36451     21.4570E+06     5.20861E+06              0.    -29.5222E+06
           36452     21.6590E+06     6.19249E+06              0.    -28.6803E+06
           36453     21.8101E+06     7.28028E+06              0.    -27.6834E+06
           36454     21.9015E+06     8.48429E+06              0.    -26.5190E+06
           36455     21.9239E+06     9.81831E+06              0.    -25.1744E+06
           36456     22.3763E+06     11.2950E+06              0.    -25.0656E+06
           36457    -1.34279E+06    -603.858E+03              0.    -707.534E+03
           36458    -1.33954E+06    -573.570E+03              0.    -706.259E+03
           36459    -1.34941E+06    -549.592E+03              0.    -699.095E+03
           36460    -1.35918E+06    -525.971E+03              0.    -692.502E+03
           36461    -1.36887E+06    -502.705E+03              0.    -686.466E+03
           36462    -1.37848E+06    -479.797E+03              0.    -680.973E+03
           36463    -1.38800E+06    -457.244E+03              0.    -676.010E+03
           36464    -1.39744E+06    -435.048E+03              0.    -671.565E+03
           36465    -1.40679E+06    -413.208E+03              0.    -667.628E+03
           36466    -1.41605E+06    -391.723E+03              0.    -664.186E+03
           36467    -1.42523E+06    -370.593E+03              0.    -661.231E+03
           36468    -1.43433E+06    -349.817E+03              0.    -658.753E+03
           36469    -1.44334E+06    -329.394E+03              0.    -656.743E+03
           36470    -1.45226E+06    -309.324E+03              0.    -655.193E+03
           36471    -1.46110E+06    -289.605E+03              0.    -654.096E+03
           36472    -1.46986E+06    -270.236E+03              0.    -653.445E+03
           36473    -1.47853E+06    -251.217E+03              0.    -653.234E+03
           36474    -1.48712E+06    -232.547E+03              0.    -653.455E+03
           36475    -1.49562E+06    -214.223E+03              0.    -654.105E+03
           36476    -1.50405E+06    -196.246E+03              0.    -655.178E+03
           36477    -1.51238E+06    -178.615E+03              0.    -656.670E+03
           36478    -1.52064E+06    -161.328E+03              0.    -658.578E+03
           36479    -1.52881E+06    -144.384E+03              0.    -660.897E+03
           36480    -1.53689E+06    -127.783E+03              0.    -663.625E+03
           36481    -1.54489E+06    -111.524E+03              0.    -666.759E+03
           36482    -1.55280E+06    -95.6055E+03              0.    -670.298E+03
           36483    -1.56063E+06    -80.0272E+03              0.    -674.240E+03
           36484    -1.56837E+06    -64.7886E+03              0.    -678.584E+03
           36485    -1.57603E+06    -49.8888E+03              0.    -683.329E+03
           36486    -1.58359E+06    -35.3277E+03              0.    -688.475E+03
           36487    -1.59107E+06    -21.1048E+03              0.    -694.022E+03
           36488    -1.59845E+06    -7.21975E+03              0.    -699.971E+03
           36489    -1.60574E+06     6.32733E+03              0.    -706.322E+03
           36490    -1.61294E+06     19.5366E+03              0.    -713.078E+03
           36491    -1.62004E+06     32.4078E+03              0.    -720.241E+03
           36492    -1.62704E+06     44.9408E+03              0.    -727.811E+03
           36493    -1.63395E+06     57.1351E+03              0.    -735.793E+03
           36494    -1.64075E+06     68.9902E+03              0.    -744.190E+03
           36495    -1.64744E+06     80.5052E+03              0.    -753.004E+03
           36496    -1.65403E+06     91.6794E+03              0.    -762.241E+03
           36497    -1.66050E+06     102.512E+03              0.    -771.904E+03
           36498    -1.66686E+06     113.001E+03              0.    -781.999E+03
           36499    -1.67311E+06     123.145E+03              0.     -792.53E+03
           36500    -1.67923E+06     132.943E+03              0.    -803.504E+03
           36501    -1.68522E+06     142.394E+03              0.    -814.927E+03
           36502    -1.69109E+06     151.494E+03              0.    -826.805E+03
           36503    -1.69682E+06     160.242E+03              0.    -839.146E+03
           36504    -1.70241E+06     168.636E+03              0.    -851.957E+03
           36505    -1.70786E+06     176.672E+03              0.    -865.246E+03
           36506    -1.71315E+06     184.348E+03              0.    -879.023E+03
           36507    -1.71829E+06     191.662E+03              0.    -893.296E+03
           36508    -1.72327E+06     198.609E+03              0.    -908.075E+03
           36509    -1.72808E+06     205.185E+03              0.    -923.369E+03
           36510    -1.73272E+06     211.389E+03              0.    -939.191E+03
           36511    -1.73717E+06     217.214E+03              0.    -955.549E+03
           36512    -1.74143E+06     222.658E+03              0.    -972.458E+03
           36513    -1.74550E+06     227.715E+03              0.    -989.929E+03
           36514    -1.74936E+06     232.381E+03              0.    -1.00797E+06
           36515    -1.75301E+06     236.651E+03              0.    -1.02661E+06
           36516    -1.75643E+06     240.519E+03              0.    -1.04584E+06
           36517    -1.75962E+06     243.980E+03              0.    -1.06570E+06
           36518    -1.76256E+06     247.028E+03              0.    -1.08618E+06
           36519    -1.76526E+06     249.657E+03              0.    -1.10732E+06
           36520    -1.76769E+06     251.860E+03              0.    -1.12912E+06
           36521    -1.76984E+06     253.631E+03              0.    -1.15160E+06
           36522    -1.77171E+06     254.963E+03              0.    -1.17478E+06
           36523    -1.77328E+06     255.849E+03              0.    -1.19868E+06
           36524    -1.77453E+06     256.280E+03              0.    -1.22333E+06
           36525    -1.77547E+06     256.249E+03              0.    -1.24873E+06
           36526    -1.77606E+06     255.748E+03              0.    -1.27491E+06
           36527    -1.77630E+06     254.769E+03              0.    -1.30189E+06
           36528    -1.77617E+06     253.301E+03              0.    -1.32970E+06
           36529    -1.77566E+06     251.338E+03              0.    -1.35836E+06
           36530    -1.77474E+06     248.868E+03              0.    -1.38789E+06
           36531    -1.77341E+06     245.882E+03              0.    -1.41832E+06
           36532    -1.77165E+06     242.370E+03              0.    -1.44967E+06
           36533    -1.76944E+06     238.322E+03              0.    -1.48198E+06
           36534    -1.76675E+06     233.726E+03              0.    -1.51526E+06
           36535    -1.76358E+06     228.573E+03              0.    -1.54956E+06
           36536    -1.75989E+06      222.85E+03              0.    -1.58489E+06
           36537    -1.75568E+06     216.546E+03              0.    -1.62129E+06
           36538    -1.75091E+06     209.649E+03              0.    -1.65880E+06
           36539    -1.74557E+06     202.146E+03              0.    -1.69744E+06
           36540    -1.73963E+06     194.026E+03              0.    -1.73726E+06
           36541    -1.73307E+06     185.274E+03              0.    -1.77828E+06
           36542    -1.72587E+06     175.878E+03              0.    -1.82054E+06
           36543    -1.71799E+06     165.825E+03              0.    -1.86408E+06
           36544    -1.70942E+06     155.100E+03              0.    -1.90894E+06
           36545    -1.70012E+06     143.690E+03              0.    -1.95517E+06
           36546    -1.69008E+06     131.580E+03              0.    -2.00279E+06
           36547    -1.67925E+06     118.755E+03              0.    -2.05186E+06
           36548    -1.66761E+06     105.201E+03              0.    -2.10243E+06
           36549    -1.65513E+06     90.9032E+03              0.    -2.15453E+06
           36550    -1.64178E+06     75.8454E+03              0.    -2.20821E+06
           36551    -1.62753E+06     60.0125E+03              0.    -2.26352E+06
           36552    -1.61233E+06     43.3887E+03              0.    -2.32052E+06
           36553    -1.59617E+06     25.9582E+03              0.    -2.37925E+06
           36554    -1.57899E+06     7.70500E+03              0.    -2.43977E+06
           36555    -1.56078E+06    -11.3870E+03              0.    -2.50214E+06
           36556    -1.54148E+06    -31.3342E+03              0.    -2.56640E+06
           36557    -1.52106E+06    -52.1526E+03              0.    -2.63262E+06
           36558    -1.49949E+06    -73.8589E+03              0.    -2.70086E+06
           36559    -1.47671E+06    -96.4692E+03              0.    -2.77118E+06
           36560    -1.45270E+06    -120.000E+03              0.    -2.84365E+06
           36561    -1.42740E+06    -144.467E+03              0.    -2.91832E+06
           36562    -1.40077E+06    -169.888E+03              0.    -2.99527E+06
           36563    -1.37277E+06    -196.277E+03              0.    -3.07456E+06
           36564    -1.34335E+06    -223.651E+03              0.    -3.15628E+06
           36565    -1.31247E+06    -252.025E+03              0.    -3.24048E+06
           36566    -1.28008E+06    -281.416E+03              0.    -3.32724E+06
           36567    -1.24612E+06    -311.836E+03              0.    -3.41665E+06
           36568    -1.21056E+06    -343.303E+03              0.    -3.50878E+06
           36569    -1.17333E+06    -375.828E+03              0.    -3.60371E+06
           36570    -1.13438E+06    -409.426E+03              0.    -3.70152E+06
           36571    -1.09367E+06    -444.110E+03              0.    -3.80231E+06
           36572    -1.05113E+06    -479.892E+03              0.    -3.90615E+06
           36573    -1.00672E+06    -516.783E+03              0.    -4.01313E+06
           36574    -960.368E+03    -554.794E+03              0.    -4.12336E+06
           36575    -912.026E+03    -593.935E+03              0.    -4.23692E+06
           36576    -861.634E+03    -634.214E+03              0.    -4.35390E+06
           36577    -809.132E+03    -675.638E+03              0.    -4.47441E+06
           36578    -754.460E+03    -718.214E+03              0.    -4.59855E+06
           36579    -697.557E+03    -761.946E+03              0.    -4.72642E+06
           36580    -638.361E+03    -806.838E+03              0.    -4.85812E+06
           36581    -576.809E+03    -852.890E+03              0.    -4.99377E+06
           36582    -512.838E+03    -900.104E+03              0.    -5.13347E+06
           36583    -446.384E+03    -948.476E+03              0.    -5.27733E+06
           36584    -377.382E+03    -998.003E+03              0.    -5.42546E+06
           36585    -305.768E+03    -1.04868E+06              0.    -5.57799E+06
           36586    -231.474E+03    -1.10049E+06              0.    -5.73503E+06
           36587    -154.436E+03    -1.15343E+06              0.    -5.89671E+06
           36588    -74.5872E+03    -1.20749E+06              0.    -6.06313E+06
           36589     8.13951E+03    -1.26264E+06              0.    -6.23444E+06
           36590     93.8108E+03    -1.31887E+06              0.    -6.41075E+06
           36591     182.493E+03    -1.37615E+06              0.    -6.59219E+06
           36592     274.254E+03    -1.43445E+06              0.    -6.77890E+06
           36593     369.159E+03    -1.49375E+06              0.      -6.971E+06
           36594     467.275E+03    -1.55401E+06              0.    -7.16863E+06
           36595     568.668E+03    -1.61520E+06              0.    -7.37193E+06
           36596     673.402E+03    -1.67726E+06              0.    -7.58102E+06
           36597     781.543E+03    -1.74015E+06              0.    -7.79605E+06
           36598     893.155E+03    -1.80382E+06              0.    -8.01716E+06
           36599     1.00830E+06    -1.86820E+06              0.    -8.24449E+06
           36600     1.12704E+06    -1.93325E+06              0.    -8.47817E+06
           36601     1.24943E+06    -1.99888E+06              0.    -8.71835E+06
           36602     1.37554E+06    -2.06502E+06              0.    -8.96517E+06
           36603     1.50542E+06    -2.13160E+06              0.    -9.21877E+06
           36604     1.63913E+06    -2.19852E+06              0.    -9.47929E+06
           36605     1.77672E+06    -2.26569E+06              0.    -9.74687E+06
           36606     1.91825E+06    -2.33301E+06              0.    -10.0216E+06
           36607     2.06375E+06    -2.40037E+06              0.    -10.3038E+06
           36608     2.21329E+06    -2.46765E+06              0.    -10.5934E+06
           36609     2.36690E+06    -2.53474E+06              0.    -10.8906E+06
           36610     2.52463E+06    -2.60150E+06              0.    -11.1955E+06
           36611     2.68651E+06    -2.66780E+06              0.    -11.5083E+06
           36612     2.85259E+06    -2.73348E+06              0.    -11.8291E+06
           36613     3.02289E+06    -2.79840E+06              0.    -12.1580E+06
           36614     3.19745E+06    -2.86238E+06              0.    -12.4951E+06
           36615     3.37630E+06    -2.92526E+06              0.    -12.8405E+06
           36616     3.55945E+06    -2.98685E+06              0.    -13.1943E+06
           36617     3.74693E+06    -3.04697E+06              0.    -13.5567E+06
           36618     3.93875E+06    -3.10541E+06              0.    -13.9276E+06
           36619     4.13493E+06    -3.16196E+06              0.    -14.3072E+06
           36620     4.33549E+06    -3.21642E+06              0.    -14.6955E+06
           36621     4.54042E+06    -3.26856E+06              0.    -15.0925E+06
           36622     4.74973E+06    -3.31813E+06              0.    -15.4983E+06
           36623     4.96343E+06    -3.36491E+06              0.    -15.9129E+06
           36624     5.18150E+06    -3.40863E+06              0.    -16.3362E+06
           36625     5.40396E+06    -3.44903E+06              0.    -16.7683E+06
           36626     5.63079E+06    -3.48586E+06              0.    -17.2090E+06
           36627     5.86199E+06    -3.51883E+06              0.    -17.6583E+06
           36628     6.09754E+06    -3.54767E+06              0.     -18.116E+06
           36629     6.33743E+06    -3.57207E+06              0.    -18.5820E+06
           36630     6.58166E+06    -3.59176E+06              0.    -19.0560E+06
           36631     6.83021E+06    -3.60641E+06              0.    -19.5379E+06
           36632     7.08306E+06    -3.61572E+06              0.    -20.0273E+06
           36633     7.34020E+06    -3.61938E+06              0.    -20.5239E+06
           36634     7.60162E+06    -3.61706E+06              0.    -21.0273E+06
           36635     7.86730E+06    -3.60843E+06              0.    -21.5369E+06
           36636     8.13723E+06    -3.59317E+06              0.    -22.0523E+06
           36637     8.41140E+06    -3.57091E+06              0.    -22.5728E+06
           36638     8.68979E+06    -3.54132E+06              0.    -23.0977E+06
           36639     8.97239E+06    -3.50403E+06              0.    -23.6262E+06
           36640     9.25917E+06    -3.45868E+06              0.    -24.1572E+06
           36641     9.55012E+06    -3.40489E+06              0.    -24.6899E+06
           36642     9.84520E+06    -3.34225E+06              0.    -25.2229E+06
           36643     10.1444E+06    -3.27035E+06              0.    -25.7550E+06
           36644     10.4476E+06    -3.18877E+06              0.    -26.2847E+06
           36645     10.7549E+06    -3.09702E+06              0.    -26.8102E+06
           36646     11.0660E+06    -2.99462E+06              0.    -27.3298E+06
           36647     11.3810E+06    -2.88103E+06              0.    -27.8414E+06
           36648     11.6996E+06    -2.75565E+06              0.    -28.3427E+06
           36649     12.0217E+06    -2.61785E+06              0.    -28.8311E+06
           36650     12.3471E+06    -2.46690E+06              0.    -29.3040E+06
           36651     12.6754E+06    -2.30199E+06              0.    -29.7582E+06
           36652     13.0063E+06    -2.12222E+06              0.    -30.1904E+06
           36653     13.3393E+06    -1.92654E+06              0.    -30.5968E+06
           36654     13.6738E+06    -1.71378E+06              0.    -30.9734E+06
           36655     14.0092E+06    -1.48258E+06              0.    -31.3159E+06
           36656     14.3445E+06    -1.23139E+06              0.    -31.6193E+06
           36657     14.6787E+06    -958.432E+03              0.    -31.8785E+06
           36658     15.0106E+06    -661.646E+03              0.    -32.0878E+06
           36659     15.3387E+06    -338.672E+03              0.    -32.2410E+06
           36660     15.6611E+06     13.2141E+03              0.    -32.3316E+06
           36661     15.9757E+06     397.139E+03              0.    -32.3523E+06
           36662     16.2802E+06     816.693E+03              0.    -32.2956E+06
           36663     16.5717E+06     1.27600E+06              0.    -32.1531E+06
           36664     16.8467E+06     1.77977E+06              0.    -31.9161E+06
           36665     17.1014E+06     2.33341E+06              0.    -31.5752E+06
           36666     17.3315E+06     2.94305E+06              0.    -31.1205E+06
           36667     17.5316E+06     3.61569E+06              0.    -30.5412E+06
           36668     17.6961E+06     4.35930E+06              0.    -29.8263E+06
           36669     17.8183E+06     5.18288E+06              0.    -28.9639E+06
           36670     17.8906E+06     6.09664E+06              0.    -27.9415E+06
           36671     17.9044E+06     7.11208E+06              0.    -26.7461E+06
           36672     17.8500E+06     8.24214E+06              0.    -25.3641E+06
           36673      18.209E+06     9.48514E+06              0.    -25.2315E+06
           36674    -1.36086E+06    -612.019E+03              0.    -697.468E+03
           36675    -1.35754E+06    -580.990E+03              0.    -696.210E+03
           36676    -1.36764E+06    -556.435E+03              0.    -689.132E+03
           36677    -1.37765E+06    -532.250E+03              0.    -682.626E+03
           36678    -1.38758E+06    -508.435E+03              0.    -676.676E+03
           36679    -1.39742E+06     -484.99E+03              0.    -671.269E+03
           36680    -1.40718E+06    -461.914E+03              0.    -666.392E+03
           36681    -1.41684E+06    -439.206E+03              0.    -662.033E+03
           36682    -1.42642E+06    -416.864E+03              0.    -658.181E+03
           36683    -1.43592E+06    -394.888E+03              0.    -654.825E+03
           36684    -1.44533E+06    -373.277E+03              0.    -651.954E+03
           36685    -1.45466E+06    -352.028E+03              0.    -649.560E+03
           36686    -1.46390E+06    -331.142E+03              0.    -647.634E+03
           36687    -1.47306E+06    -310.615E+03              0.    -646.168E+03
           36688    -1.48214E+06    -290.447E+03              0.    -645.154E+03
           36689    -1.49114E+06    -270.636E+03              0.    -644.585E+03
           36690    -1.50006E+06    -251.181E+03              0.    -644.455E+03
           36691    -1.50889E+06    -232.079E+03              0.    -644.759E+03
           36692    -1.51765E+06    -213.330E+03              0.    -645.490E+03
           36693    -1.52633E+06    -194.932E+03              0.    -646.645E+03
           36694    -1.53492E+06    -176.884E+03              0.    -648.218E+03
           36695    -1.54344E+06    -159.183E+03              0.    -650.207E+03
           36696    -1.55188E+06    -141.829E+03              0.    -652.607E+03
           36697    -1.56024E+06    -124.820E+03              0.    -655.417E+03
           36698    -1.56852E+06    -108.155E+03              0.    -658.633E+03
           36699    -1.57673E+06    -91.8327E+03              0.    -662.254E+03
           36700    -1.58485E+06    -75.8515E+03              0.    -666.278E+03
           36701    -1.59289E+06    -60.2109E+03              0.    -670.705E+03
           36702    -1.60086E+06    -44.9095E+03              0.    -675.534E+03
           36703    -1.60874E+06    -29.9466E+03              0.    -680.764E+03
           36704    -1.61654E+06    -15.3215E+03              0.    -686.397E+03
           36705    -1.62426E+06    -1.03328E+03              0.    -692.432E+03
           36706    -1.63190E+06     12.9183E+03              0.    -698.872E+03
           36707    -1.63945E+06     26.5339E+03              0.    -705.718E+03
           36708    -1.64692E+06     39.8136E+03              0.    -712.971E+03
           36709    -1.65430E+06     52.7578E+03              0.    -720.635E+03
           36710    -1.66159E+06     65.3664E+03              0.    -728.712E+03
           36711    -1.66879E+06     77.6391E+03              0.    -737.206E+03
           36712    -1.67590E+06     89.5758E+03              0.    -746.120E+03
           36713    -1.68291E+06     101.176E+03              0.    -755.459E+03
           36714    -1.68982E+06     112.439E+03              0.    -765.227E+03
           36715    -1.69663E+06     123.364E+03              0.    -775.430E+03
           36716    -1.70334E+06     133.951E+03              0.    -786.073E+03
           36717    -1.70994E+06     144.197E+03              0.    -797.163E+03
           36718    -1.71643E+06     154.102E+03              0.    -808.704E+03
           36719    -1.72281E+06     163.664E+03              0.    -820.706E+03
           36720    -1.72907E+06     172.881E+03              0.    -833.174E+03
           36721    -1.73520E+06     181.752E+03              0.    -846.118E+03
           36722    -1.74121E+06     190.274E+03              0.    -859.544E+03
           36723    -1.74709E+06     198.445E+03              0.    -873.463E+03
           36724    -1.75284E+06     206.263E+03              0.    -887.884E+03
           36725    -1.75844E+06     213.724E+03              0.    -902.816E+03
           36726    -1.76389E+06     220.826E+03              0.    -918.271E+03
           36727    -1.76919E+06     227.565E+03              0.    -934.258E+03
           36728    -1.77433E+06     233.939E+03              0.    -950.790E+03
           36729    -1.77930E+06     239.942E+03              0.    -967.879E+03
           36730    -1.78410E+06     245.573E+03              0.    -985.537E+03
           36731    -1.78872E+06     250.825E+03              0.    -1.00378E+06
           36732    -1.79315E+06     255.695E+03              0.    -1.02262E+06
           36733    -1.79738E+06     260.178E+03              0.    -1.04206E+06
           36734    -1.80141E+06     264.270E+03              0.    -1.06214E+06
           36735    -1.80522E+06     267.964E+03              0.    -1.08286E+06
           36736    -1.80881E+06     271.256E+03              0.    -1.10423E+06
           36737    -1.81217E+06     274.139E+03              0.    -1.12628E+06
           36738    -1.81528E+06     276.608E+03              0.    -1.14903E+06
           36739    -1.81814E+06     278.657E+03              0.    -1.17248E+06
           36740    -1.82074E+06     280.279E+03              0.    -1.19667E+06
           36741    -1.82306E+06     281.467E+03              0.    -1.22161E+06
           36742    -1.82509E+06     282.214E+03              0.    -1.24732E+06
           36743    -1.82682E+06     282.512E+03              0.    -1.27383E+06
           36744    -1.82823E+06     282.355E+03              0.    -1.30115E+06
           36745    -1.82932E+06     281.733E+03              0.    -1.32931E+06
           36746    -1.83007E+06     280.639E+03              0.    -1.35833E+06
           36747    -1.83046E+06     279.064E+03              0.    -1.38825E+06
           36748    -1.83048E+06     276.999E+03              0.    -1.41907E+06
           36749    -1.83012E+06     274.435E+03              0.    -1.45084E+06
           36750    -1.82935E+06     271.363E+03              0.    -1.48358E+06
           36751    -1.82816E+06     267.773E+03              0.    -1.51731E+06
           36752    -1.82653E+06     263.655E+03              0.    -1.55208E+06
           36753    -1.82445E+06     258.998E+03              0.    -1.58790E+06
           36754    -1.82190E+06     253.793E+03              0.    -1.62481E+06
           36755    -1.81885E+06     248.027E+03              0.    -1.66284E+06
           36756    -1.81528E+06     241.691E+03              0.    -1.70203E+06
           36757    -1.81118E+06     234.772E+03              0.    -1.74242E+06
           36758    -1.80653E+06     227.258E+03              0.    -1.78403E+06
           36759    -1.80130E+06     219.138E+03              0.    -1.82691E+06
           36760    -1.79546E+06     210.400E+03              0.    -1.87109E+06
           36761    -1.78900E+06     201.031E+03              0.    -1.91662E+06
           36762    -1.78189E+06     191.018E+03              0.    -1.96353E+06
           36763    -1.77411E+06     180.348E+03              0.    -2.01188E+06
           36764    -1.76562E+06     169.008E+03              0.    -2.06170E+06
           36765    -1.75641E+06     156.984E+03              0.    -2.11303E+06
           36766    -1.74644E+06     144.263E+03              0.    -2.16593E+06
           36767    -1.73569E+06     130.832E+03              0.    -2.22044E+06
           36768    -1.72413E+06     116.675E+03              0.    -2.27662E+06
           36769    -1.71172E+06     101.779E+03              0.    -2.33451E+06
           36770    -1.69844E+06     86.1300E+03              0.    -2.39417E+06
           36771    -1.68426E+06     69.7128E+03              0.    -2.45565E+06
           36772    -1.66913E+06     52.5131E+03              0.    -2.51900E+06
           36773    -1.65303E+06     34.5166E+03              0.    -2.58430E+06
           36774    -1.63593E+06     15.7084E+03              0.    -2.65158E+06
           36775    -1.61778E+06    -3.92593E+03              0.    -2.72092E+06
           36776    -1.59856E+06    -24.4011E+03              0.    -2.79238E+06
           36777    -1.57821E+06    -45.7316E+03              0.    -2.86602E+06
           36778    -1.55672E+06    -67.9320E+03              0.    -2.94191E+06
           36779    -1.53403E+06    -91.0165E+03              0.    -3.02012E+06
           36780    -1.51011E+06    -114.999E+03              0.    -3.10071E+06
           36781    -1.48491E+06    -139.894E+03              0.    -3.18376E+06
           36782    -1.45840E+06    -165.715E+03              0.    -3.26935E+06
           36783    -1.43053E+06    -192.475E+03              0.    -3.35754E+06
           36784    -1.40126E+06    -220.187E+03              0.    -3.44842E+06
           36785    -1.37053E+06    -248.864E+03              0.    -3.54207E+06
           36786    -1.33832E+06    -278.518E+03              0.    -3.63856E+06
           36787    -1.30457E+06    -309.160E+03              0.    -3.73799E+06
           36788    -1.26923E+06    -340.801E+03              0.    -3.84043E+06
           36789    -1.23226E+06    -373.450E+03              0.    -3.94598E+06
           36790    -1.19360E+06    -407.119E+03              0.    -4.05472E+06
           36791    -1.15321E+06    -441.814E+03              0.    -4.16676E+06
           36792    -1.11104E+06    -477.543E+03              0.    -4.28217E+06
           36793    -1.06703E+06    -514.313E+03              0.    -4.40107E+06
           36794    -1.02114E+06    -552.129E+03              0.    -4.52355E+06
           36795    -973.306E+03    -590.994E+03              0.    -4.64970E+06
           36796    -923.482E+03    -630.912E+03              0.    -4.77964E+06
           36797    -871.613E+03    -671.883E+03              0.    -4.91347E+06
           36798    -817.645E+03    -713.906E+03              0.    -5.05129E+06
           36799    -761.522E+03     -756.98E+03              0.    -5.19322E+06
           36800    -703.190E+03    -801.100E+03              0.    -5.33936E+06
           36801    -642.594E+03    -846.259E+03              0.    -5.48984E+06
           36802    -579.678E+03    -892.449E+03              0.    -5.64476E+06
           36803    -514.387E+03    -939.660E+03              0.    -5.80425E+06
           36804    -446.665E+03    -987.877E+03              0.    -5.96843E+06
           36805    -376.457E+03    -1.03709E+06              0.    -6.13741E+06
           36806    -303.706E+03    -1.08726E+06              0.    -6.31133E+06
           36807    -228.359E+03    -1.13839E+06              0.    -6.49030E+06
           36808    -150.359E+03    -1.19045E+06              0.    -6.67446E+06
           36809    -69.6535E+03    -1.24340E+06              0.    -6.86394E+06
           36810     13.8125E+03    -1.29721E+06              0.    -7.05886E+06
           36811     100.092E+03    -1.35185E+06              0.    -7.25936E+06
           36812     189.236E+03    -1.40728E+06              0.    -7.46557E+06
           36813     281.297E+03    -1.46345E+06              0.    -7.67762E+06
           36814     376.324E+03    -1.52032E+06              0.    -7.89567E+06
           36815     474.366E+03    -1.57782E+06              0.    -8.11983E+06
           36816     575.470E+03    -1.63591E+06              0.    -8.35024E+06
           36817     679.682E+03    -1.69452E+06              0.    -8.58706E+06
           36818     787.044E+03    -1.75358E+06              0.    -8.83041E+06
           36819     897.600E+03    -1.81301E+06              0.    -9.08043E+06
           36820     1.01139E+06    -1.87273E+06              0.    -9.33727E+06
           36821     1.12845E+06    -1.93266E+06              0.    -9.60105E+06
           36822     1.24881E+06    -1.99271E+06              0.    -9.87192E+06
           36823     1.37250E+06    -2.05278E+06              0.    -10.1500E+06
           36824     1.49957E+06    -2.11275E+06              0.    -10.4355E+06
           36825     1.63002E+06    -2.17252E+06              0.    -10.7284E+06
           36826     1.76388E+06    -2.23197E+06              0.    -11.0290E+06
           36827     1.90118E+06    -2.29097E+06              0.    -11.3373E+06
           36828     2.04193E+06    -2.34939E+06              0.    -11.6534E+06
           36829     2.18614E+06    -2.40707E+06              0.    -11.9776E+06
           36830     2.33381E+06    -2.46389E+06              0.    -12.3099E+06
           36831     2.48496E+06    -2.51967E+06              0.    -12.6503E+06
           36832     2.63958E+06    -2.57425E+06              0.    -12.9991E+06
           36833     2.79767E+06    -2.62747E+06              0.    -13.3562E+06
           36834     2.95921E+06    -2.67913E+06              0.    -13.7219E+06
           36835     3.12421E+06    -2.72906E+06              0.    -14.0961E+06
           36836     3.29264E+06    -2.77706E+06              0.    -14.4789E+06
           36837     3.46448E+06    -2.82292E+06              0.    -14.8704E+06
           36838     3.63971E+06    -2.86643E+06              0.    -15.2707E+06
           36839     3.81830E+06    -2.90738E+06              0.    -15.6796E+06
           36840     4.00021E+06    -2.94555E+06              0.    -16.0972E+06
           36841     4.18541E+06    -2.98071E+06              0.    -16.5236E+06
           36842     4.37387E+06    -3.01262E+06              0.    -16.9586E+06
           36843     4.56553E+06    -3.04104E+06              0.    -17.4023E+06
           36844     4.76037E+06    -3.06574E+06              0.    -17.8544E+06
           36845     4.95832E+06    -3.08645E+06              0.    -18.3149E+06
           36846     5.15935E+06    -3.10293E+06              0.    -18.7836E+06
           36847     5.36339E+06    -3.11492E+06              0.    -19.2604E+06
           36848     5.57041E+06    -3.12217E+06              0.    -19.7449E+06
           36849     5.78035E+06    -3.12442E+06              0.    -20.2369E+06
           36850     5.99317E+06    -3.12141E+06              0.    -20.7360E+06
           36851     6.20880E+06    -3.11287E+06              0.    -21.2418E+06
           36852     6.42721E+06    -3.09857E+06              0.    -21.7539E+06
           36853     6.64835E+06    -3.07822E+06              0.    -22.2718E+06
           36854     6.87216E+06    -3.05159E+06              0.    -22.7946E+06
           36855     7.09862E+06    -3.01841E+06              0.    -23.3219E+06
           36856     7.32766E+06    -2.97843E+06              0.    -23.8527E+06
           36857     7.55926E+06    -2.93140E+06              0.    -24.3861E+06
           36858     7.79336E+06    -2.87706E+06              0.    -24.9211E+06
           36859     8.02993E+06    -2.81515E+06              0.    -25.4566E+06
           36860     8.26892E+06    -2.74542E+06              0.    -25.9911E+06
           36861     8.51027E+06    -2.66759E+06              0.    -26.5232E+06
           36862     8.75393E+06    -2.58139E+06              0.    -27.0513E+06
           36863     8.99981E+06    -2.48651E+06              0.    -27.5735E+06
           36864     9.24782E+06    -2.38265E+06              0.    -28.0877E+06
           36865     9.49784E+06    -2.26944E+06              0.    -28.5917E+06
           36866     9.74973E+06    -2.14651E+06              0.    -29.0830E+06
           36867     10.0033E+06    -2.01340E+06              0.    -29.5588E+06
           36868     10.2582E+06    -1.86963E+06              0.    -30.0159E+06
           36869     10.5143E+06    -1.71459E+06              0.    -30.4510E+06
           36870     10.7711E+06    -1.54762E+06              0.    -30.8603E+06
           36871     11.0281E+06    -1.36790E+06              0.    -31.2399E+06
           36872     11.2846E+06    -1.17450E+06              0.    -31.5851E+06
           36873     11.5401E+06    -966.291E+03              0.    -31.8911E+06
           36874     11.7934E+06    -741.961E+03              0.    -32.1527E+06
           36875     12.0435E+06    -499.946E+03              0.    -32.3639E+06
           36876     12.2890E+06    -238.406E+03              0.    -32.5186E+06
           36877     12.5284E+06     44.8281E+03              0.    -32.6100E+06
           36878     12.7596E+06     352.299E+03              0.    -32.6307E+06
           36879     12.9804E+06     686.984E+03              0.    -32.5728E+06
           36880     13.1881E+06     1.05236E+06              0.    -32.4278E+06
           36881     13.3796E+06     1.45248E+06              0.    -32.1867E+06
           36882     13.5512E+06     1.89202E+06              0.    -31.8397E+06
           36883     13.6986E+06     2.37641E+06              0.    -31.3764E+06
           36884     13.8170E+06     2.91190E+06              0.    -30.7858E+06
           36885     13.9007E+06     3.50566E+06              0.    -30.0561E+06
           36886     13.9433E+06     4.16591E+06              0.    -29.1750E+06
           36887     13.9374E+06     4.90205E+06              0.    -28.1293E+06
           36888     13.8747E+06     5.72478E+06              0.    -26.9053E+06
           36889     13.7457E+06     6.64630E+06              0.    -25.4885E+06
           36890     14.0102E+06     7.64954E+06              0.    -25.3313E+06
           36891    -1.37874E+06    -620.091E+03              0.    -687.160E+03
           36892    -1.37533E+06    -588.323E+03              0.    -685.919E+03
           36893    -1.38568E+06    -563.189E+03              0.    -678.931E+03
           36894    -1.39593E+06    -538.441E+03              0.    -672.514E+03
           36895    -1.40609E+06    -514.077E+03              0.    -666.652E+03
           36896    -1.41617E+06    -490.096E+03              0.    -661.333E+03
           36897    -1.42615E+06    -466.497E+03              0.    -656.543E+03
           36898    -1.43605E+06    -443.277E+03              0.    -652.270E+03
           36899    -1.44586E+06    -420.435E+03              0.    -648.504E+03
           36900    -1.45559E+06    -397.969E+03              0.    -645.232E+03
           36901    -1.46524E+06    -375.877E+03              0.    -642.445E+03
           36902    -1.47480E+06    -354.156E+03              0.    -640.134E+03
           36903    -1.48428E+06    -332.806E+03              0.    -638.290E+03
           36904    -1.49367E+06    -311.824E+03              0.    -636.905E+03
           36905    -1.50299E+06    -291.208E+03              0.    -635.971E+03
           36906    -1.51223E+06    -270.955E+03              0.    -635.482E+03
           36907    -1.52139E+06    -251.064E+03              0.    -635.432E+03
           36908    -1.53048E+06    -231.533E+03              0.    -635.813E+03
           36909    -1.53948E+06    -212.358E+03              0.    -636.622E+03
           36910    -1.54842E+06    -193.540E+03              0.    -637.854E+03
           36911    -1.55727E+06    -175.074E+03              0.    -639.504E+03
           36912    -1.56606E+06    -156.960E+03              0.    -641.568E+03
           36913    -1.57477E+06    -139.196E+03              0.    -644.044E+03
           36914    -1.58341E+06    -121.779E+03              0.    -646.929E+03
           36915    -1.59197E+06    -104.708E+03              0.    -650.220E+03
           36916    -1.60047E+06    -87.9813E+03              0.    -653.917E+03
           36917    -1.60889E+06    -71.5969E+03              0.    -658.016E+03
           36918    -1.61724E+06    -55.5539E+03              0.    -662.518E+03
           36919    -1.62551E+06    -39.8502E+03              0.    -667.423E+03
           36920    -1.63372E+06    -24.4849E+03              0.    -672.729E+03
           36921    -1.64185E+06    -9.45667E+03              0.    -678.439E+03
           36922    -1.64991E+06     5.23571E+03              0.    -684.552E+03
           36923    -1.65789E+06     19.5930E+03              0.    -691.070E+03
           36924    -1.66580E+06     33.6162E+03              0.    -697.995E+03
           36925    -1.67364E+06     47.3060E+03              0.    -705.329E+03
           36926    -1.68140E+06     60.6630E+03              0.    -713.075E+03
           36927    -1.68908E+06     73.6877E+03              0.    -721.235E+03
           36928    -1.69668E+06     86.3803E+03              0.    -729.814E+03
           36929    -1.70420E+06     98.7409E+03              0.    -738.816E+03
           36930    -1.71164E+06     110.770E+03              0.    -748.244E+03
           36931    -1.71900E+06     122.466E+03              0.    -758.104E+03
           36932    -1.72627E+06     133.831E+03              0.    -768.401E+03
           36933    -1.73344E+06     144.862E+03              0.    -779.141E+03
           36934    -1.74053E+06     155.559E+03              0.    -790.331E+03
           36935    -1.74752E+06     165.922E+03              0.    -801.976E+03
           36936    -1.75442E+06     175.950E+03              0.    -814.084E+03
           36937    -1.76121E+06     185.641E+03              0.    -826.662E+03
           36938    -1.76790E+06     194.993E+03              0.    -839.720E+03
           36939    -1.77448E+06     204.006E+03              0.    -853.265E+03
           36940    -1.78095E+06     212.677E+03              0.    -867.308E+03
           36941    -1.78730E+06     221.004E+03              0.    -881.856E+03
           36942    -1.79353E+06     228.985E+03              0.    -896.921E+03
           36943    -1.79964E+06     236.618E+03              0.    -912.514E+03
           36944    -1.80561E+06     243.900E+03              0.    -928.646E+03
           36945    -1.81144E+06     250.828E+03              0.    -945.328E+03
           36946    -1.81713E+06     257.399E+03              0.    -962.573E+03
           36947    -1.82268E+06     263.609E+03              0.    -980.394E+03
           36948    -1.82806E+06     269.455E+03              0.    -998.805E+03
           36949    -1.83329E+06     274.934E+03              0.    -1.01782E+06
           36950    -1.83834E+06     280.041E+03              0.    -1.03745E+06
           36951    -1.84322E+06     284.771E+03              0.    -1.05772E+06
           36952    -1.84792E+06     289.121E+03              0.    -1.07864E+06
           36953    -1.85242E+06     293.085E+03              0.    -1.10023E+06
           36954    -1.85672E+06     296.659E+03              0.    -1.12250E+06
           36955    -1.86080E+06     299.837E+03              0.    -1.14547E+06
           36956    -1.86467E+06     302.613E+03              0.    -1.16917E+06
           36957    -1.86831E+06     304.983E+03              0.    -1.19361E+06
           36958    -1.87171E+06     306.939E+03              0.    -1.21881E+06
           36959    -1.87486E+06     308.476E+03              0.    -1.24479E+06
           36960    -1.87774E+06     309.587E+03              0.    -1.27158E+06
           36961    -1.88035E+06     310.264E+03              0.    -1.29920E+06
           36962    -1.88268E+06     310.502E+03              0.    -1.32767E+06
           36963    -1.88471E+06     310.292E+03              0.    -1.35701E+06
           36964    -1.88643E+06     309.627E+03              0.    -1.38726E+06
           36965    -1.88782E+06     308.499E+03              0.    -1.41844E+06
           36966    -1.88887E+06     306.899E+03              0.    -1.45058E+06
           36967    -1.88957E+06     304.820E+03              0.    -1.48369E+06
           36968    -1.88990E+06     302.253E+03              0.    -1.51783E+06
           36969    -1.88985E+06     299.187E+03              0.    -1.55300E+06
           36970    -1.88940E+06     295.616E+03              0.    -1.58926E+06
           36971    -1.88853E+06     291.528E+03              0.    -1.62662E+06
           36972    -1.88723E+06     286.914E+03              0.    -1.66512E+06
           36973    -1.88547E+06     281.763E+03              0.    -1.70480E+06
           36974    -1.88324E+06     276.067E+03              0.    -1.74569E+06
           36975    -1.88052E+06     269.813E+03              0.    -1.78783E+06
           36976    -1.87729E+06     262.992E+03              0.    -1.83125E+06
           36977    -1.87353E+06     255.592E+03              0.    -1.87601E+06
           36978    -1.86922E+06     247.602E+03              0.    -1.92213E+06
           36979    -1.86433E+06     239.011E+03              0.    -1.96965E+06
           36980    -1.85885E+06     229.807E+03              0.    -2.01864E+06
           36981    -1.85275E+06     219.977E+03              0.    -2.06912E+06
           36982    -1.84600E+06     209.511E+03              0.    -2.12114E+06
           36983    -1.83859E+06     198.396E+03              0.    -2.17475E+06
           36984    -1.83048E+06     186.619E+03              0.    -2.23001E+06
           36985    -1.82165E+06     174.168E+03              0.    -2.28695E+06
           36986    -1.81208E+06     161.030E+03              0.    -2.34564E+06
           36987    -1.80173E+06     147.193E+03              0.    -2.40612E+06
           36988    -1.79058E+06     132.644E+03              0.    -2.46846E+06
           36989    -1.77859E+06     117.369E+03              0.    -2.53270E+06
           36990    -1.76575E+06     101.357E+03              0.    -2.59890E+06
           36991    -1.75201E+06     84.5933E+03              0.    -2.66714E+06
           36992    -1.73735E+06     67.0660E+03              0.    -2.73746E+06
           36993    -1.72173E+06     48.7621E+03              0.    -2.80993E+06
           36994    -1.70512E+06     29.6687E+03              0.    -2.88462E+06
           36995    -1.68749E+06     9.77321E+03              0.    -2.96159E+06
           36996    -1.66881E+06    -10.9368E+03              0.    -3.04092E+06
           36997    -1.64903E+06    -32.4736E+03              0.    -3.12267E+06
           36998    -1.62812E+06    -54.8493E+03              0.    -3.20691E+06
           36999    -1.60604E+06    -78.0755E+03              0.    -3.29373E+06
           37000    -1.58276E+06    -102.164E+03              0.    -3.38319E+06
           37001    -1.55824E+06    -127.125E+03              0.    -3.47538E+06
           37002    -1.53244E+06    -152.969E+03              0.    -3.57038E+06
           37003    -1.50532E+06    -179.707E+03              0.    -3.66826E+06
           37004    -1.47684E+06    -207.347E+03              0.    -3.76911E+06
           37005    -1.44696E+06    -235.900E+03              0.    -3.87303E+06
           37006    -1.41563E+06    -265.371E+03              0.    -3.98010E+06
           37007    -1.38282E+06    -295.770E+03              0.    -4.09040E+06
           37008    -1.34847E+06    -327.101E+03              0.    -4.20404E+06
           37009    -1.31256E+06    -359.371E+03              0.    -4.32110E+06
           37010    -1.27503E+06    -392.584E+03              0.    -4.44169E+06
           37011    -1.23584E+06    -426.742E+03              0.    -4.56590E+06
           37012    -1.19494E+06    -461.847E+03              0.    -4.69383E+06
           37013    -1.15229E+06    -497.901E+03              0.    -4.82559E+06
           37014    -1.10785E+06    -534.901E+03              0.    -4.96129E+06
           37015    -1.06157E+06    -572.845E+03              0.    -5.10103E+06
           37016    -1.01340E+06    -611.729E+03              0.    -5.24492E+06
           37017    -963.291E+03    -651.546E+03              0.    -5.39307E+06
           37018    -911.208E+03    -692.288E+03              0.    -5.54560E+06
           37019    -857.100E+03    -733.944E+03              0.    -5.70262E+06
           37020    -800.923E+03    -776.502E+03              0.    -5.86425E+06
           37021    -742.630E+03    -819.946E+03              0.    -6.03061E+06
           37022    -682.177E+03    -864.258E+03              0.    -6.20182E+06
           37023    -619.520E+03    -909.419E+03              0.    -6.37800E+06
           37024    -554.615E+03    -955.402E+03              0.    -6.55929E+06
           37025    -487.418E+03    -1.00218E+06              0.    -6.74579E+06
           37026    -417.888E+03    -1.04973E+06              0.    -6.93766E+06
           37027    -345.984E+03    -1.09801E+06              0.    -7.13501E+06
           37028    -271.666E+03    -1.14699E+06              0.    -7.33797E+06
           37029    -194.894E+03    -1.19662E+06              0.    -7.54668E+06
           37030    -115.633E+03    -1.24687E+06              0.    -7.76126E+06
           37031    -33.8471E+03    -1.29767E+06              0.    -7.98186E+06
           37032     50.4982E+03    -1.34898E+06              0.    -8.20861E+06
           37033     137.434E+03    -1.40073E+06              0.    -8.44165E+06
           37034     226.989E+03    -1.45287E+06              0.    -8.68110E+06
           37035     319.192E+03    -1.50532E+06              0.    -8.92711E+06
           37036     414.065E+03    -1.55801E+06              0.    -9.17981E+06
           37037     511.632E+03    -1.61086E+06              0.    -9.43933E+06
           37038     611.910E+03    -1.66379E+06              0.    -9.70582E+06
           37039     714.915E+03    -1.71670E+06              0.    -9.97940E+06
           37040     820.659E+03    -1.76949E+06              0.    -10.2602E+06
           37041     929.150E+03    -1.82207E+06              0.    -10.5484E+06
           37042     1.04039E+06    -1.87432E+06              0.    -10.8440E+06
           37043     1.15439E+06    -1.92613E+06              0.    -11.1473E+06
           37044     1.27114E+06    -1.97736E+06              0.    -11.4582E+06
           37045     1.39062E+06    -2.02790E+06              0.    -11.7771E+06
           37046     1.51284E+06    -2.07761E+06              0.    -12.1039E+06
           37047     1.63777E+06    -2.12634E+06              0.    -12.4387E+06
           37048     1.76539E+06    -2.17394E+06              0.    -12.7817E+06
           37049     1.89567E+06    -2.22025E+06              0.    -13.1330E+06
           37050     2.02859E+06    -2.26511E+06              0.    -13.4927E+06
           37051     2.16410E+06    -2.30836E+06              0.    -13.8608E+06
           37052     2.30217E+06    -2.34981E+06              0.    -14.2374E+06
           37053     2.44274E+06    -2.38928E+06              0.    -14.6225E+06
           37054     2.58577E+06    -2.42659E+06              0.    -15.0163E+06
           37055     2.73119E+06    -2.46153E+06              0.    -15.4186E+06
           37056     2.87895E+06    -2.49391E+06              0.    -15.8297E+06
           37057     3.02899E+06    -2.52353E+06              0.    -16.2494E+06
           37058     3.18122E+06    -2.55018E+06              0.    -16.6777E+06
           37059     3.33558E+06    -2.57365E+06              0.    -17.1145E+06
           37060     3.49199E+06    -2.59373E+06              0.    -17.5599E+06
           37061     3.65037E+06    -2.61020E+06              0.    -18.0137E+06
           37062     3.81063E+06    -2.62284E+06              0.    -18.4758E+06
           37063     3.97268E+06    -2.63145E+06              0.    -18.9460E+06
           37064     4.13645E+06    -2.63580E+06              0.    -19.4241E+06
           37065     4.30184E+06    -2.63570E+06              0.    -19.9099E+06
           37066     4.46876E+06    -2.63092E+06              0.    -20.4031E+06
           37067     4.63712E+06    -2.62127E+06              0.    -20.9034E+06
           37068     4.80684E+06    -2.60655E+06              0.    -21.4102E+06
           37069     4.97783E+06    -2.58657E+06              0.    -21.9233E+06
           37070     5.15002E+06    -2.56116E+06              0.    -22.4420E+06
           37071     5.32331E+06    -2.53013E+06              0.    -22.9657E+06
           37072     5.49764E+06    -2.49334E+06              0.    -23.4937E+06
           37073     5.67293E+06    -2.45062E+06              0.    -24.0253E+06
           37074     5.84910E+06    -2.40183E+06              0.    -24.5595E+06
           37075     6.02611E+06    -2.34686E+06              0.    -25.0952E+06
           37076     6.20388E+06    -2.28557E+06              0.    -25.6314E+06
           37077     6.38235E+06    -2.21787E+06              0.    -26.1667E+06
           37078     6.56146E+06    -2.14364E+06              0.    -26.6996E+06
           37079     6.74114E+06    -2.06280E+06              0.    -27.2286E+06
           37080     6.92133E+06    -1.97524E+06              0.    -27.7517E+06
           37081     7.10194E+06    -1.88087E+06              0.    -28.2670E+06
           37082     7.28286E+06    -1.77958E+06              0.    -28.7721E+06
           37083     7.46398E+06    -1.67124E+06              0.    -29.2646E+06
           37084     7.64514E+06    -1.55569E+06              0.    -29.7417E+06
           37085     7.82613E+06    -1.43274E+06              0.    -30.2003E+06
           37086     8.00672E+06    -1.30213E+06              0.    -30.6369E+06
           37087     8.18657E+06    -1.16355E+06              0.    -31.0479E+06
           37088     8.36527E+06    -1.01658E+06              0.    -31.4291E+06
           37089     8.54231E+06    -860.691E+03              0.     -31.776E+06
           37090     8.71704E+06    -695.215E+03              0.    -32.0837E+06
           37091     8.88866E+06    -519.313E+03              0.    -32.3467E+06
           37092     9.05620E+06    -331.931E+03              0.    -32.5593E+06
           37093     9.21844E+06    -131.775E+03              0.    -32.7150E+06
           37094     9.37395E+06     82.7493E+03              0.    -32.8068E+06
           37095     9.52097E+06     313.575E+03              0.    -32.8273E+06
           37096     9.65741E+06     563.035E+03              0.    -32.7684E+06
           37097      9.7808E+06     833.935E+03              0.    -32.6213E+06
           37098     9.88821E+06     1.12960E+06              0.    -32.3766E+06
           37099     9.97623E+06     1.45400E+06              0.    -32.0244E+06
           37100     10.0408E+06     1.81176E+06              0.    -31.5537E+06
           37101     10.0774E+06     2.20834E+06              0.    -30.9532E+06
           37102     10.0805E+06     2.65009E+06              0.    -30.2106E+06
           37103     10.0440E+06     3.14436E+06              0.    -29.3129E+06
           37104     9.96077E+06     3.69969E+06              0.    -28.2463E+06
           37105     9.82275E+06     4.32588E+06              0.    -26.9964E+06
           37106     9.62069E+06     5.03415E+06              0.    -25.5478E+06
           37107     9.78928E+06     5.79187E+06              0.    -25.3660E+06
           37108    -1.39641E+06    -628.072E+03              0.     -676.61E+03
           37109    -1.39292E+06    -595.565E+03              0.    -675.387E+03
           37110    -1.40351E+06    -569.854E+03              0.    -668.491E+03
           37111    -1.41400E+06    -544.543E+03              0.    -662.165E+03
           37112    -1.42440E+06    -519.631E+03              0.    -656.394E+03
           37113    -1.43471E+06    -495.115E+03              0.    -651.164E+03
           37114    -1.44492E+06    -470.993E+03              0.    -646.463E+03
           37115    -1.45505E+06    -447.262E+03              0.    -642.277E+03
           37116    -1.46510E+06    -423.921E+03              0.    -638.596E+03
           37117    -1.47506E+06    -400.965E+03              0.    -635.408E+03
           37118    -1.48493E+06    -378.394E+03              0.    -632.704E+03
           37119    -1.49473E+06    -356.203E+03              0.    -630.475E+03
           37120    -1.50444E+06    -334.391E+03              0.    -628.711E+03
           37121    -1.51408E+06    -312.954E+03              0.    -627.405E+03
           37122    -1.52363E+06     -291.89E+03              0.    -626.549E+03
           37123    -1.53311E+06    -271.197E+03              0.    -626.137E+03
           37124    -1.54252E+06    -250.871E+03              0.    -626.162E+03
           37125    -1.55185E+06     -230.91E+03              0.    -626.618E+03
           37126    -1.56111E+06    -211.311E+03              0.    -627.500E+03
           37127    -1.57030E+06    -192.072E+03              0.    -628.804E+03
           37128    -1.57942E+06    -173.191E+03              0.    -630.526E+03
           37129    -1.58847E+06    -154.664E+03              0.    -632.661E+03
           37130    -1.59745E+06     -136.49E+03              0.    -635.207E+03
           37131    -1.60637E+06    -118.666E+03              0.    -638.161E+03
           37132    -1.61522E+06    -101.189E+03              0.    -641.521E+03
           37133    -1.62400E+06    -84.0584E+03              0.    -645.285E+03
           37134    -1.63272E+06    -67.2710E+03              0.    -649.453E+03
           37135    -1.64138E+06    -50.8254E+03              0.    -654.023E+03
           37136    -1.64997E+06    -34.7194E+03              0.    -658.995E+03
           37137    -1.65850E+06    -18.9513E+03              0.    -664.369E+03
           37138    -1.66696E+06    -3.51959E+03              0.    -670.146E+03
           37139    -1.67536E+06     11.5775E+03              0.    -676.327E+03
           37140    -1.68370E+06     26.3413E+03              0.    -682.914E+03
           37141    -1.69197E+06      40.773E+03              0.    -689.908E+03
           37142    -1.70018E+06     54.8739E+03              0.    -697.311E+03
           37143    -1.70832E+06     68.6450E+03              0.    -705.128E+03
           37144    -1.71639E+06     82.0872E+03              0.    -713.360E+03
           37145    -1.72440E+06     95.2011E+03              0.    -722.012E+03
           37146    -1.73234E+06     107.988E+03              0.    -731.088E+03
           37147    -1.74021E+06     120.447E+03              0.    -740.592E+03
           37148    -1.74802E+06     132.579E+03              0.     -750.53E+03
           37149    -1.75574E+06     144.385E+03              0.    -760.907E+03
           37150    -1.76340E+06     155.863E+03              0.    -771.729E+03
           37151    -1.77098E+06     167.015E+03              0.    -783.002E+03
           37152    -1.77847E+06     177.840E+03              0.    -794.734E+03
           37153    -1.78589E+06     188.336E+03              0.    -806.932E+03
           37154    -1.79323E+06     198.504E+03              0.    -819.604E+03
           37155    -1.80047E+06     208.342E+03              0.    -832.758E+03
           37156    -1.80763E+06     217.849E+03              0.    -846.403E+03
           37157    -1.81470E+06     227.024E+03              0.    -860.549E+03
           37158    -1.82166E+06     235.865E+03              0.    -875.205E+03
           37159    -1.82853E+06     244.372E+03              0.    -890.382E+03
           37160    -1.83529E+06     252.541E+03              0.    -906.092E+03
           37161    -1.84194E+06     260.370E+03              0.    -922.345E+03
           37162    -1.84848E+06     267.858E+03              0.    -939.153E+03
           37163    -1.85490E+06     275.002E+03              0.    -956.531E+03
           37164    -1.86120E+06     281.799E+03              0.    -974.490E+03
           37165    -1.86736E+06     288.246E+03              0.    -993.045E+03
           37166    -1.87339E+06     294.340E+03              0.    -1.01221E+06
           37167    -1.87928E+06     300.077E+03              0.    -1.03200E+06
           37168    -1.88502E+06     305.455E+03              0.    -1.05243E+06
           37169    -1.89061E+06     310.468E+03              0.    -1.07352E+06
           37170    -1.89603E+06     315.113E+03              0.    -1.09529E+06
           37171    -1.90128E+06     319.386E+03              0.    -1.11775E+06
           37172    -1.90636E+06     323.282E+03              0.    -1.14092E+06
           37173    -1.91125E+06     326.796E+03              0.    -1.16482E+06
           37174    -1.91594E+06     329.924E+03              0.    -1.18947E+06
           37175    -1.92044E+06     332.659E+03              0.    -1.21489E+06
           37176    -1.92472E+06     334.996E+03              0.    -1.24111E+06
           37177    -1.92877E+06     336.931E+03              0.    -1.26815E+06
           37178    -1.93260E+06     338.456E+03              0.    -1.29602E+06
           37179    -1.93618E+06     339.565E+03              0.    -1.32476E+06
           37180    -1.93951E+06     340.252E+03              0.    -1.35438E+06
           37181    -1.94257E+06     340.510E+03              0.    -1.38492E+06
           37182    -1.94535E+06     340.332E+03              0.    -1.41640E+06
           37183    -1.94784E+06     339.712E+03              0.    -1.44885E+06
           37184    -1.95003E+06     338.640E+03              0.    -1.48230E+06
           37185    -1.95191E+06     337.111E+03              0.    -1.51678E+06
           37186    -1.95345E+06     335.115E+03              0.    -1.55232E+06
           37187    -1.95465E+06     332.644E+03              0.    -1.58894E+06
           37188    -1.95549E+06     329.691E+03              0.    -1.62670E+06
           37189    -1.95596E+06     326.246E+03              0.    -1.66560E+06
           37190    -1.95604E+06     322.300E+03              0.    -1.70571E+06
           37191    -1.95571E+06     317.845E+03              0.    -1.74704E+06
           37192    -1.95495E+06     312.871E+03              0.    -1.78964E+06
           37193    -1.95376E+06     307.368E+03              0.    -1.83354E+06
           37194    -1.95210E+06     301.328E+03              0.    -1.87879E+06
           37195    -1.94997E+06     294.739E+03              0.    -1.92543E+06
           37196    -1.94734E+06     287.591E+03              0.    -1.97349E+06
           37197    -1.94419E+06     279.875E+03              0.    -2.02303E+06
           37198    -1.94051E+06     271.580E+03              0.    -2.07409E+06
           37199    -1.93626E+06     262.695E+03              0.    -2.12672E+06
           37200    -1.93144E+06     253.210E+03              0.    -2.18096E+06
           37201    -1.92601E+06     243.113E+03              0.    -2.23686E+06
           37202    -1.91996E+06     232.394E+03              0.    -2.29448E+06
           37203    -1.91326E+06     221.041E+03              0.    -2.35386E+06
           37204    -1.90588E+06     209.044E+03              0.    -2.41506E+06
           37205    -1.89781E+06     196.391E+03              0.    -2.47815E+06
           37206    -1.88901E+06     183.070E+03              0.    -2.54316E+06
           37207    -1.87946E+06     169.071E+03              0.    -2.61017E+06
           37208    -1.86914E+06     154.383E+03              0.    -2.67924E+06
           37209    -1.85801E+06     138.994E+03              0.    -2.75042E+06
           37210    -1.84605E+06     122.893E+03              0.    -2.82378E+06
           37211    -1.83323E+06     106.069E+03              0.    -2.89939E+06
           37212    -1.81952E+06     88.5118E+03              0.    -2.97731E+06
           37213    -1.80489E+06     70.2101E+03              0.    -3.05761E+06
           37214    -1.78931E+06     51.1538E+03              0.    -3.14038E+06
           37215    -1.77274E+06     31.3326E+03              0.    -3.22566E+06
           37216    -1.75516E+06     10.7369E+03              0.    -3.31356E+06
           37217    -1.73654E+06    -10.6428E+03              0.    -3.40413E+06
           37218    -1.71684E+06    -32.8155E+03              0.    -3.49746E+06
           37219    -1.69602E+06    -55.7898E+03              0.    -3.59364E+06
           37220    -1.67406E+06    -79.5736E+03              0.    -3.69273E+06
           37221    -1.65092E+06    -104.174E+03              0.    -3.79484E+06
           37222    -1.62656E+06    -129.599E+03              0.    -3.90004E+06
           37223    -1.60095E+06    -155.853E+03              0.    -4.00842E+06
           37224    -1.57405E+06    -182.941E+03              0.    -4.12008E+06
           37225    -1.54583E+06    -210.869E+03              0.    -4.23511E+06
           37226    -1.51625E+06    -239.638E+03              0.    -4.35361E+06
           37227    -1.48527E+06    -269.252E+03              0.    -4.47566E+06
           37228    -1.45287E+06    -299.712E+03              0.    -4.60138E+06
           37229    -1.41898E+06    -331.016E+03              0.    -4.73085E+06
           37230    -1.38360E+06    -363.164E+03              0.    -4.86419E+06
           37231    -1.34667E+06    -396.152E+03              0.    -5.00150E+06
           37232    -1.30815E+06    -429.976E+03              0.    -5.14289E+06
           37233    -1.26802E+06    -464.628E+03              0.    -5.28847E+06
           37234    -1.22623E+06    -500.102E+03              0.    -5.43835E+06
           37235    -1.18275E+06    -536.386E+03              0.    -5.59263E+06
           37236    -1.13754E+06    -573.468E+03              0.    -5.75145E+06
           37237    -1.09057E+06    -611.333E+03              0.    -5.91491E+06
           37238    -1.04180E+06    -649.966E+03              0.    -6.08313E+06
           37239    -991.201E+03    -689.345E+03              0.    -6.25623E+06
           37240    -938.733E+03    -729.448E+03              0.    -6.43434E+06
           37241    -884.366E+03    -770.251E+03              0.    -6.61758E+06
           37242    -828.069E+03    -811.724E+03              0.    -6.80607E+06
           37243    -769.813E+03    -853.838E+03              0.    -6.99995E+06
           37244    -709.568E+03    -896.556E+03              0.    -7.19933E+06
           37245    -647.308E+03    -939.841E+03              0.    -7.40435E+06
           37246    -583.009E+03    -983.649E+03              0.    -7.61514E+06
           37247    -516.645E+03    -1.02794E+06              0.    -7.83182E+06
           37248    -448.197E+03    -1.07265E+06              0.    -8.05454E+06
           37249    -377.646E+03    -1.11774E+06              0.    -8.28341E+06
           37250    -304.976E+03    -1.16314E+06              0.    -8.51858E+06
           37251    -230.172E+03    -1.20879E+06              0.    -8.76018E+06
           37252    -153.224E+03    -1.25463E+06              0.    -9.00834E+06
           37253    -74.1259E+03    -1.30057E+06              0.    -9.26319E+06
           37254     7.12784E+03    -1.34654E+06              0.    -9.52485E+06
           37255     90.5370E+03    -1.39246E+06              0.    -9.79348E+06
           37256     176.098E+03    -1.43824E+06              0.    -10.0692E+06
           37257     263.804E+03    -1.48377E+06              0.    -10.3521E+06
           37258     353.644E+03    -1.52896E+06              0.    -10.6423E+06
           37259     445.599E+03    -1.57370E+06              0.    -10.9400E+06
           37260     539.651E+03    -1.61788E+06              0.    -11.2453E+06
           37261     635.773E+03    -1.66138E+06              0.    -11.5583E+06
           37262     733.934E+03    -1.70408E+06              0.    -11.8791E+06
           37263     834.097E+03    -1.74584E+06              0.    -12.2078E+06
           37264     936.222E+03    -1.78652E+06              0.    -12.5445E+06
           37265     1.04026E+06    -1.82598E+06              0.    -12.8893E+06
           37266     1.14616E+06    -1.86407E+06              0.    -13.2423E+06
           37267     1.25386E+06    -1.90064E+06              0.    -13.6036E+06
           37268     1.36329E+06    -1.93553E+06              0.    -13.9732E+06
           37269     1.47439E+06    -1.96857E+06              0.    -14.3513E+06
           37270     1.58708E+06    -1.99959E+06              0.    -14.7378E+06
           37271     1.70127E+06    -2.02841E+06              0.    -15.1329E+06
           37272     1.81687E+06    -2.05486E+06              0.    -15.5364E+06
           37273     1.93380E+06    -2.07876E+06              0.    -15.9485E+06
           37274     2.05195E+06    -2.09992E+06              0.    -16.3692E+06
           37275     2.17121E+06    -2.11815E+06              0.    -16.7983E+06
           37276     2.29148E+06    -2.13327E+06              0.    -17.2359E+06
           37277     2.41264E+06    -2.14509E+06              0.    -17.6819E+06
           37278     2.53457E+06    -2.15343E+06              0.    -18.1362E+06
           37279     2.65715E+06    -2.15810E+06              0.    -18.5986E+06
           37280     2.78025E+06    -2.15892E+06              0.     -19.069E+06
           37281     2.90375E+06    -2.15573E+06              0.    -19.5472E+06
           37282     3.02753E+06    -2.14834E+06              0.    -20.0329E+06
           37283     3.15144E+06    -2.13662E+06              0.    -20.5259E+06
           37284     3.27537E+06     -2.1204E+06              0.    -21.0259E+06
           37285     3.39919E+06    -2.09955E+06              0.    -21.5323E+06
           37286     3.52277E+06    -2.07396E+06              0.    -22.0448E+06
           37287     3.64599E+06    -2.04350E+06              0.    -22.5629E+06
           37288     3.76875E+06    -2.00810E+06              0.    -23.0859E+06
           37289     3.89092E+06    -1.96768E+06              0.    -23.6131E+06
           37290     4.01241E+06    -1.92220E+06              0.    -24.1438E+06
           37291     4.13311E+06    -1.87162E+06              0.    -24.6771E+06
           37292     4.25293E+06    -1.81594E+06              0.    -25.2119E+06
           37293     4.37180E+06    -1.75518E+06              0.    -25.7471E+06
           37294     4.48962E+06    -1.68937E+06              0.    -26.2815E+06
           37295     4.60633E+06    -1.61859E+06              0.    -26.8135E+06
           37296     4.72186E+06    -1.54292E+06              0.    -27.3416E+06
           37297     4.83613E+06    -1.46246E+06              0.    -27.8640E+06
           37298     4.94906E+06    -1.37733E+06              0.    -28.3786E+06
           37299     5.06059E+06    -1.28767E+06              0.    -28.8832E+06
           37300     5.17061E+06    -1.19360E+06              0.    -29.3753E+06
           37301     5.27900E+06    -1.09526E+06              0.    -29.8521E+06
           37302     5.38561E+06    -992.754E+03              0.    -30.3106E+06
           37303     5.49026E+06    -886.183E+03              0.    -30.7473E+06
           37304     5.59269E+06    -775.585E+03              0.    -31.1586E+06
           37305     5.69258E+06    -660.944E+03              0.    -31.5402E+06
           37306     5.78953E+06    -542.159E+03              0.    -31.8876E+06
           37307     5.88300E+06    -419.020E+03              0.    -32.1959E+06
           37308     5.97232E+06    -291.179E+03              0.    -32.4596E+06
           37309     6.05668E+06    -158.112E+03              0.    -32.6727E+06
           37310     6.13504E+06    -19.0865E+03              0.    -32.8288E+06
           37311     6.20612E+06     126.892E+03              0.    -32.9208E+06
           37312     6.26838E+06     281.122E+03              0.    -32.9410E+06
           37313     6.31996E+06     445.265E+03              0.    -32.8811E+06
           37314     6.35860E+06     621.416E+03              0.    -32.7323E+06
           37315     6.38164E+06     812.161E+03              0.    -32.4847E+06
           37316     6.38590E+06     1.02067E+06              0.    -32.1281E+06
           37317     6.36766E+06     1.25078E+06              0.    -31.6514E+06
           37318     6.32255E+06     1.50707E+06              0.    -31.0425E+06
           37319     6.24550E+06     1.79501E+06              0.    -30.2887E+06
           37320     6.13062E+06     2.12106E+06              0.    -29.3766E+06
           37321     5.97113E+06     2.49277E+06              0.    -28.2918E+06
           37322     5.75921E+06     2.91898E+06              0.    -27.0189E+06
           37323     5.48597E+06     3.40995E+06              0.    -25.5418E+06
           37324     5.55732E+06     3.91665E+06              0.    -25.3354E+06
           37325    -1.41387E+06    -635.956E+03              0.    -665.818E+03
           37326    -1.41030E+06    -602.711E+03              0.    -664.613E+03
           37327    -1.42113E+06    -576.424E+03              0.    -657.813E+03
           37328    -1.43185E+06    -550.552E+03              0.    -651.581E+03
           37329    -1.44249E+06    -525.093E+03              0.    -645.903E+03
           37330    -1.45303E+06    -500.044E+03              0.    -640.764E+03
           37331    -1.46348E+06    -475.401E+03              0.    -636.151E+03
           37332    -1.47384E+06    -451.162E+03              0.    -632.053E+03
           37333    -1.48412E+06    -427.322E+03              0.    -628.457E+03
           37334    -1.49431E+06    -403.879E+03              0.    -625.353E+03
           37335    -1.50441E+06    -380.829E+03              0.    -622.732E+03
           37336    -1.51444E+06    -358.169E+03              0.    -620.583E+03
           37337    -1.52439E+06    -335.896E+03              0.    -618.898E+03
           37338    -1.53426E+06    -314.006E+03              0.    -617.669E+03
           37339    -1.54405E+06    -292.497E+03              0.    -616.888E+03
           37340    -1.55378E+06    -271.364E+03              0.    -616.549E+03
           37341    -1.56343E+06    -250.604E+03              0.    -616.646E+03
           37342    -1.57301E+06    -230.216E+03              0.    -617.173E+03
           37343    -1.58252E+06    -210.194E+03              0.    -618.125E+03
           37344    -1.59197E+06    -190.536E+03              0.    -619.496E+03
           37345    -1.60135E+06    -171.239E+03              0.    -621.284E+03
           37346    -1.61067E+06    -152.301E+03              0.    -623.484E+03
           37347    -1.61992E+06    -133.718E+03              0.    -626.094E+03
           37348    -1.62912E+06    -115.487E+03              0.    -629.111E+03
           37349    -1.63825E+06    -97.6053E+03              0.    -632.534E+03
           37350    -1.64733E+06    -80.0711E+03              0.    -636.359E+03
           37351    -1.65635E+06    -62.8812E+03              0.    -640.587E+03
           37352    -1.66531E+06    -46.0336E+03              0.    -645.217E+03
           37353    -1.67422E+06    -29.5254E+03              0.    -650.248E+03
           37354    -1.68307E+06    -13.3547E+03              0.    -655.681E+03
           37355    -1.69187E+06     2.48053E+03              0.    -661.516E+03
           37356    -1.70061E+06     17.9826E+03              0.    -667.756E+03
           37357    -1.70930E+06     33.1530E+03              0.    -674.401E+03
           37358    -1.71793E+06     47.9937E+03              0.    -681.453E+03
           37359    -1.72651E+06     62.5062E+03              0.    -688.916E+03
           37360    -1.73504E+06     76.6921E+03              0.    -696.791E+03
           37361    -1.74351E+06     90.5527E+03              0.    -705.083E+03
           37362    -1.75193E+06     104.089E+03              0.    -713.796E+03
           37363    -1.76029E+06     117.302E+03              0.    -722.933E+03
           37364    -1.76860E+06     130.194E+03              0.    -732.499E+03
           37365    -1.77685E+06     142.763E+03              0.    -742.501E+03
           37366    -1.78504E+06     155.012E+03              0.    -752.943E+03
           37367    -1.79317E+06     166.940E+03              0.    -763.832E+03
           37368    -1.80125E+06     178.549E+03              0.    -775.173E+03
           37369    -1.80926E+06     189.837E+03              0.    -786.976E+03
           37370    -1.81720E+06     200.804E+03              0.    -799.247E+03
           37371    -1.82508E+06     211.452E+03              0.    -811.994E+03
           37372    -1.83289E+06     221.778E+03              0.    -825.225E+03
           37373    -1.84063E+06     231.784E+03              0.    -838.951E+03
           37374    -1.84830E+06     241.466E+03              0.    -853.181E+03
           37375    -1.85589E+06     250.826E+03              0.    -867.924E+03
           37376    -1.86340E+06     259.861E+03              0.    -883.192E+03
           37377    -1.87082E+06     268.571E+03              0.    -898.996E+03
           37378    -1.87816E+06     276.953E+03              0.    -915.347E+03
           37379    -1.88541E+06     285.006E+03              0.    -932.259E+03
           37380    -1.89257E+06     292.728E+03              0.    -949.744E+03
           37381    -1.89963E+06     300.117E+03              0.    -967.815E+03
           37382    -1.90658E+06     307.170E+03              0.    -986.488E+03
           37383    -1.91342E+06     313.886E+03              0.    -1.00578E+06
           37384    -1.92015E+06     320.260E+03              0.    -1.02570E+06
           37385    -1.92676E+06     326.291E+03              0.    -1.04626E+06
           37386    -1.93325E+06     331.975E+03              0.    -1.06749E+06
           37387    -1.93961E+06     337.309E+03              0.    -1.08941E+06
           37388    -1.94582E+06     342.289E+03              0.    -1.11202E+06
           37389    -1.95190E+06     346.910E+03              0.    -1.13535E+06
           37390    -1.95782E+06     351.171E+03              0.    -1.15942E+06
           37391    -1.96359E+06     355.065E+03              0.    -1.18425E+06
           37392    -1.96919E+06     358.588E+03              0.    -1.20986E+06
           37393    -1.97461E+06     361.736E+03              0.    -1.23627E+06
           37394    -1.97985E+06     364.504E+03              0.    -1.26351E+06
           37395    -1.98490E+06     366.886E+03              0.    -1.29160E+06
           37396    -1.98976E+06     368.878E+03              0.    -1.32056E+06
           37397    -1.99440E+06     370.474E+03              0.    -1.35042E+06
           37398    -1.99882E+06     371.667E+03              0.    -1.38120E+06
           37399    -2.00301E+06     372.452E+03              0.    -1.41294E+06
           37400    -2.00696E+06     372.822E+03              0.    -1.44566E+06
           37401    -2.01066E+06     372.772E+03              0.    -1.47939E+06
           37402    -2.01410E+06     372.293E+03              0.    -1.51415E+06
           37403    -2.01726E+06     371.380E+03              0.    -1.54999E+06
           37404    -2.02013E+06     370.026E+03              0.    -1.58694E+06
           37405    -2.02270E+06     368.222E+03              0.    -1.62502E+06
           37406    -2.02496E+06     365.962E+03              0.    -1.66427E+06
           37407    -2.02690E+06     363.237E+03              0.    -1.70474E+06
           37408    -2.02849E+06     360.040E+03              0.    -1.74644E+06
           37409    -2.02972E+06     356.362E+03              0.    -1.78943E+06
           37410    -2.03058E+06     352.196E+03              0.    -1.83374E+06
           37411    -2.03106E+06     347.533E+03              0.    -1.87942E+06
           37412    -2.03113E+06     342.363E+03              0.    -1.92649E+06
           37413    -2.03079E+06     336.679E+03              0.    -1.97502E+06
           37414    -2.03000E+06     330.471E+03              0.    -2.02504E+06
           37415    -2.02876E+06     323.731E+03              0.    -2.07659E+06
           37416    -2.02705E+06     316.448E+03              0.    -2.12973E+06
           37417    -2.02485E+06     308.615E+03              0.    -2.18450E+06
           37418    -2.02214E+06     300.220E+03              0.    -2.24096E+06
           37419    -2.01890E+06     291.256E+03              0.    -2.29915E+06
           37420    -2.01510E+06     281.711E+03              0.    -2.35913E+06
           37421    -2.01074E+06     271.578E+03              0.    -2.42096E+06
           37422    -2.00578E+06     260.845E+03              0.    -2.48468E+06
           37423    -2.00021E+06     249.504E+03              0.    -2.55036E+06
           37424    -1.99400E+06     237.545E+03              0.    -2.61806E+06
           37425    -1.98713E+06     224.958E+03              0.    -2.68784E+06
           37426    -1.97958E+06     211.734E+03              0.    -2.75975E+06
           37427    -1.97132E+06     197.863E+03              0.    -2.83388E+06
           37428    -1.96233E+06     183.337E+03              0.    -2.91027E+06
           37429    -1.95259E+06     168.147E+03              0.    -2.98901E+06
           37430    -1.94206E+06     152.282E+03              0.    -3.07015E+06
           37431    -1.93073E+06     135.736E+03              0.    -3.15378E+06
           37432    -1.91856E+06     118.500E+03              0.    -3.23996E+06
           37433    -1.90553E+06     100.565E+03              0.    -3.32877E+06
           37434    -1.89161E+06     81.9250E+03              0.    -3.42030E+06
           37435    -1.87678E+06     62.5720E+03              0.    -3.51461E+06
           37436    -1.86100E+06     42.4998E+03              0.    -3.61179E+06
           37437    -1.84426E+06     21.7023E+03              0.    -3.71192E+06
           37438    -1.82651E+06         174.102              0.    -3.81509E+06
           37439    -1.80774E+06    -22.0895E+03              0.    -3.92138E+06
           37440    -1.78791E+06    -45.0923E+03              0.    -4.03089E+06
           37441    -1.76699E+06    -68.8377E+03              0.    -4.14371E+06
           37442    -1.74495E+06    -93.3277E+03              0.    -4.25992E+06
           37443    -1.72177E+06    -118.564E+03              0.    -4.37963E+06
           37444    -1.69741E+06    -144.546E+03              0.    -4.50292E+06
           37445    -1.67185E+06    -171.273E+03              0.    -4.62991E+06
           37446    -1.64506E+06    -198.742E+03              0.    -4.76069E+06
           37447    -1.61700E+06    -226.951E+03              0.    -4.89536E+06
           37448    -1.58765E+06    -255.894E+03              0.    -5.03403E+06
           37449    -1.55697E+06    -285.565E+03              0.    -5.17681E+06
           37450    -1.52495E+06    -315.954E+03              0.    -5.32380E+06
           37451    -1.49155E+06    -347.053E+03              0.    -5.47512E+06
           37452    -1.45675E+06    -378.848E+03              0.    -5.63087E+06
           37453    -1.42051E+06    -411.326E+03              0.    -5.79118E+06
           37454    -1.38282E+06    -444.470E+03              0.    -5.95615E+06
           37455    -1.34365E+06    -478.262E+03              0.    -6.12591E+06
           37456    -1.30297E+06    -512.680E+03              0.    -6.30058E+06
           37457    -1.26076E+06    -547.701E+03              0.    -6.48027E+06
           37458    -1.21701E+06    -583.298E+03              0.    -6.66511E+06
           37459    -1.17169E+06    -619.442E+03              0.    -6.85522E+06
           37460    -1.12478E+06    -656.100E+03              0.    -7.05072E+06
           37461    -1.07627E+06    -693.236E+03              0.    -7.25175E+06
           37462    -1.02614E+06    -730.811E+03              0.    -7.45842E+06
           37463    -974.381E+03    -768.782E+03              0.    -7.67087E+06
           37464    -920.986E+03    -807.102E+03              0.    -7.88922E+06
           37465    -865.945E+03    -845.721E+03              0.    -8.11360E+06
           37466    -809.255E+03    -884.583E+03              0.    -8.34414E+06
           37467    -750.914E+03    -923.631E+03              0.    -8.58097E+06
           37468    -690.924E+03    -962.799E+03              0.    -8.82422E+06
           37469    -629.292E+03    -1.00202E+06              0.    -9.07402E+06
           37470    -566.026E+03    -1.04122E+06              0.    -9.33049E+06
           37471    -501.139E+03    -1.08033E+06              0.    -9.59376E+06
           37472    -434.649E+03    -1.11926E+06              0.    -9.86395E+06
           37473    -366.578E+03    -1.15791E+06              0.    -10.1412E+06
           37474    -296.952E+03    -1.19621E+06              0.    -10.4256E+06
           37475    -225.803E+03    -1.23405E+06              0.    -10.7173E+06
           37476    -153.167E+03    -1.27132E+06              0.    -11.0165E+06
           37477    -79.0875E+03    -1.30792E+06              0.    -11.3231E+06
           37478    -3.61145E+03    -1.34373E+06              0.    -11.6374E+06
           37479     73.2071E+03    -1.37863E+06              0.    -11.9594E+06
           37480     151.308E+03    -1.41249E+06              0.    -12.2893E+06
           37481     230.626E+03    -1.44519E+06              0.    -12.6270E+06
           37482     311.087E+03    -1.47659E+06              0.    -12.9729E+06
           37483     392.612E+03    -1.50654E+06              0.    -13.3268E+06
           37484     475.114E+03    -1.53490E+06              0.    -13.6889E+06
           37485     558.501E+03    -1.56152E+06              0.    -14.0592E+06
           37486     642.672E+03    -1.58624E+06              0.    -14.4379E+06
           37487     727.520E+03    -1.60891E+06              0.    -14.8249E+06
           37488     812.931E+03    -1.62936E+06              0.    -15.2203E+06
           37489     898.783E+03    -1.64743E+06              0.    -15.6240E+06
           37490     984.949E+03    -1.66295E+06              0.    -16.0362E+06
           37491     1.07129E+06    -1.67577E+06              0.    -16.4568E+06
           37492     1.15768E+06    -1.68571E+06              0.    -16.8857E+06
           37493     1.24396E+06    -1.69260E+06              0.    -17.3229E+06
           37494     1.32997E+06    -1.69630E+06              0.    -17.7683E+06
           37495     1.41558E+06    -1.69663E+06              0.    -18.2218E+06
           37496     1.50060E+06    -1.69346E+06              0.    -18.6834E+06
           37497     1.58489E+06    -1.68663E+06              0.    -19.1527E+06
           37498     1.66826E+06    -1.67601E+06              0.    -19.6296E+06
           37499     1.75057E+06    -1.66147E+06              0.    -20.1140E+06
           37500     1.83162E+06    -1.64291E+06              0.    -20.6054E+06
           37501     1.91127E+06    -1.62023E+06              0.    -21.1036E+06
           37502     1.98933E+06    -1.59335E+06              0.    -21.6082E+06
           37503     2.06565E+06    -1.56221E+06              0.    -22.1186E+06
           37504     2.14007E+06    -1.52679E+06              0.    -22.6345E+06
           37505     2.21243E+06    -1.48706E+06              0.    -23.1552E+06
           37506     2.28259E+06    -1.44305E+06              0.    -23.6800E+06
           37507     2.35040E+06    -1.39481E+06              0.    -24.2082E+06
           37508     2.41574E+06    -1.34241E+06              0.    -24.7389E+06
           37509     2.47848E+06    -1.28598E+06              0.    -25.2711E+06
           37510     2.53852E+06    -1.22566E+06              0.    -25.8036E+06
           37511     2.59576E+06    -1.16164E+06              0.    -26.3353E+06
           37512     2.65011E+06    -1.09415E+06              0.    -26.8647E+06
           37513     2.70148E+06    -1.02346E+06              0.    -27.3902E+06
           37514     2.74981E+06    -949.863E+03              0.    -27.9101E+06
           37515     2.79503E+06    -873.703E+03              0.    -28.4223E+06
           37516     2.83707E+06    -795.347E+03              0.    -28.9246E+06
           37517     2.87586E+06    -715.194E+03              0.    -29.4146E+06
           37518     2.91132E+06    -633.659E+03              0.    -29.8896E+06
           37519     2.94335E+06    -551.171E+03              0.    -30.3464E+06
           37520     2.97182E+06    -468.162E+03              0.    -30.7817E+06
           37521     2.99656E+06    -385.046E+03              0.    -31.1917E+06
           37522     3.01734E+06    -302.211E+03              0.    -31.5724E+06
           37523     3.03385E+06    -219.991E+03              0.    -31.9191E+06
           37524     3.04569E+06    -138.646E+03              0.    -32.2269E+06
           37525     3.05234E+06    -58.3367E+03              0.    -32.4902E+06
           37526     3.05312E+06     20.9193E+03              0.    -32.7032E+06
           37527     3.04720E+06     99.2728E+03              0.    -32.8591E+06
           37528     3.03348E+06     177.097E+03              0.    -32.9508E+06
           37529     3.01065E+06     255.030E+03              0.    -32.9706E+06
           37530     2.97707E+06     334.034E+03              0.    -32.9099E+06
           37531     2.93076E+06     415.460E+03              0.    -32.7596E+06
           37532     2.86930E+06     501.114E+03              0.    -32.5098E+06
           37533     2.78982E+06     593.343E+03              0.    -32.1499E+06
           37534     2.68891E+06     695.114E+03              0.    -31.6683E+06
           37535     2.56253E+06     810.117E+03              0.    -31.0526E+06
           37536     2.40593E+06     942.875E+03              0.    -30.2898E+06
           37537     2.21359E+06     1.09886E+06              0.    -29.3658E+06
           37538     1.97910E+06     1.28461E+06              0.    -28.2654E+06
           37539     1.69503E+06     1.50792E+06              0.    -26.9727E+06
           37540     1.35275E+06     1.77790E+06              0.    -25.4708E+06
           37541     1.32588E+06     2.02874E+06              0.    -25.2400E+06
           37542    -1.43110E+06    -643.740E+03              0.    -654.785E+03
           37543    -1.42745E+06    -609.760E+03              0.    -653.598E+03
           37544    -1.43852E+06    -582.899E+03              0.    -646.898E+03
           37545    -1.44948E+06    -556.468E+03              0.    -640.763E+03
           37546    -1.46035E+06    -530.464E+03              0.    -635.178E+03
           37547    -1.47113E+06    -504.883E+03              0.    -630.132E+03
           37548    -1.48181E+06    -479.721E+03              0.    -625.609E+03
           37549    -1.49240E+06    -454.974E+03              0.    -621.598E+03
           37550    -1.50290E+06    -430.638E+03              0.    -618.088E+03
           37551    -1.51333E+06    -406.709E+03              0.    -615.068E+03
           37552    -1.52366E+06    -383.184E+03              0.    -612.528E+03
           37553    -1.53392E+06    -360.057E+03              0.    -610.458E+03
           37554    -1.54410E+06    -337.325E+03              0.    -608.850E+03
           37555    -1.55421E+06    -314.984E+03              0.    -607.695E+03
           37556    -1.56424E+06    -293.030E+03              0.    -606.987E+03
           37557    -1.57421E+06    -271.460E+03              0.    -606.719E+03
           37558    -1.58410E+06    -250.269E+03              0.    -606.885E+03
           37559    -1.59393E+06    -229.453E+03              0.    -607.478E+03
           37560    -1.60370E+06    -209.010E+03              0.    -608.494E+03
           37561    -1.61340E+06    -188.935E+03              0.    -609.929E+03
           37562    -1.62304E+06    -169.225E+03              0.    -611.778E+03
           37563    -1.63263E+06    -149.876E+03              0.    -614.038E+03
           37564    -1.64216E+06    -130.885E+03              0.    -616.706E+03
           37565    -1.65163E+06    -112.249E+03              0.    -619.780E+03
           37566    -1.66105E+06    -93.9635E+03              0.    -623.257E+03
           37567    -1.67042E+06    -76.0270E+03              0.    -627.137E+03
           37568    -1.67974E+06    -58.4354E+03              0.    -631.418E+03
           37569    -1.68901E+06    -41.1865E+03              0.    -636.099E+03
           37570    -1.69823E+06    -24.2768E+03              0.    -641.181E+03
           37571    -1.70741E+06    -7.70419E+03              0.    -646.664E+03
           37572    -1.71654E+06     8.53415E+03              0.    -652.548E+03
           37573    -1.72563E+06     24.4407E+03              0.    -658.837E+03
           37574    -1.73467E+06     40.0177E+03              0.    -665.529E+03
           37575    -1.74367E+06     55.2673E+03              0.    -672.630E+03
           37576    -1.75263E+06     70.1916E+03              0.    -680.140E+03
           37577    -1.76154E+06     84.7925E+03              0.    -688.063E+03
           37578    -1.77041E+06     99.0720E+03              0.    -696.402E+03
           37579    -1.77924E+06     113.031E+03              0.    -705.162E+03
           37580    -1.78803E+06     126.672E+03              0.    -714.348E+03
           37581    -1.79677E+06     139.996E+03              0.    -723.963E+03
           37582    -1.80548E+06     153.004E+03              0.    -734.014E+03
           37583    -1.81414E+06     165.698E+03              0.    -744.506E+03
           37584    -1.82275E+06     178.077E+03              0.    -755.446E+03
           37585    -1.83132E+06     190.143E+03              0.    -766.840E+03
           37586    -1.83984E+06     201.897E+03              0.    -778.697E+03
           37587    -1.84832E+06     213.338E+03              0.    -791.023E+03
           37588    -1.85675E+06     224.467E+03              0.    -803.827E+03
           37589    -1.86513E+06     235.285E+03              0.    -817.118E+03
           37590    -1.87345E+06     245.790E+03              0.    -830.905E+03
           37591    -1.88173E+06     255.984E+03              0.    -845.198E+03
           37592    -1.88994E+06     265.864E+03              0.    -860.007E+03
           37593    -1.89810E+06     275.432E+03              0.    -875.344E+03
           37594    -1.90620E+06     284.685E+03              0.    -891.220E+03
           37595    -1.91423E+06     293.624E+03              0.    -907.647E+03
           37596    -1.92220E+06     302.246E+03              0.    -924.637E+03
           37597    -1.93010E+06     310.550E+03              0.    -942.205E+03
           37598    -1.93792E+06     318.536E+03              0.    -960.363E+03
           37599    -1.94567E+06     326.201E+03              0.    -979.126E+03
           37600    -1.95333E+06     333.543E+03              0.    -998.509E+03
           37601    -1.96091E+06      340.56E+03              0.    -1.01853E+06
           37602    -1.96840E+06     347.250E+03              0.    -1.03920E+06
           37603    -1.97580E+06     353.611E+03              0.    -1.06054E+06
           37604    -1.98310E+06     359.639E+03              0.    -1.08257E+06
           37605    -1.99029E+06     365.332E+03              0.    -1.10531E+06
           37606    -1.99737E+06     370.687E+03              0.    -1.12876E+06
           37607    -2.00434E+06     375.700E+03              0.    -1.15297E+06
           37608    -2.01118E+06     380.368E+03              0.    -1.17794E+06
           37609    -2.01790E+06     384.688E+03              0.    -1.20370E+06
           37610    -2.02448E+06     388.654E+03              0.    -1.23026E+06
           37611    -2.03092E+06     392.265E+03              0.    -1.25767E+06
           37612    -2.03721E+06     395.514E+03              0.    -1.28592E+06
           37613    -2.04335E+06     398.397E+03              0.    -1.31506E+06
           37614    -2.04932E+06     400.911E+03              0.    -1.34511E+06
           37615    -2.05511E+06     403.049E+03              0.    -1.37609E+06
           37616    -2.06073E+06     404.807E+03              0.    -1.40803E+06
           37617    -2.06615E+06     406.179E+03              0.    -1.44097E+06
           37618    -2.07137E+06     407.161E+03              0.    -1.47492E+06
           37619    -2.07639E+06     407.746E+03              0.    -1.50993E+06
           37620    -2.08118E+06     407.928E+03              0.    -1.54601E+06
           37621    -2.08575E+06     407.702E+03              0.    -1.58322E+06
           37622    -2.09007E+06     407.060E+03              0.    -1.62157E+06
           37623    -2.09414E+06     405.998E+03              0.    -1.66111E+06
           37624    -2.09795E+06     404.508E+03              0.    -1.70186E+06
           37625    -2.10148E+06     402.583E+03              0.    -1.74388E+06
           37626    -2.10473E+06     400.217E+03              0.    -1.78719E+06
           37627    -2.10767E+06     397.402E+03              0.    -1.83184E+06
           37628    -2.11030E+06     394.132E+03              0.    -1.87786E+06
           37629    -2.11260E+06     390.398E+03              0.    -1.92530E+06
           37630    -2.11456E+06     386.194E+03              0.    -1.97420E+06
           37631    -2.11617E+06     381.511E+03              0.    -2.02461E+06
           37632    -2.11740E+06     376.343E+03              0.    -2.07658E+06
           37633    -2.11825E+06     370.681E+03              0.    -2.13015E+06
           37634    -2.11870E+06     364.518E+03              0.    -2.18536E+06
           37635    -2.11873E+06     357.845E+03              0.    -2.24228E+06
           37636    -2.11833E+06     350.654E+03              0.    -2.30095E+06
           37637    -2.11747E+06     342.938E+03              0.    -2.36143E+06
           37638    -2.11615E+06     334.689E+03              0.    -2.42377E+06
           37639    -2.11434E+06     325.898E+03              0.    -2.48802E+06
           37640    -2.11203E+06     316.557E+03              0.    -2.55426E+06
           37641    -2.10919E+06     306.659E+03              0.    -2.62253E+06
           37642    -2.10581E+06     296.196E+03              0.    -2.69289E+06
           37643    -2.10188E+06     285.160E+03              0.    -2.76542E+06
           37644    -2.09736E+06     273.543E+03              0.    -2.84018E+06
           37645    -2.09224E+06     261.339E+03              0.    -2.91723E+06
           37646    -2.08649E+06     248.538E+03              0.    -2.99664E+06
           37647    -2.08011E+06     235.136E+03              0.    -3.07848E+06
           37648    -2.07306E+06     221.125E+03              0.    -3.16283E+06
           37649    -2.06533E+06     206.498E+03              0.    -3.24975E+06
           37650    -2.05690E+06     191.250E+03              0.    -3.33933E+06
           37651    -2.04773E+06     175.375E+03              0.    -3.43164E+06
           37652    -2.03781E+06     158.868E+03              0.    -3.52676E+06
           37653    -2.02712E+06     141.724E+03              0.    -3.62478E+06
           37654    -2.01564E+06     123.939E+03              0.    -3.72577E+06
           37655    -2.00334E+06     105.510E+03              0.    -3.82982E+06
           37656    -1.99020E+06     86.4334E+03              0.    -3.93701E+06
           37657    -1.97619E+06     66.7080E+03              0.    -4.04745E+06
           37658    -1.96130E+06     46.3325E+03              0.    -4.16121E+06
           37659    -1.94550E+06     25.3065E+03              0.    -4.27840E+06
           37660    -1.92877E+06     3.63077E+03              0.    -4.39910E+06
           37661    -1.91109E+06    -18.6930E+03              0.    -4.52341E+06
           37662    -1.89243E+06    -41.6617E+03              0.    -4.65144E+06
           37663    -1.87277E+06    -65.2713E+03              0.    -4.78328E+06
           37664    -1.85209E+06    -89.5163E+03              0.    -4.91903E+06
           37665    -1.83038E+06    -114.390E+03              0.    -5.05880E+06
           37666    -1.80760E+06    -139.883E+03              0.    -5.20270E+06
           37667    -1.78374E+06    -165.986E+03              0.    -5.35083E+06
           37668    -1.75879E+06    -192.687E+03              0.    -5.50331E+06
           37669    -1.73271E+06    -219.972E+03              0.    -5.66024E+06
           37670    -1.70551E+06    -247.825E+03              0.    -5.82174E+06
           37671    -1.67715E+06    -276.229E+03              0.    -5.98792E+06
           37672    -1.64763E+06    -305.163E+03              0.    -6.15889E+06
           37673    -1.61693E+06    -334.605E+03              0.    -6.33479E+06
           37674    -1.58504E+06    -364.529E+03              0.    -6.51572E+06
           37675    -1.55195E+06    -394.908E+03              0.    -6.70180E+06
           37676    -1.51766E+06    -425.711E+03              0.    -6.89316E+06
           37677    -1.48215E+06    -456.905E+03              0.    -7.08991E+06
           37678    -1.44541E+06    -488.453E+03              0.    -7.29219E+06
           37679    -1.40746E+06    -520.314E+03              0.    -7.50011E+06
           37680    -1.36829E+06    -552.446E+03              0.    -7.71381E+06
           37681    -1.32791E+06    -584.802E+03              0.    -7.93339E+06
           37682    -1.28632E+06     -617.33E+03              0.    -8.15900E+06
           37683    -1.24352E+06    -649.976E+03              0.    -8.39074E+06
           37684    -1.19955E+06    -682.681E+03              0.    -8.62876E+06
           37685    -1.15440E+06    -715.383E+03              0.    -8.87317E+06
           37686    -1.10811E+06    -748.013E+03              0.    -9.12410E+06
           37687    -1.06070E+06    -780.500E+03              0.    -9.38167E+06
           37688    -1.01220E+06    -812.769E+03              0.    -9.64601E+06
           37689    -962.639E+03    -844.737E+03              0.    -9.91722E+06
           37690    -912.064E+03    -876.319E+03              0.    -10.1954E+06
           37691    -860.519E+03    -907.423E+03              0.    -10.4808E+06
           37692    -808.055E+03    -937.955E+03              0.    -10.7733E+06
           37693    -754.727E+03    -967.814E+03              0.    -11.0732E+06
           37694    -700.599E+03    -996.893E+03              0.    -11.3806E+06
           37695    -645.741E+03    -1.02508E+06              0.    -11.6955E+06
           37696    -590.228E+03    -1.05227E+06              0.    -12.0181E+06
           37697    -534.144E+03    -1.07832E+06              0.    -12.3484E+06
           37698    -477.579E+03    -1.10313E+06              0.    -12.6865E+06
           37699    -420.630E+03    -1.12656E+06              0.    -13.0326E+06
           37700    -363.404E+03    -1.14847E+06              0.    -13.3866E+06
           37701    -306.012E+03    -1.16873E+06              0.    -13.7487E+06
           37702    -248.576E+03    -1.18719E+06              0.    -14.1189E+06
           37703    -191.224E+03    -1.20372E+06              0.    -14.4972E+06
           37704    -134.094E+03    -1.21817E+06              0.    -14.8838E+06
           37705    -77.3310E+03    -1.23038E+06              0.    -15.2786E+06
           37706    -21.0872E+03    -1.24021E+06              0.    -15.6816E+06
           37707     34.4765E+03    -1.24752E+06              0.    -16.0928E+06
           37708     89.1919E+03    -1.25214E+06              0.    -16.5122E+06
           37709     142.883E+03    -1.25395E+06              0.    -16.9398E+06
           37710     195.368E+03    -1.25278E+06              0.    -17.3755E+06
           37711     246.458E+03    -1.24852E+06              0.    -17.8192E+06
           37712     295.958E+03    -1.24102E+06              0.    -18.2708E+06
           37713     343.668E+03    -1.23017E+06              0.    -18.7302E+06
           37714     389.384E+03    -1.21585E+06              0.    -19.1973E+06
           37715     432.898E+03    -1.19797E+06              0.    -19.6717E+06
           37716     474.002E+03    -1.17644E+06              0.    -20.1533E+06
           37717     512.484E+03    -1.15120E+06              0.    -20.6417E+06
           37718     548.133E+03    -1.12220E+06              0.    -21.1368E+06
           37719     580.741E+03    -1.08943E+06              0.    -21.6380E+06
           37720     610.102E+03    -1.05287E+06              0.    -22.1449E+06
           37721     636.016E+03    -1.01258E+06              0.    -22.6570E+06
           37722     658.287E+03    -968.613E+03              0.    -23.1738E+06
           37723     676.731E+03    -921.076E+03              0.    -23.6946E+06
           37724     691.169E+03    -870.113E+03              0.    -24.2187E+06
           37725     701.439E+03    -815.910E+03              0.    -24.7451E+06
           37726     707.387E+03    -758.700E+03              0.    -25.2729E+06
           37727     708.876E+03    -698.763E+03              0.    -25.8010E+06
           37728     705.784E+03    -636.433E+03              0.    -26.3283E+06
           37729     698.002E+03    -572.096E+03              0.    -26.8532E+06
           37730     685.439E+03    -506.196E+03              0.    -27.3743E+06
           37731     668.019E+03    -439.229E+03              0.    -27.8899E+06
           37732     645.677E+03    -371.750E+03              0.    -28.3979E+06
           37733     618.360E+03    -304.366E+03              0.    -28.8962E+06
           37734     586.019E+03    -237.736E+03              0.    -29.3824E+06
           37735     548.610E+03    -172.563E+03              0.    -29.8538E+06
           37736     506.079E+03    -109.593E+03              0.    -30.3072E+06
           37737     458.357E+03    -49.6007E+03              0.    -30.7395E+06
           37738     405.351E+03     6.62448E+03              0.    -31.1468E+06
           37739     346.922E+03     58.2850E+03              0.    -31.5251E+06
           37740     282.879E+03     104.604E+03              0.    -31.8699E+06
           37741     212.948E+03     144.838E+03              0.    -32.1760E+06
           37742     136.754E+03     178.311E+03              0.    -32.4380E+06
           37743     53.7974E+03     204.445E+03              0.    -32.6499E+06
           37744    -36.5883E+03     222.792E+03              0.    -32.8050E+06
           37745    -135.260E+03     233.082E+03              0.    -32.8960E+06
           37746    -243.315E+03     235.270E+03              0.    -32.9151E+06
           37747    -362.133E+03     229.588E+03              0.    -32.8537E+06
           37748    -493.423E+03     216.614E+03              0.    -32.7024E+06
           37749    -639.291E+03     197.337E+03              0.    -32.4510E+06
           37750    -802.289E+03     173.237E+03              0.    -32.0887E+06
           37751    -985.495E+03     146.374E+03              0.    -31.6036E+06
           37752    -1.19258E+06     119.486E+03              0.    -30.9830E+06
           37753    -1.42790E+06     96.0931E+03              0.    -30.2132E+06
           37754    -1.69659E+06     80.6250E+03              0.    -29.2797E+06
           37755    -2.00463E+06     78.5471E+03              0.    -28.1668E+06
           37756    -2.35895E+06     96.5387E+03              0.    -26.8579E+06
           37757    -2.76749E+06     142.620E+03              0.    -25.3352E+06
           37758    -2.89287E+06     133.427E+03              0.    -25.0805E+06
           37759    -1.44810E+06    -651.419E+03              0.    -643.511E+03
           37760    -1.44438E+06    -616.707E+03              0.    -642.344E+03
           37761    -1.45568E+06    -589.274E+03              0.    -635.745E+03
           37762    -1.46688E+06    -562.286E+03              0.    -629.710E+03
           37763    -1.47798E+06    -535.740E+03              0.    -624.222E+03
           37764    -1.48899E+06    -509.630E+03              0.    -619.269E+03
           37765    -1.49990E+06    -483.951E+03              0.    -614.838E+03
           37766    -1.51072E+06    -458.700E+03              0.    -610.915E+03
           37767    -1.52145E+06    -433.871E+03              0.    -607.491E+03
           37768    -1.53210E+06    -409.458E+03              0.    -604.553E+03
           37769    -1.54267E+06    -385.459E+03              0.    -602.093E+03
           37770    -1.55316E+06    -361.867E+03              0.    -600.101E+03
           37771    -1.56358E+06    -338.679E+03              0.    -598.568E+03
           37772    -1.57392E+06    -315.889E+03              0.    -597.486E+03
           37773    -1.58419E+06    -293.494E+03              0.    -596.848E+03
           37774    -1.59440E+06    -271.488E+03              0.    -596.647E+03
           37775    -1.60453E+06    -249.867E+03              0.    -596.878E+03
           37776    -1.61461E+06    -228.628E+03              0.    -597.534E+03
           37777    -1.62463E+06    -207.765E+03              0.    -598.610E+03
           37778    -1.63459E+06    -187.274E+03              0.    -600.103E+03
           37779    -1.64449E+06    -167.153E+03              0.    -602.008E+03
           37780    -1.65435E+06    -147.395E+03              0.    -604.323E+03
           37781    -1.66415E+06    -127.998E+03              0.    -607.043E+03
           37782    -1.67390E+06    -108.958E+03              0.    -610.167E+03
           37783    -1.68361E+06    -90.2708E+03              0.    -613.692E+03
           37784    -1.69327E+06    -71.9333E+03              0.    -617.618E+03
           37785    -1.70289E+06    -53.9414E+03              0.    -621.944E+03
           37786    -1.71247E+06    -36.2924E+03              0.    -626.669E+03
           37787    -1.72201E+06    -18.9825E+03              0.    -631.793E+03
           37788    -1.73151E+06    -2.00883E+03              0.    -637.317E+03
           37789    -1.74098E+06     14.6317E+03              0.    -643.242E+03
           37790    -1.75041E+06     30.9421E+03              0.    -649.568E+03
           37791    -1.75980E+06     46.9249E+03              0.    -656.299E+03
           37792    -1.76917E+06     62.5828E+03              0.    -663.436E+03
           37793    -1.77850E+06     77.9185E+03              0.    -670.982E+03
           37794    -1.78780E+06     92.9343E+03              0.    -678.941E+03
           37795    -1.79708E+06     107.632E+03              0.    -687.316E+03
           37796    -1.80632E+06     122.015E+03              0.    -696.111E+03
           37797    -1.81553E+06     136.084E+03              0.    -705.331E+03
           37798    -1.82472E+06     149.841E+03              0.    -714.981E+03
           37799    -1.83387E+06     163.288E+03              0.    -725.066E+03
           37800    -1.84300E+06     176.426E+03              0.    -735.593E+03
           37801     -1.8521E+06     189.257E+03              0.    -746.569E+03
           37802    -1.86117E+06     201.782E+03              0.    -758.000E+03
           37803    -1.87021E+06     214.002E+03              0.    -769.893E+03
           37804    -1.87922E+06     225.919E+03              0.    -782.257E+03
           37805    -1.88820E+06     237.531E+03              0.    -795.100E+03
           37806    -1.89715E+06     248.842E+03              0.    -808.431E+03
           37807    -1.90607E+06     259.850E+03              0.    -822.260E+03
           37808    -1.91495E+06     270.556E+03              0.    -836.596E+03
           37809    -1.92380E+06     280.960E+03              0.    -851.451E+03
           37810    -1.93261E+06     291.062E+03              0.    -866.835E+03
           37811    -1.94138E+06     300.862E+03              0.    -882.760E+03
           37812    -1.95011E+06     310.359E+03              0.    -899.239E+03
           37813    -1.95880E+06     319.554E+03              0.    -916.283E+03
           37814    -1.96745E+06     328.444E+03              0.    -933.908E+03
           37815    -1.97605E+06     337.030E+03              0.    -952.126E+03
           37816    -1.98459E+06      345.31E+03              0.    -970.953E+03
           37817    -1.99308E+06     353.283E+03              0.    -990.403E+03
           37818    -2.00152E+06     360.947E+03              0.    -1.01049E+06
           37819    -2.00990E+06     368.301E+03              0.    -1.03124E+06
           37820    -2.01821E+06     375.343E+03              0.    -1.05266E+06
           37821    -2.02646E+06     382.071E+03              0.    -1.07477E+06
           37822    -2.03463E+06     388.483E+03              0.    -1.09759E+06
           37823    -2.04273E+06     394.576E+03              0.    -1.12115E+06
           37824    -2.05075E+06     400.348E+03              0.    -1.14545E+06
           37825    -2.05868E+06     405.797E+03              0.    -1.17052E+06
           37826    -2.06653E+06     410.919E+03              0.    -1.19639E+06
           37827    -2.07428E+06     415.711E+03              0.    -1.22307E+06
           37828    -2.08192E+06     420.171E+03              0.    -1.25059E+06
           37829    -2.08946E+06     424.294E+03              0.    -1.27898E+06
           37830    -2.09689E+06     428.077E+03              0.    -1.30825E+06
           37831    -2.10420E+06     431.516E+03              0.    -1.33844E+06
           37832    -2.11138E+06     434.608E+03              0.    -1.36957E+06
           37833    -2.11843E+06     437.348E+03              0.    -1.40167E+06
           37834    -2.12534E+06     439.731E+03              0.    -1.43477E+06
           37835    -2.13210E+06     441.754E+03              0.    -1.46890E+06
           37836    -2.13871E+06     443.412E+03              0.    -1.50409E+06
           37837    -2.14515E+06     444.700E+03              0.    -1.54036E+06
           37838    -2.15142E+06     445.612E+03              0.    -1.57777E+06
           37839    -2.15751E+06     446.145E+03              0.    -1.61633E+06
           37840    -2.16341E+06     446.291E+03              0.    -1.65609E+06
           37841    -2.16911E+06     446.047E+03              0.    -1.69707E+06
           37842    -2.17460E+06     445.407E+03              0.    -1.73933E+06
           37843    -2.17987E+06     444.364E+03              0.    -1.78289E+06
           37844    -2.18491E+06     442.914E+03              0.    -1.82780E+06
           37845    -2.18971E+06     441.049E+03              0.    -1.87410E+06
           37846    -2.19427E+06     438.765E+03              0.    -1.92182E+06
           37847    -2.19855E+06     436.054E+03              0.    -1.97103E+06
           37848    -2.20257E+06     432.911E+03              0.    -2.02175E+06
           37849    -2.20630E+06     429.330E+03              0.    -2.07404E+06
           37850    -2.20973E+06     425.303E+03              0.    -2.12794E+06
           37851    -2.21285E+06     420.826E+03              0.    -2.18351E+06
           37852    -2.21565E+06     415.890E+03              0.    -2.24079E+06
           37853    -2.21811E+06     410.489E+03              0.    -2.29984E+06
           37854    -2.22022E+06     404.618E+03              0.    -2.36071E+06
           37855    -2.22196E+06     398.270E+03              0.    -2.42346E+06
           37856    -2.22332E+06     391.438E+03              0.    -2.48814E+06
           37857    -2.22430E+06     384.116E+03              0.    -2.55482E+06
           37858    -2.22486E+06     376.297E+03              0.    -2.62354E+06
           37859    -2.22500E+06     367.976E+03              0.    -2.69438E+06
           37860    -2.22471E+06     359.146E+03              0.    -2.76740E+06
           37861    -2.22396E+06     349.802E+03              0.    -2.84266E+06
           37862    -2.22274E+06     339.938E+03              0.    -2.92023E+06
           37863    -2.22103E+06     329.548E+03              0.    -3.00018E+06
           37864    -2.21882E+06     318.627E+03              0.    -3.08258E+06
           37865    -2.21610E+06     307.170E+03              0.    -3.16750E+06
           37866    -2.21284E+06     295.173E+03              0.    -3.25501E+06
           37867    -2.20902E+06     282.632E+03              0.    -3.34520E+06
           37868    -2.20464E+06     269.542E+03              0.    -3.43813E+06
           37869    -2.19968E+06     255.901E+03              0.    -3.53389E+06
           37870    -2.19411E+06     241.706E+03              0.    -3.63257E+06
           37871    -2.18793E+06     226.954E+03              0.    -3.73423E+06
           37872    -2.18111E+06     211.644E+03              0.    -3.83897E+06
           37873    -2.17364E+06     195.775E+03              0.    -3.94688E+06
           37874    -2.16550E+06     179.348E+03              0.    -4.05805E+06
           37875    -2.15668E+06     162.362E+03              0.    -4.17255E+06
           37876    -2.14715E+06     144.819E+03              0.    -4.29050E+06
           37877    -2.13691E+06     126.723E+03              0.    -4.41198E+06
           37878    -2.12594E+06     108.076E+03              0.    -4.53708E+06
           37879    -2.11422E+06     88.8842E+03              0.    -4.66591E+06
           37880    -2.10174E+06     69.1525E+03              0.    -4.79857E+06
           37881    -2.08848E+06     48.8886E+03              0.    -4.93516E+06
           37882    -2.07444E+06     28.1011E+03              0.    -5.07578E+06
           37883    -2.05960E+06     6.80040E+03              0.    -5.22053E+06
           37884    -2.04395E+06    -15.0018E+03              0.    -5.36953E+06
           37885    -2.02748E+06    -37.2920E+03              0.    -5.52288E+06
           37886    -2.01018E+06    -60.0549E+03              0.    -5.68069E+06
           37887    -1.99204E+06    -83.2731E+03              0.    -5.84308E+06
           37888    -1.97305E+06    -106.927E+03              0.    -6.01015E+06
           37889    -1.95322E+06    -130.996E+03              0.    -6.18203E+06
           37890    -1.93253E+06    -155.455E+03              0.    -6.35882E+06
           37891    -1.91099E+06    -180.279E+03              0.    -6.54064E+06
           37892    -1.88860E+06    -205.439E+03              0.    -6.72761E+06
           37893    -1.86536E+06    -230.902E+03              0.    -6.91986E+06
           37894    -1.84127E+06    -256.636E+03              0.    -7.11749E+06
           37895    -1.81634E+06    -282.601E+03              0.    -7.32063E+06
           37896    -1.79059E+06    -308.759E+03              0.    -7.52940E+06
           37897    -1.76403E+06    -335.065E+03              0.    -7.74392E+06
           37898    -1.73667E+06    -361.471E+03              0.    -7.96432E+06
           37899    -1.70854E+06    -387.928E+03              0.    -8.19070E+06
           37900    -1.67965E+06    -414.381E+03              0.    -8.42320E+06
           37901    -1.65004E+06    -440.772E+03              0.    -8.66194E+06
           37902    -1.61974E+06    -467.038E+03              0.    -8.90703E+06
           37903    -1.58878E+06    -493.113E+03              0.    -9.15859E+06
           37904    -1.55721E+06    -518.927E+03              0.    -9.41674E+06
           37905    -1.52508E+06    -544.405E+03              0.    -9.68160E+06
           37906    -1.49242E+06    -569.468E+03              0.    -9.95328E+06
           37907    -1.45931E+06    -594.032E+03              0.    -10.2319E+06
           37908    -1.42581E+06    -618.010E+03              0.    -10.5176E+06
           37909    -1.39198E+06    -641.308E+03              0.    -10.8104E+06
           37910    -1.35790E+06    -663.830E+03              0.    -11.1104E+06
           37911    -1.32366E+06    -685.474E+03              0.    -11.4179E+06
           37912    -1.28934E+06    -706.133E+03              0.    -11.7327E+06
           37913    -1.25505E+06    -725.698E+03              0.    -12.0551E+06
           37914    -1.22088E+06    -744.053E+03              0.    -12.3852E+06
           37915    -1.18696E+06    -761.081E+03              0.    -12.7229E+06
           37916    -1.15340E+06    -776.657E+03              0.    -13.0684E+06
           37917    -1.12034E+06    -790.658E+03              0.    -13.4218E+06
           37918    -1.08791E+06    -802.953E+03              0.    -13.7831E+06
           37919    -1.05626E+06    -813.412E+03              0.    -14.1523E+06
           37920    -1.02555E+06    -821.901E+03              0.    -14.5295E+06
           37921    -995.942E+03    -828.285E+03              0.    -14.9147E+06
           37922    -967.616E+03    -832.431E+03              0.    -15.3079E+06
           37923    -940.753E+03    -834.202E+03              0.    -15.7092E+06
           37924    -915.548E+03    -833.465E+03              0.    -16.1185E+06
           37925    -892.202E+03    -830.092E+03              0.    -16.5357E+06
           37926    -870.925E+03    -823.953E+03              0.    -16.9610E+06
           37927    -851.936E+03    -814.931E+03              0.    -17.3941E+06
           37928    -835.461E+03    -802.909E+03              0.    -17.8349E+06
           37929    -821.731E+03    -787.784E+03              0.    -18.2835E+06
           37930    -810.988E+03    -769.464E+03              0.    -18.7395E+06
           37931    -803.474E+03    -747.867E+03              0.    -19.2030E+06
           37932    -799.439E+03    -722.932E+03              0.    -19.6736E+06
           37933    -799.134E+03    -694.614E+03              0.    -20.1511E+06
           37934    -802.812E+03    -662.889E+03              0.    -20.6352E+06
           37935    -810.728E+03    -627.762E+03              0.    -21.1257E+06
           37936    -823.134E+03    -589.263E+03              0.    -21.6220E+06
           37937    -840.278E+03    -547.457E+03              0.    -22.1239E+06
           37938    -862.405E+03    -502.444E+03              0.    -22.6308E+06
           37939    -889.752E+03    -454.365E+03              0.    -23.1421E+06
           37940    -922.545E+03    -403.404E+03              0.    -23.6573E+06
           37941    -961.001E+03    -349.797E+03              0.    -24.1755E+06
           37942    -1.00532E+06    -293.831E+03              0.    -24.6959E+06
           37943    -1.05570E+06    -235.852E+03              0.    -25.2176E+06
           37944    -1.11229E+06    -176.266E+03              0.    -25.7396E+06
           37945    -1.17526E+06    -115.547E+03              0.    -26.2606E+06
           37946    -1.24473E+06    -54.2383E+03              0.    -26.7793E+06
           37947    -1.32080E+06     7.04636E+03              0.    -27.2942E+06
           37948    -1.40356E+06     67.6175E+03              0.    -27.8036E+06
           37949    -1.49309E+06     126.707E+03              0.    -28.3056E+06
           37950    -1.58941E+06     183.475E+03              0.    -28.7981E+06
           37951    -1.69256E+06     237.000E+03              0.    -29.2787E+06
           37952    -1.80255E+06     286.294E+03              0.    -29.7447E+06
           37953    -1.91939E+06     330.296E+03              0.    -30.1931E+06
           37954    -2.04309E+06     367.887E+03              0.    -30.6207E+06
           37955    -2.17366E+06     397.897E+03              0.    -31.0237E+06
           37956    -2.31115E+06     419.117E+03              0.    -31.3982E+06
           37957    -2.45563E+06     430.317E+03              0.    -31.7395E+06
           37958    -2.60725E+06     430.268E+03              0.    -32.0428E+06
           37959    -2.76622E+06     417.762E+03              0.    -32.3024E+06
           37960    -2.93287E+06     391.648E+03              0.    -32.5123E+06
           37961    -3.10767E+06     350.862E+03              0.    -32.6659E+06
           37962    -3.29124E+06     294.472E+03              0.    -32.7558E+06
           37963    -3.48444E+06     221.723E+03              0.    -32.7740E+06
           37964    -3.68837E+06     132.094E+03              0.    -32.7119E+06
           37965    -3.90444E+06     25.3543E+03              0.    -32.5599E+06
           37966    -4.13443E+06    -98.3598E+03              0.    -32.3076E+06
           37967    -4.38054E+06    -238.474E+03              0.    -31.9440E+06
           37968    -4.64547E+06    -393.881E+03              0.    -31.4568E+06
           37969    -4.93250E+06    -562.847E+03              0.    -30.8330E+06
           37970    -5.24554E+06    -742.909E+03              0.    -30.0585E+06
           37971    -5.58927E+06    -930.739E+03              0.    -29.1183E+06
           37972    -5.96922E+06    -1.12204E+06              0.    -27.9961E+06
           37973    -6.39194E+06    -1.31138E+06              0.    -26.6746E+06
           37974    -6.86508E+06    -1.49200E+06              0.    -25.1352E+06
           37975    -7.09032E+06    -1.76551E+06              0.    -24.8574E+06
           37976    -1.46486E+06    -658.990E+03              0.    -631.998E+03
           37977    -1.46106E+06    -623.549E+03              0.    -630.851E+03
           37978    -1.47260E+06    -595.547E+03              0.    -624.357E+03
           37979    -1.48403E+06    -568.005E+03              0.    -618.423E+03
           37980    -1.49536E+06    -540.920E+03              0.    -613.035E+03
           37981    -1.50660E+06    -514.284E+03              0.    -608.177E+03
           37982    -1.51774E+06    -488.092E+03              0.    -603.837E+03
           37983    -1.52879E+06    -462.339E+03              0.    -600.004E+03
           37984    -1.53975E+06    -437.019E+03              0.    -596.665E+03
           37985    -1.55063E+06    -412.126E+03              0.     -593.81E+03
           37986    -1.56143E+06    -387.656E+03              0.    -591.429E+03
           37987    -1.57215E+06    -363.602E+03              0.    -589.513E+03
           37988    -1.58280E+06    -339.961E+03              0.    -588.053E+03
           37989    -1.59337E+06    -316.725E+03              0.    -587.041E+03
           37990    -1.60388E+06    -293.890E+03              0.     -586.47E+03
           37991    -1.61433E+06    -271.452E+03              0.    -586.334E+03
           37992    -1.62471E+06    -249.404E+03              0.    -586.626E+03
           37993    -1.63503E+06    -227.743E+03              0.    -587.340E+03
           37994    -1.64530E+06    -206.463E+03              0.    -588.473E+03
           37995    -1.65552E+06    -185.559E+03              0.    -590.019E+03
           37996    -1.66568E+06    -165.028E+03              0.    -591.975E+03
           37997    -1.67580E+06    -144.864E+03              0.    -594.338E+03
           37998    -1.68588E+06    -125.064E+03              0.    -597.104E+03
           37999    -1.69591E+06    -105.622E+03              0.    -600.271E+03
           38000    -1.70590E+06    -86.5342E+03              0.    -603.838E+03
           38001    -1.71585E+06    -67.7976E+03              0.    -607.804E+03
           38002    -1.72577E+06    -49.4072E+03              0.    -612.167E+03
           38003    -1.73566E+06    -31.3598E+03              0.    -616.927E+03
           38004    -1.74552E+06    -13.6511E+03              0.    -622.085E+03
           38005    -1.75535E+06     3.72209E+03              0.    -627.640E+03
           38006    -1.76515E+06     20.7634E+03              0.    -633.595E+03
           38007    -1.77492E+06     37.4763E+03              0.    -639.950E+03
           38008    -1.78468E+06     53.8639E+03              0.    -646.708E+03
           38009    -1.79441E+06     69.9293E+03              0.    -653.871E+03
           38010    -1.80412E+06     85.6754E+03              0.    -661.442E+03
           38011    -1.81381E+06     101.105E+03              0.    -669.424E+03
           38012    -1.82348E+06     116.221E+03              0.    -677.822E+03
           38013    -1.83314E+06     131.026E+03              0.    -686.639E+03
           38014    -1.84278E+06     145.523E+03              0.    -695.880E+03
           38015    -1.85240E+06     159.713E+03              0.    -705.551E+03
           38016    -1.86202E+06     173.599E+03              0.    -715.656E+03
           38017    -1.87161E+06     187.182E+03              0.    -726.204E+03
           38018    -1.88120E+06     200.465E+03              0.    -737.199E+03
           38019    -1.89077E+06     213.450E+03              0.    -748.649E+03
           38020    -1.90033E+06     226.137E+03              0.    -760.562E+03
           38021    -1.90988E+06     238.528E+03              0.    -772.946E+03
           38022    -1.91941E+06     250.626E+03              0.    -785.810E+03
           38023    -1.92894E+06     262.430E+03              0.    -799.162E+03
           38024    -1.93845E+06     273.941E+03              0.    -813.013E+03
           38025    -1.94794E+06     285.161E+03              0.    -827.372E+03
           38026    -1.95742E+06     296.090E+03              0.    -842.250E+03
           38027    -1.96689E+06     306.729E+03              0.    -857.660E+03
           38028    -1.97634E+06     317.077E+03              0.    -873.611E+03
           38029    -1.98578E+06     327.136E+03              0.    -890.118E+03
           38030    -1.99519E+06     336.905E+03              0.    -907.192E+03
           38031    -2.00459E+06     346.384E+03              0.    -924.848E+03
           38032    -2.01396E+06     355.572E+03              0.    -943.101E+03
           38033    -2.02331E+06     364.470E+03              0.    -961.963E+03
           38034    -2.03264E+06     373.077E+03              0.    -981.452E+03
           38035    -2.04193E+06     381.391E+03              0.    -1.00158E+06
           38036    -2.05120E+06     389.413E+03              0.    -1.02237E+06
           38037    -2.06044E+06     397.140E+03              0.    -1.04384E+06
           38038    -2.06964E+06     404.571E+03              0.    -1.06600E+06
           38039    -2.07880E+06     411.706E+03              0.    -1.08888E+06
           38040    -2.08792E+06     418.542E+03              0.    -1.11249E+06
           38041    -2.09700E+06     425.079E+03              0.    -1.13685E+06
           38042    -2.10603E+06     431.313E+03              0.    -1.16199E+06
           38043    -2.11501E+06     437.242E+03              0.    -1.18793E+06
           38044    -2.12393E+06     442.866E+03              0.    -1.21469E+06
           38045    -2.13279E+06     448.180E+03              0.    -1.24229E+06
           38046    -2.14159E+06     453.183E+03              0.    -1.27076E+06
           38047    -2.15032E+06     457.872E+03              0.    -1.30012E+06
           38048    -2.15898E+06     462.244E+03              0.    -1.33040E+06
           38049    -2.16755E+06     466.295E+03              0.    -1.36164E+06
           38050    -2.17605E+06     470.024E+03              0.    -1.39384E+06
           38051    -2.18445E+06     473.426E+03              0.    -1.42706E+06
           38052    -2.19276E+06     476.498E+03              0.    -1.46130E+06
           38053    -2.20097E+06     479.236E+03              0.    -1.49662E+06
           38054    -2.20907E+06     481.638E+03              0.    -1.53303E+06
           38055    -2.21706E+06     483.697E+03              0.    -1.57057E+06
           38056    -2.22492E+06     485.412E+03              0.    -1.60928E+06
           38057    -2.23266E+06     486.777E+03              0.    -1.64920E+06
           38058    -2.24027E+06     487.789E+03              0.    -1.69035E+06
           38059    -2.24773E+06     488.442E+03              0.    -1.73277E+06
           38060    -2.25504E+06     488.733E+03              0.    -1.77652E+06
           38061    -2.26220E+06     488.657E+03              0.    -1.82162E+06
           38062    -2.26919E+06     488.209E+03              0.    -1.86811E+06
           38063    -2.27601E+06     487.384E+03              0.    -1.91605E+06
           38064    -2.28264E+06     486.179E+03              0.    -1.96547E+06
           38065    -2.28908E+06     484.587E+03              0.    -2.01642E+06
           38066    -2.29532E+06     482.604E+03              0.    -2.06895E+06
           38067    -2.30135E+06     480.225E+03              0.    -2.12310E+06
           38068    -2.30716E+06     477.445E+03              0.    -2.17893E+06
           38069    -2.31274E+06     474.259E+03              0.    -2.23648E+06
           38070    -2.31809E+06     470.661E+03              0.    -2.29581E+06
           38071    -2.32318E+06     466.648E+03              0.    -2.35697E+06
           38072    -2.32801E+06     462.214E+03              0.    -2.42002E+06
           38073    -2.33257E+06     457.355E+03              0.    -2.48502E+06
           38074    -2.33685E+06     452.065E+03              0.    -2.55202E+06
           38075    -2.34084E+06     446.339E+03              0.    -2.62108E+06
           38076    -2.34452E+06     440.174E+03              0.    -2.69227E+06
           38077    -2.34789E+06     433.565E+03              0.    -2.76565E+06
           38078    -2.35093E+06     426.508E+03              0.    -2.84129E+06
           38079    -2.35363E+06     418.999E+03              0.    -2.91924E+06
           38080    -2.35598E+06     411.034E+03              0.    -2.99959E+06
           38081    -2.35798E+06     402.609E+03              0.    -3.08240E+06
           38082    -2.35960E+06     393.722E+03              0.    -3.16774E+06
           38083    -2.36083E+06     384.370E+03              0.    -3.25570E+06
           38084    -2.36167E+06     374.550E+03              0.    -3.34633E+06
           38085    -2.36211E+06     364.261E+03              0.    -3.43973E+06
           38086    -2.36212E+06     353.501E+03              0.    -3.53596E+06
           38087    -2.36170E+06     342.269E+03              0.    -3.63512E+06
           38088    -2.36084E+06     330.564E+03              0.    -3.73728E+06
           38089    -2.35953E+06     318.388E+03              0.    -3.84253E+06
           38090    -2.35776E+06     305.741E+03              0.    -3.95096E+06
           38091    -2.35551E+06     292.625E+03              0.    -4.06265E+06
           38092    -2.35278E+06     279.042E+03              0.     -4.1777E+06
           38093    -2.34956E+06     264.996E+03              0.    -4.29619E+06
           38094    -2.34584E+06     250.491E+03              0.    -4.41823E+06
           38095    -2.34160E+06     235.533E+03              0.     -4.5439E+06
           38096    -2.33685E+06     220.128E+03              0.    -4.67330E+06
           38097    -2.33158E+06     204.285E+03              0.    -4.80654E+06
           38098    -2.32577E+06     188.011E+03              0.    -4.94371E+06
           38099    -2.31943E+06     171.317E+03              0.    -5.08492E+06
           38100    -2.31255E+06     154.216E+03              0.    -5.23027E+06
           38101    -2.30513E+06     136.720E+03              0.    -5.37986E+06
           38102    -2.29716E+06     118.845E+03              0.    -5.53380E+06
           38103    -2.28865E+06     100.607E+03              0.    -5.69221E+06
           38104    -2.27959E+06     82.0254E+03              0.    -5.85518E+06
           38105    -2.27000E+06     63.1201E+03              0.    -6.02284E+06
           38106    -2.25987E+06     43.9139E+03              0.    -6.19529E+06
           38107    -2.24921E+06      24.432E+03              0.    -6.37264E+06
           38108    -2.23803E+06     4.70138E+03              0.    -6.55502E+06
           38109    -2.22635E+06    -15.2482E+03              0.    -6.74253E+06
           38110    -2.21417E+06    -35.3844E+03              0.    -6.93530E+06
           38111    -2.20151E+06    -55.6725E+03              0.    -7.13343E+06
           38112    -2.18839E+06    -76.0746E+03              0.    -7.33705E+06
           38113    -2.17484E+06    -96.5499E+03              0.    -7.54627E+06
           38114    -2.16087E+06    -117.055E+03              0.    -7.76121E+06
           38115    -2.14653E+06    -137.542E+03              0.    -7.98199E+06
           38116    -2.13184E+06    -157.961E+03              0.    -8.20872E+06
           38117    -2.11683E+06    -178.259E+03              0.    -8.44152E+06
           38118    -2.10156E+06    -198.377E+03              0.    -8.68051E+06
           38119    -2.08607E+06    -218.254E+03              0.    -8.92579E+06
           38120    -2.07041E+06    -237.827E+03              0.    -9.17749E+06
           38121    -2.05464E+06    -257.025E+03              0.    -9.43572E+06
           38122    -2.03881E+06    -275.776E+03              0.    -9.70058E+06
           38123    -2.02300E+06    -294.004E+03              0.    -9.97219E+06
           38124    -2.00729E+06    -311.627E+03              0.    -10.2506E+06
           38125    -1.99174E+06    -328.560E+03              0.    -10.5361E+06
           38126    -1.97646E+06    -344.714E+03              0.    -10.8285E+06
           38127    -1.96153E+06    -359.996E+03              0.    -11.1281E+06
           38128    -1.94706E+06    -374.309E+03              0.    -11.4350E+06
           38129    -1.93316E+06    -387.550E+03              0.    -11.7491E+06
           38130    -1.91995E+06    -399.616E+03              0.    -12.0707E+06
           38131    -1.90755E+06    -410.398E+03              0.    -12.3998E+06
           38132    -1.89611E+06    -419.783E+03              0.    -12.7364E+06
           38133    -1.88576E+06    -427.656E+03              0.    -13.0807E+06
           38134    -1.87666E+06    -433.901E+03              0.    -13.4326E+06
           38135    -1.86898E+06    -438.396E+03              0.    -13.7922E+06
           38136    -1.86289E+06    -441.020E+03              0.    -14.1596E+06
           38137    -1.85857E+06    -441.650E+03              0.    -14.5348E+06
           38138    -1.85622E+06    -440.164E+03              0.    -14.9178E+06
           38139    -1.85604E+06    -436.440E+03              0.    -15.3086E+06
           38140    -1.85826E+06    -430.356E+03              0.    -15.7072E+06
           38141    -1.86308E+06    -421.796E+03              0.    -16.1136E+06
           38142    -1.87076E+06    -410.645E+03              0.    -16.5277E+06
           38143    -1.88153E+06    -396.796E+03              0.    -16.9495E+06
           38144    -1.89564E+06    -380.148E+03              0.    -17.3789E+06
           38145    -1.91336E+06    -360.610E+03              0.    -17.8158E+06
           38146    -1.93497E+06    -338.103E+03              0.    -18.2601E+06
           38147    -1.96073E+06    -312.560E+03              0.    -18.7117E+06
           38148    -1.99093E+06    -283.933E+03              0.    -19.1703E+06
           38149    -2.02587E+06    -252.191E+03              0.    -19.6358E+06
           38150    -2.06584E+06    -217.327E+03              0.    -20.1079E+06
           38151    -2.11113E+06    -179.359E+03              0.    -20.5863E+06
           38152    -2.16204E+06    -138.336E+03              0.    -21.0708E+06
           38153    -2.21887E+06    -94.3387E+03              0.    -21.5609E+06
           38154    -2.28191E+06    -47.4881E+03              0.    -22.0562E+06
           38155    -2.35145E+06     2.05322E+03              0.    -22.5563E+06
           38156    -2.42778E+06     54.0747E+03              0.    -23.0606E+06
           38157    -2.51116E+06     108.314E+03              0.    -23.5684E+06
           38158    -2.60186E+06     164.448E+03              0.    -24.0791E+06
           38159    -2.70010E+06     222.094E+03              0.    -24.5919E+06
           38160    -2.80613E+06     280.798E+03              0.    -25.1058E+06
           38161    -2.92015E+06     340.031E+03              0.    -25.6198E+06
           38162    -3.04232E+06     399.187E+03              0.    -26.1327E+06
           38163    -3.17282E+06     457.570E+03              0.    -26.6434E+06
           38164    -3.31176E+06     514.399E+03              0.    -27.1502E+06
           38165    -3.45924E+06     568.798E+03              0.    -27.6517E+06
           38166    -3.61534E+06     619.789E+03              0.    -28.1458E+06
           38167    -3.78008E+06     666.304E+03              0.    -28.6306E+06
           38168    -3.95348E+06     707.163E+03              0.    -29.1036E+06
           38169    -4.13553E+06     741.095E+03              0.    -29.5624E+06
           38170    -4.32619E+06     766.726E+03              0.    -30.0041E+06
           38171    -4.52540E+06     782.592E+03              0.    -30.4252E+06
           38172    -4.73311E+06     787.142E+03              0.    -30.8224E+06
           38173    -4.94927E+06     778.751E+03              0.    -31.1914E+06
           38174    -5.17384E+06     755.735E+03              0.    -31.5280E+06
           38175    -5.40682E+06     716.367E+03              0.    -31.8270E+06
           38176    -5.64827E+06     658.899E+03              0.    -32.0831E+06
           38177    -5.89833E+06     581.595E+03              0.    -32.2901E+06
           38178    -6.15727E+06     482.760E+03              0.    -32.4414E+06
           38179    -6.42546E+06     360.779E+03              0.    -32.5296E+06
           38180    -6.70350E+06     214.165E+03              0.    -32.5467E+06
           38181    -6.99221E+06     41.6149E+03              0.    -32.4839E+06
           38182    -7.29266E+06    -157.939E+03              0.    -32.3315E+06
           38183    -7.60628E+06    -385.249E+03              0.    -32.0791E+06
           38184    -7.93490E+06    -640.686E+03              0.    -31.7151E+06
           38185    -8.28079E+06    -924.143E+03              0.    -31.2273E+06
           38186    -8.64680E+06    -1.23494E+06              0.    -30.6023E+06
           38187    -9.03636E+06    -1.57172E+06              0.    -29.8255E+06
           38188    -9.45364E+06    -1.93233E+06              0.    -28.8814E+06
           38189    -9.90363E+06    -2.31368E+06              0.    -27.7533E+06
           38190    -10.3922E+06    -2.71162E+06              0.    -26.4230E+06
           38191    -10.9264E+06    -3.12075E+06              0.    -24.8715E+06
           38192    -11.2508E+06    -3.66094E+06              0.    -24.5714E+06
           38193    -1.48137E+06    -666.447E+03              0.    -620.248E+03
           38194    -1.47749E+06    -630.282E+03              0.    -619.121E+03
           38195    -1.48926E+06    -601.715E+03              0.    -612.735E+03
           38196    -1.50093E+06    -573.624E+03              0.    -606.906E+03
           38197    -1.51249E+06    -546.002E+03              0.    -601.618E+03
           38198    -1.52396E+06    -518.844E+03              0.    -596.857E+03
           38199    -1.53533E+06    -492.142E+03              0.    -592.610E+03
           38200    -1.54660E+06    -465.891E+03              0.    -588.866E+03
           38201    -1.55779E+06    -440.083E+03              0.    -585.612E+03
           38202    -1.56890E+06    -414.714E+03              0.    -582.839E+03
           38203    -1.57993E+06    -389.776E+03              0.    -580.536E+03
           38204    -1.59088E+06    -365.264E+03              0.    -578.695E+03
           38205    -1.60175E+06    -341.172E+03              0.    -577.306E+03
           38206    -1.61256E+06    -317.493E+03              0.    -576.362E+03
           38207    -1.62331E+06    -294.222E+03              0.    -575.855E+03
           38208    -1.63399E+06    -271.354E+03              0.    -575.780E+03
           38209    -1.64461E+06    -248.883E+03              0.    -576.130E+03
           38210    -1.65518E+06    -226.803E+03              0.    -576.899E+03
           38211    -1.66570E+06    -205.108E+03              0.    -578.083E+03
           38212    -1.67617E+06    -183.795E+03              0.    -579.678E+03
           38213    -1.68660E+06    -162.857E+03              0.    -581.679E+03
           38214    -1.69698E+06    -142.289E+03              0.    -584.084E+03
           38215    -1.70733E+06    -122.087E+03              0.    -586.890E+03
           38216    -1.71764E+06    -102.246E+03              0.    -590.094E+03
           38217    -1.72791E+06    -82.7609E+03              0.    -593.696E+03
           38218    -1.73816E+06    -63.6275E+03              0.    -597.693E+03
           38219    -1.74838E+06    -44.8408E+03              0.    -602.086E+03
           38220    -1.75858E+06    -26.3971E+03              0.    -606.873E+03
           38221    -1.76875E+06    -8.29171E+03              0.    -612.055E+03
           38222    -1.77890E+06     9.47913E+03              0.    -617.633E+03
           38223    -1.78904E+06     26.9195E+03              0.    -623.609E+03
           38224    -1.79916E+06     44.0333E+03              0.    -629.982E+03
           38225    -1.80927E+06     60.8239E+03              0.    -636.757E+03
           38226    -1.81936E+06     77.2952E+03              0.    -643.935E+03
           38227    -1.82945E+06     93.4505E+03              0.    -651.519E+03
           38228    -1.83953E+06     109.293E+03              0.    -659.513E+03
           38229    -1.84961E+06     124.826E+03              0.    -667.920E+03
           38230    -1.85968E+06     140.053E+03              0.    -676.746E+03
           38231    -1.86975E+06     154.976E+03              0.    -685.995E+03
           38232    -1.87981E+06     169.598E+03              0.    -695.672E+03
           38233    -1.88988E+06     183.922E+03              0.    -705.783E+03
           38234    -1.89995E+06     197.950E+03              0.    -716.335E+03
           38235    -1.91002E+06     211.685E+03              0.    -727.334E+03
           38236    -1.92010E+06     225.128E+03              0.    -738.788E+03
           38237    -1.93018E+06     238.282E+03              0.    -750.703E+03
           38238    -1.94026E+06     251.149E+03              0.    -763.090E+03
           38239    -1.95036E+06     263.731E+03              0.    -775.955E+03
           38240    -1.96045E+06     276.029E+03              0.    -789.310E+03
           38241    -1.97056E+06     288.044E+03              0.    -803.162E+03
           38242    -1.98067E+06     299.779E+03              0.    -817.523E+03
           38243    -1.99079E+06     311.234E+03              0.    -832.404E+03
           38244    -2.00091E+06     322.410E+03              0.    -847.816E+03
           38245    -2.01104E+06     333.308E+03              0.    -863.771E+03
           38246    -2.02118E+06     343.929E+03              0.    -880.282E+03
           38247    -2.03132E+06     354.274E+03              0.    -897.361E+03
           38248    -2.04147E+06     364.343E+03              0.    -915.023E+03
           38249    -2.05163E+06     374.136E+03              0.    -933.282E+03
           38250    -2.06179E+06     383.654E+03              0.    -952.153E+03
           38251    -2.07195E+06     392.896E+03              0.    -971.652E+03
           38252    -2.08211E+06     401.863E+03              0.    -991.794E+03
           38253    -2.09227E+06     410.554E+03              0.    -1.01260E+06
           38254    -2.10243E+06     418.969E+03              0.    -1.03408E+06
           38255    -2.11259E+06     427.107E+03              0.    -1.05626E+06
           38256    -2.12275E+06     434.968E+03              0.    -1.07916E+06
           38257    -2.13290E+06     442.550E+03              0.    -1.10279E+06
           38258    -2.14304E+06     449.853E+03              0.    -1.12718E+06
           38259    -2.15317E+06     456.876E+03              0.    -1.15234E+06
           38260    -2.16329E+06     463.618E+03              0.    -1.17831E+06
           38261    -2.17339E+06     470.076E+03              0.    -1.20510E+06
           38262    -2.18347E+06     476.249E+03              0.    -1.23274E+06
           38263    -2.19353E+06     482.137E+03              0.    -1.26125E+06
           38264    -2.20357E+06     487.736E+03              0.    -1.29066E+06
           38265    -2.21358E+06     493.045E+03              0.    -1.32099E+06
           38266    -2.22356E+06     498.062E+03              0.    -1.35228E+06
           38267    -2.23351E+06     502.784E+03              0.    -1.38454E+06
           38268    -2.24342E+06     507.211E+03              0.    -1.41781E+06
           38269    -2.25328E+06     511.337E+03              0.    -1.45213E+06
           38270    -2.26310E+06     515.162E+03              0.    -1.48751E+06
           38271    -2.27287E+06     518.683E+03              0.    -1.52400E+06
           38272    -2.28258E+06     521.896E+03              0.    -1.56162E+06
           38273    -2.29223E+06     524.800E+03              0.    -1.60042E+06
           38274    -2.30182E+06      527.39E+03              0.    -1.64043E+06
           38275    -2.31134E+06     529.664E+03              0.    -1.68168E+06
           38276    -2.32079E+06     531.619E+03              0.    -1.72421E+06
           38277    -2.33015E+06     533.250E+03              0.    -1.76806E+06
           38278    -2.33943E+06     534.557E+03              0.    -1.81328E+06
           38279    -2.34862E+06     535.533E+03              0.    -1.85989E+06
           38280    -2.35771E+06     536.177E+03              0.    -1.90796E+06
           38281    -2.36670E+06     536.484E+03              0.    -1.95752E+06
           38282    -2.37558E+06     536.452E+03              0.    -2.00861E+06
           38283    -2.38434E+06     536.076E+03              0.    -2.06129E+06
           38284    -2.39299E+06     535.354E+03              0.    -2.11560E+06
           38285    -2.40150E+06     534.280E+03              0.    -2.17159E+06
           38286    -2.40988E+06     532.853E+03              0.    -2.22932E+06
           38287    -2.41812E+06     531.069E+03              0.    -2.28883E+06
           38288    -2.42621E+06     528.923E+03              0.    -2.35018E+06
           38289    -2.43414E+06     526.413E+03              0.    -2.41343E+06
           38290    -2.44191E+06     523.536E+03              0.    -2.47863E+06
           38291    -2.44951E+06     520.288E+03              0.    -2.54584E+06
           38292    -2.45694E+06     516.666E+03              0.    -2.61512E+06
           38293    -2.46418E+06     512.667E+03              0.    -2.68654E+06
           38294    -2.47122E+06     508.289E+03              0.    -2.76016E+06
           38295    -2.47807E+06     503.529E+03              0.    -2.83604E+06
           38296    -2.48472E+06     498.385E+03              0.    -2.91425E+06
           38297    -2.49115E+06     492.855E+03              0.    -2.99486E+06
           38298    -2.49736E+06     486.937E+03              0.    -3.07794E+06
           38299    -2.50334E+06     480.630E+03              0.    -3.16355E+06
           38300    -2.50909E+06     473.932E+03              0.    -3.25179E+06
           38301    -2.51460E+06     466.844E+03              0.    -3.34272E+06
           38302    -2.51986E+06     459.365E+03              0.    -3.43641E+06
           38303    -2.52487E+06     451.495E+03              0.    -3.53295E+06
           38304    -2.52962E+06     443.235E+03              0.    -3.63242E+06
           38305    -2.53411E+06     434.587E+03              0.    -3.73490E+06
           38306    -2.53832E+06     425.553E+03              0.    -3.84047E+06
           38307    -2.54226E+06     416.135E+03              0.    -3.94922E+06
           38308    -2.54593E+06     406.337E+03              0.    -4.06125E+06
           38309    -2.54931E+06     396.164E+03              0.    -4.17663E+06
           38310    -2.55240E+06     385.620E+03              0.    -4.29546E+06
           38311    -2.55521E+06     374.712E+03              0.    -4.41783E+06
           38312    -2.55773E+06     363.447E+03              0.    -4.54384E+06
           38313    -2.55996E+06     351.833E+03              0.    -4.67359E+06
           38314    -2.56190E+06     339.880E+03              0.    -4.80717E+06
           38315    -2.56356E+06     327.597E+03              0.    -4.94467E+06
           38316    -2.56493E+06     314.998E+03              0.    -5.08621E+06
           38317    -2.56602E+06     302.095E+03              0.    -5.23189E+06
           38318    -2.56683E+06     288.902E+03              0.    -5.38180E+06
           38319    -2.56737E+06     275.438E+03              0.    -5.53605E+06
           38320    -2.56766E+06     261.719E+03              0.    -5.69476E+06
           38321    -2.56769E+06     247.765E+03              0.    -5.85803E+06
           38322    -2.56749E+06     233.598E+03              0.    -6.02596E+06
           38323    -2.56706E+06     219.242E+03              0.    -6.19866E+06
           38324    -2.56642E+06     204.722E+03              0.    -6.37626E+06
           38325    -2.56560E+06     190.067E+03              0.    -6.55885E+06
           38326    -2.56461E+06     175.307E+03              0.    -6.74656E+06
           38327    -2.56347E+06     160.474E+03              0.    -6.93949E+06
           38328    -2.56223E+06     145.605E+03              0.    -7.13775E+06
           38329    -2.56089E+06     130.736E+03              0.    -7.34146E+06
           38330    -2.55951E+06     115.909E+03              0.    -7.55074E+06
           38331    -2.55811E+06     101.167E+03              0.    -7.76570E+06
           38332    -2.55674E+06     86.5573E+03              0.    -7.98644E+06
           38333    -2.55545E+06     72.1292E+03              0.    -8.21308E+06
           38334    -2.55428E+06     57.9359E+03              0.    -8.44574E+06
           38335    -2.55330E+06     44.0337E+03              0.    -8.68452E+06
           38336    -2.55255E+06     30.4824E+03              0.    -8.92953E+06
           38337    -2.55212E+06     17.3453E+03              0.    -9.18088E+06
           38338    -2.55206E+06     4.68923E+03              0.    -9.43867E+06
           38339    -2.55245E+06    -7.41513E+03              0.    -9.70302E+06
           38340    -2.55339E+06    -18.8937E+03              0.    -9.97402E+06
           38341    -2.55496E+06    -29.6684E+03              0.    -10.2518E+06
           38342    -2.55726E+06    -39.6575E+03              0.    -10.5363E+06
           38343    -2.56039E+06    -48.7757E+03              0.    -10.8279E+06
           38344    -2.56446E+06    -56.9340E+03              0.    -11.1264E+06
           38345    -2.56961E+06    -64.0396E+03              0.    -11.4321E+06
           38346    -2.57596E+06    -69.9966E+03              0.    -11.7449E+06
           38347    -2.58364E+06    -74.7055E+03              0.    -12.0650E+06
           38348    -2.59281E+06    -78.0641E+03              0.    -12.3924E+06
           38349    -2.60362E+06    -79.9671E+03              0.    -12.7272E+06
           38350    -2.61625E+06    -80.3072E+03              0.    -13.0694E+06
           38351    -2.63086E+06    -78.9746E+03              0.    -13.4192E+06
           38352    -2.64766E+06    -75.8585E+03              0.    -13.7764E+06
           38353    -2.66683E+06    -70.8472E+03              0.    -14.1412E+06
           38354    -2.68859E+06    -63.8284E+03              0.    -14.5135E+06
           38355    -2.71316E+06    -54.6914E+03              0.    -14.8934E+06
           38356    -2.74078E+06    -43.3263E+03              0.    -15.2809E+06
           38357    -2.77168E+06    -29.6266E+03              0.    -15.6759E+06
           38358    -2.80613E+06    -13.4896E+03              0.    -16.0784E+06
           38359    -2.84439E+06     5.18193E+03              0.    -16.4884E+06
           38360    -2.88674E+06     26.4774E+03              0.    -16.9057E+06
           38361    -2.93347E+06     50.4780E+03              0.    -17.3304E+06
           38362    -2.98488E+06     77.2532E+03              0.    -17.7623E+06
           38363    -3.04127E+06     106.859E+03              0.    -18.2012E+06
           38364    -3.10297E+06     139.335E+03              0.    -18.6471E+06
           38365    -3.17029E+06     174.703E+03              0.    -19.0997E+06
           38366    -3.24358E+06     212.961E+03              0.    -19.5588E+06
           38367    -3.32316E+06     254.081E+03              0.    -20.0242E+06
           38368    -3.40937E+06     298.007E+03              0.    -20.4957E+06
           38369    -3.50257E+06     344.649E+03              0.    -20.9728E+06
           38370    -3.60309E+06     393.875E+03              0.    -21.4552E+06
           38371    -3.71127E+06     445.515E+03              0.    -21.9425E+06
           38372    -3.82745E+06     499.345E+03              0.    -22.4343E+06
           38373    -3.95195E+06     555.091E+03              0.    -22.9299E+06
           38374    -4.08509E+06     612.416E+03              0.    -23.4289E+06
           38375    -4.22718E+06     670.917E+03              0.    -23.9304E+06
           38376    -4.37850E+06     730.116E+03              0.    -24.4337E+06
           38377    -4.53932E+06     789.459E+03              0.    -24.9381E+06
           38378    -4.70988E+06     848.301E+03              0.    -25.4423E+06
           38379    -4.89039E+06     905.906E+03              0.    -25.9455E+06
           38380    -5.08104E+06     961.435E+03              0.    -26.4462E+06
           38381    -5.28198E+06     1.01394E+06              0.    -26.9431E+06
           38382    -5.49332E+06     1.06238E+06              0.    -27.4346E+06
           38383    -5.71515E+06     1.10555E+06              0.    -27.9190E+06
           38384    -5.94749E+06     1.14218E+06              0.    -28.3941E+06
           38385    -6.19035E+06     1.17082E+06              0.    -28.8578E+06
           38386    -6.44368E+06     1.18994E+06              0.    -29.3076E+06
           38387    -6.70741E+06     1.19783E+06              0.    -29.7406E+06
           38388    -6.98143E+06     1.19270E+06              0.    -30.1536E+06
           38389    -7.26560E+06     1.17262E+06              0.    -30.5431E+06
           38390    -7.55979E+06     1.13554E+06              0.    -30.9051E+06
           38391    -7.86384E+06     1.07932E+06              0.    -31.2353E+06
           38392    -8.17761E+06     1.00173E+06              0.    -31.5288E+06
           38393    -8.50100E+06     900.481E+03              0.    -31.7801E+06
           38394    -8.83396E+06     773.229E+03              0.    -31.9831E+06
           38395    -9.17652E+06     617.637E+03              0.    -32.1313E+06
           38396    -9.52883E+06     431.390E+03              0.    -32.2173E+06
           38397    -9.89119E+06     212.248E+03              0.    -32.2330E+06
           38398    -10.2641E+06    -41.9013E+03              0.    -32.1695E+06
           38399    -10.6483E+06    -332.992E+03              0.    -32.0170E+06
           38400    -11.0449E+06    -662.701E+03              0.    -31.7650E+06
           38401    -11.4552E+06    -1.03238E+06              0.    -31.4019E+06
           38402    -11.8811E+06    -1.44297E+06              0.    -30.9150E+06
           38403    -12.3250E+06    -1.89489E+06              0.    -30.2907E+06
           38404    -12.7897E+06    -2.38797E+06              0.    -29.5140E+06
           38405    -13.2789E+06    -2.92125E+06              0.    -28.5691E+06
           38406    -13.7969E+06    -3.49296E+06              0.    -27.4386E+06
           38407    -14.3490E+06    -4.10026E+06              0.    -26.1040E+06
           38408    -14.9411E+06    -4.73912E+06              0.    -24.5453E+06
           38409    -15.3643E+06    -5.54816E+06              0.    -24.2247E+06
           38410    -1.49762E+06    -673.788E+03              0.    -608.261E+03
           38411    -1.49366E+06    -636.904E+03              0.    -607.154E+03
           38412    -1.50567E+06    -607.775E+03              0.    -600.881E+03
           38413    -1.51757E+06    -579.138E+03              0.    -595.158E+03
           38414    -1.52936E+06    -550.985E+03              0.    -589.972E+03
           38415    -1.54105E+06    -523.308E+03              0.    -585.310E+03
           38416    -1.55264E+06    -496.100E+03              0.    -581.157E+03
           38417    -1.56415E+06    -469.355E+03              0.    -577.502E+03
           38418    -1.57556E+06    -443.064E+03              0.    -574.334E+03
           38419    -1.58689E+06    -417.222E+03              0.    -571.642E+03
           38420    -1.59815E+06    -391.820E+03              0.    -569.417E+03
           38421    -1.60932E+06    -366.853E+03              0.    -567.648E+03
           38422    -1.62043E+06    -342.314E+03              0.    -566.328E+03
           38423    -1.63147E+06    -318.196E+03              0.    -565.450E+03
           38424    -1.64245E+06    -294.493E+03              0.    -565.005E+03
           38425    -1.65337E+06    -271.199E+03              0.    -564.987E+03
           38426    -1.66423E+06    -248.307E+03              0.    -565.391E+03
           38427    -1.67505E+06    -225.812E+03              0.    -566.210E+03
           38428    -1.68581E+06    -203.706E+03              0.    -567.441E+03
           38429    -1.69654E+06    -181.986E+03              0.    -569.080E+03
           38430    -1.70722E+06    -160.644E+03              0.    -571.121E+03
           38431    -1.71787E+06    -139.676E+03              0.    -573.563E+03
           38432    -1.72849E+06    -119.076E+03              0.    -576.402E+03
           38433    -1.73908E+06    -98.8384E+03              0.    -579.637E+03
           38434    -1.74964E+06    -78.9582E+03              0.    -583.266E+03
           38435    -1.76018E+06    -59.4307E+03              0.    -587.287E+03
           38436    -1.77069E+06    -40.2503E+03              0.    -591.701E+03
           38437    -1.78120E+06    -21.4129E+03              0.    -596.507E+03
           38438    -1.79169E+06    -2.91317E+03              0.    -601.706E+03
           38439    -1.80216E+06     15.2529E+03              0.    -607.297E+03
           38440    -1.81263E+06     33.0900E+03              0.    -613.283E+03
           38441    -1.82310E+06     50.6025E+03              0.    -619.665E+03
           38442    -1.83356E+06     67.7943E+03              0.    -626.446E+03
           38443    -1.84402E+06     84.6695E+03              0.    -633.627E+03
           38444    -1.85449E+06     101.232E+03              0.    -641.213E+03
           38445    -1.86496E+06     117.486E+03              0.    -649.206E+03
           38446    -1.87543E+06     133.434E+03              0.    -657.611E+03
           38447    -1.88592E+06     149.081E+03              0.    -666.433E+03
           38448    -1.89641E+06     164.429E+03              0.    -675.675E+03
           38449    -1.90692E+06     179.481E+03              0.    -685.345E+03
           38450    -1.91745E+06     194.242E+03              0.    -695.447E+03
           38451    -1.92799E+06     208.714E+03              0.    -705.987E+03
           38452    -1.93855E+06     222.899E+03              0.    -716.974E+03
           38453    -1.94913E+06     236.801E+03              0.    -728.414E+03
           38454    -1.95973E+06     250.421E+03              0.    -740.315E+03
           38455    -1.97035E+06     263.763E+03              0.    -752.686E+03
           38456    -1.98100E+06     276.829E+03              0.    -765.535E+03
           38457    -1.99167E+06     289.620E+03              0.    -778.872E+03
           38458    -2.00237E+06     302.140E+03              0.    -792.706E+03
           38459    -2.01310E+06     314.389E+03              0.    -807.048E+03
           38460    -2.02385E+06     326.369E+03              0.    -821.910E+03
           38461    -2.03463E+06     338.082E+03              0.    -837.302E+03
           38462    -2.04545E+06     349.530E+03              0.    -853.237E+03
           38463    -2.05629E+06     360.714E+03              0.    -869.728E+03
           38464    -2.06717E+06     371.635E+03              0.    -886.787E+03
           38465    -2.07807E+06     382.295E+03              0.    -904.429E+03
           38466    -2.08901E+06     392.693E+03              0.    -922.668E+03
           38467    -2.09997E+06     402.832E+03              0.    -941.520E+03
           38468    -2.11097E+06     412.711E+03              0.    -961.000E+03
           38469    -2.12200E+06     422.332E+03              0.    -981.124E+03
           38470    -2.13306E+06     431.694E+03              0.    -1.00191E+06
           38471    -2.14415E+06     440.798E+03              0.    -1.02338E+06
           38472    -2.15528E+06     449.644E+03              0.    -1.04554E+06
           38473    -2.16643E+06     458.233E+03              0.    -1.06842E+06
           38474    -2.17760E+06     466.563E+03              0.    -1.09204E+06
           38475    -2.18881E+06     474.636E+03              0.    -1.11642E+06
           38476    -2.20005E+06     482.450E+03              0.    -1.14157E+06
           38477    -2.21131E+06     490.005E+03              0.    -1.16753E+06
           38478    -2.22259E+06     497.300E+03              0.    -1.19432E+06
           38479    -2.23390E+06     504.336E+03              0.    -1.22195E+06
           38480    -2.24523E+06     511.110E+03              0.    -1.25046E+06
           38481    -2.25658E+06     517.623E+03              0.    -1.27986E+06
           38482    -2.26795E+06     523.873E+03              0.    -1.31020E+06
           38483    -2.27934E+06     529.858E+03              0.    -1.34148E+06
           38484    -2.29074E+06     535.578E+03              0.    -1.37375E+06
           38485    -2.30215E+06     541.032E+03              0.    -1.40704E+06
           38486    -2.31358E+06     546.217E+03              0.    -1.44136E+06
           38487    -2.32501E+06     551.133E+03              0.    -1.47676E+06
           38488    -2.33645E+06     555.777E+03              0.    -1.51327E+06
           38489    -2.34790E+06     560.149E+03              0.    -1.55091E+06
           38490    -2.35934E+06     564.245E+03              0.    -1.58974E+06
           38491    -2.37079E+06     568.065E+03              0.    -1.62977E+06
           38492    -2.38223E+06     571.606E+03              0.    -1.67105E+06
           38493    -2.39366E+06     574.867E+03              0.    -1.71362E+06
           38494    -2.40509E+06     577.845E+03              0.    -1.75751E+06
           38495    -2.41650E+06     580.539E+03              0.    -1.80277E+06
           38496    -2.42789E+06     582.945E+03              0.    -1.84943E+06
           38497    -2.43927E+06     585.062E+03              0.    -1.89755E+06
           38498    -2.45062E+06     586.888E+03              0.    -1.94716E+06
           38499    -2.46194E+06     588.421E+03              0.    -1.99831E+06
           38500    -2.47324E+06     589.659E+03              0.    -2.05106E+06
           38501    -2.48450E+06     590.598E+03              0.    -2.10543E+06
           38502    -2.49573E+06     591.238E+03              0.    -2.16150E+06
           38503    -2.50692E+06     591.576E+03              0.     -2.2193E+06
           38504    -2.51806E+06      591.61E+03              0.    -2.27889E+06
           38505    -2.52915E+06     591.338E+03              0.    -2.34033E+06
           38506    -2.54020E+06     590.759E+03              0.    -2.40367E+06
           38507    -2.55119E+06     589.870E+03              0.    -2.46896E+06
           38508    -2.56212E+06     588.670E+03              0.    -2.53627E+06
           38509    -2.57299E+06     587.157E+03              0.    -2.60566E+06
           38510    -2.58379E+06     585.331E+03              0.    -2.67718E+06
           38511    -2.59453E+06     583.190E+03              0.    -2.75091E+06
           38512    -2.60520E+06     580.734E+03              0.    -2.82691E+06
           38513    -2.61579E+06     577.961E+03              0.    -2.90523E+06
           38514    -2.62631E+06     574.871E+03              0.    -2.98597E+06
           38515    -2.63674E+06     571.465E+03              0.    -3.06917E+06
           38516     -2.6471E+06     567.743E+03              0.    -3.15492E+06
           38517    -2.65737E+06     563.705E+03              0.    -3.24328E+06
           38518    -2.66756E+06     559.353E+03              0.    -3.33434E+06
           38519    -2.67766E+06     554.688E+03              0.    -3.42817E+06
           38520    -2.68767E+06     549.712E+03              0.    -3.52484E+06
           38521    -2.69759E+06     544.428E+03              0.    -3.62445E+06
           38522    -2.70743E+06     538.839E+03              0.    -3.72706E+06
           38523    -2.71718E+06     532.949E+03              0.    -3.83277E+06
           38524    -2.72684E+06     526.762E+03              0.    -3.94166E+06
           38525    -2.73642E+06     520.284E+03              0.    -4.05382E+06
           38526    -2.74592E+06     513.520E+03              0.    -4.16933E+06
           38527    -2.75534E+06     506.478E+03              0.    -4.28828E+06
           38528    -2.76468E+06     499.166E+03              0.    -4.41078E+06
           38529    -2.77396E+06     491.591E+03              0.    -4.53691E+06
           38530    -2.78317E+06     483.764E+03              0.    -4.66676E+06
           38531    -2.79233E+06     475.695E+03              0.    -4.80044E+06
           38532    -2.80144E+06     467.398E+03              0.    -4.93803E+06
           38533    -2.81052E+06     458.884E+03              0.    -5.07965E+06
           38534    -2.81957E+06     450.170E+03              0.    -5.22539E+06
           38535    -2.82861E+06     441.270E+03              0.    -5.37535E+06
           38536    -2.83766E+06     432.202E+03              0.    -5.52964E+06
           38537    -2.84672E+06     422.987E+03              0.    -5.68837E+06
           38538    -2.85583E+06     413.643E+03              0.    -5.85162E+06
           38539    -2.86500E+06     404.195E+03              0.    -6.01952E+06
           38540    -2.87425E+06     394.667E+03              0.    -6.19217E+06
           38541    -2.88361E+06     385.085E+03              0.    -6.36968E+06
           38542    -2.89312E+06     375.477E+03              0.    -6.55216E+06
           38543    -2.90279E+06     365.876E+03              0.    -6.73971E+06
           38544    -2.91267E+06     356.313E+03              0.    -6.93244E+06
           38545    -2.92279E+06     346.823E+03              0.    -7.13047E+06
           38546    -2.93319E+06     337.446E+03              0.    -7.33391E+06
           38547    -2.94393E+06     328.222E+03              0.    -7.54285E+06
           38548    -2.95504E+06     319.193E+03              0.    -7.75742E+06
           38549    -2.96658E+06     310.406E+03              0.    -7.97771E+06
           38550    -2.97862E+06     301.909E+03              0.    -8.20384E+06
           38551    -2.99121E+06     293.755E+03              0.    -8.43592E+06
           38552    -3.00442E+06     285.999E+03              0.    -8.67404E+06
           38553    -3.01833E+06     278.698E+03              0.    -8.91831E+06
           38554    -3.03301E+06     271.914E+03              0.    -9.16883E+06
           38555    -3.04856E+06     265.712E+03              0.    -9.42570E+06
           38556    -3.06506E+06     260.159E+03              0.    -9.68902E+06
           38557    -3.08260E+06     255.327E+03              0.    -9.95889E+06
           38558    -3.10131E+06     251.291E+03              0.    -10.2354E+06
           38559    -3.12129E+06     248.128E+03              0.    -10.5186E+06
           38560    -3.14267E+06     245.920E+03              0.    -10.8086E+06
           38561    -3.16556E+06     244.751E+03              0.    -11.1055E+06
           38562    -3.19013E+06     244.708E+03              0.    -11.4093E+06
           38563    -3.21650E+06     245.884E+03              0.    -11.7202E+06
           38564    -3.24485E+06     248.370E+03              0.    -12.0382E+06
           38565    -3.27533E+06     252.262E+03              0.    -12.3633E+06
           38566    -3.30813E+06     257.659E+03              0.    -12.6955E+06
           38567    -3.34344E+06     264.660E+03              0.    -13.0350E+06
           38568    -3.38146E+06     273.366E+03              0.    -13.3818E+06
           38569    -3.42239E+06     283.879E+03              0.    -13.7359E+06
           38570    -3.46647E+06     296.300E+03              0.    -14.0973E+06
           38571    -3.51393E+06     310.732E+03              0.    -14.4660E+06
           38572    -3.56502E+06     327.273E+03              0.    -14.8419E+06
           38573    -3.61999E+06     346.020E+03              0.    -15.2252E+06
           38574    -3.67913E+06     367.067E+03              0.    -15.6157E+06
           38575    -3.74271E+06     390.501E+03              0.    -16.0135E+06
           38576    -3.81104E+06     416.403E+03              0.    -16.4183E+06
           38577    -3.88442E+06     444.846E+03              0.    -16.8303E+06
           38578    -3.96319E+06     475.891E+03              0.    -17.2492E+06
           38579    -4.04767E+06     509.587E+03              0.    -17.6749E+06
           38580    -4.13820E+06     545.969E+03              0.    -18.1074E+06
           38581    -4.23515E+06     585.051E+03              0.    -18.5465E+06
           38582    -4.33888E+06     626.827E+03              0.    -18.9919E+06
           38583    -4.44977E+06     671.267E+03              0.    -19.4434E+06
           38584    -4.56818E+06     718.309E+03              0.    -19.9009E+06
           38585    -4.69450E+06     767.862E+03              0.    -20.3640E+06
           38586    -4.82914E+06     819.795E+03              0.    -20.8324E+06
           38587    -4.97246E+06     873.934E+03              0.    -21.3057E+06
           38588    -5.12486E+06     930.058E+03              0.    -21.7836E+06
           38589    -5.28672E+06     987.889E+03              0.    -22.2655E+06
           38590    -5.45843E+06     1.04709E+06              0.    -22.7510E+06
           38591    -5.64033E+06     1.10726E+06              0.    -23.2394E+06
           38592    -5.83279E+06     1.16792E+06              0.    -23.7301E+06
           38593    -6.03613E+06     1.22849E+06              0.    -24.2224E+06
           38594    -6.25067E+06     1.28834E+06              0.    -24.7154E+06
           38595    -6.47669E+06     1.34671E+06              0.    -25.2082E+06
           38596    -6.71445E+06     1.40274E+06              0.    -25.6996E+06
           38597    -6.96416E+06     1.45545E+06              0.    -26.1885E+06
           38598    -7.22600E+06     1.50374E+06              0.    -26.6736E+06
           38599    -7.50011E+06     1.54639E+06              0.    -27.1534E+06
           38600    -7.78657E+06     1.58202E+06              0.    -27.6260E+06
           38601    -8.08544E+06     1.60912E+06              0.    -28.0896E+06
           38602    -8.39670E+06     1.62600E+06              0.    -28.5420E+06
           38603    -8.72028E+06     1.63086E+06              0.    -28.9808E+06
           38604    -9.05608E+06     1.62168E+06              0.    -29.4032E+06
           38605    -9.40394E+06     1.59634E+06              0.    -29.8062E+06
           38606    -9.76365E+06     1.55252E+06              0.    -30.1863E+06
           38607    -10.1350E+06     1.48776E+06              0.    -30.5397E+06
           38608    -10.5176E+06     1.39946E+06              0.    -30.8620E+06
           38609    -10.9114E+06     1.28488E+06              0.    -31.1484E+06
           38610    -11.3159E+06     1.14117E+06              0.    -31.3936E+06
           38611    -11.7310E+06      965.39E+03              0.    -31.5917E+06
           38612    -12.1564E+06     754.543E+03              0.    -31.7359E+06
           38613    -12.5921E+06     505.594E+03              0.    -31.8189E+06
           38614    -13.0380E+06     215.530E+03              0.    -31.8328E+06
           38615    -13.4944E+06    -118.596E+03              0.    -31.7685E+06
           38616    -13.9615E+06    -499.614E+03              0.    -31.6163E+06
           38617    -14.4402E+06    -930.156E+03              0.    -31.3655E+06
           38618    -14.9312E+06    -1.41260E+06              0.    -31.0043E+06
           38619     -15.436E+06    -1.94898E+06              0.    -30.5198E+06
           38620    -15.9564E+06    -2.54085E+06              0.    -29.8982E+06
           38621    -16.4948E+06    -3.18927E+06              0.    -29.1243E+06
           38622    -17.0541E+06    -3.89458E+06              0.    -28.1817E+06
           38623    -17.6381E+06    -4.65637E+06              0.    -27.0527E+06
           38624    -18.2515E+06    -5.47330E+06              0.    -25.7180E+06
           38625    -18.9000E+06    -6.34297E+06              0.    -24.1573E+06
           38626    -19.4229E+06    -7.42328E+06              0.    -23.8173E+06
           38627    -1.51359E+06    -681.007E+03              0.    -596.040E+03
           38628    -1.50956E+06    -643.410E+03              0.    -594.954E+03
           38629    -1.52180E+06    -613.725E+03              0.    -588.795E+03
           38630    -1.53393E+06    -584.547E+03              0.    -583.182E+03
           38631    -1.54595E+06    -555.866E+03              0.    -578.101E+03
           38632    -1.55786E+06    -527.676E+03              0.    -573.538E+03
           38633    -1.56968E+06    -499.967E+03              0.    -569.480E+03
           38634    -1.58141E+06    -472.732E+03              0.    -565.915E+03
           38635    -1.59305E+06    -445.962E+03              0.    -562.833E+03
           38636    -1.60460E+06    -419.651E+03              0.    -560.221E+03
           38637    -1.61608E+06    -393.790E+03              0.    -558.072E+03
           38638    -1.62748E+06    -368.373E+03              0.    -556.375E+03
           38639    -1.63882E+06    -343.391E+03              0.    -555.122E+03
           38640    -1.65009E+06    -318.838E+03              0.    -554.306E+03
           38641    -1.66130E+06    -294.706E+03              0.     -553.92E+03
           38642    -1.67245E+06    -270.990E+03              0.    -553.957E+03
           38643    -1.68356E+06    -247.681E+03              0.    -554.411E+03
           38644    -1.69461E+06    -224.774E+03              0.    -555.277E+03
           38645    -1.70563E+06    -202.262E+03              0.    -556.550E+03
           38646    -1.71661E+06    -180.138E+03              0.    -558.226E+03
           38647    -1.72755E+06    -158.396E+03              0.    -560.303E+03
           38648    -1.73846E+06    -137.031E+03              0.    -562.775E+03
           38649    -1.74934E+06    -116.036E+03              0.    -565.642E+03
           38650    -1.76021E+06    -95.4053E+03              0.    -568.900E+03
           38651    -1.77105E+06    -75.1334E+03              0.    -572.549E+03
           38652    -1.78188E+06    -55.2149E+03              0.    -576.588E+03
           38653    -1.79270E+06    -35.6439E+03              0.    -581.015E+03
           38654    -1.80350E+06    -16.4157E+03              0.    -585.831E+03
           38655    -1.81431E+06     2.47537E+03              0.    -591.037E+03
           38656    -1.82511E+06     21.0340E+03              0.    -596.632E+03
           38657    -1.83591E+06     39.2651E+03              0.    -602.619E+03
           38658    -1.84672E+06     57.1736E+03              0.    -608.999E+03
           38659    -1.85753E+06     74.7639E+03              0.    -615.775E+03
           38660    -1.86836E+06     92.0405E+03              0.    -622.949E+03
           38661    -1.87920E+06     109.008E+03              0.    -630.525E+03
           38662    -1.89006E+06     125.670E+03              0.    -638.505E+03
           38663    -1.90094E+06     142.032E+03              0.    -646.895E+03
           38664    -1.91183E+06     158.096E+03              0.    -655.699E+03
           38665    -1.92276E+06     173.867E+03              0.    -664.922E+03
           38666    -1.93371E+06     189.349E+03              0.    -674.569E+03
           38667    -1.94469E+06     204.545E+03              0.    -684.646E+03
           38668    -1.95570E+06     219.458E+03              0.    -695.161E+03
           38669    -1.96674E+06     234.093E+03              0.    -706.119E+03
           38670    -1.97783E+06     248.451E+03              0.    -717.529E+03
           38671    -1.98895E+06     262.536E+03              0.    -729.398E+03
           38672    -2.00011E+06     276.352E+03              0.    -741.735E+03
           38673    -2.01131E+06     289.900E+03              0.    -754.548E+03
           38674    -2.02256E+06     303.184E+03              0.    -767.848E+03
           38675    -2.03385E+06     316.206E+03              0.    -781.644E+03
           38676    -2.04520E+06     328.968E+03              0.    -795.947E+03
           38677    -2.05659E+06     341.473E+03              0.    -810.767E+03
           38678    -2.06803E+06     353.724E+03              0.    -826.118E+03
           38679    -2.07953E+06     365.721E+03              0.    -842.009E+03
           38680    -2.09108E+06     377.467E+03              0.    -858.456E+03
           38681    -2.10268E+06     388.964E+03              0.    -875.470E+03
           38682    -2.11434E+06     400.214E+03              0.    -893.066E+03
           38683    -2.12606E+06     411.217E+03              0.    -911.258E+03
           38684    -2.13784E+06     421.976E+03              0.    -930.063E+03
           38685    -2.14967E+06     432.493E+03              0.    -949.495E+03
           38686    -2.16157E+06     442.767E+03              0.    -969.571E+03
           38687    -2.17353E+06     452.800E+03              0.    -990.308E+03
           38688    -2.18555E+06     462.594E+03              0.    -1.01173E+06
           38689    -2.19763E+06     472.149E+03              0.    -1.03384E+06
           38690    -2.20978E+06     481.466E+03              0.    -1.05667E+06
           38691    -2.22199E+06     490.545E+03              0.    -1.08024E+06
           38692    -2.23427E+06     499.387E+03              0.    -1.10457E+06
           38693    -2.24660E+06     507.994E+03              0.    -1.12968E+06
           38694    -2.25901E+06     516.364E+03              0.    -1.15559E+06
           38695    -2.27148E+06     524.498E+03              0.    -1.18232E+06
           38696    -2.28401E+06     532.396E+03              0.    -1.20991E+06
           38697    -2.29661E+06     540.059E+03              0.    -1.23837E+06
           38698    -2.30928E+06     547.487E+03              0.    -1.26773E+06
           38699    -2.32201E+06     554.678E+03              0.    -1.29802E+06
           38700    -2.33480E+06     561.634E+03              0.    -1.32926E+06
           38701    -2.34766E+06     568.354E+03              0.    -1.36148E+06
           38702    -2.36059E+06     574.837E+03              0.    -1.39472E+06
           38703    -2.37358E+06     581.083E+03              0.    -1.42901E+06
           38704    -2.38663E+06     587.091E+03              0.    -1.46436E+06
           38705    -2.39975E+06     592.861E+03              0.    -1.50083E+06
           38706    -2.41293E+06     598.393E+03              0.    -1.53844E+06
           38707    -2.42617E+06     603.685E+03              0.    -1.57722E+06
           38708    -2.43947E+06     608.737E+03              0.    -1.61722E+06
           38709    -2.45284E+06     613.548E+03              0.    -1.65846E+06
           38710    -2.46626E+06     618.117E+03              0.    -1.70100E+06
           38711    -2.47975E+06     622.444E+03              0.    -1.74486E+06
           38712    -2.49329E+06     626.528E+03              0.    -1.79008E+06
           38713    -2.50689E+06     630.366E+03              0.    -1.83672E+06
           38714    -2.52055E+06     633.960E+03              0.    -1.88481E+06
           38715    -2.53427E+06     637.308E+03              0.    -1.93440E+06
           38716    -2.54805E+06     640.409E+03              0.    -1.98552E+06
           38717    -2.56188E+06     643.262E+03              0.    -2.03824E+06
           38718    -2.57577E+06     645.867E+03              0.    -2.09260E+06
           38719    -2.58971E+06     648.222E+03              0.    -2.14864E+06
           38720    -2.60370E+06     650.328E+03              0.    -2.20642E+06
           38721    -2.61775E+06     652.184E+03              0.    -2.26599E+06
           38722    -2.63186E+06     653.788E+03              0.    -2.32741E+06
           38723    -2.64602E+06     655.142E+03              0.    -2.39073E+06
           38724    -2.66023E+06     656.244E+03              0.    -2.45601E+06
           38725    -2.67449E+06     657.094E+03              0.    -2.52331E+06
           38726    -2.68881E+06     657.694E+03              0.    -2.59268E+06
           38727    -2.70319E+06     658.042E+03              0.    -2.66419E+06
           38728    -2.71762E+06     658.140E+03              0.    -2.73790E+06
           38729    -2.73211E+06     657.988E+03              0.    -2.81388E+06
           38730    -2.74665E+06     657.588E+03              0.    -2.89219E+06
           38731    -2.76126E+06     656.940E+03              0.    -2.97291E+06
           38732    -2.77592E+06     656.047E+03              0.    -3.05609E+06
           38733    -2.79065E+06      654.91E+03              0.    -3.14182E+06
           38734    -2.80544E+06     653.532E+03              0.    -3.23016E+06
           38735    -2.82031E+06     651.915E+03              0.    -3.32119E+06
           38736    -2.83525E+06     650.063E+03              0.    -3.41499E+06
           38737    -2.85026E+06     647.980E+03              0.    -3.51164E+06
           38738    -2.86536E+06     645.669E+03              0.    -3.61120E+06
           38739    -2.88054E+06     643.137E+03              0.    -3.71378E+06
           38740    -2.89582E+06     640.387E+03              0.    -3.81944E+06
           38741    -2.91120E+06     637.427E+03              0.    -3.92827E+06
           38742    -2.92669E+06     634.263E+03              0.    -4.04036E+06
           38743    -2.94229E+06     630.903E+03              0.    -4.15580E+06
           38744    -2.95803E+06     627.356E+03              0.    -4.27467E+06
           38745    -2.97390E+06     623.630E+03              0.    -4.39707E+06
           38746    -2.98992E+06     619.735E+03              0.    -4.52309E+06
           38747    -3.00610E+06     615.684E+03              0.    -4.65282E+06
           38748    -3.02246E+06     611.489E+03              0.    -4.78636E+06
           38749    -3.03902E+06     607.162E+03              0.    -4.92381E+06
           38750    -3.05578E+06     602.719E+03              0.    -5.06525E+06
           38751    -3.07278E+06     598.175E+03              0.    -5.21080E+06
           38752    -3.09003E+06     593.548E+03              0.    -5.36054E+06
           38753    -3.10755E+06     588.856E+03              0.    -5.51459E+06
           38754    -3.12537E+06     584.120E+03              0.    -5.67304E+06
           38755    -3.14352E+06     579.361E+03              0.    -5.83600E+06
           38756    -3.16203E+06     574.603E+03              0.    -6.00356E+06
           38757    -3.18092E+06     569.870E+03              0.    -6.17585E+06
           38758    -3.20024E+06     565.191E+03              0.    -6.35295E+06
           38759    -3.22002E+06     560.593E+03              0.    -6.53498E+06
           38760    -3.24030E+06     556.109E+03              0.    -6.72203E+06
           38761    -3.26114E+06     551.770E+03              0.    -6.91422E+06
           38762    -3.28256E+06     547.613E+03              0.    -7.11166E+06
           38763    -3.30464E+06     543.675E+03              0.    -7.31444E+06
           38764    -3.32742E+06     539.995E+03              0.    -7.52267E+06
           38765    -3.35096E+06     536.617E+03              0.    -7.73645E+06
           38766    -3.37533E+06     533.586E+03              0.    -7.95589E+06
           38767    -3.40060E+06     530.949E+03              0.    -8.18109E+06
           38768    -3.42684E+06     528.757E+03              0.    -8.41215E+06
           38769    -3.45414E+06     527.063E+03              0.    -8.64917E+06
           38770    -3.48258E+06     525.923E+03              0.    -8.89225E+06
           38771    -3.51225E+06     525.396E+03              0.    -9.14147E+06
           38772    -3.54325E+06     525.545E+03              0.    -9.39694E+06
           38773    -3.57570E+06     526.433E+03              0.    -9.65874E+06
           38774    -3.60969E+06     528.130E+03              0.    -9.92695E+06
           38775    -3.64535E+06     530.707E+03              0.    -10.2017E+06
           38776    -3.68282E+06     534.236E+03              0.    -10.4830E+06
           38777    -3.72223E+06     538.794E+03              0.    -10.7709E+06
           38778    -3.76372E+06     544.463E+03              0.    -11.0656E+06
           38779    -3.80746E+06     551.322E+03              0.    -11.3670E+06
           38780    -3.85360E+06     559.458E+03              0.    -11.6753E+06
           38781    -3.90233E+06     568.957E+03              0.    -11.9905E+06
           38782    -3.95383E+06     579.908E+03              0.    -12.3126E+06
           38783    -4.00830E+06     592.401E+03              0.    -12.6417E+06
           38784    -4.06595E+06     606.528E+03              0.    -12.9778E+06
           38785    -4.12700E+06     622.381E+03              0.    -13.3209E+06
           38786    -4.19169E+06     640.053E+03              0.    -13.6711E+06
           38787    -4.26026E+06     659.634E+03              0.    -14.0283E+06
           38788    -4.33297E+06     681.217E+03              0.    -14.3926E+06
           38789    -4.41010E+06     704.887E+03              0.    -14.7638E+06
           38790    -4.49193E+06     730.730E+03              0.    -15.1420E+06
           38791    -4.57876E+06     758.825E+03              0.    -15.5272E+06
           38792    -4.67091E+06     789.245E+03              0.    -15.9193E+06
           38793    -4.76870E+06     822.056E+03              0.    -16.3181E+06
           38794    -4.87249E+06     857.312E+03              0.    -16.7237E+06
           38795    -4.98262E+06     895.058E+03              0.    -17.1358E+06
           38796    -5.09946E+06     935.323E+03              0.    -17.5545E+06
           38797    -5.22339E+06     978.119E+03              0.    -17.9794E+06
           38798    -5.35481E+06     1.02344E+06              0.    -18.4105E+06
           38799    -5.49412E+06     1.07125E+06              0.    -18.8476E+06
           38800    -5.64173E+06     1.12149E+06              0.    -19.2904E+06
           38801    -5.79807E+06     1.17408E+06              0.    -19.7387E+06
           38802    -5.96356E+06     1.22888E+06              0.    -20.1921E+06
           38803    -6.13863E+06     1.28573E+06              0.    -20.6505E+06
           38804    -6.32373E+06     1.34441E+06              0.    -21.1134E+06
           38805    -6.51928E+06     1.40466E+06              0.    -21.5803E+06
           38806    -6.72573E+06     1.46615E+06              0.    -22.0510E+06
           38807    -6.94348E+06     1.52849E+06              0.    -22.5248E+06
           38808    -7.17297E+06     1.59121E+06              0.    -23.0011E+06
           38809    -7.41458E+06     1.65375E+06              0.    -23.4794E+06
           38810    -7.66871E+06     1.71548E+06              0.    -23.9590E+06
           38811    -7.93570E+06     1.77565E+06              0.    -24.4389E+06
           38812    -8.21589E+06     1.83341E+06              0.    -24.9184E+06
           38813    -8.50958E+06     1.88779E+06              0.    -25.3963E+06
           38814    -8.81702E+06     1.93767E+06              0.    -25.8716E+06
           38815    -9.13843E+06     1.98182E+06              0.    -26.3430E+06
           38816    -9.47397E+06     2.01884E+06              0.    -26.8090E+06
           38817    -9.82375E+06     2.04716E+06              0.    -27.2679E+06
           38818    -10.1878E+06     2.06507E+06              0.    -27.7180E+06
           38819    -10.5662E+06     2.07065E+06              0.    -28.1572E+06
           38820    -10.9587E+06     2.06181E+06              0.    -28.5831E+06
           38821    -11.3653E+06     2.03626E+06              0.    -28.9930E+06
           38822    -11.7858E+06     1.99151E+06              0.    -29.3841E+06
           38823    -12.2198E+06     1.92490E+06              0.    -29.7530E+06
           38824    -12.6671E+06     1.83354E+06              0.    -30.0959E+06
           38825    -13.1272E+06     1.71438E+06              0.    -30.4086E+06
           38826    -13.5998E+06     1.56416E+06              0.    -30.6865E+06
           38827    -14.0844E+06     1.37948E+06              0.    -30.9243E+06
           38828    -14.5806E+06     1.15678E+06              0.    -31.1161E+06
           38829    -15.0879E+06     892.383E+03              0.    -31.2553E+06
           38830    -15.6060E+06     582.536E+03              0.    -31.3348E+06
           38831    -16.1345E+06     223.427E+03              0.    -31.3464E+06
           38832    -16.6733E+06    -188.747E+03              0.    -31.2813E+06
           38833    -17.2224E+06    -657.742E+03              0.    -31.1296E+06
           38834    -17.7819E+06    -1.18718E+06              0.    -30.8806E+06
           38835    -18.3525E+06    -1.78050E+06              0.    -30.5223E+06
           38836    -18.9349E+06    -2.44085E+06              0.    -30.0419E+06
           38837    -19.5304E+06    -3.17102E+06              0.    -29.4251E+06
           38838    -20.1407E+06    -3.97331E+06              0.    -28.6566E+06
           38839    -20.7682E+06    -4.84943E+06              0.    -27.7196E+06
           38840    -21.4159E+06    -5.80038E+06              0.    -26.5960E+06
           38841    -22.0875E+06    -6.82628E+06              0.    -25.2660E+06
           38842    -22.7875E+06    -7.92607E+06              0.    -23.7085E+06
           38843    -23.4077E+06    -9.27723E+06              0.    -23.3509E+06
           38844    -1.52929E+06    -688.100E+03              0.    -583.586E+03
           38845    -1.52518E+06    -649.797E+03              0.    -582.523E+03
           38846    -1.53765E+06    -619.562E+03              0.    -576.481E+03
           38847    -1.55001E+06    -589.847E+03              0.    -570.980E+03
           38848    -1.56225E+06    -560.645E+03              0.    -566.005E+03
           38849    -1.57439E+06    -531.946E+03              0.    -561.543E+03
           38850    -1.58643E+06    -503.740E+03              0.    -557.581E+03
           38851    -1.59838E+06    -476.021E+03              0.    -554.107E+03
           38852    -1.61024E+06    -448.777E+03              0.    -551.109E+03
           38853    -1.62202E+06    -422.002E+03              0.    -548.578E+03
           38854    -1.63372E+06    -395.687E+03              0.    -546.503E+03
           38855    -1.64534E+06    -369.823E+03              0.    -544.877E+03
           38856    -1.65690E+06    -344.404E+03              0.    -543.689E+03
           38857    -1.66840E+06     -319.42E+03              0.    -542.934E+03
           38858    -1.67984E+06    -294.865E+03              0.    -542.603E+03
           38859    -1.69123E+06    -270.730E+03              0.    -542.691E+03
           38860    -1.70257E+06    -247.009E+03              0.    -543.191E+03
           38861    -1.71387E+06    -223.695E+03              0.    -544.099E+03
           38862    -1.72513E+06    -200.779E+03              0.    -545.410E+03
           38863    -1.73636E+06    -178.256E+03              0.    -547.120E+03
           38864    -1.74755E+06    -156.119E+03              0.    -549.225E+03
           38865    -1.75873E+06    -134.360E+03              0.    -551.723E+03
           38866    -1.76988E+06    -112.974E+03              0.    -554.610E+03
           38867    -1.78102E+06    -91.9538E+03              0.    -557.886E+03
           38868    -1.79214E+06    -71.2938E+03              0.    -561.548E+03
           38869    -1.80326E+06    -50.9879E+03              0.    -565.596E+03
           38870    -1.81437E+06    -31.0298E+03              0.    -570.029E+03
           38871    -1.82548E+06    -11.4143E+03              0.    -574.846E+03
           38872    -1.83660E+06     7.86485E+03              0.    -580.050E+03
           38873    -1.84772E+06     26.8126E+03              0.    -585.640E+03
           38874    -1.85886E+06     45.4346E+03              0.    -591.618E+03
           38875    -1.87000E+06     63.7360E+03              0.    -597.986E+03
           38876    -1.88117E+06     81.7218E+03              0.    -604.746E+03
           38877    -1.89236E+06     99.3970E+03              0.    -611.902E+03
           38878    -1.90358E+06     116.766E+03              0.    -619.455E+03
           38879    -1.91482E+06     133.835E+03              0.    -627.411E+03
           38880    -1.92610E+06     150.606E+03              0.    -635.773E+03
           38881    -1.93741E+06     167.086E+03              0.    -644.546E+03
           38882    -1.94875E+06     183.278E+03              0.    -653.735E+03
           38883    -1.96014E+06     199.186E+03              0.    -663.345E+03
           38884    -1.97158E+06     214.815E+03              0.    -673.384E+03
           38885    -1.98306E+06     230.167E+03              0.    -683.856E+03
           38886    -1.99459E+06     245.248E+03              0.    -694.770E+03
           38887    -2.00617E+06     260.061E+03              0.    -706.133E+03
           38888    -2.01781E+06     274.609E+03              0.    -717.952E+03
           38889    -2.02951E+06     288.896E+03              0.    -730.237E+03
           38890    -2.04127E+06     302.925E+03              0.    -742.997E+03
           38891    -2.05309E+06     316.700E+03              0.    -756.240E+03
           38892    -2.06498E+06     330.222E+03              0.    -769.977E+03
           38893    -2.07694E+06     343.497E+03              0.    -784.219E+03
           38894    -2.08897E+06     356.525E+03              0.    -798.977E+03
           38895    -2.10107E+06     369.310E+03              0.    -814.263E+03
           38896    -2.11324E+06     381.855E+03              0.    -830.088E+03
           38897    -2.12550E+06     394.162E+03              0.    -846.466E+03
           38898    -2.13783E+06     406.234E+03              0.    -863.409E+03
           38899    -2.15025E+06     418.073E+03              0.    -880.933E+03
           38900    -2.16275E+06     429.680E+03              0.    -899.052E+03
           38901    -2.17533E+06     441.059E+03              0.    -917.781E+03
           38902    -2.18801E+06     452.211E+03              0.    -937.136E+03
           38903    -2.20077E+06     463.138E+03              0.    -957.134E+03
           38904    -2.21363E+06     473.842E+03              0.    -977.792E+03
           38905    -2.22658E+06     484.325E+03              0.    -999.128E+03
           38906    -2.23962E+06     494.587E+03              0.    -1.02116E+06
           38907    -2.25276E+06     504.632E+03              0.    -1.04391E+06
           38908    -2.26600E+06     514.459E+03              0.    -1.06739E+06
           38909    -2.27935E+06     524.071E+03              0.    -1.09163E+06
           38910    -2.29279E+06     533.469E+03              0.    -1.11666E+06
           38911    -2.30634E+06     542.654E+03              0.    -1.14248E+06
           38912    -2.31999E+06     551.626E+03              0.    -1.16912E+06
           38913    -2.33375E+06     560.387E+03              0.    -1.19662E+06
           38914    -2.34762E+06     568.939E+03              0.    -1.22499E+06
           38915    -2.36160E+06     577.281E+03              0.    -1.25425E+06
           38916    -2.37569E+06     585.414E+03              0.    -1.28445E+06
           38917    -2.38990E+06     593.341E+03              0.    -1.31560E+06
           38918    -2.40421E+06     601.059E+03              0.    -1.34773E+06
           38919    -2.41865E+06     608.572E+03              0.    -1.38087E+06
           38920    -2.43320E+06     615.878E+03              0.    -1.41506E+06
           38921    -2.44787E+06     622.980E+03              0.    -1.45032E+06
           38922    -2.46266E+06     629.876E+03              0.    -1.48669E+06
           38923    -2.47758E+06     636.568E+03              0.    -1.52420E+06
           38924    -2.49261E+06     643.056E+03              0.    -1.56288E+06
           38925    -2.50777E+06     649.340E+03              0.    -1.60277E+06
           38926    -2.52306E+06     655.421E+03              0.    -1.64392E+06
           38927    -2.53848E+06     661.299E+03              0.    -1.68635E+06
           38928    -2.55403E+06     666.975E+03              0.    -1.73010E+06
           38929    -2.56970E+06     672.448E+03              0.    -1.77523E+06
           38930    -2.58551E+06     677.720E+03              0.    -1.82176E+06
           38931    -2.60146E+06     682.791E+03              0.    -1.86974E+06
           38932    -2.61755E+06     687.660E+03              0.    -1.91922E+06
           38933    -2.63377E+06     692.329E+03              0.    -1.97024E+06
           38934    -2.65013E+06     696.798E+03              0.    -2.02284E+06
           38935    -2.66664E+06     701.068E+03              0.    -2.07709E+06
           38936    -2.68330E+06     705.139E+03              0.    -2.13301E+06
           38937    -2.70010E+06     709.012E+03              0.    -2.19068E+06
           38938    -2.71706E+06     712.688E+03              0.    -2.25014E+06
           38939    -2.73417E+06     716.168E+03              0.    -2.31143E+06
           38940    -2.75144E+06     719.454E+03              0.    -2.37463E+06
           38941    -2.76887E+06     722.546E+03              0.    -2.43978E+06
           38942    -2.78647E+06     725.446E+03              0.    -2.50695E+06
           38943    -2.80424E+06     728.155E+03              0.    -2.57619E+06
           38944    -2.82218E+06     730.676E+03              0.    -2.64756E+06
           38945    -2.84030E+06     733.011E+03              0.    -2.72113E+06
           38946    -2.85860E+06     735.162E+03              0.    -2.79697E+06
           38947    -2.87709E+06     737.131E+03              0.    -2.87513E+06
           38948    -2.89578E+06     738.922E+03              0.    -2.95569E+06
           38949    -2.91467E+06     740.537E+03              0.    -3.03871E+06
           38950    -2.93376E+06     741.981E+03              0.    -3.12427E+06
           38951    -2.95307E+06     743.258E+03              0.    -3.21244E+06
           38952    -2.97261E+06     744.371E+03              0.    -3.30329E+06
           38953    -2.99237E+06     745.326E+03              0.    -3.39690E+06
           38954    -3.01238E+06     746.129E+03              0.    -3.49334E+06
           38955    -3.03264E+06     746.784E+03              0.    -3.59270E+06
           38956    -3.05316E+06     747.299E+03              0.    -3.69505E+06
           38957    -3.07396E+06     747.681E+03              0.    -3.80047E+06
           38958    -3.09504E+06     747.937E+03              0.    -3.90906E+06
           38959    -3.11642E+06     748.076E+03              0.    -4.02089E+06
           38960    -3.13812E+06     748.107E+03              0.    -4.13606E+06
           38961    -3.16015E+06     748.040E+03              0.    -4.25464E+06
           38962    -3.18252E+06     747.886E+03              0.    -4.37673E+06
           38963    -3.20527E+06     747.656E+03              0.    -4.50242E+06
           38964    -3.22839E+06     747.362E+03              0.    -4.63180E+06
           38965    -3.25193E+06     747.020E+03              0.    -4.76497E+06
           38966    -3.27590E+06     746.642E+03              0.    -4.90201E+06
           38967    -3.30032E+06     746.246E+03              0.    -5.04303E+06
           38968    -3.32523E+06     745.848E+03              0.    -5.18813E+06
           38969    -3.35064E+06     745.466E+03              0.    -5.33739E+06
           38970    -3.37660E+06     745.120E+03              0.    -5.49092E+06
           38971    -3.40313E+06     744.831E+03              0.    -5.64882E+06
           38972    -3.43028E+06     744.621E+03              0.    -5.81119E+06
           38973    -3.45807E+06     744.515E+03              0.    -5.97812E+06
           38974    -3.48655E+06     744.538E+03              0.    -6.14973E+06
           38975    -3.51576E+06     744.718E+03              0.    -6.32611E+06
           38976    -3.54576E+06     745.082E+03              0.    -6.50736E+06
           38977    -3.57658E+06     745.664E+03              0.    -6.69359E+06
           38978    -3.60829E+06     746.495E+03              0.    -6.88489E+06
           38979    -3.64094E+06     747.610E+03              0.    -7.08138E+06
           38980    -3.67459E+06     749.047E+03              0.    -7.28314E+06
           38981    -3.70932E+06     750.845E+03              0.    -7.49027E+06
           38982    -3.74519E+06     753.045E+03              0.    -7.70289E+06
           38983    -3.78227E+06     755.691E+03              0.    -7.92108E+06
           38984    -3.82065E+06     758.830E+03              0.    -8.14494E+06
           38985    -3.86042E+06     762.510E+03              0.    -8.37457E+06
           38986    -3.90166E+06     766.782E+03              0.    -8.61006E+06
           38987    -3.94448E+06     771.701E+03              0.    -8.85149E+06
           38988    -3.98897E+06     777.322E+03              0.    -9.09896E+06
           38989    -4.03526E+06     783.704E+03              0.    -9.35254E+06
           38990    -4.08346E+06     790.910E+03              0.    -9.61233E+06
           38991    -4.13370E+06     799.003E+03              0.    -9.87840E+06
           38992    -4.18611E+06     808.051E+03              0.    -10.1508E+06
           38993    -4.24083E+06     818.122E+03              0.    -10.4297E+06
           38994    -4.29803E+06     829.289E+03              0.    -10.7150E+06
           38995    -4.35785E+06     841.626E+03              0.    -11.0069E+06
           38996    -4.42048E+06     855.208E+03              0.    -11.3053E+06
           38997    -4.48609E+06     870.116E+03              0.    -11.6105E+06
           38998    -4.55487E+06     886.427E+03              0.    -11.9223E+06
           38999    -4.62705E+06     904.225E+03              0.    -12.2408E+06
           39000    -4.70282E+06     923.591E+03              0.    -12.5660E+06
           39001    -4.78241E+06     944.608E+03              0.    -12.8981E+06
           39002    -4.86608E+06      967.36E+03              0.    -13.2369E+06
           39003    -4.95407E+06     991.929E+03              0.    -13.5824E+06
           39004    -5.04666E+06     1.01840E+06              0.    -13.9347E+06
           39005    -5.14412E+06     1.04684E+06              0.    -14.2938E+06
           39006    -5.24675E+06     1.07734E+06              0.    -14.6595E+06
           39007    -5.35486E+06     1.10997E+06              0.    -15.0319E+06
           39008    -5.46879E+06     1.14478E+06              0.    -15.4109E+06
           39009    -5.58886E+06     1.18185E+06              0.    -15.7964E+06
           39010    -5.71545E+06     1.22121E+06              0.    -16.1884E+06
           39011    -5.84891E+06     1.26292E+06              0.    -16.5866E+06
           39012    -5.98964E+06     1.30699E+06              0.    -16.9911E+06
           39013    -6.13804E+06     1.35343E+06              0.    -17.4016E+06
           39014    -6.29453E+06     1.40224E+06              0.    -17.8180E+06
           39015    -6.45953E+06     1.45339E+06              0.    -18.2401E+06
           39016    -6.63348E+06     1.50681E+06              0.    -18.6677E+06
           39017    -6.81684E+06     1.56244E+06              0.    -19.1006E+06
           39018    -7.01007E+06     1.62014E+06              0.    -19.5385E+06
           39019    -7.21365E+06     1.67976E+06              0.    -19.9812E+06
           39020    -7.42804E+06     1.74111E+06              0.    -20.4282E+06
           39021    -7.65374E+06     1.80392E+06              0.    -20.8793E+06
           39022    -7.89123E+06     1.86789E+06              0.    -21.3340E+06
           39023    -8.14098E+06     1.93264E+06              0.    -21.7919E+06
           39024    -8.40348E+06     1.99774E+06              0.    -22.2526E+06
           39025    -8.67919E+06     2.06265E+06              0.    -22.7153E+06
           39026    -8.96856E+06     2.12676E+06              0.    -23.1796E+06
           39027    -9.27202E+06     2.18935E+06              0.    -23.6447E+06
           39028    -9.59000E+06     2.24961E+06              0.    -24.1099E+06
           39029    -9.92286E+06     2.30657E+06              0.    -24.5744E+06
           39030    -10.2709E+06     2.35917E+06              0.    -25.0370E+06
           39031    -10.6346E+06     2.40617E+06              0.    -25.4968E+06
           39032    -11.0140E+06     2.44619E+06              0.    -25.9526E+06
           39033    -11.4093E+06     2.47769E+06              0.    -26.4029E+06
           39034    -11.8208E+06     2.49892E+06              0.    -26.8462E+06
           39035    -12.2485E+06     2.50795E+06              0.    -27.2808E+06
           39036    -12.6924E+06     2.50266E+06              0.    -27.7047E+06
           39037    -13.1523E+06     2.48069E+06              0.    -28.1157E+06
           39038    -13.6281E+06     2.43946E+06              0.    -28.5112E+06
           39039    -14.1197E+06     2.37617E+06              0.    -28.8884E+06
           39040    -14.6265E+06     2.28776E+06              0.    -29.2441E+06
           39041    -15.1483E+06     2.17096E+06              0.    -29.5748E+06
           39042    -15.6846E+06     2.02224E+06              0.    -29.8763E+06
           39043    -16.2347E+06     1.83785E+06              0.    -30.1440E+06
           39044    -16.7980E+06     1.61382E+06              0.    -30.3729E+06
           39045    -17.3740E+06     1.34597E+06              0.    -30.5572E+06
           39046    -17.9619E+06     1.02995E+06              0.    -30.6904E+06
           39047    -18.5612E+06     661.242E+03              0.    -30.7655E+06
           39048    -19.1710E+06     235.240E+03              0.    -30.7744E+06
           39049    -19.7910E+06    -252.745E+03              0.    -30.7082E+06
           39050    -20.4208E+06    -807.419E+03              0.    -30.5573E+06
           39051    -21.0600E+06    -1.43342E+06              0.    -30.3107E+06
           39052    -21.7087E+06    -2.13530E+06              0.    -29.9565E+06
           39053    -22.3672E+06    -2.91737E+06              0.    -29.4817E+06
           39054    -23.0362E+06    -3.78366E+06              0.    -28.8719E+06
           39055    -23.7167E+06    -4.73780E+06              0.    -28.1116E+06
           39056    -24.4103E+06    -5.78292E+06              0.    -27.1836E+06
           39057    -25.1193E+06    -6.92149E+06              0.    -26.0694E+06
           39058    -25.8467E+06    -8.15524E+06              0.    -24.7490E+06
           39059    -26.5964E+06    -9.48506E+06              0.    -23.2005E+06
           39060    -27.3140E+06    -11.1073E+06              0.    -22.8277E+06
           39061    -1.54470E+06    -695.064E+03              0.    -570.903E+03
           39062    -1.54051E+06    -656.062E+03              0.    -569.861E+03
           39063    -1.55321E+06    -625.282E+03              0.    -563.940E+03
           39064    -1.56579E+06    -595.037E+03              0.    -558.554E+03
           39065    -1.57826E+06    -565.319E+03              0.    -553.688E+03
           39066    -1.59062E+06    -536.117E+03              0.    -549.328E+03
           39067    -1.60288E+06    -507.421E+03              0.    -545.462E+03
           39068    -1.61505E+06    -479.222E+03              0.    -542.079E+03
           39069    -1.62713E+06    -451.510E+03              0.    -539.166E+03
           39070    -1.63912E+06    -424.276E+03              0.    -536.714E+03
           39071    -1.65104E+06    -397.511E+03              0.    -534.714E+03
           39072    -1.66289E+06    -371.207E+03              0.    -533.155E+03
           39073    -1.67468E+06    -345.355E+03              0.    -532.031E+03
           39074    -1.68640E+06    -319.945E+03              0.    -531.334E+03
           39075    -1.69807E+06    -294.971E+03              0.    -531.056E+03
           39076    -1.70969E+06    -270.424E+03              0.    -531.191E+03
           39077    -1.72126E+06    -246.295E+03              0.    -531.734E+03
           39078    -1.73280E+06    -222.578E+03              0.    -532.680E+03
           39079    -1.74430E+06    -199.264E+03              0.    -534.024E+03
           39080    -1.75578E+06    -176.345E+03              0.    -535.762E+03
           39081    -1.76723E+06    -153.816E+03              0.    -537.891E+03
           39082    -1.77866E+06    -131.669E+03              0.    -540.408E+03
           39083    -1.79008E+06    -109.896E+03              0.    -543.310E+03
           39084    -1.80149E+06    -88.4908E+03              0.    -546.596E+03
           39085    -1.81289E+06    -67.4467E+03              0.    -550.264E+03
           39086    -1.82429E+06    -46.7575E+03              0.    -554.313E+03
           39087    -1.83570E+06    -26.4162E+03              0.    -558.743E+03
           39088    -1.84711E+06    -6.41720E+03              0.    -563.554E+03
           39089    -1.85854E+06     13.2462E+03              0.    -568.747E+03
           39090    -1.86998E+06     32.5795E+03              0.    -574.323E+03
           39091    -1.88145E+06     51.5886E+03              0.    -580.282E+03
           39092    -1.89294E+06     70.2794E+03              0.    -586.628E+03
           39093    -1.90445E+06     88.6572E+03              0.    -593.362E+03
           39094    -1.91600E+06     106.727E+03              0.    -600.487E+03
           39095    -1.92759E+06     124.495E+03              0.    -608.007E+03
           39096    -1.93922E+06     141.966E+03              0.    -615.926E+03
           39097    -1.95089E+06     159.145E+03              0.    -624.247E+03
           39098    -1.96261E+06     176.037E+03              0.    -632.975E+03
           39099    -1.97438E+06     192.646E+03              0.    -642.117E+03
           39100    -1.98621E+06     208.978E+03              0.    -651.676E+03
           39101    -1.99810E+06     225.036E+03              0.    -661.660E+03
           39102    -2.01004E+06     240.825E+03              0.    -672.075E+03
           39103    -2.02206E+06     256.350E+03              0.    -682.929E+03
           39104    -2.03414E+06     271.615E+03              0.    -694.227E+03
           39105    -2.04630E+06     286.623E+03              0.    -705.980E+03
           39106    -2.05853E+06     301.378E+03              0.    -718.195E+03
           39107    -2.07084E+06     315.886E+03              0.    -730.881E+03
           39108    -2.08324E+06     330.148E+03              0.    -744.049E+03
           39109    -2.09572E+06     344.169E+03              0.    -757.707E+03
           39110    -2.10829E+06     357.953E+03              0.    -771.868E+03
           39111    -2.12095E+06     371.502E+03              0.    -786.541E+03
           39112    -2.13371E+06     384.820E+03              0.    -801.739E+03
           39113    -2.14656E+06     397.910E+03              0.    -817.474E+03
           39114    -2.15952E+06     410.776E+03              0.    -833.759E+03
           39115    -2.17258E+06     423.420E+03              0.    -850.607E+03
           39116    -2.18575E+06     435.846E+03              0.    -868.034E+03
           39117    -2.19903E+06     448.055E+03              0.    -886.052E+03
           39118    -2.21242E+06     460.052E+03              0.    -904.678E+03
           39119    -2.22593E+06     471.837E+03              0.    -923.927E+03
           39120    -2.23956E+06     483.415E+03              0.    -943.816E+03
           39121    -2.25331E+06     494.788E+03              0.    -964.363E+03
           39122    -2.26719E+06     505.957E+03              0.    -985.586E+03
           39123    -2.28119E+06     516.926E+03              0.    -1.00750E+06
           39124    -2.29533E+06     527.696E+03              0.    -1.03013E+06
           39125    -2.30960E+06     538.270E+03              0.    -1.05350E+06
           39126    -2.32400E+06     548.649E+03              0.    -1.07761E+06
           39127    -2.33855E+06     558.837E+03              0.    -1.10251E+06
           39128    -2.35324E+06     568.834E+03              0.    -1.12820E+06
           39129    -2.36807E+06     578.643E+03              0.    -1.15472E+06
           39130    -2.38306E+06     588.266E+03              0.    -1.18208E+06
           39131    -2.39819E+06     597.704E+03              0.    -1.21031E+06
           39132    -2.41348E+06     606.959E+03              0.    -1.23944E+06
           39133    -2.42893E+06     616.033E+03              0.    -1.26950E+06
           39134    -2.44454E+06     624.927E+03              0.    -1.30050E+06
           39135    -2.46032E+06     633.644E+03              0.    -1.33249E+06
           39136    -2.47626E+06     642.184E+03              0.    -1.36548E+06
           39137    -2.49237E+06     650.549E+03              0.    -1.39952E+06
           39138    -2.50865E+06     658.742E+03              0.    -1.43463E+06
           39139    -2.52512E+06     666.762E+03              0.    -1.47084E+06
           39140    -2.54176E+06     674.613E+03              0.    -1.50819E+06
           39141    -2.55859E+06     682.294E+03              0.    -1.54671E+06
           39142    -2.57560E+06     689.809E+03              0.    -1.58644E+06
           39143    -2.59281E+06     697.158E+03              0.    -1.62742E+06
           39144    -2.61022E+06     704.343E+03              0.    -1.66967E+06
           39145    -2.62782E+06     711.365E+03              0.    -1.71326E+06
           39146    -2.64563E+06     718.227E+03              0.    -1.75820E+06
           39147    -2.66364E+06     724.929E+03              0.    -1.80455E+06
           39148    -2.68187E+06     731.473E+03              0.    -1.85234E+06
           39149    -2.70032E+06     737.861E+03              0.    -1.90163E+06
           39150    -2.71898E+06     744.096E+03              0.    -1.95246E+06
           39151    -2.73788E+06     750.177E+03              0.    -2.00487E+06
           39152    -2.75700E+06     756.109E+03              0.    -2.05891E+06
           39153    -2.77637E+06     761.892E+03              0.    -2.11463E+06
           39154    -2.79597E+06     767.529E+03              0.    -2.17208E+06
           39155    -2.81583E+06     773.022E+03              0.    -2.23132E+06
           39156    -2.83594E+06     778.374E+03              0.    -2.29239E+06
           39157    -2.85632E+06     783.587E+03              0.    -2.35536E+06
           39158    -2.87696E+06     788.665E+03              0.    -2.42027E+06
           39159    -2.89788E+06     793.609E+03              0.    -2.48720E+06
           39160    -2.91908E+06     798.423E+03              0.    -2.55619E+06
           39161    -2.94058E+06     803.111E+03              0.    -2.62730E+06
           39162    -2.96238E+06     807.676E+03              0.    -2.70061E+06
           39163    -2.98449E+06     812.122E+03              0.    -2.77617E+06
           39164    -3.00691E+06     816.454E+03              0.    -2.85405E+06
           39165    -3.02967E+06     820.675E+03              0.    -2.93432E+06
           39166    -3.05276E+06     824.791E+03              0.    -3.01703E+06
           39167    -3.07621E+06     828.807E+03              0.    -3.10228E+06
           39168    -3.10002E+06     832.728E+03              0.    -3.19012E+06
           39169    -3.12421E+06     836.562E+03              0.    -3.28063E+06
           39170    -3.14879E+06     840.313E+03              0.    -3.37389E+06
           39171    -3.17377E+06     843.989E+03              0.    -3.46996E+06
           39172    -3.19917E+06     847.597E+03              0.    -3.56894E+06
           39173    -3.22501E+06     851.146E+03              0.    -3.67089E+06
           39174    -3.25130E+06     854.644E+03              0.    -3.77590E+06
           39175    -3.27806E+06     858.100E+03              0.    -3.88406E+06
           39176    -3.30531E+06     861.525E+03              0.    -3.99543E+06
           39177    -3.33307E+06     864.928E+03              0.    -4.11012E+06
           39178    -3.36136E+06     868.321E+03              0.    -4.22821E+06
           39179    -3.39021E+06     871.717E+03              0.    -4.34977E+06
           39180    -3.41964E+06     875.128E+03              0.    -4.47492E+06
           39181    -3.44968E+06     878.568E+03              0.    -4.60372E+06
           39182    -3.48035E+06     882.051E+03              0.    -4.73628E+06
           39183    -3.51169E+06     885.595E+03              0.    -4.87269E+06
           39184    -3.54373E+06     889.215E+03              0.    -5.01304E+06
           39185    -3.57649E+06     892.929E+03              0.    -5.15743E+06
           39186    -3.61002E+06     896.757E+03              0.    -5.30595E+06
           39187    -3.64436E+06     900.719E+03              0.    -5.45869E+06
           39188    -3.67954E+06     904.837E+03              0.    -5.61576E+06
           39189    -3.71562E+06     909.133E+03              0.    -5.77725E+06
           39190    -3.75262E+06     913.633E+03              0.    -5.94327E+06
           39191    -3.79062E+06     918.361E+03              0.    -6.11389E+06
           39192    -3.82965E+06     923.346E+03              0.    -6.28924E+06
           39193    -3.86977E+06     928.617E+03              0.    -6.46940E+06
           39194    -3.91104E+06     934.203E+03              0.    -6.65446E+06
           39195    -3.95353E+06     940.139E+03              0.    -6.84454E+06
           39196    -3.99730E+06     946.458E+03              0.    -7.03972E+06
           39197    -4.04242E+06     953.197E+03              0.    -7.24011E+06
           39198    -4.08898E+06     960.393E+03              0.    -7.44579E+06
           39199    -4.13704E+06     968.087E+03              0.    -7.65685E+06
           39200    -4.18670E+06     976.322E+03              0.    -7.87340E+06
           39201    -4.23805E+06     985.141E+03              0.    -8.09553E+06
           39202    -4.29118E+06     994.591E+03              0.    -8.32331E+06
           39203    -4.34620E+06     1.00472E+06              0.    -8.55684E+06
           39204    -4.40322E+06     1.01558E+06              0.    -8.79619E+06
           39205    -4.46235E+06     1.02723E+06              0.    -9.04146E+06
           39206    -4.52373E+06     1.03972E+06              0.    -9.29271E+06
           39207    -4.58746E+06     1.05310E+06              0.    -9.55002E+06
           39208    -4.65371E+06     1.06745E+06              0.    -9.81346E+06
           39209    -4.72262E+06     1.08281E+06              0.    -10.0831E+06
           39210    -4.79433E+06     1.09926E+06              0.    -10.3590E+06
           39211    -4.86903E+06     1.11686E+06              0.    -10.6412E+06
           39212    -4.94688E+06     1.13568E+06              0.    -10.9297E+06
           39213    -5.02808E+06     1.15579E+06              0.    -11.2246E+06
           39214    -5.11281E+06     1.17726E+06              0.    -11.5260E+06
           39215    -5.20130E+06     1.20017E+06              0.    -11.8339E+06
           39216    -5.29375E+06     1.22458E+06              0.    -12.1482E+06
           39217    -5.39041E+06     1.25058E+06              0.    -12.4690E+06
           39218    -5.49151E+06     1.27823E+06              0.    -12.7963E+06
           39219    -5.59733E+06     1.30762E+06              0.    -13.1301E+06
           39220    -5.70812E+06     1.33880E+06              0.    -13.4703E+06
           39221    -5.82419E+06     1.37186E+06              0.    -13.8171E+06
           39222    -5.94583E+06     1.40686E+06              0.    -14.1702E+06
           39223    -6.07337E+06     1.44386E+06              0.    -14.5297E+06
           39224    -6.20714E+06     1.48293E+06              0.    -14.8955E+06
           39225    -6.34748E+06     1.52411E+06              0.    -15.2675E+06
           39226    -6.49477E+06     1.56745E+06              0.    -15.6456E+06
           39227    -6.64939E+06     1.61299E+06              0.    -16.0298E+06
           39228    -6.81173E+06     1.66074E+06              0.    -16.4199E+06
           39229    -6.98222E+06     1.71072E+06              0.    -16.8157E+06
           39230    -7.16129E+06     1.76292E+06              0.    -17.2172E+06
           39231    -7.34939E+06     1.81731E+06              0.    -17.6240E+06
           39232    -7.54697E+06     1.87383E+06              0.    -18.0362E+06
           39233    -7.75453E+06     1.93242E+06              0.    -18.4533E+06
           39234    -7.97254E+06     1.99296E+06              0.    -18.8752E+06
           39235    -8.20152E+06     2.05531E+06              0.    -19.3016E+06
           39236    -8.44198E+06     2.11928E+06              0.    -19.7322E+06
           39237    -8.69443E+06     2.18465E+06              0.    -20.1667E+06
           39238    -8.95942E+06     2.25111E+06              0.    -20.6047E+06
           39239    -9.23747E+06     2.31833E+06              0.    -21.0459E+06
           39240    -9.52910E+06      2.3859E+06              0.    -21.4897E+06
           39241    -9.83486E+06     2.45332E+06              0.    -21.9357E+06
           39242    -10.1553E+06     2.52001E+06              0.    -22.3834E+06
           39243    -10.4908E+06     2.58531E+06              0.    -22.8321E+06
           39244    -10.8420E+06     2.64842E+06              0.    -23.2812E+06
           39245    -11.2093E+06     2.70845E+06              0.    -23.7300E+06
           39246    -11.5931E+06     2.76437E+06              0.    -24.1777E+06
           39247    -11.9938E+06     2.81500E+06              0.    -24.6233E+06
           39248    -12.4118E+06     2.85900E+06              0.    -25.0658E+06
           39249    -12.8474E+06     2.89486E+06              0.    -25.5040E+06
           39250    -13.3007E+06     2.92090E+06              0.    -25.9367E+06
           39251    -13.7721E+06     2.93519E+06              0.    -26.3625E+06
           39252    -14.2615E+06     2.93565E+06              0.    -26.7796E+06
           39253    -14.7690E+06     2.91989E+06              0.    -27.1862E+06
           39254    -15.2945E+06     2.88534E+06              0.    -27.5802E+06
           39255    -15.8378E+06     2.82914E+06              0.    -27.9592E+06
           39256    -16.3986E+06     2.74816E+06              0.    -28.3206E+06
           39257    -16.9765E+06     2.63899E+06              0.    -28.6612E+06
           39258    -17.5711E+06     2.49796E+06              0.    -28.9777E+06
           39259    -18.1817E+06     2.32108E+06              0.    -29.2661E+06
           39260    -18.8076E+06     2.10410E+06              0.    -29.5220E+06
           39261    -19.4481E+06     1.84248E+06              0.    -29.7405E+06
           39262    -20.1023E+06     1.53142E+06              0.    -29.9160E+06
           39263    -20.7693E+06     1.16589E+06              0.    -30.0421E+06
           39264    -21.4482E+06     740.610E+03              0.    -30.1119E+06
           39265    -22.1380E+06     250.140E+03              0.    -30.1175E+06
           39266    -22.8378E+06    -311.105E+03              0.    -30.0501E+06
           39267    -23.5467E+06    -948.807E+03              0.    -29.9000E+06
           39268    -24.2641E+06    -1.66866E+06              0.    -29.6564E+06
           39269    -24.9894E+06    -2.47634E+06              0.    -29.3074E+06
           39270    -25.7224E+06    -3.37738E+06              0.    -28.8398E+06
           39271    -26.4631E+06    -4.37710E+06              0.    -28.2392E+06
           39272    -27.2118E+06    -5.48051E+06              0.    -27.4898E+06
           39273    -27.9694E+06    -6.69219E+06              0.    -26.5743E+06
           39274    -28.7374E+06    -8.01618E+06              0.    -25.4739E+06
           39275    -29.5177E+06    -9.45580E+06              0.    -24.1681E+06
           39276    -30.3129E+06    -11.0135E+06              0.    -22.6347E+06
           39277    -31.1258E+06    -12.9056E+06              0.    -22.2489E+06
           39278    -1.55982E+06    -701.894E+03              0.    -557.992E+03
           39279    -1.55555E+06    -662.201E+03              0.    -556.973E+03
           39280    -1.56848E+06    -630.883E+03              0.    -551.176E+03
           39281    -1.58128E+06    -600.115E+03              0.    -545.907E+03
           39282    -1.59397E+06    -569.886E+03              0.    -541.151E+03
           39283    -1.60655E+06    -540.188E+03              0.    -536.895E+03
           39284    -1.61903E+06    -511.007E+03              0.    -533.126E+03
           39285    -1.63141E+06    -482.335E+03              0.    -529.834E+03
           39286    -1.64370E+06    -454.160E+03              0.    -527.006E+03
           39287    -1.65592E+06    -426.474E+03              0.    -524.633E+03
           39288    -1.66805E+06    -399.266E+03              0.    -522.705E+03
           39289    -1.68012E+06    -372.526E+03              0.    -521.214E+03
           39290    -1.69212E+06    -346.246E+03              0.    -520.151E+03
           39291    -1.70407E+06    -320.417E+03              0.    -519.508E+03
           39292    -1.71596E+06    -295.029E+03              0.    -519.280E+03
           39293    -1.72781E+06    -270.074E+03              0.    -519.460E+03
           39294    -1.73962E+06    -245.542E+03              0.    -520.042E+03
           39295    -1.75140E+06    -221.427E+03              0.    -521.022E+03
           39296    -1.76314E+06    -197.720E+03              0.    -522.394E+03
           39297    -1.77486E+06    -174.412E+03              0.    -524.156E+03
           39298    -1.78656E+06    -151.496E+03              0.    -526.303E+03
           39299    -1.79825E+06    -128.964E+03              0.    -528.833E+03
           39300    -1.80993E+06    -106.809E+03              0.    -531.743E+03
           39301    -1.82161E+06    -85.0232E+03              0.    -535.032E+03
           39302    -1.83329E+06    -63.5996E+03              0.    -538.699E+03
           39303    -1.84497E+06    -42.5315E+03              0.    -542.742E+03
           39304    -1.85667E+06    -21.8114E+03              0.    -547.162E+03
           39305    -1.86838E+06    -1.43322E+03              0.    -551.958E+03
           39306    -1.88012E+06     18.6102E+03              0.    -557.131E+03
           39307    -1.89188E+06     38.3248E+03              0.    -562.682E+03
           39308    -1.90367E+06     57.7170E+03              0.    -568.613E+03
           39309    -1.91550E+06     76.7931E+03              0.    -574.926E+03
           39310    -1.92736E+06     95.5588E+03              0.    -581.623E+03
           39311    -1.93927E+06     114.020E+03              0.    -588.707E+03
           39312    -1.95123E+06     132.183E+03              0.    -596.182E+03
           39313    -1.96324E+06     150.053E+03              0.    -604.051E+03
           39314    -1.97530E+06     167.635E+03              0.    -612.318E+03
           39315    -1.98743E+06     184.935E+03              0.    -620.990E+03
           39316    -1.99962E+06     201.958E+03              0.    -630.070E+03
           39317    -2.01188E+06     218.709E+03              0.    -639.564E+03
           39318    -2.02422E+06     235.194E+03              0.    -649.479E+03
           39319    -2.03663E+06     251.416E+03              0.    -659.821E+03
           39320    -2.04913E+06     267.381E+03              0.    -670.597E+03
           39321    -2.06171E+06     283.094E+03              0.    -681.815E+03
           39322    -2.07438E+06     298.559E+03              0.    -693.483E+03
           39323    -2.08714E+06     313.780E+03              0.    -705.610E+03
           39324    -2.10000E+06     328.762E+03              0.    -718.205E+03
           39325    -2.11297E+06     343.509E+03              0.    -731.277E+03
           39326    -2.12604E+06     358.025E+03              0.    -744.836E+03
           39327    -2.13922E+06     372.315E+03              0.    -758.894E+03
           39328    -2.15251E+06     386.381E+03              0.    -773.461E+03
           39329    -2.16592E+06     400.229E+03              0.    -788.549E+03
           39330    -2.17945E+06     413.862E+03              0.    -804.171E+03
           39331    -2.19311E+06     427.283E+03              0.    -820.339E+03
           39332    -2.20689E+06     440.497E+03              0.    -837.067E+03
           39333    -2.22081E+06     453.506E+03              0.    -854.369E+03
           39334    -2.23486E+06     466.314E+03              0.    -872.259E+03
           39335    -2.24906E+06     478.925E+03              0.    -890.754E+03
           39336    -2.26340E+06     491.341E+03              0.    -909.868E+03
           39337    -2.27789E+06     503.567E+03              0.    -929.620E+03
           39338    -2.29253E+06     515.605E+03              0.    -950.024E+03
           39339    -2.30733E+06     527.458E+03              0.    -971.101E+03
           39340    -2.32229E+06     539.130E+03              0.    -992.869E+03
           39341    -2.33742E+06     550.623E+03              0.    -1.01535E+06
           39342    -2.35271E+06     561.940E+03              0.    -1.03855E+06
           39343    -2.36818E+06     573.084E+03              0.    -1.06251E+06
           39344    -2.38382E+06     584.058E+03              0.    -1.08724E+06
           39345    -2.39965E+06     594.865E+03              0.    -1.11277E+06
           39346    -2.41566E+06     605.508E+03              0.    -1.13911E+06
           39347    -2.43187E+06     615.988E+03              0.    -1.16630E+06
           39348    -2.44826E+06     626.309E+03              0.    -1.19435E+06
           39349    -2.46486E+06     636.474E+03              0.    -1.22330E+06
           39350    -2.48166E+06     646.485E+03              0.    -1.25317E+06
           39351    -2.49867E+06     656.344E+03              0.    -1.28398E+06
           39352    -2.51590E+06     666.055E+03              0.    -1.31577E+06
           39353    -2.53334E+06     675.620E+03              0.    -1.34856E+06
           39354    -2.55100E+06     685.040E+03              0.    -1.38239E+06
           39355    -2.56890E+06     694.320E+03              0.    -1.41729E+06
           39356    -2.58703E+06     703.461E+03              0.    -1.45329E+06
           39357    -2.60539E+06     712.466E+03              0.    -1.49042E+06
           39358    -2.62401E+06     721.338E+03              0.    -1.52872E+06
           39359    -2.64287E+06     730.078E+03              0.    -1.56822E+06
           39360    -2.66199E+06     738.691E+03              0.    -1.60896E+06
           39361    -2.68138E+06     747.178E+03              0.    -1.65098E+06
           39362    -2.70103E+06     755.543E+03              0.    -1.69431E+06
           39363    -2.72096E+06     763.787E+03              0.    -1.73901E+06
           39364    -2.74117E+06     771.914E+03              0.    -1.78510E+06
           39365    -2.76167E+06     779.928E+03              0.    -1.83263E+06
           39366    -2.78246E+06     787.829E+03              0.    -1.88165E+06
           39367    -2.80357E+06     795.623E+03              0.    -1.93219E+06
           39368    -2.82498E+06     803.312E+03              0.    -1.98432E+06
           39369    -2.84671E+06     810.899E+03              0.    -2.03806E+06
           39370    -2.86877E+06     818.388E+03              0.    -2.09348E+06
           39371    -2.89117E+06     825.782E+03              0.    -2.15063E+06
           39372    -2.91391E+06     833.085E+03              0.    -2.20955E+06
           39373    -2.93701E+06     840.301E+03              0.    -2.27030E+06
           39374    -2.96048E+06     847.434E+03              0.    -2.33293E+06
           39375    -2.98432E+06     854.488E+03              0.    -2.39750E+06
           39376    -3.00855E+06     861.468E+03              0.    -2.46407E+06
           39377    -3.03318E+06     868.377E+03              0.    -2.53269E+06
           39378    -3.05821E+06     875.222E+03              0.    -2.60343E+06
           39379    -3.08367E+06     882.007E+03              0.    -2.67635E+06
           39380    -3.10957E+06     888.738E+03              0.    -2.75151E+06
           39381    -3.13591E+06     895.421E+03              0.    -2.82897E+06
           39382    -3.16271E+06     902.061E+03              0.    -2.90880E+06
           39383    -3.19000E+06     908.664E+03              0.    -2.99108E+06
           39384    -3.21778E+06     915.239E+03              0.    -3.07587E+06
           39385    -3.24607E+06     921.790E+03              0.    -3.16323E+06
           39386    -3.27488E+06     928.328E+03              0.    -3.25325E+06
           39387    -3.30425E+06     934.858E+03              0.    -3.34599E+06
           39388    -3.33417E+06     941.391E+03              0.    -3.44154E+06
           39389    -3.36469E+06     947.934E+03              0.    -3.53996E+06
           39390    -3.39581E+06     954.497E+03              0.    -3.64134E+06
           39391    -3.42756E+06     961.091E+03              0.    -3.74575E+06
           39392    -3.45996E+06     967.725E+03              0.    -3.85328E+06
           39393    -3.49305E+06     974.412E+03              0.    -3.96402E+06
           39394    -3.52683E+06     981.162E+03              0.    -4.07803E+06
           39395    -3.56135E+06     987.990E+03              0.    -4.19541E+06
           39396    -3.59663E+06     994.907E+03              0.    -4.31625E+06
           39397    -3.63270E+06     1.00193E+06              0.    -4.44062E+06
           39398    -3.66960E+06     1.00907E+06              0.    -4.56863E+06
           39399    -3.70735E+06     1.01635E+06              0.    -4.70036E+06
           39400    -3.74601E+06     1.02378E+06              0.    -4.83589E+06
           39401    -3.78560E+06     1.03137E+06              0.    -4.97533E+06
           39402    -3.82616E+06     1.03916E+06              0.    -5.11876E+06
           39403    -3.86774E+06     1.04716E+06              0.    -5.26627E+06
           39404    -3.91039E+06     1.05538E+06              0.    -5.41797E+06
           39405    -3.95414E+06     1.06386E+06              0.    -5.57393E+06
           39406    -3.99907E+06     1.07261E+06              0.    -5.73427E+06
           39407    -4.04521E+06     1.08166E+06              0.    -5.89907E+06
           39408    -4.09262E+06     1.09103E+06              0.    -6.06842E+06
           39409    -4.14137E+06     1.10076E+06              0.    -6.24242E+06
           39410    -4.19152E+06     1.11087E+06              0.    -6.42117E+06
           39411    -4.24313E+06     1.12140E+06              0.    -6.60476E+06
           39412    -4.29628E+06     1.13236E+06              0.    -6.79328E+06
           39413    -4.35105E+06     1.14381E+06              0.    -6.98682E+06
           39414    -4.40751E+06     1.15576E+06              0.    -7.18547E+06
           39415    -4.46575E+06     1.16827E+06              0.    -7.38933E+06
           39416    -4.52587E+06     1.18136E+06              0.    -7.59848E+06
           39417    -4.58794E+06     1.19509E+06              0.    -7.81302E+06
           39418    -4.65209E+06     1.20948E+06              0.    -8.03301E+06
           39419    -4.71841E+06     1.22459E+06              0.    -8.25854E+06
           39420    -4.78702E+06     1.24046E+06              0.    -8.48971E+06
           39421    -4.85803E+06     1.25714E+06              0.    -8.72656E+06
           39422    -4.93158E+06     1.27468E+06              0.    -8.96919E+06
           39423    -5.00780E+06     1.29313E+06              0.    -9.21766E+06
           39424    -5.08684E+06     1.31254E+06              0.    -9.47204E+06
           39425    -5.16883E+06     1.33297E+06              0.    -9.73238E+06
           39426    -5.25395E+06     1.35449E+06              0.    -9.99874E+06
           39427    -5.34237E+06     1.37714E+06              0.    -10.2712E+06
           39428    -5.43425E+06     1.40098E+06              0.    -10.5497E+06
           39429    -5.52980E+06     1.42609E+06              0.    -10.8344E+06
           39430    -5.62920E+06     1.45252E+06              0.    -11.1253E+06
           39431    -5.73268E+06     1.48033E+06              0.    -11.4224E+06
           39432    -5.84046E+06     1.50960E+06              0.    -11.7257E+06
           39433    -5.95276E+06     1.54038E+06              0.    -12.0352E+06
           39434    -6.06984E+06     1.57275E+06              0.    -12.3509E+06
           39435    -6.19197E+06     1.60677E+06              0.    -12.6729E+06
           39436    -6.31941E+06     1.64249E+06              0.    -13.0011E+06
           39437    -6.45247E+06     1.67999E+06              0.    -13.3354E+06
           39438    -6.59144E+06     1.71932E+06              0.    -13.6759E+06
           39439    -6.73665E+06     1.76054E+06              0.    -14.0224E+06
           39440    -6.88843E+06     1.80370E+06              0.    -14.3749E+06
           39441    -7.04715E+06     1.84884E+06              0.    -14.7334E+06
           39442    -7.21318E+06     1.89601E+06              0.    -15.0976E+06
           39443    -7.38690E+06     1.94523E+06              0.    -15.4676E+06
           39444    -7.56872E+06     1.99653E+06              0.    -15.8432E+06
           39445    -7.75907E+06     2.04990E+06              0.    -16.2243E+06
           39446    -7.95840E+06     2.10535E+06              0.    -16.6107E+06
           39447    -8.16716E+06     2.16284E+06              0.    -17.0022E+06
           39448    -8.38584E+06     2.22234E+06              0.    -17.3986E+06
           39449    -8.61493E+06     2.28376E+06              0.    -17.7997E+06
           39450    -8.85494E+06     2.34701E+06              0.    -18.2054E+06
           39451    -9.10641E+06     2.41196E+06              0.    -18.6153E+06
           39452    -9.36987E+06     2.47844E+06              0.    -19.0291E+06
           39453    -9.64588E+06     2.54624E+06              0.    -19.4466E+06
           39454    -9.93501E+06     2.61509E+06              0.    -19.8674E+06
           39455    -10.2378E+06     2.68469E+06              0.    -20.2911E+06
           39456    -10.5549E+06     2.75465E+06              0.    -20.7174E+06
           39457    -10.8869E+06     2.82452E+06              0.    -21.1458E+06
           39458    -11.2342E+06     2.89376E+06              0.    -21.5758E+06
           39459    -11.5976E+06     2.96176E+06              0.    -22.0069E+06
           39460    -11.9776E+06     3.02779E+06              0.    -22.4386E+06
           39461    -12.3746E+06     3.09101E+06              0.    -22.8702E+06
           39462    -12.7893E+06     3.15045E+06              0.    -23.3009E+06
           39463    -13.2221E+06     3.20500E+06              0.    -23.7301E+06
           39464    -13.6735E+06     3.25341E+06              0.    -24.1569E+06
           39465    -14.1438E+06     3.29423E+06              0.    -24.5803E+06
           39466    -14.6335E+06     3.32584E+06              0.    -24.9992E+06
           39467    -15.1428E+06     3.34641E+06              0.    -25.4124E+06
           39468    -15.6719E+06     3.35389E+06              0.    -25.8186E+06
           39469    -16.2209E+06     3.34599E+06              0.    -26.2162E+06
           39470    -16.7899E+06     3.32016E+06              0.    -26.6034E+06
           39471    -17.3788E+06     3.27356E+06              0.    -26.9785E+06
           39472    -17.9874E+06     3.20307E+06              0.    -27.3390E+06
           39473    -18.6153E+06     3.10527E+06              0.    -27.6824E+06
           39474    -19.2622E+06      2.9764E+06              0.    -28.0060E+06
           39475    -19.9275E+06     2.81239E+06              0.    -28.3064E+06
           39476    -20.6105E+06     2.60882E+06              0.    -28.5798E+06
           39477    -21.3103E+06     2.36092E+06              0.    -28.8222E+06
           39478    -22.0261E+06     2.06361E+06              0.    -29.0286E+06
           39479    -22.7567E+06     1.71146E+06              0.    -29.1938E+06
           39480    -23.5010E+06     1.29873E+06              0.    -29.3116E+06
           39481    -24.2578E+06     819.390E+03              0.    -29.3752E+06
           39482    -25.0257E+06     267.153E+03              0.    -29.3768E+06
           39483    -25.8036E+06    -364.483E+03              0.    -29.3079E+06
           39484    -26.5901E+06    -1.08220E+06              0.    -29.1587E+06
           39485    -27.3839E+06    -1.89279E+06              0.    -28.9187E+06
           39486    -28.1841E+06    -2.80307E+06              0.    -28.5759E+06
           39487    -28.9898E+06    -3.81984E+06              0.    -28.1171E+06
           39488    -29.8002E+06    -4.94975E+06              0.    -27.5279E+06
           39489    -30.6151E+06    -6.19926E+06              0.    -26.7923E+06
           39490    -31.4345E+06    -7.57443E+06              0.    -25.8929E+06
           39491    -32.2590E+06    -9.08094E+06              0.    -24.8106E+06
           39492    -33.0898E+06    -10.7239E+06              0.    -23.5246E+06
           39493    -33.9288E+06    -12.5075E+06              0.    -22.0123E+06
           39494    -34.8365E+06    -14.6682E+06              0.    -21.6159E+06
           39495    -1.57463E+06    -708.585E+03              0.    -544.856E+03
           39496    -1.57029E+06    -668.212E+03              0.    -543.861E+03
           39497    -1.58343E+06    -636.362E+03              0.    -538.191E+03
           39498    -1.59646E+06    -605.077E+03              0.    -533.041E+03
           39499    -1.60936E+06    -574.346E+03              0.    -528.397E+03
           39500    -1.62215E+06    -544.158E+03              0.    -524.246E+03
           39501    -1.63485E+06    -514.499E+03              0.    -520.576E+03
           39502    -1.64744E+06     -485.36E+03              0.    -517.375E+03
           39503    -1.65995E+06    -456.729E+03              0.    -514.632E+03
           39504    -1.67238E+06    -428.596E+03              0.    -512.337E+03
           39505    -1.68473E+06    -400.951E+03              0.    -510.481E+03
           39506    -1.69701E+06    -373.782E+03              0.    -509.054E+03
           39507    -1.70923E+06    -347.081E+03              0.    -508.050E+03
           39508    -1.72140E+06    -320.837E+03              0.    -507.461E+03
           39509    -1.73352E+06    -295.041E+03              0.    -507.280E+03
           39510    -1.74559E+06    -269.684E+03              0.    -507.501E+03
           39511    -1.75763E+06    -244.755E+03              0.    -508.118E+03
           39512    -1.76964E+06    -220.248E+03              0.    -509.127E+03
           39513    -1.78162E+06    -196.152E+03              0.    -510.523E+03
           39514    -1.79358E+06    -172.460E+03              0.    -512.303E+03
           39515    -1.80553E+06    -149.162E+03              0.    -514.462E+03
           39516    -1.81748E+06    -126.251E+03              0.    -516.999E+03
           39517    -1.82942E+06    -103.719E+03              0.    -519.912E+03
           39518    -1.84136E+06    -81.5579E+03              0.    -523.198E+03
           39519    -1.85331E+06    -59.7598E+03              0.    -526.856E+03
           39520    -1.86528E+06    -38.3176E+03              0.    -530.886E+03
           39521    -1.87726E+06    -17.2235E+03              0.    -535.287E+03
           39522    -1.88928E+06     3.52907E+03              0.    -540.059E+03
           39523    -1.90132E+06     23.9478E+03              0.    -545.204E+03
           39524    -1.91339E+06     44.0391E+03              0.    -550.722E+03
           39525    -1.92550E+06     63.8098E+03              0.    -556.614E+03
           39526    -1.93766E+06     83.2667E+03              0.    -562.884E+03
           39527    -1.94987E+06     102.416E+03              0.    -569.533E+03
           39528    -1.96214E+06     121.264E+03              0.    -576.565E+03
           39529    -1.97446E+06     139.817E+03              0.    -583.983E+03
           39530    -1.98685E+06     158.081E+03              0.    -591.790E+03
           39531    -1.99931E+06     176.063E+03              0.    -599.991E+03
           39532    -2.01184E+06     193.767E+03              0.    -608.592E+03
           39533    -2.02445E+06     211.199E+03              0.    -617.596E+03
           39534    -2.03714E+06     228.366E+03              0.    -627.011E+03
           39535    -2.04992E+06     245.273E+03              0.    -636.842E+03
           39536    -2.06280E+06     261.924E+03              0.    -647.095E+03
           39537    -2.07577E+06     278.325E+03              0.    -657.778E+03
           39538    -2.08884E+06     294.482E+03              0.    -668.899E+03
           39539    -2.10202E+06     310.399E+03              0.    -680.465E+03
           39540    -2.11532E+06     326.082E+03              0.    -692.486E+03
           39541    -2.12872E+06     341.535E+03              0.    -704.970E+03
           39542    -2.14225E+06     356.763E+03              0.    -717.928E+03
           39543    -2.15591E+06     371.770E+03              0.    -731.368E+03
           39544    -2.16969E+06     386.562E+03              0.    -745.302E+03
           39545    -2.18361E+06     401.142E+03              0.    -759.741E+03
           39546    -2.19767E+06     415.515E+03              0.    -774.697E+03
           39547    -2.21187E+06     429.686E+03              0.    -790.182E+03
           39548    -2.22622E+06     443.659E+03              0.    -806.209E+03
           39549    -2.24073E+06     457.438E+03              0.    -822.791E+03
           39550    -2.25539E+06     471.027E+03              0.    -839.943E+03
           39551    -2.27022E+06     484.430E+03              0.    -857.679E+03
           39552    -2.28521E+06     497.651E+03              0.    -876.015E+03
           39553    -2.30038E+06     510.694E+03              0.    -894.966E+03
           39554    -2.31573E+06     523.564E+03              0.    -914.549E+03
           39555    -2.33125E+06     536.263E+03              0.    -934.781E+03
           39556    -2.34697E+06     548.796E+03              0.    -955.680E+03
           39557    -2.36288E+06     561.166E+03              0.    -977.265E+03
           39558    -2.37899E+06     573.377E+03              0.    -999.555E+03
           39559    -2.39530E+06     585.433E+03              0.    -1.02257E+06
           39560    -2.41182E+06     597.338E+03              0.    -1.04633E+06
           39561    -2.42856E+06     609.094E+03              0.    -1.07086E+06
           39562    -2.44552E+06     620.706E+03              0.    -1.09618E+06
           39563    -2.46270E+06     632.178E+03              0.    -1.12231E+06
           39564    -2.48012E+06     643.511E+03              0.    -1.14928E+06
           39565    -2.49777E+06     654.711E+03              0.    -1.17711E+06
           39566    -2.51567E+06     665.781E+03              0.    -1.20583E+06
           39567    -2.53381E+06     676.723E+03              0.    -1.23546E+06
           39568    -2.55221E+06     687.543E+03              0.    -1.26603E+06
           39569    -2.57088E+06     698.242E+03              0.    -1.29758E+06
           39570    -2.58982E+06     708.826E+03              0.    -1.33012E+06
           39571    -2.60903E+06     719.296E+03              0.    -1.36369E+06
           39572    -2.62852E+06     729.658E+03              0.    -1.39832E+06
           39573    -2.64831E+06     739.913E+03              0.    -1.43405E+06
           39574    -2.66839E+06     750.067E+03              0.    -1.47090E+06
           39575    -2.68878E+06     760.122E+03              0.    -1.50891E+06
           39576    -2.70948E+06     770.083E+03              0.    -1.54812E+06
           39577    -2.73050E+06     779.953E+03              0.    -1.58856E+06
           39578    -2.75186E+06     789.736E+03              0.    -1.63027E+06
           39579    -2.77355E+06     799.435E+03              0.    -1.67329E+06
           39580    -2.79558E+06     809.055E+03              0.    -1.71766E+06
           39581    -2.81798E+06     818.601E+03              0.    -1.76341E+06
           39582    -2.84074E+06     828.075E+03              0.    -1.81060E+06
           39583    -2.86387E+06     837.482E+03              0.    -1.85927E+06
           39584    -2.88739E+06     846.827E+03              0.    -1.90946E+06
           39585    -2.91131E+06     856.114E+03              0.    -1.96121E+06
           39586    -2.93564E+06     865.347E+03              0.    -2.01457E+06
           39587    -2.96038E+06     874.532E+03              0.    -2.06960E+06
           39588    -2.98555E+06     883.673E+03              0.    -2.12634E+06
           39589    -3.01117E+06     892.776E+03              0.    -2.18485E+06
           39590    -3.03724E+06     901.846E+03              0.    -2.24517E+06
           39591    -3.06378E+06     910.887E+03              0.    -2.30736E+06
           39592    -3.09080E+06     919.906E+03              0.    -2.37148E+06
           39593    -3.11831E+06     928.909E+03              0.    -2.43758E+06
           39594    -3.14634E+06     937.901E+03              0.    -2.50572E+06
           39595    -3.17489E+06     946.889E+03              0.    -2.57596E+06
           39596    -3.20399E+06     955.880E+03              0.    -2.64837E+06
           39597    -3.23365E+06     964.881E+03              0.    -2.72300E+06
           39598    -3.26388E+06     973.899E+03              0.    -2.79991E+06
           39599    -3.29471E+06     982.940E+03              0.    -2.87918E+06
           39600    -3.32616E+06     992.014E+03              0.    -2.96087E+06
           39601    -3.35824E+06     1.00113E+06              0.    -3.04505E+06
           39602    -3.39097E+06     1.01029E+06              0.    -3.13179E+06
           39603    -3.42438E+06     1.01951E+06              0.    -3.22116E+06
           39604    -3.45850E+06     1.02880E+06              0.    -3.31324E+06
           39605    -3.49334E+06     1.03817E+06              0.    -3.40809E+06
           39606    -3.52892E+06     1.04762E+06              0.    -3.50579E+06
           39607    -3.56529E+06     1.05718E+06              0.    -3.60642E+06
           39608    -3.60246E+06     1.06684E+06              0.    -3.71006E+06
           39609    -3.64046E+06     1.07662E+06              0.    -3.81679E+06
           39610    -3.67933E+06     1.08654E+06              0.    -3.92668E+06
           39611    -3.71909E+06     1.09661E+06              0.    -4.03983E+06
           39612    -3.75978E+06     1.10684E+06              0.    -4.15630E+06
           39613    -3.80143E+06     1.11725E+06              0.     -4.2762E+06
           39614    -3.84409E+06     1.12784E+06              0.    -4.39960E+06
           39615    -3.88779E+06     1.13865E+06              0.    -4.52658E+06
           39616    -3.93256E+06     1.14968E+06              0.    -4.65725E+06
           39617    -3.97846E+06     1.16095E+06              0.    -4.79168E+06
           39618    -4.02553E+06     1.17248E+06              0.    -4.92996E+06
           39619    -4.07381E+06     1.18429E+06              0.    -5.07219E+06
           39620    -4.12337E+06     1.19640E+06              0.    -5.21844E+06
           39621    -4.17423E+06     1.20884E+06              0.    -5.36883E+06
           39622    -4.22648E+06     1.22161E+06              0.    -5.52342E+06
           39623    -4.28015E+06     1.23476E+06              0.    -5.68232E+06
           39624    -4.33532E+06     1.24830E+06              0.    -5.84562E+06
           39625    -4.39205E+06     1.26226E+06              0.    -6.01341E+06
           39626    -4.45041E+06     1.27666E+06              0.    -6.18577E+06
           39627    -4.51046E+06     1.29154E+06              0.    -6.36281E+06
           39628    -4.57229E+06     1.30692E+06              0.    -6.54459E+06
           39629    -4.63597E+06     1.32283E+06              0.    -6.73123E+06
           39630    -4.70159E+06     1.33931E+06              0.    -6.92280E+06
           39631    -4.76924E+06     1.35639E+06              0.    -7.11938E+06
           39632    -4.83901E+06     1.37411E+06              0.    -7.32107E+06
           39633    -4.91100E+06     1.39250E+06              0.    -7.52795E+06
           39634    -4.98531E+06     1.41160E+06              0.    -7.74009E+06
           39635    -5.06207E+06     1.43146E+06              0.    -7.95757E+06
           39636    -5.14137E+06     1.45210E+06              0.    -8.18047E+06
           39637    -5.22335E+06     1.47358E+06              0.    -8.40887E+06
           39638    -5.30813E+06     1.49594E+06              0.    -8.64282E+06
           39639    -5.39586E+06     1.51923E+06              0.    -8.88239E+06
           39640    -5.48667E+06     1.54348E+06              0.    -9.12765E+06
           39641    -5.58072E+06     1.56877E+06              0.    -9.37865E+06
           39642    -5.67818E+06     1.59512E+06              0.    -9.63544E+06
           39643    -5.77921E+06     1.62260E+06              0.    -9.89806E+06
           39644    -5.88399E+06     1.65126E+06              0.    -10.1666E+06
           39645    -5.99271E+06     1.68115E+06              0.    -10.4410E+06
           39646    -6.10558E+06     1.71233E+06              0.    -10.7213E+06
           39647    -6.22281E+06     1.74485E+06              0.    -11.0076E+06
           39648    -6.34461E+06     1.77877E+06              0.    -11.2999E+06
           39649    -6.47123E+06     1.81415E+06              0.    -11.5981E+06
           39650    -6.60292E+06     1.85105E+06              0.    -11.9023E+06
           39651    -6.73993E+06     1.88951E+06              0.    -12.2124E+06
           39652    -6.88255E+06     1.92959E+06              0.    -12.5285E+06
           39653    -7.03106E+06     1.97136E+06              0.    -12.8504E+06
           39654    -7.18577E+06     2.01485E+06              0.    -13.1782E+06
           39655    -7.34702E+06     2.06012E+06              0.    -13.5118E+06
           39656    -7.51512E+06     2.10721E+06              0.    -13.8510E+06
           39657    -7.69044E+06     2.15615E+06              0.    -14.1959E+06
           39658    -7.87336E+06     2.20699E+06              0.    -14.5463E+06
           39659    -8.06427E+06     2.25974E+06              0.    -14.9022E+06
           39660    -8.26358E+06     2.31442E+06              0.    -15.2633E+06
           39661    -8.47171E+06     2.37104E+06              0.    -15.6296E+06
           39662    -8.68913E+06     2.42958E+06              0.    -16.0008E+06
           39663    -8.91629E+06     2.49002E+06              0.    -16.3769E+06
           39664    -9.15369E+06     2.55232E+06              0.    -16.7576E+06
           39665    -9.40183E+06     2.61641E+06              0.    -17.1427E+06
           39666    -9.66124E+06     2.68221E+06              0.    -17.5320E+06
           39667    -9.93248E+06     2.74958E+06              0.    -17.9252E+06
           39668    -10.2161E+06     2.81839E+06              0.    -18.3221E+06
           39669    -10.5127E+06     2.88844E+06              0.    -18.7223E+06
           39670    -10.8228E+06     2.95950E+06              0.    -19.1256E+06
           39671    -11.1471E+06     3.03128E+06              0.    -19.5316E+06
           39672    -11.4861E+06     3.10343E+06              0.    -19.9399E+06
           39673    -11.8406E+06     3.17555E+06              0.    -20.3501E+06
           39674    -12.2111E+06     3.24715E+06              0.    -20.7618E+06
           39675    -12.5983E+06     3.31766E+06              0.    -21.1746E+06
           39676    -13.0028E+06     3.38643E+06              0.    -21.5878E+06
           39677    -13.4252E+06     3.45268E+06              0.    -22.0010E+06
           39678    -13.8661E+06     3.51552E+06              0.    -22.4135E+06
           39679    -14.3261E+06     3.57393E+06              0.    -22.8247E+06
           39680    -14.8057E+06     3.62673E+06              0.    -23.2338E+06
           39681    -15.3056E+06     3.67258E+06              0.    -23.6401E+06
           39682     -15.826E+06     3.70997E+06              0.    -24.0425E+06
           39683    -16.3675E+06     3.73716E+06              0.    -24.4403E+06
           39684    -16.9303E+06     3.75220E+06              0.    -24.8321E+06
           39685    -17.5147E+06     3.75292E+06              0.    -25.2167E+06
           39686    -18.1210E+06     3.73685E+06              0.    -25.5929E+06
           39687    -18.7490E+06     3.70125E+06              0.    -25.9588E+06
           39688    -19.3989E+06     3.64309E+06              0.    -26.3128E+06
           39689    -20.0703E+06     3.55899E+06              0.    -26.6527E+06
           39690    -20.7630E+06     3.44523E+06              0.    -26.9762E+06
           39691    -21.4765E+06     3.29773E+06              0.    -27.2806E+06
           39692    -22.2101E+06     3.11203E+06              0.    -27.5628E+06
           39693    -22.9632E+06     2.88329E+06              0.    -27.8194E+06
           39694    -23.7346E+06     2.60625E+06              0.    -28.0463E+06
           39695    -24.5234E+06     2.27526E+06              0.    -28.2390E+06
           39696    -25.3283E+06     1.88427E+06              0.    -28.3924E+06
           39697    -26.1478E+06     1.42686E+06              0.    -28.5006E+06
           39698    -26.9804E+06     896.210E+03              0.    -28.5568E+06
           39699    -27.8246E+06     285.186E+03              0.    -28.5538E+06
           39700    -28.6786E+06    -413.653E+03              0.    -28.4829E+06
           39701    -29.5407E+06    -1.20802E+06              0.    -28.3347E+06
           39702    -30.4091E+06    -2.10579E+06              0.    -28.0987E+06
           39703    -31.2823E+06    -3.11502E+06              0.    -27.7631E+06
           39704    -32.1587E+06    -4.24378E+06              0.    -27.3147E+06
           39705    -33.0368E+06    -5.50010E+06              0.    -26.7391E+06
           39706    -33.9158E+06    -6.89190E+06              0.    -26.0202E+06
           39707    -34.7946E+06    -8.42684E+06              0.    -25.1406E+06
           39708    -35.6730E+06    -10.1122E+06              0.    -24.0809E+06
           39709    -36.5511E+06    -11.9549E+06              0.    -22.8200E+06
           39710    -37.4293E+06    -13.9610E+06              0.    -21.3351E+06
           39711    -38.4285E+06    -16.3861E+06              0.    -20.9306E+06
           39712    -1.58912E+06    -715.135E+03              0.    -531.500E+03
           39713    -1.58471E+06    -674.090E+03              0.    -530.528E+03
           39714    -1.59807E+06    -641.717E+03              0.    -524.987E+03
           39715    -1.61131E+06    -609.923E+03              0.    -519.959E+03
           39716    -1.62443E+06    -578.697E+03              0.    -515.430E+03
           39717    -1.63743E+06    -548.025E+03              0.    -511.385E+03
           39718    -1.65034E+06    -517.896E+03              0.    -507.814E+03
           39719    -1.66314E+06    -488.297E+03              0.    -504.705E+03
           39720    -1.67586E+06    -459.217E+03              0.    -502.046E+03
           39721    -1.68850E+06    -430.644E+03              0.    -499.829E+03
           39722    -1.70106E+06    -402.568E+03              0.    -498.043E+03
           39723    -1.71356E+06    -374.977E+03              0.    -496.680E+03
           39724    -1.72600E+06    -347.860E+03              0.    -495.733E+03
           39725    -1.73838E+06    -321.208E+03              0.    -495.194E+03
           39726    -1.75072E+06    -295.010E+03              0.    -495.057E+03
           39727    -1.76302E+06    -269.257E+03              0.    -495.315E+03
           39728    -1.77528E+06    -243.938E+03              0.    -495.964E+03
           39729    -1.78752E+06    -219.044E+03              0.    -496.998E+03
           39730    -1.79974E+06    -194.566E+03              0.    -498.413E+03
           39731    -1.81194E+06    -170.495E+03              0.    -500.206E+03
           39732    -1.82413E+06    -146.822E+03              0.    -502.373E+03
           39733    -1.83633E+06    -123.537E+03              0.    -504.912E+03
           39734    -1.84852E+06    -100.634E+03              0.    -507.820E+03
           39735    -1.86073E+06    -78.1020E+03              0.    -511.096E+03
           39736    -1.87295E+06    -55.9346E+03              0.    -514.738E+03
           39737    -1.88520E+06    -34.1237E+03              0.    -518.747E+03
           39738    -1.89747E+06    -12.6608E+03              0.    -523.121E+03
           39739    -1.90977E+06     8.46098E+03              0.    -527.862E+03
           39740    -1.92211E+06     29.2499E+03              0.    -532.969E+03
           39741    -1.93450E+06     49.7128E+03              0.    -538.444E+03
           39742    -1.94693E+06     69.8570E+03              0.    -544.289E+03
           39743    -1.95942E+06     89.6897E+03              0.    -550.505E+03
           39744    -1.97197E+06     109.218E+03              0.    -557.096E+03
           39745    -1.98459E+06     128.447E+03              0.    -564.064E+03
           39746    -1.99728E+06     147.386E+03              0.    -571.413E+03
           39747    -2.01004E+06      166.04E+03              0.    -579.146E+03
           39748    -2.02288E+06     184.416E+03              0.    -587.269E+03
           39749    -2.03581E+06     202.519E+03              0.    -595.785E+03
           39750    -2.04884E+06     220.356E+03              0.    -604.701E+03
           39751    -2.06196E+06     237.934E+03              0.    -614.021E+03
           39752    -2.07518E+06     255.257E+03              0.    -623.753E+03
           39753    -2.08851E+06     272.333E+03              0.    -633.902E+03
           39754    -2.10196E+06     289.166E+03              0.    -644.477E+03
           39755    -2.11552E+06     305.762E+03              0.    -655.483E+03
           39756    -2.12921E+06     322.127E+03              0.    -666.931E+03
           39757    -2.14302E+06     338.267E+03              0.    -678.827E+03
           39758    -2.15697E+06     354.186E+03              0.    -691.183E+03
           39759    -2.17106E+06     369.889E+03              0.    -704.005E+03
           39760    -2.18530E+06     385.383E+03              0.    -717.306E+03
           39761    -2.19968E+06     400.672E+03              0.    -731.096E+03
           39762    -2.21422E+06     415.761E+03              0.    -745.386E+03
           39763    -2.22893E+06     430.656E+03              0.    -760.187E+03
           39764    -2.24379E+06     445.360E+03              0.    -775.512E+03
           39765    -2.25883E+06     459.879E+03              0.    -791.374E+03
           39766    -2.27405E+06     474.219E+03              0.    -807.786E+03
           39767    -2.28946E+06     488.382E+03              0.    -824.762E+03
           39768    -2.30505E+06     502.375E+03              0.    -842.317E+03
           39769    -2.32084E+06     516.202E+03              0.    -860.466E+03
           39770    -2.33682E+06     529.867E+03              0.    -879.224E+03
           39771    -2.35302E+06     543.374E+03              0.    -898.609E+03
           39772    -2.36943E+06     556.730E+03              0.    -918.638E+03
           39773    -2.38605E+06     569.937E+03              0.    -939.328E+03
           39774    -2.40291E+06     583.000E+03              0.    -960.698E+03
           39775    -2.41999E+06     595.925E+03              0.    -982.766E+03
           39776    -2.43732E+06     608.714E+03              0.    -1.00555E+06
           39777    -2.45489E+06     621.373E+03              0.    -1.02908E+06
           39778    -2.47271E+06     633.906E+03              0.    -1.05337E+06
           39779    -2.49078E+06     646.317E+03              0.    -1.07844E+06
           39780    -2.50913E+06     658.611E+03              0.    -1.10432E+06
           39781    -2.52775E+06     670.792E+03              0.    -1.13103E+06
           39782    -2.54665E+06     682.865E+03              0.    -1.15859E+06
           39783    -2.56583E+06     694.832E+03              0.    -1.18704E+06
           39784    -2.58532E+06     706.701E+03              0.    -1.21639E+06
           39785    -2.60510E+06     718.473E+03              0.    -1.24667E+06
           39786    -2.62520E+06     730.155E+03              0.    -1.27792E+06
           39787    -2.64562E+06     741.750E+03              0.    -1.31016E+06
           39788    -2.66636E+06     753.263E+03              0.    -1.34342E+06
           39789    -2.68745E+06     764.698E+03              0.    -1.37773E+06
           39790    -2.70888E+06     776.061E+03              0.    -1.41313E+06
           39791    -2.73066E+06     787.355E+03              0.    -1.44964E+06
           39792    -2.75281E+06     798.586E+03              0.    -1.48730E+06
           39793    -2.77534E+06     809.758E+03              0.    -1.52615E+06
           39794    -2.79825E+06     820.876E+03              0.    -1.56623E+06
           39795    -2.82156E+06     831.945E+03              0.    -1.60756E+06
           39796    -2.84527E+06     842.971E+03              0.    -1.65020E+06
           39797    -2.86940E+06     853.957E+03              0.    -1.69417E+06
           39798    -2.89397E+06     864.910E+03              0.    -1.73952E+06
           39799    -2.91897E+06     875.835E+03              0.    -1.78629E+06
           39800    -2.94443E+06     886.737E+03              0.    -1.83452E+06
           39801    -2.97035E+06     897.622E+03              0.    -1.88426E+06
           39802    -2.99675E+06     908.495E+03              0.    -1.93556E+06
           39803    -3.02365E+06     919.363E+03              0.    -1.98845E+06
           39804    -3.05105E+06     930.232E+03              0.    -2.04300E+06
           39805    -3.07898E+06     941.107E+03              0.    -2.09924E+06
           39806    -3.10744E+06     951.996E+03              0.    -2.15723E+06
           39807    -3.13646E+06     962.904E+03              0.    -2.21703E+06
           39808    -3.16605E+06     973.839E+03              0.    -2.27867E+06
           39809    -3.19622E+06     984.808E+03              0.    -2.34223E+06
           39810    -3.22700E+06     995.818E+03              0.    -2.40775E+06
           39811    -3.25840E+06     1.00688E+06              0.    -2.47530E+06
           39812    -3.29045E+06     1.01799E+06              0.    -2.54493E+06
           39813    -3.32315E+06     1.02917E+06              0.    -2.61669E+06
           39814    -3.35654E+06     1.04042E+06              0.    -2.69067E+06
           39815    -3.39063E+06     1.05175E+06              0.    -2.76691E+06
           39816    -3.42545E+06     1.06318E+06              0.    -2.84548E+06
           39817    -3.46102E+06     1.07470E+06              0.    -2.92645E+06
           39818    -3.49736E+06     1.08633E+06              0.    -3.00988E+06
           39819    -3.53451E+06     1.09808E+06              0.    -3.09585E+06
           39820    -3.57248E+06     1.10996E+06              0.    -3.18442E+06
           39821    -3.61130E+06     1.12198E+06              0.    -3.27566E+06
           39822    -3.65100E+06     1.13416E+06              0.    -3.36966E+06
           39823    -3.69162E+06     1.14649E+06              0.    -3.46647E+06
           39824    -3.73318E+06     1.15901E+06              0.    -3.56619E+06
           39825    -3.77572E+06     1.17171E+06              0.    -3.66887E+06
           39826    -3.81926E+06     1.18461E+06              0.    -3.77461E+06
           39827    -3.86386E+06     1.19773E+06              0.    -3.88348E+06
           39828    -3.90954E+06     1.21108E+06              0.    -3.99557E+06
           39829    -3.95634E+06     1.22467E+06              0.    -4.11094E+06
           39830    -4.00430E+06     1.23852E+06              0.    -4.22969E+06
           39831    -4.05347E+06     1.25265E+06              0.    -4.35190E+06
           39832    -4.10389E+06     1.26707E+06              0.    -4.47765E+06
           39833    -4.15561E+06     1.28181E+06              0.    -4.60703E+06
           39834    -4.20868E+06     1.29687E+06              0.    -4.74012E+06
           39835    -4.26314E+06     1.31229E+06              0.    -4.87702E+06
           39836    -4.31906E+06     1.32807E+06              0.    -5.01780E+06
           39837    -4.37648E+06     1.34424E+06              0.    -5.16255E+06
           39838    -4.43548E+06     1.36082E+06              0.    -5.31136E+06
           39839    -4.49610E+06     1.37784E+06              0.    -5.46432E+06
           39840    -4.55842E+06     1.39532E+06              0.    -5.62152E+06
           39841    -4.62251E+06     1.41327E+06              0.    -5.78305E+06
           39842    -4.68843E+06     1.43174E+06              0.    -5.94898E+06
           39843    -4.75626E+06     1.45074E+06              0.    -6.11941E+06
           39844    -4.82608E+06     1.47030E+06              0.    -6.29443E+06
           39845    -4.89798E+06     1.49045E+06              0.    -6.47411E+06
           39846    -4.97203E+06     1.51122E+06              0.    -6.65854E+06
           39847    -5.04835E+06     1.53264E+06              0.    -6.84781E+06
           39848    -5.12701E+06     1.55475E+06              0.    -7.04200E+06
           39849    -5.20813E+06     1.57757E+06              0.    -7.24117E+06
           39850    -5.29181E+06     1.60114E+06              0.    -7.44542E+06
           39851    -5.37816E+06     1.62550E+06              0.    -7.65481E+06
           39852    -5.46730E+06     1.65069E+06              0.    -7.86942E+06
           39853    -5.55936E+06     1.67674E+06              0.    -8.08931E+06
           39854    -5.65448E+06     1.70369E+06              0.    -8.31455E+06
           39855    -5.75277E+06     1.73158E+06              0.    -8.54520E+06
           39856    -5.85441E+06     1.76046E+06              0.    -8.78132E+06
           39857    -5.95953E+06     1.79036E+06              0.    -9.02295E+06
           39858    -6.06831E+06     1.82134E+06              0.    -9.27015E+06
           39859    -6.18090E+06     1.85343E+06              0.    -9.52295E+06
           39860    -6.29750E+06     1.88669E+06              0.    -9.78139E+06
           39861    -6.41829E+06     1.92116E+06              0.    -10.0455E+06
           39862    -6.54348E+06     1.95688E+06              0.    -10.3153E+06
           39863    -6.67327E+06     1.99391E+06              0.    -10.5908E+06
           39864    -6.80789E+06     2.03229E+06              0.    -10.8721E+06
           39865    -6.94757E+06     2.07207E+06              0.    -11.1590E+06
           39866    -7.09256E+06     2.11330E+06              0.    -11.4516E+06
           39867    -7.24312E+06     2.15602E+06              0.    -11.7500E+06
           39868    -7.39953E+06     2.20029E+06              0.    -12.0540E+06
           39869    -7.56207E+06     2.24614E+06              0.    -12.3635E+06
           39870    -7.73104E+06     2.29362E+06              0.    -12.6787E+06
           39871    -7.90678E+06     2.34277E+06              0.    -12.9993E+06
           39872    -8.08961E+06     2.39362E+06              0.    -13.3254E+06
           39873    -8.27989E+06     2.44621E+06              0.    -13.6568E+06
           39874    -8.47799E+06     2.50055E+06              0.    -13.9934E+06
           39875    -8.68431E+06     2.55667E+06              0.    -14.3352E+06
           39876    -8.89924E+06     2.61458E+06              0.    -14.6819E+06
           39877    -9.12323E+06     2.67428E+06              0.    -15.0335E+06
           39878    -9.35672E+06     2.73576E+06              0.    -15.3897E+06
           39879    -9.60018E+06     2.79898E+06              0.    -15.7504E+06
           39880    -9.85411E+06     2.86392E+06              0.    -16.1155E+06
           39881    -10.1190E+06     2.93050E+06              0.    -16.4846E+06
           39882    -10.3954E+06     2.99866E+06              0.    -16.8576E+06
           39883    -10.6839E+06     3.06827E+06              0.    -17.2342E+06
           39884    -10.9850E+06     3.13920E+06              0.    -17.6141E+06
           39885    -11.2994E+06     3.21128E+06              0.    -17.9970E+06
           39886    -11.6276E+06     3.28430E+06              0.    -18.3827E+06
           39887    -11.9703E+06     3.35800E+06              0.    -18.7708E+06
           39888    -12.3281E+06     3.43208E+06              0.    -19.1610E+06
           39889    -12.7017E+06     3.50616E+06              0.    -19.5528E+06
           39890    -13.0917E+06     3.57980E+06              0.    -19.9458E+06
           39891    -13.4989E+06     3.65251E+06              0.    -20.3397E+06
           39892    -13.9240E+06     3.72368E+06              0.    -20.7339E+06
           39893    -14.3675E+06     3.79261E+06              0.    -21.1280E+06
           39894    -14.8302E+06     3.85849E+06              0.    -21.5213E+06
           39895    -15.3127E+06     3.92040E+06              0.    -21.9133E+06
           39896    -15.8158E+06     3.97726E+06              0.    -22.3035E+06
           39897    -16.3399E+06     4.02783E+06              0.    -22.6909E+06
           39898    -16.8857E+06     4.07073E+06              0.    -23.0751E+06
           39899    -17.4538E+06     4.10435E+06              0.    -23.4549E+06
           39900    -18.0444E+06     4.12687E+06              0.    -23.8297E+06
           39901    -18.6582E+06     4.13625E+06              0.    -24.1983E+06
           39902    -19.2953E+06     4.13017E+06              0.    -24.5595E+06
           39903    -19.9560E+06     4.10604E+06              0.    -24.9122E+06
           39904    -20.6404E+06     4.06095E+06              0.    -25.2547E+06
           39905    -21.3484E+06     3.99167E+06              0.    -25.5856E+06
           39906    -22.0800E+06     3.89458E+06              0.    -25.9028E+06
           39907    -22.8346E+06     3.76570E+06              0.    -26.2042E+06
           39908    -23.6120E+06     3.60064E+06              0.    -26.4873E+06
           39909    -24.4113E+06     3.39457E+06              0.    -26.7493E+06
           39910    -25.2318E+06     3.14222E+06              0.    -26.9870E+06
           39911    -26.0723E+06     2.83788E+06              0.    -27.1966E+06
           39912    -26.9316E+06     2.47533E+06              0.    -27.3738E+06
           39913    -27.8082E+06     2.04792E+06              0.    -27.5138E+06
           39914    -28.7006E+06     1.54852E+06              0.    -27.6108E+06
           39915    -29.6068E+06     969.537E+03              0.    -27.6587E+06
           39916    -30.5250E+06     302.977E+03              0.    -27.6501E+06
           39917    -31.4529E+06    -459.554E+03              0.    -27.5767E+06
           39918    -32.3885E+06    -1.32681E+06              0.    -27.4295E+06
           39919    -33.3294E+06    -2.30783E+06              0.    -27.1979E+06
           39920    -34.2734E+06    -3.41187E+06              0.    -26.8704E+06
           39921    -35.2184E+06    -4.64834E+06              0.    -26.4340E+06
           39922    -36.1622E+06    -6.02671E+06              0.    -25.8741E+06
           39923    -37.1029E+06    -7.55641E+06              0.    -25.1749E+06
           39924    -38.0388E+06    -9.24670E+06              0.    -24.3187E+06
           39925    -38.9686E+06    -11.1066E+06              0.    -23.2862E+06
           39926    -39.8912E+06    -13.1448E+06              0.    -22.0561E+06
           39927    -40.8060E+06    -15.3694E+06              0.    -20.6052E+06
           39928    -41.8950E+06    -18.0551E+06              0.    -20.1960E+06
           39929    -1.60329E+06    -721.538E+03              0.    -517.925E+03
           39930    -1.59880E+06    -679.832E+03              0.    -516.977E+03
           39931    -1.61238E+06    -646.944E+03              0.    -511.569E+03
           39932    -1.62583E+06    -614.650E+03              0.    -506.666E+03
           39933    -1.63916E+06    -582.936E+03              0.    -502.252E+03
           39934    -1.65238E+06    -551.789E+03              0.    -498.315E+03
           39935    -1.66549E+06    -521.197E+03              0.    -494.844E+03
           39936    -1.67850E+06    -491.146E+03              0.    -491.826E+03
           39937    -1.69143E+06    -461.624E+03              0.    -489.252E+03
           39938    -1.70427E+06    -432.618E+03              0.    -487.111E+03
           39939    -1.71705E+06    -404.118E+03              0.    -485.395E+03
           39940    -1.72975E+06    -376.112E+03              0.    -484.094E+03
           39941    -1.74240E+06    -348.587E+03              0.    -483.202E+03
           39942    -1.75500E+06    -321.534E+03              0.    -482.711E+03
           39943    -1.76755E+06    -294.941E+03              0.    -482.615E+03
           39944    -1.78007E+06    -268.798E+03              0.    -482.908E+03
           39945    -1.79256E+06    -243.095E+03              0.    -483.584E+03
           39946    -1.80502E+06    -217.821E+03              0.    -484.639E+03
           39947    -1.81747E+06    -192.967E+03              0.    -486.069E+03
           39948    -1.82991E+06    -168.522E+03              0.    -487.869E+03
           39949    -1.84235E+06    -144.479E+03              0.    -490.038E+03
           39950    -1.85479E+06    -120.827E+03              0.    -492.572E+03
           39951    -1.86724E+06    -97.5580E+03              0.    -495.470E+03
           39952    -1.87970E+06    -74.6622E+03              0.    -498.729E+03
           39953    -1.89219E+06    -52.1314E+03              0.    -502.349E+03
           39954    -1.90471E+06    -29.9575E+03              0.    -506.329E+03
           39955    -1.91726E+06    -8.13153E+03              0.    -510.669E+03
           39956    -1.92986E+06     13.3539E+03              0.    -515.369E+03
           39957    -1.94250E+06     34.5075E+03              0.    -520.430E+03
           39958    -1.95519E+06     55.3364E+03              0.    -525.853E+03
           39959    -1.96794E+06     75.8486E+03              0.    -531.640E+03
           39960    -1.98076E+06     96.0517E+03              0.    -537.793E+03
           39961    -1.99364E+06     115.953E+03              0.    -544.315E+03
           39962    -2.00661E+06     135.559E+03              0.    -551.208E+03
           39963    -2.01965E+06     154.878E+03              0.    -558.476E+03
           39964    -2.03279E+06     173.916E+03              0.    -566.124E+03
           39965    -2.04601E+06     192.681E+03              0.    -574.155E+03
           39966    -2.05934E+06     211.178E+03              0.    -582.575E+03
           39967    -2.07277E+06     229.415E+03              0.    -591.388E+03
           39968    -2.08632E+06     247.398E+03              0.    -600.600E+03
           39969    -2.09998E+06     265.133E+03              0.    -610.217E+03
           39970    -2.11376E+06     282.628E+03              0.    -620.248E+03
           39971    -2.12767E+06     299.887E+03              0.    -630.697E+03
           39972    -2.14172E+06     316.918E+03              0.    -641.573E+03
           39973    -2.15591E+06     333.725E+03              0.    -652.884E+03
           39974    -2.17024E+06     350.316E+03              0.    -664.639E+03
           39975    -2.18473E+06     366.695E+03              0.    -676.846E+03
           39976    -2.19937E+06     382.870E+03              0.    -689.516E+03
           39977    -2.21418E+06     398.844E+03              0.    -702.657E+03
           39978    -2.22916E+06     414.625E+03              0.    -716.282E+03
           39979    -2.24431E+06     430.217E+03              0.    -730.401E+03
           39980    -2.25965E+06     445.627E+03              0.    -745.025E+03
           39981    -2.27518E+06     460.859E+03              0.    -760.167E+03
           39982    -2.29091E+06     475.920E+03              0.     -775.84E+03
           39983    -2.30683E+06     490.813E+03              0.    -792.057E+03
           39984    -2.32297E+06     505.546E+03              0.    -808.831E+03
           39985    -2.33932E+06     520.123E+03              0.    -826.179E+03
           39986    -2.35589E+06     534.549E+03              0.    -844.113E+03
           39987    -2.37269E+06     548.829E+03              0.    -862.651E+03
           39988    -2.38973E+06     562.969E+03              0.    -881.809E+03
           39989    -2.40701E+06     576.974E+03              0.    -901.603E+03
           39990    -2.42454E+06     590.849E+03              0.    -922.052E+03
           39991    -2.44232E+06     604.600E+03              0.    -943.174E+03
           39992    -2.46038E+06     618.230E+03              0.    -964.987E+03
           39993    -2.47870E+06     631.746E+03              0.    -987.513E+03
           39994    -2.49731E+06     645.153E+03              0.    -1.01077E+06
           39995    -2.51620E+06     658.455E+03              0.    -1.03478E+06
           39996    -2.53539E+06     671.659E+03              0.    -1.05957E+06
           39997    -2.55489E+06     684.768E+03              0.    -1.08515E+06
           39998    -2.57470E+06     697.788E+03              0.    -1.11156E+06
           39999    -2.59484E+06     710.725E+03              0.    -1.13881E+06
           40000    -2.61530E+06     723.583E+03              0.    -1.16694E+06
           40001    -2.63611E+06     736.369E+03              0.    -1.19596E+06
           40002    -2.65726E+06     749.086E+03              0.    -1.22591E+06
           40003    -2.67878E+06     761.741E+03              0.    -1.25681E+06
           40004    -2.70067E+06     774.339E+03              0.    -1.28869E+06
           40005    -2.72293E+06     786.885E+03              0.    -1.32159E+06
           40006    -2.74559E+06     799.386E+03              0.    -1.35552E+06
           40007    -2.76865E+06     811.846E+03              0.    -1.39053E+06
           40008    -2.79212E+06     824.271E+03              0.    -1.42665E+06
           40009    -2.81602E+06     836.667E+03              0.    -1.46391E+06
           40010    -2.84036E+06     849.039E+03              0.    -1.50234E+06
           40011    -2.86514E+06     861.395E+03              0.    -1.54198E+06
           40012    -2.89038E+06     873.740E+03              0.    -1.58287E+06
           40013    -2.91610E+06     886.079E+03              0.    -1.62505E+06
           40014    -2.94231E+06     898.419E+03              0.    -1.66855E+06
           40015    -2.96902E+06     910.768E+03              0.    -1.71342E+06
           40016    -2.99625E+06     923.130E+03              0.    -1.75969E+06
           40017    -3.02400E+06     935.513E+03              0.    -1.80742E+06
           40018    -3.05231E+06     947.924E+03              0.    -1.85663E+06
           40019    -3.08117E+06     960.370E+03              0.    -1.90739E+06
           40020    -3.11062E+06     972.857E+03              0.    -1.95972E+06
           40021    -3.14066E+06     985.394E+03              0.    -2.01370E+06
           40022    -3.17131E+06     997.988E+03              0.    -2.06935E+06
           40023    -3.20260E+06     1.01065E+06              0.    -2.12673E+06
           40024    -3.23454E+06     1.02338E+06              0.    -2.18590E+06
           40025    -3.26714E+06     1.03619E+06              0.    -2.24690E+06
           40026    -3.30044E+06     1.04909E+06              0.    -2.30978E+06
           40027    -3.33445E+06     1.06208E+06              0.    -2.37462E+06
           40028    -3.36919E+06     1.07519E+06              0.    -2.44145E+06
           40029    -3.40469E+06     1.08841E+06              0.    -2.51035E+06
           40030    -3.44097E+06     1.10175E+06              0.    -2.58136E+06
           40031    -3.47805E+06     1.11523E+06              0.    -2.65455E+06
           40032    -3.51596E+06     1.12886E+06              0.    -2.72999E+06
           40033    -3.55473E+06     1.14263E+06              0.    -2.80773E+06
           40034    -3.59438E+06     1.15658E+06              0.    -2.88784E+06
           40035    -3.63495E+06     1.17070E+06              0.    -2.97038E+06
           40036    -3.67645E+06     1.18501E+06              0.    -3.05543E+06
           40037    -3.71893E+06     1.19952E+06              0.    -3.14305E+06
           40038    -3.76241E+06     1.21425E+06              0.    -3.23332E+06
           40039    -3.80692E+06     1.22919E+06              0.    -3.32630E+06
           40040    -3.85251E+06     1.24438E+06              0.    -3.42206E+06
           40041    -3.89921E+06     1.25982E+06              0.    -3.52069E+06
           40042    -3.94706E+06     1.27552E+06              0.    -3.62225E+06
           40043    -3.99609E+06     1.29150E+06              0.    -3.72682E+06
           40044    -4.04634E+06     1.30778E+06              0.    -3.83449E+06
           40045    -4.09787E+06     1.32436E+06              0.    -3.94532E+06
           40046    -4.15070E+06     1.34127E+06              0.    -4.05939E+06
           40047    -4.20490E+06     1.35853E+06              0.    -4.17680E+06
           40048    -4.26050E+06     1.37614E+06              0.    -4.29761E+06
           40049    -4.31757E+06     1.39414E+06              0.    -4.42192E+06
           40050    -4.37614E+06     1.41252E+06              0.    -4.54979E+06
           40051    -4.43628E+06     1.43133E+06              0.    -4.68132E+06
           40052    -4.49804E+06     1.45056E+06              0.    -4.81659E+06
           40053    -4.56149E+06     1.47025E+06              0.    -4.95569E+06
           40054    -4.62668E+06     1.49042E+06              0.    -5.09869E+06
           40055    -4.69369E+06     1.51109E+06              0.    -5.24569E+06
           40056    -4.76258E+06     1.53227E+06              0.    -5.39676E+06
           40057    -4.83341E+06     1.55400E+06              0.    -5.55199E+06
           40058    -4.90628E+06     1.57630E+06              0.    -5.71146E+06
           40059    -4.98126E+06     1.59919E+06              0.    -5.87527E+06
           40060    -5.05842E+06     1.62270E+06              0.    -6.04348E+06
           40061    -5.13786E+06     1.64685E+06              0.    -6.21619E+06
           40062    -5.21966E+06     1.67168E+06              0.    -6.39346E+06
           40063    -5.30393E+06     1.69721E+06              0.    -6.57539E+06
           40064    -5.39076E+06     1.72347E+06              0.    -6.76204E+06
           40065    -5.48025E+06     1.75049E+06              0.    -6.95350E+06
           40066    -5.57252E+06     1.77830E+06              0.    -7.14984E+06
           40067    -5.66767E+06     1.80694E+06              0.    -7.35112E+06
           40068    -5.76584E+06     1.83643E+06              0.    -7.55741E+06
           40069    -5.86714E+06     1.86682E+06              0.    -7.76879E+06
           40070    -5.97172E+06     1.89813E+06              0.    -7.98531E+06
           40071    -6.07970E+06     1.93040E+06              0.    -8.20702E+06
           40072    -6.19124E+06     1.96367E+06              0.    -8.43399E+06
           40073    -6.30649E+06     1.99797E+06              0.    -8.66625E+06
           40074    -6.42562E+06     2.03335E+06              0.    -8.90386E+06
           40075    -6.54879E+06     2.06984E+06              0.    -9.14685E+06
           40076    -6.67618E+06     2.10748E+06              0.    -9.39525E+06
           40077    -6.80799E+06     2.14631E+06              0.    -9.64909E+06
           40078    -6.94441E+06     2.18637E+06              0.    -9.90839E+06
           40079    -7.08565E+06     2.22771E+06              0.    -10.1732E+06
           40080    -7.23194E+06     2.27035E+06              0.    -10.4434E+06
           40081    -7.38349E+06     2.31434E+06              0.    -10.7191E+06
           40082    -7.54057E+06     2.35972E+06              0.    -11.0002E+06
           40083    -7.70342E+06     2.40652E+06              0.    -11.2868E+06
           40084    -7.87232E+06     2.45479E+06              0.    -11.5788E+06
           40085    -8.04754E+06     2.50456E+06              0.    -11.8761E+06
           40086    -8.22940E+06     2.55587E+06              0.    -12.1787E+06
           40087    -8.41820E+06     2.60873E+06              0.    -12.4865E+06
           40088    -8.61428E+06     2.66318E+06              0.    -12.7995E+06
           40089    -8.81798E+06     2.71925E+06              0.    -13.1175E+06
           40090    -9.02967E+06     2.77695E+06              0.    -13.4405E+06
           40091    -9.24975E+06     2.83629E+06              0.    -13.7683E+06
           40092    -9.47860E+06     2.89727E+06              0.    -14.1007E+06
           40093    -9.71666E+06     2.95990E+06              0.    -14.4377E+06
           40094    -9.96437E+06     3.02415E+06              0.    -14.7791E+06
           40095    -10.2222E+06     3.09000E+06              0.    -15.1247E+06
           40096    -10.4906E+06     3.15740E+06              0.    -15.4742E+06
           40097    -10.7702E+06     3.22630E+06              0.    -15.8275E+06
           40098    -11.0614E+06     3.29663E+06              0.    -16.1843E+06
           40099    -11.3648E+06     3.36828E+06              0.    -16.5444E+06
           40100    -11.6810E+06     3.44112E+06              0.    -16.9076E+06
           40101    -12.0106E+06       3.515E+06              0.    -17.2734E+06
           40102    -12.3542E+06     3.58973E+06              0.    -17.6416E+06
           40103    -12.7124E+06     3.66508E+06              0.    -18.0119E+06
           40104    -13.0860E+06     3.74077E+06              0.    -18.3839E+06
           40105    -13.4756E+06     3.81647E+06              0.    -18.7573E+06
           40106    -13.8819E+06     3.89180E+06              0.    -19.1316E+06
           40107    -14.3056E+06     3.96629E+06              0.    -19.5064E+06
           40108    -14.7475E+06     4.03941E+06              0.    -19.8814E+06
           40109    -15.2083E+06     4.11055E+06              0.    -20.2559E+06
           40110    -15.6886E+06     4.17897E+06              0.    -20.6296E+06
           40111    -16.1894E+06     4.24383E+06              0.    -21.0018E+06
           40112    -16.7112E+06     4.30418E+06              0.    -21.3720E+06
           40113    -17.2548E+06     4.35889E+06              0.    -21.7397E+06
           40114    -17.8208E+06     4.40670E+06              0.    -22.1040E+06
           40115    -18.4099E+06     4.44615E+06              0.    -22.4645E+06
           40116    -19.0228E+06     4.47557E+06              0.    -22.8201E+06
           40117    -19.6598E+06     4.49309E+06              0.    -23.1702E+06
           40118    -20.3216E+06     4.49657E+06              0.    -23.5138E+06
           40119    -21.0084E+06     4.48359E+06              0.    -23.8497E+06
           40120    -21.7206E+06     4.45143E+06              0.    -24.1770E+06
           40121    -22.4583E+06     4.39704E+06              0.    -24.4942E+06
           40122    -23.2215E+06       4.317E+06              0.    -24.7998E+06
           40123    -24.0100E+06     4.20750E+06              0.    -25.0922E+06
           40124    -24.8236E+06     4.06430E+06              0.    -25.3694E+06
           40125    -25.6618E+06     3.88272E+06              0.    -25.6291E+06
           40126    -26.5238E+06     3.65759E+06              0.    -25.8688E+06
           40127    -27.4086E+06     3.38325E+06              0.    -26.0855E+06
           40128    -28.3153E+06     3.05350E+06              0.    -26.2757E+06
           40129    -29.2422E+06     2.66161E+06              0.    -26.4355E+06
           40130    -30.1879E+06     2.20032E+06              0.    -26.5603E+06
           40131    -31.1504E+06     1.66180E+06              0.    -26.6448E+06
           40132    -32.1276E+06     1.03769E+06              0.    -26.6829E+06
           40133    -33.1172E+06     319.124E+03              0.    -26.6677E+06
           40134    -34.1167E+06    -503.266E+03              0.    -26.5914E+06
           40135    -35.1233E+06    -1.43930E+06              0.    -26.4449E+06
           40136    -36.1345E+06    -2.49916E+06              0.    -26.2181E+06
           40137    -37.1471E+06    -3.69340E+06              0.    -25.8995E+06
           40138    -38.1584E+06    -5.03279E+06              0.    -25.4764E+06
           40139    -39.1655E+06    -6.52824E+06              0.    -24.9345E+06
           40140    -40.1657E+06    -8.19078E+06              0.    -24.2579E+06
           40141    -41.1563E+06    -10.0313E+06              0.    -23.4289E+06
           40142    -42.1349E+06    -12.0607E+06              0.    -22.4281E+06
           40143    -43.0997E+06    -14.2894E+06              0.    -21.2344E+06
           40144    -44.0488E+06    -16.7276E+06              0.    -19.8242E+06
           40145    -45.2257E+06    -19.6694E+06              0.     -19.413E+06
           40146    -1.61712E+06    -727.791E+03              0.    -504.136E+03
           40147    -1.61257E+06    -685.436E+03              0.    -503.212E+03
           40148    -1.62636E+06    -652.042E+03              0.    -497.940E+03
           40149    -1.64002E+06    -619.255E+03              0.    -493.163E+03
           40150    -1.65355E+06    -587.062E+03              0.    -488.867E+03
           40151    -1.66698E+06    -555.449E+03              0.    -485.040E+03
           40152    -1.68029E+06    -524.402E+03              0.    -481.669E+03
           40153    -1.69351E+06    -493.907E+03              0.    -478.744E+03
           40154    -1.70664E+06    -463.950E+03              0.    -476.253E+03
           40155    -1.71969E+06    -434.520E+03              0.    -474.188E+03
           40156    -1.73266E+06    -405.604E+03              0.    -472.540E+03
           40157    -1.74558E+06    -377.189E+03              0.    -471.300E+03
           40158    -1.75843E+06    -349.264E+03              0.    -470.461E+03
           40159    -1.77124E+06    -321.816E+03              0.    -470.015E+03
           40160    -1.78401E+06    -294.835E+03              0.    -469.957E+03
           40161    -1.79674E+06    -268.310E+03              0.    -470.281E+03
           40162    -1.80945E+06    -242.229E+03              0.    -470.981E+03
           40163    -1.82214E+06    -216.582E+03              0.    -472.053E+03
           40164    -1.83481E+06    -191.358E+03              0.    -473.492E+03
           40165    -1.84749E+06    -166.547E+03              0.    -475.296E+03
           40166    -1.86016E+06    -142.141E+03              0.    -477.461E+03
           40167    -1.87284E+06    -118.128E+03              0.    -479.985E+03
           40168    -1.88554E+06    -94.4993E+03              0.    -482.866E+03
           40169    -1.89827E+06    -71.2454E+03              0.    -486.102E+03
           40170    -1.91102E+06    -48.3574E+03              0.    -489.692E+03
           40171    -1.92381E+06    -25.8266E+03              0.    -493.636E+03
           40172    -1.93663E+06    -3.64367E+03              0.    -497.933E+03
           40173    -1.94951E+06     18.1994E+03              0.    -502.584E+03
           40174    -1.96245E+06     39.7116E+03              0.    -507.590E+03
           40175    -1.97544E+06     60.9006E+03              0.    -512.952E+03
           40176    -1.98851E+06     81.7749E+03              0.    -518.672E+03
           40177    -2.00164E+06     102.342E+03              0.    -524.752E+03
           40178    -2.01486E+06     122.611E+03              0.    -531.194E+03
           40179    -2.02817E+06     142.588E+03              0.    -538.001E+03
           40180    -2.04157E+06     162.281E+03              0.    -545.178E+03
           40181    -2.05507E+06     181.697E+03              0.    -552.728E+03
           40182    -2.06867E+06     200.845E+03              0.    -560.655E+03
           40183    -2.08239E+06     219.730E+03              0.    -568.964E+03
           40184    -2.09623E+06     238.361E+03              0.    -577.661E+03
           40185    -2.11019E+06     256.744E+03              0.    -586.751E+03
           40186    -2.12428E+06     274.885E+03              0.    -596.240E+03
           40187    -2.13851E+06     292.793E+03              0.    -606.136E+03
           40188    -2.15289E+06     310.472E+03              0.    -616.444E+03
           40189    -2.16741E+06     327.931E+03              0.    -627.173E+03
           40190    -2.18209E+06     345.175E+03              0.    -638.331E+03
           40191    -2.19694E+06     362.211E+03              0.    -649.926E+03
           40192    -2.21195E+06     379.045E+03              0.    -661.967E+03
           40193    -2.22715E+06     395.684E+03              0.    -674.465E+03
           40194    -2.24252E+06     412.133E+03              0.    -687.427E+03
           40195    -2.25809E+06     428.399E+03              0.    -700.866E+03
           40196    -2.27385E+06     444.489E+03              0.    -714.793E+03
           40197    -2.28982E+06     460.407E+03              0.    -729.218E+03
           40198    -2.30600E+06     476.161E+03              0.    -744.155E+03
           40199    -2.32240E+06     491.756E+03              0.    -759.615E+03
           40200    -2.33903E+06     507.198E+03              0.    -775.612E+03
           40201    -2.35589E+06     522.492E+03              0.    -792.160E+03
           40202    -2.37299E+06     537.646E+03              0.    -809.273E+03
           40203    -2.39033E+06     552.664E+03              0.    -826.966E+03
           40204    -2.40794E+06     567.553E+03              0.    -845.255E+03
           40205    -2.42581E+06     582.318E+03              0.    -864.156E+03
           40206    -2.44395E+06     596.966E+03              0.    -883.686E+03
           40207    -2.46237E+06     611.501E+03              0.    -903.862E+03
           40208    -2.48108E+06     625.931E+03              0.    -924.704E+03
           40209    -2.50009E+06     640.260E+03              0.    -946.228E+03
           40210    -2.51941E+06     654.494E+03              0.    -968.456E+03
           40211    -2.53904E+06     668.640E+03              0.    -991.408E+03
           40212    -2.55900E+06     682.704E+03              0.    -1.01510E+06
           40213    -2.57929E+06     696.691E+03              0.    -1.03957E+06
           40214    -2.59993E+06     710.606E+03              0.    -1.06482E+06
           40215    -2.62092E+06     724.457E+03              0.    -1.09088E+06
           40216    -2.64227E+06     738.249E+03              0.    -1.11778E+06
           40217    -2.66400E+06     751.989E+03              0.    -1.14554E+06
           40218    -2.68612E+06     765.681E+03              0.    -1.17419E+06
           40219    -2.70863E+06     779.334E+03              0.    -1.20376E+06
           40220    -2.73155E+06     792.952E+03              0.    -1.23426E+06
           40221    -2.75489E+06     806.542E+03              0.    -1.26574E+06
           40222    -2.77866E+06     820.111E+03              0.    -1.29822E+06
           40223    -2.80288E+06     833.665E+03              0.    -1.33172E+06
           40224    -2.82755E+06     847.210E+03              0.    -1.36629E+06
           40225    -2.85269E+06     860.754E+03              0.    -1.40195E+06
           40226    -2.87832E+06     874.303E+03              0.    -1.43874E+06
           40227    -2.90444E+06     887.864E+03              0.    -1.47669E+06
           40228    -2.93108E+06     901.444E+03              0.    -1.51584E+06
           40229    -2.95824E+06     915.050E+03              0.    -1.55622E+06
           40230    -2.98594E+06     928.689E+03              0.    -1.59787E+06
           40231    -3.01420E+06     942.369E+03              0.    -1.64083E+06
           40232    -3.04303E+06     956.098E+03              0.    -1.68514E+06
           40233    -3.07246E+06     969.883E+03              0.    -1.73085E+06
           40234    -3.10249E+06     983.731E+03              0.    -1.77798E+06
           40235    -3.13315E+06     997.652E+03              0.    -1.82659E+06
           40236    -3.16445E+06     1.01165E+06              0.    -1.87672E+06
           40237    -3.19641E+06     1.02574E+06              0.    -1.92841E+06
           40238    -3.22906E+06     1.03993E+06              0.    -1.98172E+06
           40239    -3.26241E+06     1.05422E+06              0.    -2.03669E+06
           40240    -3.29649E+06     1.06863E+06              0.    -2.09337E+06
           40241    -3.33131E+06     1.08316E+06              0.    -2.15181E+06
           40242    -3.36691E+06     1.09782E+06              0.    -2.21206E+06
           40243    -3.40329E+06     1.11263E+06              0.    -2.27418E+06
           40244    -3.44050E+06     1.12760E+06              0.    -2.33821E+06
           40245    -3.47854E+06     1.14272E+06              0.    -2.40423E+06
           40246    -3.51745E+06     1.15802E+06              0.    -2.47227E+06
           40247    -3.55726E+06     1.17351E+06              0.    -2.54241E+06
           40248    -3.59800E+06     1.18919E+06              0.    -2.61470E+06
           40249    -3.63968E+06     1.20507E+06              0.    -2.68920E+06
           40250    -3.68235E+06     1.22118E+06              0.    -2.76598E+06
           40251    -3.72604E+06     1.23752E+06              0.    -2.84510E+06
           40252    -3.77077E+06     1.25410E+06              0.    -2.92662E+06
           40253    -3.81658E+06     1.27094E+06              0.    -3.01060E+06
           40254    -3.86351E+06     1.28804E+06              0.    -3.09713E+06
           40255    -3.91159E+06     1.30543E+06              0.    -3.18626E+06
           40256    -3.96086E+06     1.32312E+06              0.    -3.27807E+06
           40257    -4.01136E+06     1.34111E+06              0.    -3.37262E+06
           40258    -4.06313E+06     1.35943E+06              0.    -3.46999E+06
           40259    -4.11621E+06     1.37810E+06              0.    -3.57026E+06
           40260    -4.17065E+06     1.39711E+06              0.    -3.67349E+06
           40261    -4.22649E+06     1.41650E+06              0.    -3.77976E+06
           40262    -4.28378E+06     1.43628E+06              0.    -3.88915E+06
           40263    -4.34257E+06     1.45646E+06              0.    -4.00174E+06
           40264    -4.40291E+06     1.47707E+06              0.    -4.11760E+06
           40265    -4.46486E+06     1.49811E+06              0.    -4.23682E+06
           40266    -4.52847E+06     1.51962E+06              0.    -4.35946E+06
           40267    -4.59380E+06     1.54160E+06              0.    -4.48562E+06
           40268    -4.66091E+06     1.56408E+06              0.    -4.61537E+06
           40269    -4.72986E+06     1.58707E+06              0.    -4.74880E+06
           40270    -4.80072E+06     1.61061E+06              0.    -4.88597E+06
           40271    -4.87356E+06     1.63470E+06              0.    -5.02699E+06
           40272    -4.94845E+06     1.65937E+06              0.    -5.17192E+06
           40273    -5.02547E+06     1.68465E+06              0.    -5.32085E+06
           40274    -5.10469E+06     1.71055E+06              0.    -5.47385E+06
           40275    -5.18620E+06     1.73711E+06              0.    -5.63102E+06
           40276    -5.27007E+06     1.76434E+06              0.    -5.79242E+06
           40277    -5.35641E+06     1.79226E+06              0.    -5.95813E+06
           40278    -5.44529E+06     1.82091E+06              0.    -6.12824E+06
           40279    -5.53683E+06     1.85032E+06              0.    -6.30282E+06
           40280    -5.63112E+06     1.88050E+06              0.    -6.48194E+06
           40281    -5.72826E+06     1.91148E+06              0.    -6.66568E+06
           40282    -5.82838E+06     1.94330E+06              0.    -6.85410E+06
           40283    -5.93158E+06     1.97598E+06              0.    -7.04727E+06
           40284    -6.03798E+06     2.00955E+06              0.    -7.24526E+06
           40285    -6.14773E+06     2.04404E+06              0.    -7.44812E+06
           40286    -6.26094E+06     2.07948E+06              0.    -7.65592E+06
           40287    -6.37776E+06     2.11590E+06              0.    -7.86871E+06
           40288    -6.49833E+06     2.15334E+06              0.    -8.08655E+06
           40289    -6.62282E+06     2.19182E+06              0.    -8.30946E+06
           40290    -6.75138E+06     2.23138E+06              0.    -8.53751E+06
           40291    -6.88418E+06     2.27205E+06              0.    -8.77071E+06
           40292    -7.02140E+06     2.31387E+06              0.    -9.00910E+06
           40293    -7.16322E+06     2.35685E+06              0.    -9.25271E+06
           40294    -7.30985E+06     2.40105E+06              0.    -9.50154E+06
           40295    -7.46149E+06     2.44648E+06              0.    -9.75560E+06
           40296    -7.61836E+06     2.49319E+06              0.    -10.0149E+06
           40297    -7.78068E+06     2.54120E+06              0.    -10.2794E+06
           40298    -7.94869E+06     2.59055E+06              0.    -10.5492E+06
           40299    -8.12265E+06     2.64126E+06              0.    -10.8241E+06
           40300    -8.30282E+06     2.69335E+06              0.    -11.1041E+06
           40301    -8.48949E+06     2.74687E+06              0.    -11.3893E+06
           40302    -8.68293E+06     2.80183E+06              0.    -11.6794E+06
           40303    -8.88346E+06     2.85825E+06              0.    -11.9746E+06
           40304    -9.09141E+06     2.91616E+06              0.    -12.2746E+06
           40305    -9.30712E+06     2.97556E+06              0.    -12.5794E+06
           40306    -9.53093E+06     3.03646E+06              0.    -12.8889E+06
           40307    -9.76324E+06     3.09887E+06              0.    -13.2029E+06
           40308    -10.0044E+06     3.16278E+06              0.    -13.5213E+06
           40309    -10.2549E+06     3.22819E+06              0.    -13.8439E+06
           40310    -10.5152E+06     3.29507E+06              0.    -14.1706E+06
           40311    -10.7856E+06     3.36339E+06              0.    -14.5013E+06
           40312    -11.0667E+06     3.43311E+06              0.    -14.8355E+06
           40313    -11.3590E+06     3.50417E+06              0.    -15.1733E+06
           40314    -11.6630E+06     3.57650E+06              0.    -15.5142E+06
           40315    -11.9792E+06     3.64999E+06              0.    -15.8581E+06
           40316    -12.3083E+06     3.72454E+06              0.    -16.2047E+06
           40317    -12.6508E+06     3.80000E+06              0.    -16.5536E+06
           40318    -13.0073E+06     3.87619E+06              0.    -16.9046E+06
           40319    -13.3786E+06     3.95291E+06              0.    -17.2574E+06
           40320    -13.7653E+06     4.02991E+06              0.    -17.6115E+06
           40321    -14.1680E+06     4.10689E+06              0.    -17.9666E+06
           40322    -14.5875E+06     4.18351E+06              0.    -18.3223E+06
           40323    -15.0246E+06     4.25935E+06              0.    -18.6783E+06
           40324    -15.4799E+06     4.33396E+06              0.    -19.0340E+06
           40325    -15.9543E+06     4.40676E+06              0.    -19.3890E+06
           40326    -16.4485E+06     4.47712E+06              0.    -19.7428E+06
           40327    -16.9634E+06     4.54429E+06              0.    -20.0949E+06
           40328    -17.4996E+06     4.60740E+06              0.    -20.4449E+06
           40329    -18.0581E+06     4.66548E+06              0.    -20.7921E+06
           40330    -18.6396E+06     4.71737E+06              0.    -21.1360E+06
           40331    -19.2447E+06     4.76177E+06              0.    -21.4758E+06
           40332    -19.8743E+06     4.79719E+06              0.    -21.8111E+06
           40333    -20.5290E+06     4.82191E+06              0.    -22.1410E+06
           40334    -21.2093E+06     4.83400E+06              0.    -22.4648E+06
           40335    -21.9160E+06     4.83125E+06              0.    -22.7816E+06
           40336    -22.6493E+06     4.81116E+06              0.    -23.0905E+06
           40337    -23.4096E+06     4.77091E+06              0.    -23.3904E+06
           40338    -24.1973E+06     4.70731E+06              0.    -23.6802E+06
           40339    -25.0122E+06     4.61681E+06              0.    -23.9587E+06
           40340    -25.8543E+06     4.49540E+06              0.    -24.2241E+06
           40341    -26.7234E+06     4.33862E+06              0.    -24.4749E+06
           40342    -27.6190E+06     4.14153E+06              0.    -24.7091E+06
           40343    -28.5402E+06     3.89864E+06              0.    -24.9243E+06
           40344    -29.4862E+06     3.60390E+06              0.    -25.1179E+06
           40345    -30.4556E+06     3.25070E+06              0.    -25.2867E+06
           40346    -31.4470E+06     2.83177E+06              0.    -25.4270E+06
           40347    -32.4586E+06     2.33926E+06              0.    -25.5348E+06
           40348    -33.4882E+06     1.76467E+06              0.    -25.6050E+06
           40349    -34.5335E+06     1.09885E+06              0.    -25.6320E+06
           40350    -35.5917E+06     332.062E+03              0.    -25.6092E+06
           40351    -36.6601E+06    -546.030E+03              0.    -25.5290E+06
           40352    -37.7353E+06    -1.54633E+06              0.    -25.3829E+06
           40353    -38.8141E+06    -2.68023E+06              0.    -25.1611E+06
           40354    -39.8929E+06    -3.95955E+06              0.    -24.8523E+06
           40355    -40.9682E+06    -5.39649E+06              0.     -24.444E+06
           40356    -42.0362E+06    -7.00347E+06              0.    -23.9221E+06
           40357    -43.0934E+06    -8.79313E+06              0.    -23.2709E+06
           40358    -44.1362E+06    -10.7781E+06              0.    -22.4728E+06
           40359    -45.1612E+06    -12.9710E+06              0.    -21.5086E+06
           40360    -46.1651E+06    -15.3842E+06              0.    -20.3567E+06
           40361    -47.1449E+06    -18.0299E+06              0.    -18.9940E+06
           40362    -48.4060E+06    -21.2210E+06              0.    -18.5839E+06
           40363    -1.63062E+06    -733.891E+03              0.    -490.136E+03
           40364    -1.62599E+06    -690.898E+03              0.    -489.237E+03
           40365    -1.63999E+06    -657.007E+03              0.    -484.104E+03
           40366    -1.65386E+06    -623.737E+03              0.    -479.456E+03
           40367    -1.66759E+06    -591.074E+03              0.    -475.279E+03
           40368    -1.68122E+06    -559.004E+03              0.    -471.562E+03
           40369    -1.69473E+06    -527.510E+03              0.    -468.293E+03
           40370    -1.70815E+06    -496.579E+03              0.    -465.460E+03
           40371    -1.72148E+06    -466.197E+03              0.    -463.053E+03
           40372    -1.73473E+06    -436.350E+03              0.    -461.064E+03
           40373    -1.74791E+06    -407.026E+03              0.    -459.482E+03
           40374    -1.76102E+06    -378.211E+03              0.    -458.301E+03
           40375    -1.77408E+06    -349.892E+03              0.    -457.513E+03
           40376    -1.78710E+06    -322.058E+03              0.    -457.110E+03
           40377    -1.80007E+06    -294.696E+03              0.    -457.087E+03
           40378    -1.81302E+06    -267.796E+03              0.    -457.438E+03
           40379    -1.82594E+06    -241.344E+03              0.    -458.158E+03
           40380    -1.83885E+06    -215.331E+03              0.    -459.243E+03
           40381    -1.85175E+06    -189.745E+03              0.    -460.688E+03
           40382    -1.86465E+06    -164.575E+03              0.    -462.490E+03
           40383    -1.87756E+06    -139.812E+03              0.    -464.646E+03
           40384    -1.89048E+06    -115.445E+03              0.    -467.154E+03
           40385    -1.90343E+06    -91.4638E+03              0.    -470.012E+03
           40386    -1.91640E+06    -67.8585E+03              0.    -473.218E+03
           40387    -1.92941E+06    -44.6199E+03              0.    -476.771E+03
           40388    -1.94246E+06    -21.7388E+03              0.    -480.671E+03
           40389    -1.95557E+06         794.652              0.    -484.918E+03
           40390    -1.96873E+06     22.9888E+03              0.    -489.513E+03
           40391    -1.98195E+06     44.8532E+03              0.    -494.455E+03
           40392    -1.99524E+06     66.3960E+03              0.    -499.747E+03
           40393    -2.00861E+06     87.6259E+03              0.    -505.390E+03
           40394    -2.02207E+06     108.552E+03              0.    -511.386E+03
           40395    -2.03562E+06     129.181E+03              0.    -517.738E+03
           40396    -2.04926E+06     149.522E+03              0.    -524.449E+03
           40397    -2.06301E+06     169.583E+03              0.    -531.523E+03
           40398    -2.07687E+06     189.372E+03              0.    -538.962E+03
           40399    -2.09085E+06     208.896E+03              0.    -546.773E+03
           40400    -2.10495E+06     228.163E+03              0.    -554.960E+03
           40401    -2.11918E+06     247.181E+03              0.    -563.527E+03
           40402    -2.13356E+06     265.957E+03              0.    -572.481E+03
           40403    -2.14807E+06     284.498E+03              0.    -581.827E+03
           40404    -2.16274E+06     302.812E+03              0.    -591.573E+03
           40405    -2.17757E+06     320.906E+03              0.    -601.725E+03
           40406    -2.19257E+06     338.786E+03              0.    -612.290E+03
           40407    -2.20774E+06     356.460E+03              0.    -623.278E+03
           40408    -2.22309E+06     373.934E+03              0.    -634.696E+03
           40409    -2.23863E+06     391.216E+03              0.    -646.553E+03
           40410    -2.25436E+06     408.313E+03              0.    -658.859E+03
           40411    -2.27030E+06     425.230E+03              0.    -671.623E+03
           40412    -2.28645E+06     441.975E+03              0.    -684.857E+03
           40413    -2.30281E+06     458.554E+03              0.    -698.570E+03
           40414    -2.31940E+06     474.974E+03              0.    -712.775E+03
           40415    -2.33623E+06     491.242E+03              0.    -727.483E+03
           40416    -2.35329E+06     507.364E+03              0.    -742.707E+03
           40417    -2.37061E+06     523.346E+03              0.     -758.46E+03
           40418    -2.38818E+06     539.195E+03              0.    -774.756E+03
           40419    -2.40602E+06     554.918E+03              0.    -791.609E+03
           40420    -2.42413E+06     570.521E+03              0.    -809.034E+03
           40421    -2.44253E+06     586.010E+03              0.    -827.046E+03
           40422    -2.46122E+06     601.392E+03              0.    -845.661E+03
           40423    -2.48021E+06     616.673E+03              0.    -864.896E+03
           40424    -2.49952E+06     631.861E+03              0.    -884.769E+03
           40425    -2.51914E+06     646.960E+03              0.    -905.298E+03
           40426    -2.53910E+06     661.979E+03              0.    -926.500E+03
           40427    -2.55939E+06     676.923E+03              0.    -948.396E+03
           40428    -2.58004E+06     691.799E+03              0.    -971.006E+03
           40429    -2.60104E+06     706.614E+03              0.    -994.351E+03
           40430    -2.62242E+06     721.374E+03              0.    -1.01845E+06
           40431    -2.64418E+06     736.086E+03              0.    -1.04333E+06
           40432    -2.66634E+06     750.757E+03              0.    -1.06901E+06
           40433    -2.68890E+06     765.394E+03              0.    -1.09551E+06
           40434    -2.71188E+06     780.003E+03              0.    -1.12287E+06
           40435    -2.73529E+06     794.592E+03              0.    -1.15110E+06
           40436    -2.75914E+06     809.167E+03              0.    -1.18023E+06
           40437    -2.78345E+06     823.736E+03              0.    -1.21030E+06
           40438    -2.80822E+06     838.307E+03              0.    -1.24132E+06
           40439    -2.83348E+06     852.885E+03              0.    -1.27332E+06
           40440    -2.85923E+06     867.480E+03              0.    -1.30635E+06
           40441    -2.88550E+06     882.097E+03              0.    -1.34042E+06
           40442    -2.91229E+06     896.746E+03              0.    -1.37556E+06
           40443    -2.93962E+06     911.434E+03              0.    -1.41183E+06
           40444    -2.96751E+06     926.168E+03              0.    -1.44923E+06
           40445    -2.99597E+06     940.957E+03              0.    -1.48782E+06
           40446    -3.02502E+06     955.809E+03              0.    -1.52763E+06
           40447    -3.05469E+06     970.732E+03              0.    -1.56869E+06
           40448    -3.08497E+06     985.735E+03              0.    -1.61104E+06
           40449    -3.11590E+06     1.00083E+06              0.    -1.65472E+06
           40450    -3.14750E+06     1.01602E+06              0.    -1.69977E+06
           40451    -3.17978E+06     1.03131E+06              0.    -1.74624E+06
           40452    -3.21276E+06     1.04672E+06              0.    -1.79416E+06
           40453    -3.24646E+06     1.06226E+06              0.    -1.84358E+06
           40454    -3.28091E+06     1.07793E+06              0.    -1.89455E+06
           40455    -3.31614E+06     1.09374E+06              0.    -1.94711E+06
           40456    -3.35215E+06     1.10971E+06              0.    -2.00130E+06
           40457    -3.38898E+06     1.12585E+06              0.    -2.05718E+06
           40458    -3.42665E+06     1.14216E+06              0.    -2.11480E+06
           40459    -3.46519E+06     1.15865E+06              0.    -2.17420E+06
           40460    -3.50462E+06     1.17534E+06              0.    -2.23544E+06
           40461    -3.54498E+06     1.19224E+06              0.    -2.29857E+06
           40462    -3.58628E+06     1.20936E+06              0.    -2.36366E+06
           40463    -3.62856E+06     1.22671E+06              0.    -2.43074E+06
           40464    -3.67186E+06     1.24431E+06              0.    -2.49989E+06
           40465    -3.71619E+06     1.26216E+06              0.    -2.57115E+06
           40466    -3.76160E+06     1.28028E+06              0.    -2.64460E+06
           40467    -3.80812E+06     1.29868E+06              0.    -2.72029E+06
           40468    -3.85578E+06     1.31738E+06              0.    -2.79828E+06
           40469    -3.90462E+06     1.33638E+06              0.    -2.87863E+06
           40470    -3.95468E+06     1.35571E+06              0.    -2.96142E+06
           40471    -4.00599E+06     1.37537E+06              0.    -3.04670E+06
           40472    -4.05860E+06     1.39539E+06              0.    -3.13455E+06
           40473    -4.11256E+06     1.41577E+06              0.    -3.22503E+06
           40474    -4.16789E+06     1.43653E+06              0.    -3.31821E+06
           40475    -4.22466E+06     1.45769E+06              0.    -3.41417E+06
           40476     -4.2829E+06     1.47927E+06              0.    -3.51297E+06
           40477    -4.34267E+06     1.50127E+06              0.    -3.61469E+06
           40478    -4.40401E+06     1.52372E+06              0.    -3.71939E+06
           40479    -4.46698E+06     1.54664E+06              0.    -3.82716E+06
           40480    -4.53163E+06     1.57004E+06              0.    -3.93807E+06
           40481    -4.59802E+06     1.59393E+06              0.    -4.05220E+06
           40482    -4.66621E+06     1.61835E+06              0.    -4.16961E+06
           40483    -4.73626E+06     1.64330E+06              0.    -4.29040E+06
           40484    -4.80823E+06     1.66882E+06              0.    -4.41463E+06
           40485    -4.88220E+06     1.69490E+06              0.    -4.54238E+06
           40486    -4.95822E+06     1.72159E+06              0.    -4.67374E+06
           40487    -5.03637E+06     1.74889E+06              0.    -4.80877E+06
           40488    -5.11673E+06     1.77683E+06              0.    -4.94757E+06
           40489    -5.19937E+06     1.80544E+06              0.    -5.09019E+06
           40490    -5.28437E+06     1.83472E+06              0.    -5.23673E+06
           40491    -5.37182E+06     1.86471E+06              0.    -5.38726E+06
           40492    -5.46180E+06     1.89543E+06              0.    -5.54186E+06
           40493    -5.55441E+06     1.92690E+06              0.    -5.70059E+06
           40494    -5.64975E+06     1.95915E+06              0.    -5.86354E+06
           40495    -5.74790E+06     1.99219E+06              0.    -6.03078E+06
           40496    -5.84898E+06     2.02606E+06              0.    -6.20238E+06
           40497    -5.95308E+06     2.06078E+06              0.    -6.37840E+06
           40498    -6.06034E+06     2.09637E+06              0.    -6.55892E+06
           40499    -6.17085E+06     2.13286E+06              0.      -6.744E+06
           40500    -6.28475E+06     2.17028E+06              0.    -6.93370E+06
           40501    -6.40216E+06     2.20864E+06              0.    -7.12808E+06
           40502    -6.52322E+06     2.24799E+06              0.    -7.32719E+06
           40503    -6.64807E+06     2.28834E+06              0.    -7.53109E+06
           40504    -6.77685E+06     2.32972E+06              0.    -7.73982E+06
           40505    -6.90972E+06     2.37216E+06              0.    -7.95343E+06
           40506    -7.04684E+06     2.41568E+06              0.    -8.17195E+06
           40507    -7.18837E+06     2.46032E+06              0.    -8.39541E+06
           40508    -7.33449E+06     2.50609E+06              0.    -8.62385E+06
           40509    -7.48539E+06     2.55303E+06              0.    -8.85727E+06
           40510    -7.64126E+06     2.60116E+06              0.    -9.09570E+06
           40511    -7.80231E+06     2.65050E+06              0.    -9.33914E+06
           40512    -7.96873E+06     2.70108E+06              0.    -9.58758E+06
           40513    -8.14077E+06     2.75292E+06              0.    -9.84102E+06
           40514    -8.31865E+06     2.80605E+06              0.    -10.0994E+06
           40515    -8.50261E+06     2.86048E+06              0.    -10.3628E+06
           40516    -8.69292E+06     2.91624E+06              0.    -10.6310E+06
           40517    -8.88985E+06     2.97334E+06              0.    -10.9041E+06
           40518    -9.09368E+06     3.03180E+06              0.    -11.1820E+06
           40519    -9.30471E+06     3.09163E+06              0.    -11.4646E+06
           40520    -9.52325E+06     3.15284E+06              0.    -11.7519E+06
           40521    -9.74964E+06     3.21542E+06              0.    -12.0436E+06
           40522    -9.98422E+06     3.27939E+06              0.    -12.3398E+06
           40523    -10.2274E+06     3.34474E+06              0.    -12.6402E+06
           40524    -10.4794E+06     3.41145E+06              0.    -12.9448E+06
           40525    -10.7409E+06     3.47951E+06              0.    -13.2533E+06
           40526    -11.0121E+06     3.54889E+06              0.    -13.5657E+06
           40527    -11.2935E+06     3.61956E+06              0.    -13.8816E+06
           40528    -11.5856E+06     3.69145E+06              0.    -14.2009E+06
           40529    -11.8888E+06     3.76453E+06              0.    -14.5234E+06
           40530    -12.2038E+06     3.83870E+06              0.    -14.8488E+06
           40531    -12.5310E+06     3.91388E+06              0.    -15.1768E+06
           40532    -12.8709E+06     3.98996E+06              0.    -15.5072E+06
           40533    -13.2243E+06     4.06679E+06              0.    -15.8396E+06
           40534    -13.5916E+06     4.14423E+06              0.    -16.1738E+06
           40535    -13.9736E+06     4.22206E+06              0.    -16.5094E+06
           40536    -14.3709E+06     4.30009E+06              0.    -16.8460E+06
           40537    -14.7842E+06     4.37802E+06              0.    -17.1832E+06
           40538    -15.2142E+06     4.45556E+06              0.    -17.5207E+06
           40539    -15.6617E+06     4.53234E+06              0.    -17.8581E+06
           40540    -16.1274E+06     4.60794E+06              0.    -18.1948E+06
           40541    -16.6122E+06     4.68186E+06              0.    -18.5305E+06
           40542    -17.1169E+06     4.75354E+06              0.    -18.8647E+06
           40543    -17.6422E+06     4.82232E+06              0.    -19.1969E+06
           40544    -18.1890E+06     4.88744E+06              0.    -19.5266E+06
           40545    -18.7582E+06     4.94801E+06              0.    -19.8532E+06
           40546    -19.3506E+06     5.00303E+06              0.    -20.1763E+06
           40547    -19.9670E+06     5.05134E+06              0.    -20.4952E+06
           40548    -20.6083E+06     5.09161E+06              0.    -20.8093E+06
           40549    -21.2752E+06     5.12232E+06              0.    -21.1180E+06
           40550    -21.9685E+06     5.14173E+06              0.    -21.4207E+06
           40551    -22.6889E+06     5.14785E+06              0.    -21.7166E+06
           40552    -23.4369E+06     5.13843E+06              0.    -22.0051E+06
           40553    -24.2132E+06     5.11092E+06              0.    -22.2852E+06
           40554    -25.0181E+06     5.06240E+06              0.    -22.5560E+06
           40555    -25.8520E+06     4.98959E+06              0.    -22.8166E+06
           40556    -26.7150E+06     4.88881E+06              0.    -23.0657E+06
           40557    -27.6070E+06     4.75590E+06              0.    -23.3022E+06
           40558    -28.5278E+06     4.58622E+06              0.    -23.5245E+06
           40559    -29.4769E+06     4.37456E+06              0.    -23.7309E+06
           40560    -30.4536E+06     4.11517E+06              0.    -23.9194E+06
           40561    -31.4570E+06     3.80164E+06              0.    -24.0876E+06
           40562    -32.4856E+06     3.42694E+06              0.    -24.2328E+06
           40563    -33.5379E+06     2.98333E+06              0.    -24.3516E+06
           40564    -34.6119E+06     2.46238E+06              0.    -24.4404E+06
           40565    -35.7053E+06     1.85490E+06              0.    -24.4945E+06
           40566    -36.8154E+06     1.15099E+06              0.    -24.5088E+06
           40567    -37.9392E+06     340.047E+03              0.    -24.4771E+06
           40568    -39.0734E+06    -589.267E+03              0.    -24.3923E+06
           40569    -40.2143E+06    -1.64895E+06              0.    -24.2462E+06
           40570    -41.3581E+06    -2.85160E+06              0.    -24.0293E+06
           40571    -42.5005E+06    -4.21040E+06              0.    -23.7309E+06
           40572    -43.6372E+06    -5.73896E+06              0.    -23.3387E+06
           40573    -44.7637E+06    -7.45127E+06              0.    -22.8389E+06
           40574    -45.8755E+06    -9.36163E+06              0.    -22.2160E+06
           40575    -46.9680E+06    -11.4844E+06              0.    -21.4526E+06
           40576    -48.0367E+06    -13.8342E+06              0.    -20.5294E+06
           40577    -49.0772E+06    -16.4252E+06              0.    -19.4253E+06
           40578    -50.0851E+06    -19.2717E+06              0.    -18.1168E+06
           40579    -51.4275E+06    -22.7047E+06              0.    -17.7115E+06
           40580    -1.64376E+06    -739.832E+03              0.    -475.929E+03
           40581    -1.63907E+06    -696.215E+03              0.    -475.056E+03
           40582    -1.65327E+06    -661.837E+03              0.    -470.065E+03
           40583    -1.66734E+06    -628.094E+03              0.    -465.548E+03
           40584    -1.68127E+06    -594.971E+03              0.    -461.492E+03
           40585    -1.69509E+06    -562.452E+03              0.    -457.887E+03
           40586    -1.70880E+06    -530.521E+03              0.    -454.719E+03
           40587    -1.72242E+06    -499.164E+03              0.    -451.979E+03
           40588    -1.73594E+06    -468.364E+03              0.    -449.656E+03
           40589    -1.74939E+06    -438.110E+03              0.    -447.741E+03
           40590    -1.76276E+06    -408.386E+03              0.    -446.225E+03
           40591    -1.77608E+06    -379.178E+03              0.    -445.102E+03
           40592    -1.78934E+06    -350.475E+03              0.    -444.362E+03
           40593    -1.80256E+06    -322.262E+03              0.    -444.000E+03
           40594    -1.81574E+06    -294.528E+03              0.    -444.009E+03
           40595    -1.82889E+06    -267.260E+03              0.    -444.385E+03
           40596    -1.84203E+06    -240.445E+03              0.    -445.121E+03
           40597    -1.85515E+06    -214.073E+03              0.    -446.214E+03
           40598    -1.86827E+06    -188.132E+03              0.    -447.660E+03
           40599    -1.88140E+06    -162.611E+03              0.    -449.455E+03
           40600    -1.89453E+06    -137.499E+03              0.    -451.597E+03
           40601    -1.90769E+06    -112.784E+03              0.    -454.083E+03
           40602    -1.92088E+06    -88.4576E+03              0.    -456.912E+03
           40603    -1.93410E+06    -64.5081E+03              0.    -460.082E+03
           40604    -1.94736E+06    -40.9259E+03              0.    -463.591E+03
           40605    -1.96067E+06    -17.7015E+03              0.    -467.441E+03
           40606    -1.97405E+06     5.17554E+03              0.    -471.630E+03
           40607    -1.98748E+06     27.7139E+03              0.    -476.159E+03
           40608    -2.00099E+06     49.9236E+03              0.    -481.029E+03
           40609    -2.01458E+06     71.8133E+03              0.    -486.242E+03
           40610    -2.02825E+06     93.3921E+03              0.    -491.798E+03
           40611    -2.04202E+06     114.669E+03              0.    -497.701E+03
           40612    -2.05588E+06     135.652E+03              0.    -503.953E+03
           40613    -2.06986E+06     156.351E+03              0.    -510.556E+03
           40614    -2.08395E+06     176.773E+03              0.    -517.516E+03
           40615    -2.09817E+06     196.927E+03              0.    -524.834E+03
           40616    -2.11251E+06     216.821E+03              0.    -532.516E+03
           40617    -2.12699E+06     236.464E+03              0.    -540.567E+03
           40618    -2.14162E+06     255.862E+03              0.    -548.991E+03
           40619    -2.15639E+06     275.024E+03              0.    -557.795E+03
           40620    -2.17133E+06     293.958E+03              0.    -566.984E+03
           40621    -2.18643E+06     312.671E+03              0.    -576.565E+03
           40622    -2.20171E+06     331.171E+03              0.    -586.545E+03
           40623    -2.21717E+06     349.466E+03              0.    -596.932E+03
           40624    -2.23282E+06     367.562E+03              0.    -607.733E+03
           40625    -2.24867E+06     385.468E+03              0.    -618.956E+03
           40626    -2.26472E+06     403.191E+03              0.    -630.611E+03
           40627    -2.28099E+06     420.737E+03              0.    -642.707E+03
           40628    -2.29748E+06     438.115E+03              0.    -655.254E+03
           40629    -2.31420E+06     455.330E+03              0.    -668.261E+03
           40630    -2.33115E+06     472.392E+03              0.    -681.740E+03
           40631    -2.34836E+06     489.306E+03              0.    -695.703E+03
           40632    -2.36581E+06     506.079E+03              0.    -710.160E+03
           40633    -2.38354E+06     522.720E+03              0.    -725.125E+03
           40634    -2.40153E+06     539.234E+03              0.    -740.611E+03
           40635    -2.41981E+06     555.629E+03              0.    -756.630E+03
           40636    -2.43838E+06     571.913E+03              0.    -773.197E+03
           40637    -2.45725E+06     588.091E+03              0.    -790.327E+03
           40638    -2.47643E+06     604.171E+03              0.    -808.034E+03
           40639    -2.49593E+06     620.161E+03              0.    -826.335E+03
           40640    -2.51576E+06     636.067E+03              0.    -845.247E+03
           40641    -2.53593E+06     651.896E+03              0.    -864.786E+03
           40642    -2.55645E+06     667.656E+03              0.    -884.970E+03
           40643    -2.57734E+06     683.354E+03              0.    -905.817E+03
           40644    -2.59860E+06     698.997E+03              0.    -927.347E+03
           40645    -2.62024E+06     714.593E+03              0.    -949.580E+03
           40646    -2.64228E+06     730.148E+03              0.    -972.536E+03
           40647    -2.66473E+06     745.670E+03              0.    -996.236E+03
           40648    -2.68760E+06     761.167E+03              0.    -1.02070E+06
           40649    -2.71090E+06     776.646E+03              0.    -1.04596E+06
           40650    -2.73465E+06     792.116E+03              0.    -1.07203E+06
           40651    -2.75886E+06     807.582E+03              0.    -1.09893E+06
           40652    -2.78355E+06     823.054E+03              0.    -1.12670E+06
           40653    -2.80872E+06     838.540E+03              0.    -1.15536E+06
           40654    -2.83439E+06     854.047E+03              0.    -1.18493E+06
           40655    -2.86058E+06     869.583E+03              0.    -1.21544E+06
           40656    -2.88730E+06     885.157E+03              0.    -1.24693E+06
           40657    -2.91457E+06     900.777E+03              0.    -1.27941E+06
           40658    -2.94241E+06     916.451E+03              0.    -1.31293E+06
           40659    -2.97082E+06     932.189E+03              0.    -1.34751E+06
           40660    -2.99983E+06     947.999E+03              0.    -1.38318E+06
           40661    -3.02946E+06     963.890E+03              0.    -1.41999E+06
           40662    -3.05973E+06     979.870E+03              0.    -1.45796E+06
           40663    -3.09065E+06     995.950E+03              0.    -1.49712E+06
           40664    -3.12224E+06     1.01214E+06              0.    -1.53752E+06
           40665    -3.15452E+06     1.02845E+06              0.    -1.57919E+06
           40666    -3.18752E+06     1.04488E+06              0.    -1.62217E+06
           40667    -3.22125E+06     1.06145E+06              0.    -1.66651E+06
           40668    -3.25574E+06     1.07817E+06              0.    -1.71223E+06
           40669    -3.29101E+06     1.09505E+06              0.    -1.75939E+06
           40670    -3.32709E+06     1.11210E+06              0.    -1.80802E+06
           40671    -3.36399E+06     1.12933E+06              0.    -1.85817E+06
           40672    -3.40175E+06     1.14675E+06              0.    -1.90989E+06
           40673    -3.44039E+06     1.16437E+06              0.    -1.96322E+06
           40674    -3.47993E+06     1.18221E+06              0.    -2.01821E+06
           40675    -3.52041E+06     1.20027E+06              0.    -2.07490E+06
           40676    -3.56185E+06     1.21856E+06              0.    -2.13336E+06
           40677    -3.60428E+06     1.23711E+06              0.    -2.19362E+06
           40678    -3.64774E+06     1.25592E+06              0.    -2.25575E+06
           40679    -3.69225E+06     1.27500E+06              0.    -2.31979E+06
           40680    -3.73785E+06     1.29437E+06              0.    -2.38580E+06
           40681    -3.78457E+06     1.31405E+06              0.    -2.45384E+06
           40682    -3.83245E+06     1.33403E+06              0.    -2.52397E+06
           40683    -3.88152E+06     1.35435E+06              0.    -2.59623E+06
           40684    -3.93183E+06     1.37501E+06              0.    -2.67070E+06
           40685    -3.98340E+06     1.39603E+06              0.    -2.74744E+06
           40686    -4.03628E+06     1.41741E+06              0.    -2.82649E+06
           40687    -4.09052E+06     1.43919E+06              0.    -2.90794E+06
           40688    -4.14615E+06     1.46137E+06              0.    -2.99184E+06
           40689    -4.20323E+06     1.48397E+06              0.    -3.07826E+06
           40690    -4.26179E+06     1.50700E+06              0.    -3.16726E+06
           40691    -4.32188E+06     1.53048E+06              0.    -3.25892E+06
           40692    -4.38356E+06     1.55443E+06              0.    -3.35330E+06
           40693    -4.44687E+06     1.57887E+06              0.    -3.45047E+06
           40694    -4.51187E+06     1.60380E+06              0.    -3.55050E+06
           40695    -4.57862E+06     1.62926E+06              0.    -3.65347E+06
           40696    -4.64717E+06     1.65526E+06              0.    -3.75944E+06
           40697    -4.71758E+06     1.68181E+06              0.    -3.86849E+06
           40698    -4.78992E+06     1.70894E+06              0.    -3.98069E+06
           40699    -4.86424E+06     1.73666E+06              0.    -4.09611E+06
           40700    -4.94061E+06     1.76500E+06              0.    -4.21483E+06
           40701    -5.01911E+06     1.79397E+06              0.    -4.33693E+06
           40702    -5.09980E+06     1.82359E+06              0.    -4.46248E+06
           40703    -5.18276E+06     1.85389E+06              0.    -4.59155E+06
           40704    -5.26806E+06     1.88488E+06              0.    -4.72422E+06
           40705    -5.35579E+06     1.91659E+06              0.    -4.86057E+06
           40706    -5.44603E+06     1.94904E+06              0.    -5.00066E+06
           40707    -5.53886E+06     1.98224E+06              0.    -5.14457E+06
           40708    -5.63437E+06     2.01623E+06              0.    -5.29238E+06
           40709    -5.73267E+06     2.05102E+06              0.    -5.44416E+06
           40710    -5.83383E+06     2.08663E+06              0.    -5.59997E+06
           40711    -5.93797E+06     2.12308E+06              0.    -5.75990E+06
           40712    -6.04519E+06     2.16041E+06              0.    -5.92400E+06
           40713    -6.15560E+06     2.19863E+06              0.    -6.09234E+06
           40714    -6.26931E+06     2.23777E+06              0.    -6.26499E+06
           40715    -6.38645E+06     2.27784E+06              0.    -6.44200E+06
           40716    -6.50713E+06     2.31887E+06              0.    -6.62345E+06
           40717    -6.63148E+06     2.36089E+06              0.    -6.80938E+06
           40718    -6.75963E+06     2.40391E+06              0.    -6.99984E+06
           40719    -6.89174E+06     2.44796E+06              0.    -7.19489E+06
           40720    -7.02793E+06     2.49307E+06              0.    -7.39457E+06
           40721    -7.16838E+06     2.53924E+06              0.    -7.59892E+06
           40722    -7.31322E+06     2.58651E+06              0.    -7.80797E+06
           40723    -7.46263E+06     2.63490E+06              0.    -8.02176E+06
           40724    -7.61679E+06     2.68443E+06              0.    -8.24031E+06
           40725    -7.77587E+06     2.73511E+06              0.    -8.46363E+06
           40726    -7.94006E+06     2.78696E+06              0.    -8.69174E+06
           40727    -8.10957E+06     2.84002E+06              0.    -8.92464E+06
           40728    -8.28460E+06     2.89428E+06              0.    -9.16233E+06
           40729    -8.46536E+06     2.94977E+06              0.    -9.40478E+06
           40730    -8.65209E+06     3.00650E+06              0.    -9.65198E+06
           40731    -8.84502E+06     3.06449E+06              0.    -9.90391E+06
           40732    -9.04441E+06     3.12374E+06              0.    -10.1605E+06
           40733    -9.25051E+06     3.18427E+06              0.    -10.4217E+06
           40734     -9.4636E+06     3.24608E+06              0.    -10.6875E+06
           40735    -9.68397E+06     3.30916E+06              0.    -10.9577E+06
           40736    -9.91193E+06     3.37353E+06              0.    -11.2324E+06
           40737    -10.1478E+06     3.43917E+06              0.    -11.5113E+06
           40738    -10.3919E+06     3.50609E+06              0.    -11.7943E+06
           40739    -10.6446E+06     3.57425E+06              0.    -12.0814E+06
           40740    -10.9062E+06     3.64364E+06              0.    -12.3724E+06
           40741    -11.1772E+06     3.71424E+06              0.    -12.6671E+06
           40742    -11.4580E+06     3.78601E+06              0.    -12.9654E+06
           40743    -11.7489E+06     3.85890E+06              0.    -13.2669E+06
           40744    -12.0504E+06     3.93286E+06              0.    -13.5716E+06
           40745    -12.3631E+06     4.00783E+06              0.    -13.8792E+06
           40746    -12.6874E+06     4.08373E+06              0.    -14.1894E+06
           40747    -13.0238E+06     4.16047E+06              0.    -14.5020E+06
           40748    -13.3728E+06     4.23792E+06              0.    -14.8166E+06
           40749    -13.7352E+06     4.31597E+06              0.    -15.1330E+06
           40750    -14.1113E+06     4.39446E+06              0.    -15.4508E+06
           40751    -14.5020E+06     4.47321E+06              0.    -15.7697E+06
           40752    -14.9077E+06     4.55201E+06              0.    -16.0892E+06
           40753    -15.3293E+06     4.63062E+06              0.    -16.4091E+06
           40754    -15.7674E+06     4.70875E+06              0.    -16.7289E+06
           40755    -16.2229E+06     4.78608E+06              0.    -17.0482E+06
           40756    -16.6963E+06     4.86223E+06              0.    -17.3665E+06
           40757    -17.1886E+06     4.93677E+06              0.    -17.6835E+06
           40758    -17.7006E+06     5.00918E+06              0.    -17.9985E+06
           40759    -18.2331E+06     5.07889E+06              0.    -18.3111E+06
           40760    -18.7870E+06     5.14523E+06              0.    -18.6208E+06
           40761    -19.3632E+06     5.20742E+06              0.    -18.9272E+06
           40762    -19.9625E+06     5.26458E+06              0.    -19.2296E+06
           40763    -20.5859E+06     5.31569E+06              0.    -19.5274E+06
           40764    -21.2343E+06     5.35957E+06              0.    -19.8203E+06
           40765    -21.9085E+06     5.39489E+06              0.    -20.1075E+06
           40766    -22.6094E+06     5.42012E+06              0.    -20.3885E+06
           40767    -23.3379E+06     5.43349E+06              0.    -20.6627E+06
           40768    -24.0947E+06     5.43300E+06              0.    -20.9294E+06
           40769    -24.8805E+06     5.41637E+06              0.    -21.1879E+06
           40770    -25.6959E+06     5.38099E+06              0.    -21.4375E+06
           40771    -26.5415E+06     5.32391E+06              0.    -21.6775E+06
           40772    -27.4177E+06     5.24178E+06              0.    -21.9070E+06
           40773    -28.3246E+06     5.13080E+06              0.    -22.1250E+06
           40774    -29.2623E+06     4.98669E+06              0.    -22.3305E+06
           40775    -30.2306E+06     4.80466E+06              0.    -22.5221E+06
           40776    -31.2292E+06     4.57930E+06              0.    -22.6985E+06
           40777    -32.2573E+06     4.30460E+06              0.    -22.8581E+06
           40778    -33.3139E+06     3.97385E+06              0.    -22.9986E+06
           40779    -34.3977E+06     3.57962E+06              0.    -23.1179E+06
           40780    -35.5069E+06     3.11373E+06              0.    -23.2131E+06
           40781    -36.6394E+06     2.56717E+06              0.    -23.2808E+06
           40782    -37.7929E+06     1.93013E+06              0.    -23.3169E+06
           40783    -38.9642E+06     1.19197E+06              0.    -23.3168E+06
           40784    -40.1502E+06     341.168E+03              0.    -23.2748E+06
           40785    -41.3470E+06    -634.566E+03              0.    -23.1842E+06
           40786    -42.5506E+06    -1.74836E+06              0.    -23.0374E+06
           40787    -43.7563E+06    -3.01404E+06              0.    -22.8254E+06
           40788    -44.9595E+06    -4.44616E+06              0.    -22.5379E+06
           40789    -46.1549E+06    -6.05983E+06              0.    -22.1630E+06
           40790    -47.3373E+06    -7.87062E+06              0.    -21.6872E+06
           40791    -48.5012E+06    -9.89456E+06              0.    -21.0953E+06
           40792    -49.6410E+06    -12.1478E+06              0.    -20.3702E+06
           40793    -50.7510E+06    -14.6469E+06              0.    -19.4929E+06
           40794    -51.8257E+06    -17.4081E+06              0.    -18.4422E+06
           40795    -52.8595E+06    -20.4477E+06              0.    -17.1949E+06
           40796    -54.2802E+06    -24.1144E+06              0.    -16.7974E+06
           40797    -1.65654E+06    -745.611E+03              0.    -461.521E+03
           40798    -1.65179E+06    -701.383E+03              0.    -460.674E+03
           40799    -1.66619E+06    -666.529E+03              0.    -455.826E+03
           40800    -1.68045E+06    -632.323E+03              0.    -451.443E+03
           40801    -1.69458E+06    -598.750E+03              0.    -447.510E+03
           40802    -1.70859E+06    -565.793E+03              0.    -444.017E+03
           40803    -1.72250E+06    -533.434E+03              0.    -440.952E+03
           40804    -1.73630E+06    -501.660E+03              0.    -438.305E+03
           40805    -1.75002E+06    -470.453E+03              0.    -436.065E+03
           40806    -1.76366E+06    -439.799E+03              0.    -434.224E+03
           40807    -1.77722E+06    -409.684E+03              0.    -432.774E+03
           40808    -1.79073E+06    -380.093E+03              0.    -431.705E+03
           40809    -1.80419E+06    -351.014E+03              0.    -431.012E+03
           40810    -1.81761E+06    -322.431E+03              0.    -430.688E+03
           40811    -1.83099E+06    -294.332E+03              0.    -430.727E+03
           40812    -1.84435E+06    -266.705E+03              0.    -431.124E+03
           40813    -1.85769E+06    -239.535E+03              0.    -431.873E+03
           40814    -1.87102E+06    -212.813E+03              0.    -432.970E+03
           40815    -1.88436E+06    -186.525E+03              0.    -434.413E+03
           40816    -1.89770E+06    -160.659E+03              0.    -436.196E+03
           40817    -1.91107E+06    -135.206E+03              0.    -438.319E+03
           40818    -1.92446E+06    -110.152E+03              0.    -440.778E+03
           40819    -1.93788E+06    -85.4873E+03              0.    -443.571E+03
           40820    -1.95134E+06    -61.2009E+03              0.    -446.698E+03
           40821    -1.96485E+06    -37.2826E+03              0.    -450.157E+03
           40822    -1.97842E+06    -13.7221E+03              0.    -453.949E+03
           40823    -1.99205E+06     9.49109E+03              0.    -458.072E+03
           40824    -2.00576E+06     32.3664E+03              0.    -462.528E+03
           40825    -2.01955E+06     54.9141E+03              0.    -467.318E+03
           40826    -2.03342E+06     77.1434E+03              0.    -472.442E+03
           40827    -2.04739E+06     99.0638E+03              0.    -477.903E+03
           40828    -2.06146E+06     120.685E+03              0.    -483.703E+03
           40829    -2.07565E+06     142.015E+03              0.    -489.844E+03
           40830    -2.08995E+06     163.064E+03              0.    -496.330E+03
           40831    -2.10438E+06     183.840E+03              0.    -503.163E+03
           40832    -2.11894E+06     204.352E+03              0.    -510.349E+03
           40833    -2.13364E+06     224.608E+03              0.    -517.890E+03
           40834    -2.14850E+06     244.618E+03              0.    -525.793E+03
           40835    -2.16351E+06     264.389E+03              0.    -534.061E+03
           40836    -2.17868E+06     283.930E+03              0.    -542.701E+03
           40837    -2.19403E+06     303.249E+03              0.    -551.719E+03
           40838    -2.20956E+06     322.354E+03              0.    -561.121E+03
           40839    -2.22528E+06     341.254E+03              0.    -570.914E+03
           40840    -2.24120E+06     359.955E+03              0.    -581.105E+03
           40841    -2.25732E+06     378.466E+03              0.    -591.703E+03
           40842    -2.27365E+06     396.795E+03              0.    -602.715E+03
           40843    -2.29021E+06     414.950E+03              0.    -614.150E+03
           40844    -2.30700E+06     432.939E+03              0.    -626.018E+03
           40845    -2.32403E+06     450.768E+03              0.    -638.327E+03
           40846    -2.34131E+06     468.446E+03              0.    -651.089E+03
           40847    -2.35885E+06     485.981E+03              0.    -664.314E+03
           40848    -2.37666E+06     503.380E+03              0.    -678.013E+03
           40849    -2.39474E+06     520.651E+03              0.    -692.198E+03
           40850    -2.41310E+06     537.801E+03              0.    -706.881E+03
           40851    -2.43177E+06     554.838E+03              0.    -722.075E+03
           40852    -2.45074E+06     571.770E+03              0.    -737.793E+03
           40853    -2.47002E+06     588.604E+03              0.    -754.049E+03
           40854    -2.48963E+06     605.348E+03              0.    -770.857E+03
           40855    -2.50958E+06     622.010E+03              0.    -788.233E+03
           40856    -2.52988E+06     638.596E+03              0.    -806.192E+03
           40857    -2.55053E+06     655.116E+03              0.    -824.750E+03
           40858    -2.57156E+06     671.577E+03              0.    -843.925E+03
           40859    -2.59297E+06     687.987E+03              0.    -863.733E+03
           40860    -2.61477E+06     704.352E+03              0.    -884.193E+03
           40861    -2.63698E+06     720.683E+03              0.    -905.324E+03
           40862    -2.65960E+06     736.986E+03              0.    -927.146E+03
           40863    -2.68266E+06     753.269E+03              0.    -949.677E+03
           40864    -2.70616E+06     769.541E+03              0.    -972.940E+03
           40865    -2.73012E+06     785.810E+03              0.    -996.956E+03
           40866    -2.75456E+06     802.085E+03              0.    -1.02175E+06
           40867    -2.77948E+06     818.373E+03              0.    -1.04734E+06
           40868    -2.80490E+06     834.683E+03              0.    -1.07375E+06
           40869    -2.83083E+06     851.024E+03              0.    -1.10101E+06
           40870    -2.85730E+06     867.404E+03              0.    -1.12914E+06
           40871    -2.88432E+06     883.833E+03              0.    -1.15818E+06
           40872     -2.9119E+06     900.320E+03              0.    -1.18813E+06
           40873    -2.94006E+06     916.873E+03              0.    -1.21905E+06
           40874    -2.96882E+06     933.502E+03              0.    -1.25095E+06
           40875    -2.99820E+06     950.217E+03              0.    -1.28386E+06
           40876    -3.02821E+06     967.026E+03              0.    -1.31781E+06
           40877    -3.05888E+06     983.940E+03              0.    -1.35284E+06
           40878    -3.09022E+06     1.00097E+06              0.    -1.38898E+06
           40879    -3.12226E+06     1.01812E+06              0.    -1.42627E+06
           40880    -3.15501E+06     1.03541E+06              0.    -1.46473E+06
           40881    -3.18850E+06     1.05284E+06              0.    -1.50440E+06
           40882    -3.22275E+06     1.07043E+06              0.    -1.54533E+06
           40883    -3.25778E+06     1.08819E+06              0.    -1.58754E+06
           40884    -3.29362E+06     1.10612E+06              0.    -1.63108E+06
           40885    -3.33028E+06     1.12424E+06              0.    -1.67599E+06
           40886    -3.36780E+06     1.14257E+06              0.    -1.72230E+06
           40887    -3.40621E+06     1.16110E+06              0.    -1.77006E+06
           40888    -3.44552E+06     1.17986E+06              0.    -1.81932E+06
           40889    -3.48577E+06     1.19886E+06              0.    -1.87011E+06
           40890    -3.52699E+06     1.21811E+06              0.    -1.92249E+06
           40891    -3.56920E+06     1.23761E+06              0.    -1.97649E+06
           40892    -3.61243E+06     1.25739E+06              0.    -2.03218E+06
           40893    -3.65672E+06     1.27746E+06              0.    -2.08959E+06
           40894    -3.70211E+06     1.29783E+06              0.    -2.14878E+06
           40895    -3.74861E+06     1.31852E+06              0.    -2.20979E+06
           40896    -3.79628E+06     1.33953E+06              0.    -2.27269E+06
           40897    -3.84514E+06     1.36089E+06              0.    -2.33752E+06
           40898    -3.89523E+06     1.38260E+06              0.    -2.40434E+06
           40899    -3.94659E+06     1.40469E+06              0.    -2.47320E+06
           40900    -3.99927E+06     1.42716E+06              0.    -2.54417E+06
           40901    -4.05329E+06     1.45004E+06              0.    -2.61730E+06
           40902    -4.10871E+06     1.47333E+06              0.    -2.69264E+06
           40903    -4.16557E+06     1.49706E+06              0.    -2.77027E+06
           40904    -4.22391E+06     1.52124E+06              0.    -2.85024E+06
           40905    -4.28378E+06     1.54589E+06              0.    -2.93262E+06
           40906    -4.34523E+06     1.57102E+06              0.    -3.01747E+06
           40907    -4.40831E+06     1.59665E+06              0.    -3.10485E+06
           40908    -4.47307E+06     1.62280E+06              0.    -3.19483E+06
           40909    -4.53957E+06     1.64949E+06              0.    -3.28747E+06
           40910    -4.60786E+06     1.67673E+06              0.    -3.38285E+06
           40911    -4.67801E+06     1.70454E+06              0.    -3.48104E+06
           40912    -4.75006E+06     1.73294E+06              0.    -3.58209E+06
           40913    -4.82408E+06     1.76196E+06              0.    -3.68609E+06
           40914    -4.90014E+06     1.79160E+06              0.    -3.79309E+06
           40915    -4.97830E+06     1.82189E+06              0.    -3.90318E+06
           40916    -5.05863E+06     1.85285E+06              0.    -4.01643E+06
           40917    -5.14120E+06     1.88450E+06              0.    -4.13290E+06
           40918    -5.22609E+06     1.91685E+06              0.    -4.25266E+06
           40919    -5.31337E+06     1.94993E+06              0.    -4.37580E+06
           40920    -5.40313E+06     1.98376E+06              0.    -4.50238E+06
           40921    -5.49543E+06     2.01836E+06              0.    -4.63247E+06
           40922    -5.59038E+06     2.05375E+06              0.    -4.76614E+06
           40923    -5.68805E+06     2.08995E+06              0.    -4.90348E+06
           40924    -5.78854E+06     2.12697E+06              0.    -5.04453E+06
           40925    -5.89194E+06     2.16486E+06              0.    -5.18939E+06
           40926    -5.99836E+06     2.20361E+06              0.    -5.33810E+06
           40927    -6.10789E+06     2.24325E+06              0.    -5.49075E+06
           40928    -6.22063E+06     2.28381E+06              0.    -5.64739E+06
           40929    -6.33671E+06     2.32531E+06              0.    -5.80809E+06
           40930    -6.45624E+06     2.36776E+06              0.    -5.97291E+06
           40931    -6.57932E+06     2.41119E+06              0.    -6.14192E+06
           40932    -6.70610E+06     2.45561E+06              0.    -6.31516E+06
           40933    -6.83668E+06     2.50105E+06              0.    -6.49269E+06
           40934    -6.97122E+06     2.54752E+06              0.    -6.67456E+06
           40935    -7.10985E+06     2.59505E+06              0.    -6.86082E+06
           40936    -7.25271E+06     2.64366E+06              0.    -7.05151E+06
           40937    -7.39995E+06     2.69335E+06              0.    -7.24667E+06
           40938    -7.55173E+06     2.74415E+06              0.    -7.44633E+06
           40939    -7.70822E+06     2.79608E+06              0.    -7.65052E+06
           40940    -7.86958E+06     2.84915E+06              0.    -7.85926E+06
           40941    -8.03599E+06     2.90337E+06              0.    -8.07257E+06
           40942    -8.20765E+06     2.95876E+06              0.    -8.29045E+06
           40943    -8.38473E+06     3.01533E+06              0.    -8.51292E+06
           40944    -8.56745E+06     3.07308E+06              0.    -8.73995E+06
           40945    -8.75601E+06     3.13204E+06              0.    -8.97154E+06
           40946    -8.95064E+06     3.19220E+06              0.    -9.20767E+06
           40947    -9.15156E+06     3.25358E+06              0.    -9.44829E+06
           40948    -9.35903E+06     3.31616E+06              0.    -9.69337E+06
           40949    -9.57329E+06     3.37996E+06              0.    -9.94285E+06
           40950    -9.79460E+06     3.44496E+06              0.    -10.1967E+06
           40951    -10.0232E+06     3.51117E+06              0.    -10.4547E+06
           40952    -10.2595E+06     3.57857E+06              0.    -10.7170E+06
           40953    -10.5037E+06     3.64714E+06              0.    -10.9832E+06
           40954    -10.7562E+06     3.71688E+06              0.    -11.2535E+06
           40955    -11.0172E+06     3.78774E+06              0.    -11.5275E+06
           40956    -11.2872E+06     3.85971E+06              0.    -11.8052E+06
           40957    -11.5665E+06     3.93275E+06              0.    -12.0863E+06
           40958    -11.8556E+06     4.00681E+06              0.    -12.3708E+06
           40959    -12.1547E+06     4.08184E+06              0.    -12.6583E+06
           40960    -12.4643E+06     4.15779E+06              0.    -12.9488E+06
           40961    -12.7850E+06     4.23456E+06              0.    -13.2418E+06
           40962    -13.1171E+06     4.31209E+06              0.    -13.5373E+06
           40963    -13.4612E+06     4.39028E+06              0.    -13.8348E+06
           40964    -13.8178E+06     4.46901E+06              0.    -14.1341E+06
           40965    -14.1874E+06     4.54815E+06              0.    -14.4349E+06
           40966    -14.5707E+06     4.62756E+06              0.    -14.7369E+06
           40967    -14.9682E+06     4.70705E+06              0.    -15.0396E+06
           40968    -15.3805E+06     4.78644E+06              0.    -15.3428E+06
           40969    -15.8084E+06     4.86550E+06              0.    -15.6459E+06
           40970    -16.2525E+06     4.94396E+06              0.    -15.9486E+06
           40971    -16.7136E+06     5.02152E+06              0.    -16.2505E+06
           40972    -17.1924E+06     5.09785E+06              0.    -16.5511E+06
           40973    -17.6897E+06     5.17256E+06              0.    -16.8498E+06
           40974    -18.2064E+06     5.24518E+06              0.    -17.1463E+06
           40975    -18.7432E+06     5.31521E+06              0.    -17.4401E+06
           40976    -19.3011E+06     5.38205E+06              0.    -17.7305E+06
           40977    -19.8810E+06     5.44503E+06              0.    -18.0171E+06
           40978    -20.4837E+06     5.50337E+06              0.    -18.2994E+06
           40979    -21.1103E+06     5.55618E+06              0.    -18.5768E+06
           40980    -21.7616E+06     5.60244E+06              0.    -18.8487E+06
           40981    -22.4388E+06     5.64097E+06              0.    -19.1146E+06
           40982    -23.1426E+06     5.67044E+06              0.    -19.3739E+06
           40983    -23.8740E+06     5.68930E+06              0.    -19.6261E+06
           40984    -24.6340E+06     5.69581E+06              0.    -19.8706E+06
           40985    -25.4233E+06     5.68795E+06              0.    -20.1067E+06
           40986    -26.2429E+06     5.66344E+06              0.    -20.3340E+06
           40987    -27.0934E+06     5.61963E+06              0.    -20.5517E+06
           40988    -27.9755E+06     5.55356E+06              0.    -20.7592E+06
           40989    -28.8896E+06     5.46183E+06              0.    -20.9558E+06
           40990    -29.8360E+06     5.34058E+06              0.    -21.1408E+06
           40991    -30.8150E+06     5.18546E+06              0.    -21.3132E+06
           40992    -31.8264E+06     4.99152E+06              0.    -21.4722E+06
           40993    -32.8698E+06     4.75321E+06              0.    -21.6164E+06
           40994    -33.9447E+06     4.46431E+06              0.    -21.7447E+06
           40995    -35.0500E+06     4.11783E+06              0.    -21.8554E+06
           40996    -36.1845E+06     3.70601E+06              0.    -21.9465E+06
           40997    -37.3462E+06     3.22024E+06              0.    -22.0156E+06
           40998    -38.5331E+06     2.65099E+06              0.    -22.0600E+06
           40999    -39.7425E+06     1.98784E+06              0.     -22.076E+06
           41000    -40.9711E+06     1.21940E+06              0.    -22.0596E+06
           41001    -42.2155E+06     333.304E+03              0.    -22.0056E+06
           41002    -43.4714E+06    -683.734E+03              0.    -21.9080E+06
           41003    -44.7341E+06    -1.84597E+06              0.    -21.7597E+06
           41004    -45.9987E+06    -3.16849E+06              0.    -21.5523E+06
           41005    -47.2597E+06    -4.66726E+06              0.    -21.2760E+06
           41006    -48.5111E+06    -6.35890E+06              0.    -20.9193E+06
           41007    -49.7467E+06    -8.26065E+06              0.    -20.4693E+06
           41008    -50.9601E+06    -10.3903E+06              0.    -19.9111E+06
           41009    -52.1447E+06    -12.7659E+06              0.    -19.2280E+06
           41010    -53.2936E+06    -15.4059E+06              0.    -18.4011E+06
           41011    -54.3999E+06    -18.3286E+06              0.    -17.4096E+06
           41012    -55.4566E+06    -21.5524E+06              0.    -16.2303E+06
           41013    -56.9513E+06    -25.4430E+06              0.    -15.8441E+06
           41014    -1.66896E+06    -751.225E+03              0.    -446.915E+03
           41015    -1.66414E+06      -706.4E+03              0.    -446.094E+03
           41016    -1.67874E+06    -671.081E+03              0.    -441.393E+03
           41017    -1.69319E+06    -636.424E+03              0.    -437.145E+03
           41018    -1.70751E+06    -602.411E+03              0.    -433.337E+03
           41019    -1.72171E+06    -569.026E+03              0.    -429.958E+03
           41020    -1.73580E+06    -536.250E+03              0.    -426.997E+03
           41021    -1.74980E+06    -504.068E+03              0.    -424.442E+03
           41022    -1.76370E+06    -472.462E+03              0.    -422.286E+03
           41023    -1.77752E+06    -441.419E+03              0.    -420.518E+03
           41024    -1.79128E+06    -410.923E+03              0.    -419.131E+03
           41025    -1.80498E+06    -380.958E+03              0.    -418.117E+03
           41026    -1.81863E+06    -351.511E+03              0.    -417.469E+03
           41027    -1.83224E+06    -322.567E+03              0.    -417.180E+03
           41028    -1.84582E+06    -294.112E+03              0.    -417.246E+03
           41029    -1.85937E+06    -266.134E+03              0.     -417.66E+03
           41030    -1.87292E+06    -238.619E+03              0.    -418.418E+03
           41031    -1.88646E+06    -211.554E+03              0.    -419.516E+03
           41032    -1.90001E+06    -184.927E+03              0.    -420.951E+03
           41033    -1.91357E+06    -158.726E+03              0.    -422.718E+03
           41034    -1.92715E+06    -132.939E+03              0.    -424.816E+03
           41035    -1.94076E+06    -107.553E+03              0.    -427.242E+03
           41036    -1.95441E+06    -82.5588E+03              0.    -429.994E+03
           41037    -1.96811E+06    -57.9435E+03              0.    -433.072E+03
           41038    -1.98187E+06    -33.6968E+03              0.    -436.474E+03
           41039    -1.99569E+06    -9.80820E+03              0.    -440.200E+03
           41040    -2.00958E+06     13.7335E+03              0.    -444.251E+03
           41041    -2.02355E+06     36.9380E+03              0.    -448.626E+03
           41042    -2.03761E+06     59.8161E+03              0.    -453.326E+03
           41043    -2.05177E+06     82.3773E+03              0.    -458.354E+03
           41044    -2.06603E+06     104.632E+03              0.    -463.710E+03
           41045    -2.08040E+06     126.589E+03              0.    -469.397E+03
           41046    -2.09489E+06     148.258E+03              0.    -475.418E+03
           41047    -2.10951E+06     169.649E+03              0.    -481.775E+03
           41048    -2.12427E+06     190.771E+03              0.    -488.472E+03
           41049    -2.13918E+06     211.634E+03              0.    -495.513E+03
           41050    -2.15423E+06     232.245E+03              0.    -502.902E+03
           41051    -2.16945E+06     252.614E+03              0.    -510.644E+03
           41052    -2.18484E+06     272.751E+03              0.    -518.744E+03
           41053    -2.20040E+06     292.662E+03              0.    -527.207E+03
           41054    -2.21615E+06     312.358E+03              0.    -536.039E+03
           41055    -2.23210E+06     331.847E+03              0.    -545.248E+03
           41056    -2.24825E+06     351.137E+03              0.    -554.838E+03
           41057    -2.26462E+06     370.237E+03              0.    -564.819E+03
           41058    -2.28120E+06     389.154E+03              0.    -575.197E+03
           41059    -2.29802E+06     407.898E+03              0.    -585.981E+03
           41060    -2.31507E+06     426.477E+03              0.    -597.179E+03
           41061    -2.33237E+06     444.898E+03              0.      -608.8E+03
           41062    -2.34994E+06     463.171E+03              0.    -620.854E+03
           41063    -2.36777E+06     481.302E+03              0.    -633.351E+03
           41064    -2.38587E+06     499.301E+03              0.    -646.302E+03
           41065    -2.40427E+06     517.176E+03              0.    -659.716E+03
           41066    -2.42296E+06     534.934E+03              0.    -673.607E+03
           41067    -2.44196E+06     552.584E+03              0.    -687.986E+03
           41068    -2.46128E+06     570.134E+03              0.    -702.865E+03
           41069    -2.48093E+06     587.592E+03              0.    -718.257E+03
           41070    -2.50092E+06     604.966E+03              0.    -734.177E+03
           41071    -2.52126E+06     622.265E+03              0.    -750.639E+03
           41072    -2.54196E+06     639.497E+03              0.    -767.656E+03
           41073    -2.56304E+06     656.670E+03              0.    -785.245E+03
           41074    -2.58451E+06     673.792E+03              0.    -803.422E+03
           41075    -2.60637E+06     690.873E+03              0.    -822.202E+03
           41076    -2.62865E+06     707.919E+03              0.    -841.604E+03
           41077    -2.65135E+06     724.941E+03              0.    -861.645E+03
           41078    -2.67449E+06     741.946E+03              0.    -882.344E+03
           41079    -2.69808E+06     758.943E+03              0.    -903.720E+03
           41080    -2.72213E+06     775.942E+03              0.    -925.792E+03
           41081    -2.74667E+06     792.950E+03              0.    -948.581E+03
           41082    -2.77170E+06     809.977E+03              0.    -972.109E+03
           41083    -2.79724E+06     827.032E+03              0.    -996.397E+03
           41084    -2.82331E+06     844.123E+03              0.    -1.02147E+06
           41085    -2.84992E+06     861.262E+03              0.    -1.04735E+06
           41086    -2.87709E+06     878.456E+03              0.    -1.07406E+06
           41087    -2.90483E+06     895.715E+03              0.    -1.10162E+06
           41088    -2.93316E+06     913.050E+03              0.    -1.13007E+06
           41089    -2.96211E+06     930.469E+03              0.    -1.15942E+06
           41090    -2.99169E+06     947.984E+03              0.    -1.18972E+06
           41091    -3.02191E+06     965.604E+03              0.    -1.22097E+06
           41092    -3.05281E+06     983.339E+03              0.    -1.25323E+06
           41093    -3.08439E+06     1.00120E+06              0.    -1.28650E+06
           41094    -3.11668E+06     1.01920E+06              0.    -1.32083E+06
           41095    -3.14970E+06     1.03734E+06              0.    -1.35625E+06
           41096    -3.18348E+06     1.05565E+06              0.    -1.39279E+06
           41097    -3.21803E+06     1.07412E+06              0.    -1.43049E+06
           41098    -3.25338E+06     1.09278E+06              0.    -1.46937E+06
           41099    -3.28956E+06     1.11162E+06              0.    -1.50948E+06
           41100    -3.32658E+06     1.13068E+06              0.    -1.55086E+06
           41101    -3.36448E+06     1.14995E+06              0.    -1.59353E+06
           41102    -3.40329E+06     1.16945E+06              0.    -1.63754E+06
           41103    -3.44302E+06     1.18919E+06              0.    -1.68294E+06
           41104    -3.48371E+06     1.20918E+06              0.    -1.72975E+06
           41105    -3.52539E+06     1.22945E+06              0.    -1.77803E+06
           41106    -3.56808E+06     1.24999E+06              0.    -1.82782E+06
           41107    -3.61183E+06     1.27083E+06              0.    -1.87916E+06
           41108    -3.65665E+06     1.29198E+06              0.    -1.93209E+06
           41109    -3.70259E+06     1.31345E+06              0.    -1.98667E+06
           41110    -3.74969E+06     1.33525E+06              0.    -2.04294E+06
           41111    -3.79796E+06     1.35741E+06              0.    -2.10095E+06
           41112    -3.84746E+06     1.37994E+06              0.    -2.16076E+06
           41113    -3.89822E+06     1.40284E+06              0.    -2.22240E+06
           41114    -3.95027E+06     1.42614E+06              0.    -2.28594E+06
           41115    -4.00367E+06     1.44986E+06              0.    -2.35143E+06
           41116    -4.05845E+06     1.47400E+06              0.    -2.41892E+06
           41117    -4.11465E+06     1.49859E+06              0.    -2.48847E+06
           41118    -4.17232E+06     1.52364E+06              0.    -2.56014E+06
           41119    -4.23151E+06     1.54916E+06              0.    -2.63398E+06
           41120    -4.29226E+06     1.57519E+06              0.    -2.71005E+06
           41121    -4.35462E+06     1.60172E+06              0.    -2.78841E+06
           41122    -4.41865E+06     1.62878E+06              0.    -2.86913E+06
           41123    -4.48439E+06     1.65640E+06              0.    -2.95226E+06
           41124    -4.55190E+06     1.68457E+06              0.    -3.03787E+06
           41125    -4.62124E+06     1.71333E+06              0.    -3.12603E+06
           41126    -4.69246E+06     1.74270E+06              0.    -3.21679E+06
           41127    -4.76563E+06     1.77268E+06              0.    -3.31022E+06
           41128    -4.84080E+06     1.80331E+06              0.    -3.40639E+06
           41129    -4.91805E+06     1.83460E+06              0.    -3.50537E+06
           41130    -4.99742E+06     1.86656E+06              0.    -3.60722E+06
           41131    -5.07901E+06     1.89922E+06              0.    -3.71201E+06
           41132    -5.16287E+06     1.93261E+06              0.    -3.81981E+06
           41133    -5.24908E+06     1.96673E+06              0.    -3.93069E+06
           41134    -5.33772E+06     2.00161E+06              0.    -4.04472E+06
           41135    -5.42886E+06     2.03726E+06              0.    -4.16196E+06
           41136    -5.52259E+06     2.07372E+06              0.    -4.28248E+06
           41137    -5.61898E+06     2.11099E+06              0.    -4.40637E+06
           41138    -5.71813E+06     2.14911E+06              0.    -4.53367E+06
           41139    -5.82012E+06     2.18808E+06              0.    -4.66446E+06
           41140    -5.92506E+06     2.22793E+06              0.    -4.79881E+06
           41141    -6.03302E+06     2.26869E+06              0.    -4.93679E+06
           41142    -6.14413E+06     2.31036E+06              0.    -5.07846E+06
           41143    -6.25847E+06     2.35297E+06              0.    -5.22388E+06
           41144    -6.37616E+06     2.39653E+06              0.    -5.37312E+06
           41145    -6.49730E+06     2.44108E+06              0.    -5.52623E+06
           41146    -6.62201E+06     2.48662E+06              0.    -5.68329E+06
           41147    -6.75042E+06     2.53318E+06              0.    -5.84434E+06
           41148    -6.88263E+06     2.58077E+06              0.    -6.00944E+06
           41149    -7.01879E+06     2.62940E+06              0.    -6.17864E+06
           41150    -7.15903E+06     2.67911E+06              0.    -6.35199E+06
           41151    -7.30348E+06     2.72989E+06              0.    -6.52953E+06
           41152    -7.45228E+06     2.78178E+06              0.    -6.71131E+06
           41153    -7.60559E+06     2.83477E+06              0.    -6.89736E+06
           41154    -7.76356E+06     2.88889E+06              0.    -7.08771E+06
           41155    -7.92635E+06     2.94415E+06              0.    -7.28239E+06
           41156    -8.09414E+06     3.00055E+06              0.    -7.48142E+06
           41157    -8.26708E+06     3.05811E+06              0.    -7.68481E+06
           41158    -8.44537E+06     3.11683E+06              0.    -7.89258E+06
           41159    -8.62919E+06     3.17672E+06              0.    -8.10471E+06
           41160    -8.81874E+06     3.23779E+06              0.    -8.32122E+06
           41161    -9.01423E+06     3.30003E+06              0.    -8.54208E+06
           41162    -9.21586E+06     3.36345E+06              0.    -8.76726E+06
           41163    -9.42387E+06     3.42804E+06              0.    -8.99673E+06
           41164    -9.63848E+06     3.49379E+06              0.    -9.23045E+06
           41165    -9.85995E+06     3.56071E+06              0.    -9.46837E+06
           41166    -10.0885E+06     3.62877E+06              0.    -9.71040E+06
           41167    -10.3244E+06     3.69796E+06              0.    -9.95649E+06
           41168    -10.5680E+06     3.76827E+06              0.    -10.2065E+06
           41169    -10.8195E+06     3.83966E+06              0.    -10.4604E+06
           41170    -11.0793E+06     3.91211E+06              0.    -10.7180E+06
           41171    -11.3476E+06     3.98558E+06              0.    -10.9792E+06
           41172    -11.6249E+06     4.06004E+06              0.    -11.2439E+06
           41173    -11.9113E+06     4.13543E+06              0.    -11.5118E+06
           41174    -12.2074E+06     4.21171E+06              0.    -11.7828E+06
           41175    -12.5136E+06     4.28881E+06              0.    -12.0567E+06
           41176    -12.8301E+06     4.36666E+06              0.    -12.3332E+06
           41177    -13.1575E+06     4.44518E+06              0.    -12.6122E+06
           41178    -13.4961E+06     4.52428E+06              0.    -12.8933E+06
           41179    -13.8466E+06     4.60386E+06              0.    -13.1762E+06
           41180    -14.2093E+06     4.68379E+06              0.    -13.4608E+06
           41181    -14.5848E+06     4.76395E+06              0.    -13.7465E+06
           41182    -14.9736E+06     4.84418E+06              0.    -14.0332E+06
           41183    -15.3764E+06     4.92432E+06              0.    -14.3204E+06
           41184    -15.7937E+06     5.00417E+06              0.    -14.6077E+06
           41185    -16.2262E+06     5.08351E+06              0.    -14.8948E+06
           41186    -16.6745E+06     5.16210E+06              0.    -15.1812E+06
           41187    -17.1393E+06     5.23967E+06              0.    -15.4664E+06
           41188    -17.6214E+06     5.31588E+06              0.    -15.7499E+06
           41189    -18.1216E+06     5.39040E+06              0.    -16.0314E+06
           41190    -18.6406E+06     5.46280E+06              0.    -16.3102E+06
           41191    -19.1793E+06     5.53264E+06              0.    -16.5859E+06
           41192    -19.7385E+06     5.59937E+06              0.    -16.8579E+06
           41193    -20.3192E+06     5.66241E+06              0.    -17.1256E+06
           41194    -20.9223E+06     5.72107E+06              0.    -17.3886E+06
           41195    -21.5488E+06     5.77458E+06              0.    -17.6463E+06
           41196    -22.1996E+06     5.82204E+06              0.    -17.8980E+06
           41197    -22.8757E+06     5.86243E+06              0.    -18.1432E+06
           41198    -23.5782E+06     5.89460E+06              0.    -18.3815E+06
           41199    -24.3080E+06     5.91722E+06              0.    -18.6121E+06
           41200    -25.0663E+06     5.92875E+06              0.    -18.8345E+06
           41201    -25.8539E+06     5.92746E+06              0.    -19.0483E+06
           41202    -26.6718E+06     5.91135E+06              0.    -19.2528E+06
           41203    -27.5210E+06     5.87813E+06              0.    -19.4475E+06
           41204    -28.4022E+06     5.82520E+06              0.    -19.6320E+06
           41205    -29.3162E+06     5.74956E+06              0.    -19.8055E+06
           41206    -30.2636E+06     5.64782E+06              0.    -19.9677E+06
           41207    -31.2448E+06     5.51609E+06              0.    -20.1178E+06
           41208    -32.2602E+06     5.34995E+06              0.    -20.2554E+06
           41209    -33.3097E+06     5.14440E+06              0.    -20.3795E+06
           41210    -34.3930E+06     4.89377E+06              0.    -20.4895E+06
           41211    -35.5097E+06     4.59165E+06              0.    -20.5843E+06
           41212    -36.6588E+06     4.23086E+06              0.    -20.6626E+06
           41213    -37.8390E+06     3.80331E+06              0.    -20.7231E+06
           41214    -39.0485E+06     3.30003E+06              0.    -20.7638E+06
           41215    -40.2850E+06     2.71104E+06              0.    -20.7825E+06
           41216    -41.5457E+06     2.02530E+06              0.    -20.7762E+06
           41217    -42.8274E+06     1.23073E+06              0.    -20.7413E+06
           41218    -44.1260E+06     314.121E+03              0.    -20.6736E+06
           41219    -45.4370E+06    -738.801E+03              0.    -20.5675E+06
           41220    -46.7554E+06    -1.94342E+06              0.    -20.4167E+06
           41221    -48.0755E+06    -3.31613E+06              0.    -20.2133E+06
           41222    -49.3910E+06    -4.87430E+06              0.    -19.9482E+06
           41223    -50.6954E+06    -6.63615E+06              0.    -19.6106E+06
           41224    -51.9815E+06    -8.62064E+06              0.    -19.1880E+06
           41225    -53.2419E+06    -10.8474E+06              0.    -18.6661E+06
           41226    -54.4688E+06    -13.3364E+06              0.    -18.0284E+06
           41227    -55.6543E+06    -16.1080E+06              0.    -17.2565E+06
           41228    -56.7901E+06    -19.1828E+06              0.    -16.3298E+06
           41229    -57.8680E+06    -22.5813E+06              0.    -15.2255E+06
           41230    -59.4333E+06    -26.6853E+06              0.    -14.8543E+06
           41231    -1.68101E+06    -756.669E+03              0.    -432.116E+03
           41232    -1.67612E+06    -711.263E+03              0.    -431.321E+03
           41233    -1.69091E+06    -675.490E+03              0.    -426.770E+03
           41234    -1.70555E+06    -640.393E+03              0.    -422.660E+03
           41235    -1.72005E+06    -605.952E+03              0.    -418.979E+03
           41236    -1.73444E+06    -572.149E+03              0.    -415.715E+03
           41237    -1.74871E+06    -538.966E+03              0.    -412.857E+03
           41238    -1.76289E+06    -506.387E+03              0.    -410.396E+03
           41239    -1.77697E+06    -474.394E+03              0.    -408.322E+03
           41240    -1.79098E+06    -442.972E+03              0.    -406.627E+03
           41241    -1.80492E+06    -412.104E+03              0.    -405.302E+03
           41242    -1.81880E+06    -381.774E+03              0.    -404.341E+03
           41243    -1.83264E+06    -351.969E+03              0.    -403.735E+03
           41244    -1.84644E+06    -322.673E+03              0.    -403.480E+03
           41245    -1.86021E+06    -293.872E+03              0.    -403.570E+03
           41246    -1.87396E+06    -265.552E+03              0.    -403.999E+03
           41247    -1.88770E+06    -237.699E+03              0.    -404.762E+03
           41248    -1.90144E+06    -210.301E+03              0.    -405.857E+03
           41249    -1.91520E+06    -183.344E+03              0.    -407.279E+03
           41250    -1.92897E+06    -156.815E+03              0.    -409.025E+03
           41251    -1.94276E+06    -130.703E+03              0.    -411.093E+03
           41252    -1.95660E+06    -104.994E+03              0.    -413.481E+03
           41253    -1.97047E+06    -79.6781E+03              0.    -416.187E+03
           41254    -1.98441E+06    -54.7422E+03              0.    -419.209E+03
           41255    -1.99840E+06    -30.1753E+03              0.    -422.547E+03
           41256    -2.01246E+06    -5.96674E+03              0.    -426.201E+03
           41257    -2.02661E+06     17.8953E+03              0.    -430.171E+03
           41258    -2.04084E+06     41.4208E+03              0.    -434.457E+03
           41259    -2.05516E+06     64.6212E+03              0.    -439.061E+03
           41260    -2.06959E+06     87.5062E+03              0.    -443.983E+03
           41261    -2.08414E+06     110.086E+03              0.    -449.226E+03
           41262    -2.09880E+06     132.372E+03              0.    -454.791E+03
           41263    -2.11360E+06     154.372E+03              0.    -460.681E+03
           41264    -2.12853E+06     176.098E+03              0.    -466.899E+03
           41265    -2.14361E+06     197.558E+03              0.    -473.449E+03
           41266    -2.15885E+06     218.762E+03              0.    -480.335E+03
           41267    -2.17425E+06     239.720E+03              0.    -487.560E+03
           41268    -2.18983E+06     260.440E+03              0.    -495.129E+03
           41269    -2.20558E+06     280.933E+03              0.    -503.047E+03
           41270    -2.22153E+06     301.207E+03              0.    -511.320E+03
           41271    -2.23768E+06     321.271E+03              0.    -519.954E+03
           41272    -2.25403E+06     341.135E+03              0.    -528.954E+03
           41273    -2.27061E+06     360.807E+03              0.    -538.328E+03
           41274    -2.28741E+06     380.296E+03              0.    -548.083E+03
           41275    -2.30444E+06     399.611E+03              0.    -558.225E+03
           41276    -2.32173E+06      418.76E+03              0.    -568.764E+03
           41277    -2.33927E+06     437.753E+03              0.    -579.708E+03
           41278    -2.35708E+06     456.598E+03              0.    -591.065E+03
           41279    -2.37516E+06     475.304E+03              0.    -602.846E+03
           41280    -2.39353E+06     493.879E+03              0.    -615.058E+03
           41281    -2.41219E+06     512.332E+03              0.    -627.715E+03
           41282    -2.43117E+06     530.672E+03              0.    -640.825E+03
           41283    -2.45046E+06     548.907E+03              0.    -654.400E+03
           41284    -2.47008E+06     567.046E+03              0.    -668.452E+03
           41285    -2.49004E+06     585.098E+03              0.    -682.994E+03
           41286    -2.51036E+06     603.071E+03              0.    -698.038E+03
           41287    -2.53103E+06     620.974E+03              0.    -713.597E+03
           41288    -2.55209E+06     638.817E+03              0.    -729.686E+03
           41289    -2.57353E+06     656.607E+03              0.    -746.319E+03
           41290    -2.59537E+06     674.354E+03              0.    -763.510E+03
           41291    -2.61763E+06     692.066E+03              0.    -781.277E+03
           41292    -2.64032E+06     709.753E+03              0.    -799.635E+03
           41293    -2.66344E+06     727.424E+03              0.    -818.600E+03
           41294    -2.68702E+06     745.088E+03              0.    -838.191E+03
           41295    -2.71107E+06     762.754E+03              0.    -858.425E+03
           41296    -2.73561E+06     780.431E+03              0.    -879.321E+03
           41297    -2.76064E+06      798.13E+03              0.    -900.900E+03
           41298    -2.78619E+06     815.859E+03              0.    -923.179E+03
           41299    -2.81227E+06     833.628E+03              0.    -946.182E+03
           41300    -2.83890E+06     851.448E+03              0.    -969.928E+03
           41301    -2.86609E+06     869.327E+03              0.    -994.442E+03
           41302    -2.89387E+06     887.277E+03              0.    -1.01974E+06
           41303    -2.92224E+06     905.307E+03              0.    -1.04586E+06
           41304    -2.95123E+06     923.427E+03              0.    -1.07281E+06
           41305    -2.98086E+06     941.649E+03              0.    -1.10063E+06
           41306    -3.01115E+06     959.983E+03              0.    -1.12934E+06
           41307    -3.04211E+06     978.439E+03              0.    -1.15896E+06
           41308    -3.07377E+06     997.029E+03              0.    -1.18953E+06
           41309    -3.10614E+06     1.01576E+06              0.    -1.22107E+06
           41310    -3.13926E+06     1.03466E+06              0.    -1.25361E+06
           41311    -3.17314E+06     1.05372E+06              0.    -1.28719E+06
           41312    -3.20781E+06     1.07296E+06              0.    -1.32183E+06
           41313    -3.24329E+06     1.09239E+06              0.    -1.35756E+06
           41314    -3.27961E+06     1.11202E+06              0.    -1.39443E+06
           41315    -3.31678E+06     1.13187E+06              0.    -1.43246E+06
           41316    -3.35485E+06     1.15196E+06              0.    -1.47169E+06
           41317    -3.39383E+06     1.17228E+06              0.    -1.51216E+06
           41318    -3.43375E+06     1.19286E+06              0.    -1.55390E+06
           41319    -3.47465E+06     1.21370E+06              0.    -1.59695E+06
           41320    -3.51654E+06     1.23483E+06              0.    -1.64135E+06
           41321    -3.55947E+06     1.25626E+06              0.    -1.68714E+06
           41322    -3.60346E+06     1.27799E+06              0.    -1.73436E+06
           41323    -3.64855E+06     1.30005E+06              0.    -1.78306E+06
           41324    -3.69478E+06     1.32245E+06              0.    -1.83327E+06
           41325    -3.74217E+06     1.34521E+06              0.    -1.88505E+06
           41326    -3.79076E+06     1.36833E+06              0.    -1.93843E+06
           41327    -3.84059E+06     1.39184E+06              0.    -1.99347E+06
           41328    -3.89170E+06     1.41575E+06              0.    -2.05021E+06
           41329    -3.94412E+06     1.44007E+06              0.    -2.10871E+06
           41330    -3.99791E+06     1.46483E+06              0.    -2.16900E+06
           41331    -4.05309E+06     1.49003E+06              0.    -2.23114E+06
           41332    -4.10972E+06     1.51571E+06              0.    -2.29519E+06
           41333    -4.16784E+06     1.54186E+06              0.    -2.36120E+06
           41334    -4.22750E+06     1.56852E+06              0.    -2.42922E+06
           41335    -4.28874E+06     1.59569E+06              0.    -2.49930E+06
           41336    -4.35161E+06     1.62340E+06              0.    -2.57151E+06
           41337    -4.41617E+06     1.65167E+06              0.    -2.64590E+06
           41338    -4.48247E+06     1.68050E+06              0.    -2.72253E+06
           41339    -4.55056E+06     1.70993E+06              0.    -2.80145E+06
           41340    -4.62049E+06     1.73996E+06              0.    -2.88274E+06
           41341    -4.69233E+06     1.77063E+06              0.    -2.96644E+06
           41342    -4.76614E+06     1.80194E+06              0.    -3.05262E+06
           41343    -4.84198E+06     1.83392E+06              0.    -3.14135E+06
           41344    -4.91991E+06     1.86658E+06              0.    -3.23268E+06
           41345    -5.00000E+06     1.89996E+06              0.    -3.32668E+06
           41346    -5.08232E+06     1.93405E+06              0.    -3.42342E+06
           41347    -5.16693E+06     1.96890E+06              0.    -3.52296E+06
           41348    -5.25392E+06     2.00451E+06              0.    -3.62537E+06
           41349    -5.34335E+06     2.04091E+06              0.    -3.73071E+06
           41350    -5.43530E+06     2.07811E+06              0.    -3.83904E+06
           41351    -5.52985E+06     2.11614E+06              0.    -3.95044E+06
           41352    -5.62709E+06     2.15501E+06              0.    -4.06497E+06
           41353    -5.72710E+06     2.19475E+06              0.    -4.18269E+06
           41354    -5.82998E+06     2.23538E+06              0.    -4.30368E+06
           41355    -5.93580E+06     2.27692E+06              0.    -4.42799E+06
           41356    -6.04467E+06     2.31938E+06              0.    -4.55570E+06
           41357    -6.15668E+06     2.36278E+06              0.    -4.68686E+06
           41358    -6.27193E+06     2.40715E+06              0.    -4.82154E+06
           41359    -6.39054E+06     2.45251E+06              0.    -4.95980E+06
           41360    -6.51260E+06     2.49886E+06              0.    -5.10170E+06
           41361    -6.63823E+06     2.54623E+06              0.    -5.24730E+06
           41362    -6.76754E+06     2.59464E+06              0.    -5.39666E+06
           41363    -6.90065E+06     2.64411E+06              0.    -5.54983E+06
           41364    -7.03769E+06     2.69464E+06              0.    -5.70686E+06
           41365    -7.17878E+06     2.74625E+06              0.    -5.86781E+06
           41366    -7.32406E+06     2.79896E+06              0.    -6.03271E+06
           41367    -7.47366E+06     2.85278E+06              0.    -6.20162E+06
           41368    -7.62773E+06     2.90773E+06              0.    -6.37458E+06
           41369    -7.78641E+06     2.96381E+06              0.    -6.55160E+06
           41370    -7.94986E+06     3.02103E+06              0.    -6.73274E+06
           41371    -8.11823E+06     3.07941E+06              0.    -6.91801E+06
           41372    -8.29168E+06     3.13894E+06              0.    -7.10743E+06
           41373    -8.47040E+06     3.19963E+06              0.    -7.30102E+06
           41374    -8.65455E+06     3.26149E+06              0.    -7.49879E+06
           41375    -8.84431E+06     3.32451E+06              0.    -7.70073E+06
           41376    -9.03989E+06     3.38870E+06              0.    -7.90683E+06
           41377    -9.24148E+06     3.45405E+06              0.    -8.11709E+06
           41378    -9.44928E+06     3.52055E+06              0.    -8.33147E+06
           41379    -9.66351E+06     3.58819E+06              0.    -8.54995E+06
           41380    -9.88439E+06     3.65696E+06              0.    -8.77248E+06
           41381    -10.1122E+06     3.72685E+06              0.    -8.99900E+06
           41382    -10.3471E+06     3.79783E+06              0.    -9.22945E+06
           41383    -10.5894E+06     3.86988E+06              0.    -9.46375E+06
           41384    -10.8393E+06     3.94297E+06              0.    -9.70181E+06
           41385    -11.0972E+06     4.01706E+06              0.    -9.94352E+06
           41386    -11.3633E+06     4.09213E+06              0.    -10.1888E+06
           41387    -11.6379E+06     4.16811E+06              0.    -10.4374E+06
           41388    -11.9213E+06     4.24498E+06              0.    -10.6893E+06
           41389    -12.2139E+06     4.32266E+06              0.    -10.9443E+06
           41390    -12.5161E+06     4.40109E+06              0.    -11.2021E+06
           41391    -12.8281E+06     4.48020E+06              0.    -11.4627E+06
           41392    -13.1504E+06     4.55992E+06              0.    -11.7257E+06
           41393    -13.4833E+06     4.64014E+06              0.    -11.9910E+06
           41394    -13.8274E+06     4.72078E+06              0.    -12.2582E+06
           41395    -14.1830E+06     4.80171E+06              0.    -12.5271E+06
           41396    -14.5506E+06     4.88282E+06              0.    -12.7973E+06
           41397    -14.9307E+06     4.96396E+06              0.    -13.0686E+06
           41398    -15.3238E+06     5.04498E+06              0.    -13.3405E+06
           41399    -15.7305E+06     5.12571E+06              0.    -13.6128E+06
           41400    -16.1513E+06     5.20595E+06              0.    -13.8850E+06
           41401    -16.5869E+06     5.28550E+06              0.    -14.1567E+06
           41402    -17.0378E+06     5.36411E+06              0.    -14.4274E+06
           41403    -17.5048E+06     5.44152E+06              0.    -14.6967E+06
           41404    -17.9885E+06     5.51742E+06              0.    -14.9641E+06
           41405    -18.4897E+06     5.59150E+06              0.    -15.2292E+06
           41406    -19.0091E+06     5.66337E+06              0.    -15.4912E+06
           41407    -19.5476E+06     5.73261E+06              0.    -15.7498E+06
           41408    -20.1060E+06     5.79875E+06              0.    -16.0044E+06
           41409    -20.6852E+06     5.86125E+06              0.    -16.2543E+06
           41410    -21.2861E+06     5.91952E+06              0.    -16.4991E+06
           41411    -21.9096E+06     5.97285E+06              0.    -16.7381E+06
           41412    -22.5568E+06     6.02049E+06              0.    -16.9707E+06
           41413    -23.2287E+06     6.06155E+06              0.    -17.1963E+06
           41414    -23.9263E+06     6.09501E+06              0.    -17.4144E+06
           41415    -24.6507E+06     6.11973E+06              0.    -17.6244E+06
           41416    -25.4029E+06     6.13440E+06              0.    -17.8257E+06
           41417    -26.1841E+06     6.13753E+06              0.    -18.0177E+06
           41418    -26.9953E+06     6.12738E+06              0.    -18.1999E+06
           41419    -27.8375E+06     6.10201E+06              0.    -18.3719E+06
           41420    -28.7118E+06     6.05916E+06              0.    -18.5331E+06
           41421    -29.6191E+06     5.99624E+06              0.    -18.6830E+06
           41422    -30.5602E+06     5.91031E+06              0.    -18.8213E+06
           41423    -31.5360E+06     5.79797E+06              0.    -18.9475E+06
           41424    -32.5469E+06     5.65536E+06              0.    -19.0613E+06
           41425    -33.5934E+06     5.47806E+06              0.    -19.1621E+06
           41426    -34.6757E+06     5.26102E+06              0.    -19.2495E+06
           41427    -35.7935E+06     4.99850E+06              0.    -19.3231E+06
           41428    -36.9466E+06     4.68400E+06              0.    -19.3821E+06
           41429    -38.1340E+06     4.31015E+06              0.    -19.4258E+06
           41430    -39.3545E+06     3.86866E+06              0.    -19.4532E+06
           41431    -40.6064E+06     3.35020E+06              0.    -19.4630E+06
           41432    -41.8874E+06     2.74438E+06              0.    -19.4535E+06
           41433    -43.1946E+06     2.03964E+06              0.    -19.4223E+06
           41434    -44.5244E+06     1.22320E+06              0.    -19.3668E+06
           41435    -45.8727E+06     281.068E+03              0.    -19.2831E+06
           41436    -47.2347E+06    -802.022E+03              0.    -19.1668E+06
           41437    -48.6047E+06    -2.04259E+06              0.    -19.0121E+06
           41438    -49.9765E+06    -3.45833E+06              0.    -18.8119E+06
           41439    -51.3433E+06    -5.06810E+06              0.    -18.5579E+06
           41440    -52.6976E+06    -6.89175E+06              0.    -18.2400E+06
           41441    -54.0314E+06    -8.95001E+06              0.    -17.8462E+06
           41442    -55.3361E+06    -11.2644E+06              0.    -17.3628E+06
           41443    -56.6030E+06    -13.8569E+06              0.    -16.7739E+06
           41444    -57.8229E+06    -16.7501E+06              0.    -16.0614E+06
           41445    -58.9862E+06    -19.9665E+06              0.    -15.2052E+06
           41446    -60.0833E+06    -23.5290E+06              0.    -14.1826E+06
           41447    -61.7151E+06    -27.8349E+06              0.    -13.8296E+06
           41448    -1.69267E+06    -761.941E+03              0.    -417.129E+03
           41449    -1.68772E+06    -715.968E+03              0.    -416.362E+03
           41450    -1.70269E+06    -679.755E+03              0.    -411.963E+03
           41451    -1.71751E+06    -644.229E+03              0.    -407.992E+03
           41452    -1.73220E+06    -609.371E+03              0.    -404.439E+03
           41453    -1.74676E+06    -575.162E+03              0.    -401.291E+03
           41454    -1.76121E+06    -541.584E+03              0.    -398.538E+03
           41455    -1.77557E+06    -508.619E+03              0.    -396.170E+03
           41456    -1.78983E+06    -476.248E+03              0.    -394.179E+03
           41457    -1.80401E+06    -444.457E+03              0.    -392.555E+03
           41458    -1.81813E+06    -413.227E+03              0.    -391.292E+03
           41459    -1.83220E+06    -382.543E+03              0.    -390.381E+03
           41460    -1.84621E+06    -352.390E+03              0.    -389.817E+03
           41461    -1.86020E+06    -322.752E+03              0.    -389.593E+03
           41462    -1.87415E+06    -293.613E+03              0.    -389.704E+03
           41463    -1.88809E+06    -264.961E+03              0.    -390.144E+03
           41464    -1.90203E+06    -236.780E+03              0.     -390.91E+03
           41465    -1.91597E+06    -209.058E+03              0.    -391.997E+03
           41466    -1.92992E+06    -181.779E+03              0.    -393.403E+03
           41467    -1.94389E+06    -154.932E+03              0.    -395.124E+03
           41468    -1.95790E+06    -128.504E+03              0.    -397.157E+03
           41469    -1.97195E+06    -102.481E+03              0.    -399.501E+03
           41470    -1.98605E+06    -76.8515E+03              0.    -402.154E+03
           41471    -2.00020E+06    -51.6035E+03              0.    -405.115E+03
           41472    -2.01443E+06    -26.7251E+03              0.    -408.383E+03
           41473    -2.02873E+06    -2.20502E+03              0.    -411.958E+03
           41474    -2.04312E+06     21.9688E+03              0.    -415.840E+03
           41475    -2.05760E+06     45.8069E+03              0.    -420.030E+03
           41476    -2.07219E+06     69.3210E+03              0.    -424.528E+03
           41477    -2.08689E+06     92.5213E+03              0.    -429.337E+03
           41478    -2.10171E+06     115.419E+03              0.    -434.456E+03
           41479    -2.11666E+06     138.024E+03              0.    -439.890E+03
           41480    -2.13175E+06     160.347E+03              0.    -445.640E+03
           41481    -2.14699E+06     182.398E+03              0.    -451.710E+03
           41482    -2.16239E+06     204.187E+03              0.    -458.102E+03
           41483    -2.17795E+06     225.724E+03              0.    -464.821E+03
           41484    -2.19369E+06     247.020E+03              0.    -471.871E+03
           41485    -2.20961E+06     268.083E+03              0.    -479.255E+03
           41486    -2.22572E+06     288.923E+03              0.    -486.980E+03
           41487    -2.24204E+06     309.550E+03              0.    -495.050E+03
           41488    -2.25858E+06     329.974E+03              0.    -503.471E+03
           41489    -2.27533E+06     350.203E+03              0.    -512.250E+03
           41490    -2.29232E+06     370.248E+03              0.    -521.393E+03
           41491    -2.30955E+06     390.116E+03              0.    -530.906E+03
           41492    -2.32703E+06     409.819E+03              0.    -540.798E+03
           41493    -2.34477E+06     429.364E+03              0.    -551.076E+03
           41494    -2.36279E+06     448.761E+03              0.    -561.749E+03
           41495    -2.38108E+06     468.020E+03              0.    -572.824E+03
           41496    -2.39968E+06     487.148E+03              0.    -584.313E+03
           41497    -2.41857E+06     506.156E+03              0.    -596.223E+03
           41498    -2.43778E+06     525.053E+03              0.    -608.566E+03
           41499    -2.45732E+06     543.847E+03              0.    -621.351E+03
           41500    -2.47720E+06     562.548E+03              0.    -634.590E+03
           41501    -2.49743E+06     581.165E+03              0.    -648.294E+03
           41502    -2.51801E+06     599.707E+03              0.    -662.476E+03
           41503    -2.53898E+06     618.183E+03              0.    -677.148E+03
           41504    -2.56033E+06     636.604E+03              0.    -692.323E+03
           41505    -2.58208E+06     654.977E+03              0.    -708.014E+03
           41506    -2.60425E+06     673.313E+03              0.    -724.237E+03
           41507    -2.62684E+06     691.620E+03              0.    -741.005E+03
           41508    -2.64987E+06     709.909E+03              0.    -758.334E+03
           41509    -2.67336E+06     728.189E+03              0.    -776.240E+03
           41510    -2.69732E+06     746.470E+03              0.    -794.740E+03
           41511    -2.72176E+06     764.762E+03              0.    -813.849E+03
           41512    -2.74670E+06     783.073E+03              0.    -833.587E+03
           41513    -2.77216E+06     801.416E+03              0.    -853.972E+03
           41514    -2.79815E+06     819.799E+03              0.    -875.022E+03
           41515    -2.82469E+06     838.233E+03              0.    -896.757E+03
           41516    -2.85179E+06     856.728E+03              0.    -919.198E+03
           41517    -2.87948E+06     875.295E+03              0.    -942.366E+03
           41518    -2.90778E+06     893.944E+03              0.    -966.282E+03
           41519    -2.93669E+06     912.687E+03              0.    -990.969E+03
           41520    -2.96624E+06     931.534E+03              0.    -1.01645E+06
           41521    -2.99645E+06     950.496E+03              0.    -1.04275E+06
           41522    -3.02734E+06     969.585E+03              0.    -1.06989E+06
           41523    -3.05894E+06     988.812E+03              0.    -1.09790E+06
           41524    -3.09125E+06     1.00819E+06              0.    -1.12681E+06
           41525    -3.12431E+06     1.02773E+06              0.    -1.15664E+06
           41526    -3.15814E+06     1.04744E+06              0.    -1.18741E+06
           41527    -3.19276E+06     1.06734E+06              0.    -1.21917E+06
           41528     -3.2282E+06     1.08744E+06              0.    -1.25194E+06
           41529    -3.26448E+06     1.10775E+06              0.    -1.28574E+06
           41530    -3.30162E+06     1.12828E+06              0.    -1.32062E+06
           41531    -3.33966E+06     1.14905E+06              0.    -1.35660E+06
           41532    -3.37862E+06     1.17007E+06              0.    -1.39371E+06
           41533    -3.41853E+06     1.19136E+06              0.    -1.43200E+06
           41534    -3.45942E+06     1.21293E+06              0.    -1.47149E+06
           41535    -3.50132E+06     1.23478E+06              0.    -1.51223E+06
           41536    -3.54426E+06     1.25695E+06              0.    -1.55424E+06
           41537    -3.58827E+06     1.27943E+06              0.    -1.59758E+06
           41538    -3.63339E+06     1.30225E+06              0.    -1.64227E+06
           41539    -3.67964E+06     1.32543E+06              0.    -1.68836E+06
           41540    -3.72707E+06     1.34897E+06              0.    -1.73588E+06
           41541    -3.77572E+06     1.37289E+06              0.    -1.78489E+06
           41542    -3.82561E+06     1.39722E+06              0.    -1.83543E+06
           41543    -3.87679E+06     1.42195E+06              0.    -1.88753E+06
           41544    -3.92929E+06     1.44712E+06              0.    -1.94124E+06
           41545    -3.98317E+06     1.47274E+06              0.    -1.99662E+06
           41546    -4.03845E+06     1.49882E+06              0.    -2.05371E+06
           41547    -4.09520E+06     1.52539E+06              0.    -2.11255E+06
           41548    -4.15344E+06     1.55245E+06              0.    -2.17319E+06
           41549    -4.21323E+06     1.58004E+06              0.    -2.23570E+06
           41550    -4.27461E+06     1.60816E+06              0.    -2.30011E+06
           41551    -4.33764E+06     1.63683E+06              0.    -2.36649E+06
           41552    -4.40236E+06     1.66608E+06              0.    -2.43488E+06
           41553    -4.46883E+06     1.69592E+06              0.    -2.50534E+06
           41554    -4.53711E+06     1.72637E+06              0.    -2.57792E+06
           41555    -4.60724E+06     1.75745E+06              0.    -2.65268E+06
           41556    -4.67930E+06     1.78918E+06              0.    -2.72969E+06
           41557    -4.75333E+06     1.82158E+06              0.    -2.80899E+06
           41558    -4.82940E+06     1.85467E+06              0.    -2.89064E+06
           41559    -4.90757E+06     1.88847E+06              0.    -2.97472E+06
           41560    -4.98791E+06     1.92300E+06              0.    -3.06126E+06
           41561    -5.07049E+06     1.95827E+06              0.    -3.15035E+06
           41562    -5.15537E+06     1.99432E+06              0.    -3.24203E+06
           41563    -5.24263E+06     2.03116E+06              0.    -3.33638E+06
           41564    -5.33235E+06     2.06880E+06              0.    -3.43345E+06
           41565    -5.42459E+06     2.10728E+06              0.    -3.53330E+06
           41566    -5.51944E+06     2.14661E+06              0.    -3.63600E+06
           41567    -5.61699E+06     2.18681E+06              0.    -3.74162E+06
           41568    -5.71731E+06     2.22790E+06              0.    -3.85021E+06
           41569    -5.82049E+06     2.26991E+06              0.    -3.96185E+06
           41570    -5.92662E+06     2.31284E+06              0.    -4.07658E+06
           41571    -6.03580E+06     2.35673E+06              0.    -4.19448E+06
           41572    -6.14811E+06     2.40159E+06              0.    -4.31561E+06
           41573    -6.26367E+06     2.44743E+06              0.    -4.44003E+06
           41574    -6.38256E+06     2.49428E+06              0.    -4.56780E+06
           41575    -6.50491E+06     2.54216E+06              0.    -4.69897E+06
           41576    -6.63080E+06     2.59108E+06              0.    -4.83361E+06
           41577    -6.76036E+06     2.64106E+06              0.    -4.97178E+06
           41578    -6.89370E+06     2.69212E+06              0.    -5.11352E+06
           41579    -7.03095E+06     2.74427E+06              0.    -5.25889E+06
           41580    -7.17222E+06     2.79752E+06              0.    -5.40794E+06
           41581    -7.31764E+06     2.85189E+06              0.    -5.56073E+06
           41582    -7.46734E+06     2.90739E+06              0.    -5.71728E+06
           41583    -7.62146E+06     2.96403E+06              0.    -5.87766E+06
           41584    -7.78014E+06     3.02182E+06              0.    -6.04188E+06
           41585    -7.94352E+06     3.08077E+06              0.    -6.20999E+06
           41586    -8.11177E+06     3.14088E+06              0.    -6.38202E+06
           41587    -8.28502E+06     3.20217E+06              0.    -6.55799E+06
           41588    -8.46344E+06     3.26462E+06              0.    -6.73793E+06
           41589    -8.64720E+06     3.32825E+06              0.    -6.92183E+06
           41590    -8.83648E+06     3.39305E+06              0.    -7.10972E+06
           41591    -9.03144E+06     3.45901E+06              0.    -7.30158E+06
           41592    -9.23228E+06     3.52614E+06              0.    -7.49743E+06
           41593    -9.43919E+06     3.59441E+06              0.    -7.69723E+06
           41594    -9.65236E+06     3.66382E+06              0.    -7.90097E+06
           41595    -9.87201E+06     3.73435E+06              0.    -8.10861E+06
           41596    -10.0983E+06     3.80598E+06              0.    -8.32011E+06
           41597    -10.3316E+06     3.87869E+06              0.    -8.53542E+06
           41598    -10.5720E+06     3.95245E+06              0.    -8.75447E+06
           41599    -10.8198E+06     4.02723E+06              0.    -8.97719E+06
           41600    -11.0752E+06     4.10298E+06              0.    -9.20349E+06
           41601    -11.3385E+06     4.17968E+06              0.    -9.43326E+06
           41602    -11.6100E+06     4.25726E+06              0.    -9.66638E+06
           41603    -11.8900E+06     4.33568E+06              0.    -9.90273E+06
           41604    -12.1787E+06     4.41488E+06              0.    -10.1421E+06
           41605    -12.4766E+06     4.49478E+06              0.    -10.3845E+06
           41606    -12.7838E+06     4.57532E+06              0.    -10.6295E+06
           41607    -13.1007E+06     4.65641E+06              0.    -10.8771E+06
           41608    -13.4278E+06     4.73796E+06              0.    -11.1270E+06
           41609    -13.7653E+06     4.81988E+06              0.    -11.3789E+06
           41610    -14.1137E+06     4.90204E+06              0.    -11.6326E+06
           41611    -14.4734E+06     4.98433E+06              0.    -11.8879E+06
           41612    -14.8448E+06     5.06661E+06              0.    -12.1443E+06
           41613    -15.2284E+06     5.14874E+06              0.    -12.4016E+06
           41614    -15.6247E+06     5.23055E+06              0.    -12.6595E+06
           41615    -16.0341E+06     5.31187E+06              0.    -12.9175E+06
           41616    -16.4573E+06     5.39250E+06              0.    -13.1752E+06
           41617    -16.8947E+06     5.47223E+06              0.    -13.4322E+06
           41618    -17.3469E+06     5.55082E+06              0.    -13.6880E+06
           41619    -17.8147E+06     5.62801E+06              0.    -13.9423E+06
           41620    -18.2985E+06     5.70351E+06              0.    -14.1944E+06
           41621    -18.7993E+06     5.77701E+06              0.    -14.4439E+06
           41622    -19.3175E+06     5.84814E+06              0.    -14.6902E+06
           41623    -19.8541E+06     5.91653E+06              0.    -14.9328E+06
           41624    -20.4099E+06     5.98173E+06              0.    -15.1710E+06
           41625    -20.9856E+06     6.04326E+06              0.    -15.4043E+06
           41626    -21.5822E+06     6.10057E+06              0.    -15.6321E+06
           41627    -22.2006E+06     6.15306E+06              0.    -15.8537E+06
           41628    -22.8417E+06     6.20004E+06              0.    -16.0685E+06
           41629    -23.5067E+06     6.24074E+06              0.    -16.2758E+06
           41630    -24.1964E+06     6.27428E+06              0.    -16.4751E+06
           41631    -24.9121E+06     6.29967E+06              0.    -16.6658E+06
           41632    -25.6547E+06     6.31579E+06              0.    -16.8471E+06
           41633    -26.4256E+06     6.32135E+06              0.    -17.0186E+06
           41634    -27.2256E+06     6.31489E+06              0.    -17.1797E+06
           41635    -28.0562E+06     6.29474E+06              0.    -17.3298E+06
           41636    -28.9183E+06     6.25897E+06              0.    -17.4685E+06
           41637    -29.8130E+06     6.20540E+06              0.    -17.5953E+06
           41638    -30.7415E+06     6.13149E+06              0.    -17.7098E+06
           41639    -31.7047E+06     6.03436E+06              0.    -17.8117E+06
           41640    -32.7035E+06     5.91066E+06              0.    -17.9007E+06
           41641    -33.7387E+06     5.75659E+06              0.    -17.9766E+06
           41642    -34.8107E+06     5.56775E+06              0.    -18.0390E+06
           41643    -35.9200E+06     5.33913E+06              0.    -18.0879E+06
           41644    -37.0665E+06     5.06497E+06              0.    -18.1230E+06
           41645    -38.2500E+06     4.73873E+06              0.    -18.1441E+06
           41646    -39.4699E+06     4.35292E+06              0.    -18.1508E+06
           41647    -40.7249E+06     3.89910E+06              0.    -18.1427E+06
           41648    -42.0134E+06     3.36768E+06              0.    -18.1189E+06
           41649    -43.3331E+06     2.74790E+06              0.    -18.0785E+06
           41650    -44.6812E+06     2.02774E+06              0.    -18.0199E+06
           41651    -46.0540E+06     1.19381E+06              0.    -17.9411E+06
           41652    -47.4470E+06     231.308E+03              0.    -17.8392E+06
           41653    -48.8552E+06    -875.961E+03              0.    -17.7106E+06
           41654    -50.2725E+06    -2.14566E+06              0.    -17.5503E+06
           41655    -51.6922E+06    -3.59680E+06              0.    -17.3522E+06
           41656    -53.1066E+06    -5.24977E+06              0.    -17.1088E+06
           41657    -54.5076E+06    -7.12612E+06              0.    -16.8108E+06
           41658    -55.8861E+06    -9.24842E+06              0.    -16.4470E+06
           41659    -57.2326E+06    -11.6402E+06              0.    -16.0042E+06
           41660    -58.5371E+06    -14.3255E+06              0.    -15.4672E+06
           41661    -59.7891E+06    -17.3292E+06              0.    -14.8185E+06
           41662    -60.9780E+06    -20.6758E+06              0.    -14.0381E+06
           41663    -62.0925E+06    -24.3905E+06              0.    -13.1039E+06
           41664    -63.7865E+06    -28.8856E+06              0.    -12.7725E+06
           41665    -1.70394E+06    -767.036E+03              0.    -401.959E+03
           41666    -1.69893E+06    -720.514E+03              0.    -401.220E+03
           41667    -1.71408E+06    -683.872E+03              0.    -396.975E+03
           41668    -1.72908E+06    -647.930E+03              0.    -393.147E+03
           41669    -1.74394E+06    -612.667E+03              0.    -389.723E+03
           41670    -1.75868E+06    -578.064E+03              0.    -386.692E+03
           41671    -1.77330E+06    -544.102E+03              0.    -384.044E+03
           41672    -1.78782E+06    -510.762E+03              0.    -381.770E+03
           41673    -1.80226E+06    -478.026E+03              0.    -379.861E+03
           41674    -1.81662E+06    -445.875E+03              0.    -378.309E+03
           41675    -1.83091E+06    -414.295E+03              0.    -377.106E+03
           41676    -1.84515E+06    -383.267E+03              0.    -376.244E+03
           41677    -1.85935E+06    -352.776E+03              0.    -375.719E+03
           41678    -1.87351E+06    -322.805E+03              0.    -375.524E+03
           41679    -1.88764E+06    -293.339E+03              0.    -375.653E+03
           41680    -1.90177E+06    -264.365E+03              0.    -376.102E+03
           41681    -1.91589E+06    -235.865E+03              0.    -376.867E+03
           41682    -1.93002E+06    -207.828E+03              0.    -377.943E+03
           41683    -1.94417E+06    -180.237E+03              0.    -379.328E+03
           41684    -1.95834E+06    -153.081E+03              0.    -381.018E+03
           41685    -1.97255E+06    -126.346E+03              0.    -383.012E+03
           41686    -1.98681E+06    -100.017E+03              0.    -385.307E+03
           41687    -2.00112E+06    -74.0844E+03              0.    -387.902E+03
           41688    -2.01549E+06    -48.5334E+03              0.    -390.795E+03
           41689    -2.02994E+06    -23.3524E+03              0.    -393.987E+03
           41690    -2.04448E+06     1.47019E+03              0.    -397.476E+03
           41691    -2.05910E+06     25.9469E+03              0.    -401.264E+03
           41692    -2.07383E+06     50.0887E+03              0.    -405.350E+03
           41693    -2.08867E+06     73.9076E+03              0.    -409.735E+03
           41694    -2.10363E+06     97.4143E+03              0.    -414.421E+03
           41695    -2.11873E+06      120.62E+03              0.    -419.410E+03
           41696    -2.13395E+06     143.536E+03              0.    -424.704E+03
           41697    -2.14933E+06     166.172E+03              0.    -430.304E+03
           41698    -2.16487E+06     188.540E+03              0.    -436.215E+03
           41699    -2.18057E+06     210.649E+03              0.    -442.440E+03
           41700    -2.19645E+06     232.511E+03              0.    -448.981E+03
           41701    -2.21252E+06     254.134E+03              0.    -455.844E+03
           41702    -2.22878E+06     275.530E+03              0.    -463.032E+03
           41703    -2.24525E+06     296.709E+03              0.    -470.551E+03
           41704    -2.26193E+06     317.680E+03              0.    -478.406E+03
           41705    -2.27884E+06     338.453E+03              0.    -486.602E+03
           41706    -2.29598E+06     359.038E+03              0.    -495.145E+03
           41707    -2.31337E+06     379.445E+03              0.    -504.042E+03
           41708    -2.33101E+06     399.684E+03              0.    -513.300E+03
           41709    -2.34893E+06     419.764E+03              0.    -522.926E+03
           41710    -2.36712E+06     439.694E+03              0.    -532.927E+03
           41711    -2.38559E+06     459.485E+03              0.    -543.313E+03
           41712    -2.40437E+06     479.146E+03              0.    -554.090E+03
           41713    -2.42346E+06     498.687E+03              0.    -565.269E+03
           41714    -2.44287E+06     518.117E+03              0.    -576.858E+03
           41715    -2.46261E+06     537.445E+03              0.    -588.868E+03
           41716     -2.4827E+06     556.682E+03              0.    -601.309E+03
           41717    -2.50315E+06     575.837E+03              0.    -614.191E+03
           41718    -2.52397E+06     594.919E+03              0.    -627.527E+03
           41719    -2.54517E+06     613.939E+03              0.    -641.327E+03
           41720    -2.56676E+06     632.906E+03              0.    -655.604E+03
           41721    -2.58877E+06     651.831E+03              0.    -670.371E+03
           41722    -2.61120E+06     670.721E+03              0.    -685.641E+03
           41723    -2.63407E+06     689.589E+03              0.    -701.428E+03
           41724    -2.65740E+06     708.443E+03              0.    -717.747E+03
           41725    -2.68118E+06     727.294E+03              0.    -734.612E+03
           41726    -2.70545E+06     746.153E+03              0.    -752.038E+03
           41727    -2.73022E+06     765.028E+03              0.    -770.043E+03
           41728    -2.75550E+06     783.932E+03              0.    -788.642E+03
           41729    -2.78132E+06     802.873E+03              0.    -807.853E+03
           41730    -2.80768E+06     821.864E+03              0.    -827.694E+03
           41731    -2.83460E+06     840.915E+03              0.    -848.183E+03
           41732    -2.86210E+06     860.036E+03              0.    -869.339E+03
           41733    -2.89021E+06     879.239E+03              0.    -891.183E+03
           41734    -2.91893E+06     898.534E+03              0.    -913.735E+03
           41735    -2.94830E+06     917.935E+03              0.    -937.016E+03
           41736    -2.97832E+06     937.451E+03              0.    -961.048E+03
           41737    -3.00902E+06     957.095E+03              0.    -985.854E+03
           41738    -3.04043E+06     976.878E+03              0.    -1.01146E+06
           41739    -3.07255E+06     996.813E+03              0.    -1.03788E+06
           41740    -3.10542E+06     1.01691E+06              0.    -1.06515E+06
           41741    -3.13906E+06     1.03719E+06              0.    -1.09329E+06
           41742    -3.17348E+06     1.05765E+06              0.    -1.12233E+06
           41743    -3.20873E+06     1.07832E+06              0.    -1.15230E+06
           41744    -3.24481E+06     1.09920E+06              0.    -1.18322E+06
           41745    -3.28177E+06     1.12031E+06              0.    -1.21512E+06
           41746    -3.31961E+06     1.14166E+06              0.    -1.24804E+06
           41747    -3.35838E+06     1.16327E+06              0.    -1.28200E+06
           41748    -3.39810E+06     1.18515E+06              0.    -1.31703E+06
           41749    -3.43880E+06     1.20731E+06              0.    -1.35317E+06
           41750    -3.48051E+06     1.22977E+06              0.    -1.39045E+06
           41751    -3.52326E+06     1.25255E+06              0.    -1.42891E+06
           41752    -3.56709E+06     1.27565E+06              0.    -1.46857E+06
           41753    -3.61202E+06     1.29910E+06              0.    -1.50949E+06
           41754    -3.65809E+06     1.32291E+06              0.    -1.55168E+06
           41755    -3.70534E+06     1.34710E+06              0.    -1.59520E+06
           41756    -3.75380E+06     1.37167E+06              0.    -1.64008E+06
           41757    -3.80352E+06     1.39666E+06              0.    -1.68636E+06
           41758    -3.85452E+06     1.42207E+06              0.    -1.73408E+06
           41759    -3.90685E+06     1.44792E+06              0.    -1.78329E+06
           41760    -3.96055E+06     1.47423E+06              0.    -1.83402E+06
           41761    -4.01567E+06     1.50102E+06              0.    -1.88633E+06
           41762    -4.07224E+06     1.52830E+06              0.    -1.94025E+06
           41763    -4.13031E+06     1.55610E+06              0.    -1.99583E+06
           41764    -4.18993E+06     1.58443E+06              0.    -2.05312E+06
           41765    -4.25115E+06     1.61330E+06              0.    -2.11217E+06
           41766    -4.31402E+06     1.64275E+06              0.    -2.17303E+06
           41767    -4.37858E+06     1.67278E+06              0.    -2.23575E+06
           41768    -4.44489E+06     1.70342E+06              0.    -2.30037E+06
           41769    -4.51301E+06     1.73469E+06              0.    -2.36695E+06
           41770    -4.58299E+06     1.76660E+06              0.    -2.43554E+06
           41771    -4.65489E+06     1.79918E+06              0.    -2.50620E+06
           41772    -4.72876E+06     1.83245E+06              0.    -2.57898E+06
           41773    -4.80467E+06     1.86642E+06              0.    -2.65394E+06
           41774    -4.88269E+06     1.90112E+06              0.    -2.73113E+06
           41775    -4.96287E+06     1.93657E+06              0.    -2.81060E+06
           41776    -5.04529E+06     1.97278E+06              0.    -2.89243E+06
           41777    -5.13001E+06     2.00979E+06              0.    -2.97666E+06
           41778    -5.21711E+06     2.04760E+06              0.    -3.06335E+06
           41779    -5.30665E+06     2.08625E+06              0.    -3.15257E+06
           41780    -5.39873E+06     2.12575E+06              0.    -3.24436E+06
           41781    -5.49340E+06     2.16612E+06              0.    -3.33880E+06
           41782    -5.59076E+06     2.20738E+06              0.    -3.43595E+06
           41783    -5.69089E+06     2.24956E+06              0.    -3.53586E+06
           41784    -5.79387E+06     2.29267E+06              0.    -3.63859E+06
           41785    -5.89979E+06     2.33673E+06              0.    -3.74421E+06
           41786    -6.00874E+06     2.38177E+06              0.    -3.85277E+06
           41787    -6.12082E+06     2.42780E+06              0.    -3.96434E+06
           41788    -6.23612E+06     2.47485E+06              0.    -4.07897E+06
           41789    -6.35474E+06     2.52292E+06              0.    -4.19672E+06
           41790    -6.47679E+06     2.57204E+06              0.    -4.31766E+06
           41791    -6.60237E+06     2.62223E+06              0.    -4.44183E+06
           41792    -6.73158E+06     2.67351E+06              0.    -4.56930E+06
           41793    -6.86455E+06     2.72588E+06              0.    -4.70012E+06
           41794    -7.00138E+06     2.77936E+06              0.    -4.83434E+06
           41795    -7.14220E+06     2.83398E+06              0.    -4.97201E+06
           41796    -7.28713E+06     2.88973E+06              0.    -5.11318E+06
           41797    -7.43630E+06     2.94664E+06              0.    -5.25790E+06
           41798    -7.58983E+06     3.00471E+06              0.    -5.40621E+06
           41799    -7.74786E+06     3.06395E+06              0.    -5.55815E+06
           41800    -7.91054E+06     3.12437E+06              0.    -5.71376E+06
           41801    -8.07800E+06     3.18598E+06              0.    -5.87307E+06
           41802    -8.25039E+06     3.24877E+06              0.    -6.03610E+06
           41803    -8.42786E+06     3.31276E+06              0.    -6.20290E+06
           41804    -8.61058E+06     3.37793E+06              0.    -6.37346E+06
           41805    -8.79871E+06     3.44429E+06              0.    -6.54781E+06
           41806    -8.99241E+06     3.51183E+06              0.    -6.72595E+06
           41807    -9.19186E+06     3.58055E+06              0.    -6.90788E+06
           41808    -9.39723E+06     3.65042E+06              0.    -7.09361E+06
           41809    -9.60872E+06     3.72144E+06              0.    -7.28310E+06
           41810    -9.82652E+06     3.79359E+06              0.    -7.47635E+06
           41811    -10.0508E+06     3.86684E+06              0.    -7.67332E+06
           41812    -10.2818E+06     3.94118E+06              0.    -7.87397E+06
           41813    -10.5198E+06     4.01656E+06              0.    -8.07825E+06
           41814    -10.7649E+06     4.09296E+06              0.    -8.28609E+06
           41815    -11.0174E+06     4.17034E+06              0.    -8.49743E+06
           41816    -11.2775E+06     4.24865E+06              0.    -8.71217E+06
           41817    -11.5454E+06     4.32783E+06              0.    -8.93022E+06
           41818    -11.8215E+06     4.40784E+06              0.    -9.15146E+06
           41819    -12.1060E+06     4.48862E+06              0.    -9.37576E+06
           41820    -12.3992E+06     4.57008E+06              0.    -9.60298E+06
           41821    -12.7013E+06     4.65216E+06              0.    -9.83296E+06
           41822    -13.0127E+06     4.73476E+06              0.    -10.0655E+06
           41823    -13.3337E+06     4.81780E+06              0.    -10.3004E+06
           41824    -13.6646E+06     4.90118E+06              0.    -10.5375E+06
           41825    -14.0058E+06     4.98478E+06              0.    -10.7765E+06
           41826    -14.3577E+06     5.06848E+06              0.    -11.0172E+06
           41827    -14.7205E+06     5.15215E+06              0.    -11.2592E+06
           41828    -15.0948E+06     5.23564E+06              0.    -11.5024E+06
           41829    -15.4809E+06     5.31880E+06              0.    -11.7462E+06
           41830    -15.8794E+06     5.40145E+06              0.    -11.9905E+06
           41831    -16.2906E+06     5.48342E+06              0.    -12.2347E+06
           41832    -16.7150E+06     5.56449E+06              0.    -12.4786E+06
           41833    -17.1532E+06     5.64444E+06              0.    -12.7217E+06
           41834    -17.6057E+06     5.72304E+06              0.    -12.9634E+06
           41835    -18.0731E+06     5.80003E+06              0.    -13.2034E+06
           41836    -18.5560E+06     5.87512E+06              0.    -13.4412E+06
           41837    -19.0550E+06     5.94800E+06              0.    -13.6761E+06
           41838    -19.5709E+06     6.01833E+06              0.    -13.9076E+06
           41839    -20.1043E+06     6.08573E+06              0.    -14.1352E+06
           41840    -20.6559E+06     6.14980E+06              0.    -14.3583E+06
           41841    -21.2267E+06     6.21008E+06              0.    -14.5762E+06
           41842    -21.8173E+06     6.26607E+06              0.    -14.7882E+06
           41843    -22.4288E+06     6.31723E+06              0.    -14.9938E+06
           41844    -23.0620E+06     6.36293E+06              0.    -15.1922E+06
           41845    -23.7178E+06     6.40249E+06              0.    -15.3828E+06
           41846    -24.3974E+06     6.43514E+06              0.    -15.5648E+06
           41847    -25.1018E+06     6.46002E+06              0.    -15.7377E+06
           41848    -25.8321E+06     6.47616E+06              0.    -15.9008E+06
           41849    -26.5893E+06     6.48246E+06              0.    -16.0534E+06
           41850    -27.3748E+06     6.47766E+06              0.    -16.1949E+06
           41851    -28.1897E+06     6.46036E+06              0.    -16.3248E+06
           41852    -29.0351E+06     6.42893E+06              0.    -16.4424E+06
           41853    -29.9125E+06     6.38151E+06              0.    -16.5473E+06
           41854    -30.8228E+06     6.31600E+06              0.    -16.6392E+06
           41855    -31.7674E+06     6.22993E+06              0.    -16.7176E+06
           41856    -32.7473E+06     6.12051E+06              0.    -16.7822E+06
           41857    -33.7636E+06     5.98449E+06              0.    -16.8329E+06
           41858    -34.8172E+06     5.81815E+06              0.    -16.8696E+06
           41859    -35.9087E+06     5.61720E+06              0.    -16.8923E+06
           41860    -37.0388E+06     5.37667E+06              0.    -16.9010E+06
           41861    -38.2077E+06     5.09089E+06              0.    -16.8957E+06
           41862    -39.4153E+06     4.75330E+06              0.    -16.8767E+06
           41863    -40.6611E+06     4.35641E+06              0.    -16.8441E+06
           41864    -41.9441E+06     3.89168E+06              0.    -16.7978E+06
           41865    -43.2629E+06     3.34935E+06              0.    -16.7378E+06
           41866    -44.6152E+06     2.71839E+06              0.    -16.6638E+06
           41867    -45.9981E+06     1.98636E+06              0.    -16.5749E+06
           41868    -47.4080E+06     1.13932E+06              0.    -16.4701E+06
           41869    -48.8403E+06     161.755E+03              0.    -16.3473E+06
           41870    -50.2896E+06    -963.456E+03              0.    -16.2039E+06
           41871    -51.7495E+06    -2.25510E+06              0.    -16.0360E+06
           41872    -53.2127E+06    -3.73354E+06              0.    -15.8385E+06
           41873    -54.6710E+06    -5.42071E+06              0.    -15.6048E+06
           41874    -56.1151E+06    -7.33992E+06              0.    -15.3266E+06
           41875    -57.5353E+06    -9.51571E+06              0.    -14.9936E+06
           41876    -58.9209E+06    -11.9737E+06              0.    -14.5934E+06
           41877    -60.2606E+06    -14.7402E+06              0.    -14.1113E+06
           41878    -61.5428E+06    -17.8422E+06              0.    -13.5303E+06
           41879    -62.7553E+06    -21.3067E+06              0.    -12.8311E+06
           41880    -63.8858E+06    -25.1612E+06              0.    -11.9918E+06
           41881    -65.6376E+06    -29.8313E+06              0.    -11.6851E+06
           41882    -1.71481E+06    -771.951E+03              0.    -386.613E+03
           41883    -1.70974E+06    -724.896E+03              0.    -385.901E+03
           41884    -1.72506E+06    -687.839E+03              0.    -381.814E+03
           41885    -1.74023E+06    -651.494E+03              0.    -378.129E+03
           41886    -1.75527E+06    -615.839E+03              0.    -374.836E+03
           41887    -1.77017E+06    -580.855E+03              0.    -371.923E+03
           41888    -1.78496E+06    -546.520E+03              0.    -369.381E+03
           41889    -1.79965E+06    -512.817E+03              0.    -367.201E+03
           41890    -1.81426E+06    -479.726E+03              0.    -365.374E+03
           41891    -1.82878E+06    -447.229E+03              0.    -363.892E+03
           41892    -1.84325E+06    -415.309E+03              0.    -362.748E+03
           41893    -1.85765E+06    -383.947E+03              0.    -361.935E+03
           41894    -1.87202E+06    -353.129E+03              0.    -361.447E+03
           41895    -1.88635E+06    -322.836E+03              0.    -361.278E+03
           41896    -1.90067E+06    -293.053E+03              0.    -361.423E+03
           41897    -1.91497E+06    -263.766E+03              0.    -361.878E+03
           41898    -1.92927E+06    -234.958E+03              0.    -362.638E+03
           41899    -1.94359E+06    -206.615E+03              0.    -363.699E+03
           41900    -1.95792E+06    -178.723E+03              0.    -365.059E+03
           41901    -1.97229E+06    -151.267E+03              0.    -366.715E+03
           41902    -1.98670E+06    -124.234E+03              0.    -368.665E+03
           41903    -2.00116E+06    -97.6103E+03              0.    -370.906E+03
           41904    -2.01567E+06    -71.3828E+03              0.    -373.437E+03
           41905    -2.03026E+06    -45.5381E+03              0.    -376.257E+03
           41906    -2.04493E+06    -20.0639E+03              0.    -379.366E+03
           41907    -2.05969E+06     5.05195E+03              0.    -382.763E+03
           41908    -2.07455E+06     29.8223E+03              0.    -386.449E+03
           41909    -2.08952E+06     54.2584E+03              0.    -390.424E+03
           41910    -2.10460E+06     78.3729E+03              0.    -394.689E+03
           41911    -2.11982E+06     102.177E+03              0.    -399.245E+03
           41912    -2.13517E+06     125.681E+03              0.    -404.094E+03
           41913    -2.15067E+06     148.899E+03              0.    -409.238E+03
           41914    -2.16633E+06     171.839E+03              0.    -414.680E+03
           41915    -2.18215E+06     194.514E+03              0.    -420.423E+03
           41916    -2.19815E+06     216.934E+03              0.    -426.469E+03
           41917    -2.21434E+06     239.110E+03              0.    -432.823E+03
           41918    -2.23073E+06     261.052E+03              0.    -439.488E+03
           41919    -2.24732E+06     282.771E+03              0.    -446.469E+03
           41920    -2.26412E+06     304.278E+03              0.    -453.770E+03
           41921    -2.28116E+06     325.583E+03              0.    -461.397E+03
           41922    -2.29843E+06     346.695E+03              0.    -469.355E+03
           41923    -2.31596E+06     367.626E+03              0.    -477.650E+03
           41924    -2.33374E+06     388.386E+03              0.    -486.288E+03
           41925    -2.35179E+06     408.983E+03              0.    -495.276E+03
           41926    -2.37012E+06     429.430E+03              0.    -504.621E+03
           41927    -2.38874E+06     449.735E+03              0.    -514.330E+03
           41928    -2.40767E+06     469.908E+03              0.    -524.412E+03
           41929    -2.42691E+06     489.961E+03              0.    -534.875E+03
           41930    -2.44648E+06     509.902E+03              0.    -545.727E+03
           41931    -2.46639E+06     529.741E+03              0.    -556.977E+03
           41932    -2.48665E+06     549.490E+03              0.    -568.636E+03
           41933    -2.50728E+06     569.157E+03              0.    -580.714E+03
           41934    -2.52828E+06     588.753E+03              0.    -593.220E+03
           41935    -2.54967E+06     608.288E+03              0.    -606.166E+03
           41936    -2.57147E+06     627.773E+03              0.    -619.563E+03
           41937    -2.59368E+06     647.217E+03              0.    -633.424E+03
           41938    -2.61633E+06     666.631E+03              0.    -647.760E+03
           41939    -2.63942E+06     686.025E+03              0.    -662.585E+03
           41940    -2.66298E+06     705.410E+03              0.    -677.912E+03
           41941    -2.68701E+06     724.796E+03              0.    -693.756E+03
           41942    -2.71153E+06     744.193E+03              0.    -710.130E+03
           41943    -2.73657E+06     763.614E+03              0.    -727.050E+03
           41944    -2.76212E+06     783.069E+03              0.    -744.532E+03
           41945    -2.78822E+06     802.567E+03              0.    -762.591E+03
           41946    -2.81488E+06     822.122E+03              0.    -781.244E+03
           41947    -2.84212E+06     841.744E+03              0.    -800.510E+03
           41948    -2.86995E+06     861.444E+03              0.    -820.406E+03
           41949    -2.89839E+06     881.234E+03              0.    -840.951E+03
           41950    -2.92747E+06     901.125E+03              0.    -862.163E+03
           41951    -2.95720E+06     921.130E+03              0.    -884.063E+03
           41952    -2.98761E+06     941.261E+03              0.    -906.672E+03
           41953    -3.01871E+06     961.530E+03              0.    -930.011E+03
           41954    -3.05053E+06     981.950E+03              0.    -954.102E+03
           41955    -3.08309E+06     1.00253E+06              0.    -978.967E+03
           41956    -3.11642E+06     1.02329E+06              0.    -1.00463E+06
           41957    -3.15053E+06     1.04424E+06              0.    -1.03112E+06
           41958    -3.18545E+06     1.06539E+06              0.    -1.05845E+06
           41959    -3.22121E+06     1.08675E+06              0.    -1.08666E+06
           41960    -3.25783E+06     1.10835E+06              0.    -1.11576E+06
           41961    -3.29534E+06     1.13018E+06              0.    -1.14580E+06
           41962    -3.33377E+06     1.15228E+06              0.    -1.17678E+06
           41963    -3.37314E+06     1.17465E+06              0.    -1.20876E+06
           41964    -3.41349E+06     1.19730E+06              0.    -1.24174E+06
           41965    -3.45485E+06     1.22026E+06              0.    -1.27577E+06
           41966    -3.49724E+06     1.24353E+06              0.    -1.31088E+06
           41967    -3.54070E+06     1.26714E+06              0.    -1.34709E+06
           41968    -3.58526E+06     1.29109E+06              0.    -1.38445E+06
           41969    -3.63096E+06     1.31541E+06              0.    -1.42298E+06
           41970    -3.67783E+06     1.34010E+06              0.    -1.46272E+06
           41971    -3.72591E+06     1.36520E+06              0.    -1.50371E+06
           41972    -3.77524E+06     1.39071E+06              0.    -1.54599E+06
           41973    -3.82584E+06     1.41665E+06              0.    -1.58958E+06
           41974    -3.87778E+06     1.44304E+06              0.    -1.63454E+06
           41975    -3.93107E+06     1.46989E+06              0.    -1.68090E+06
           41976    -3.98578E+06     1.49723E+06              0.    -1.72870E+06
           41977    -4.04193E+06     1.52507E+06              0.    -1.77798E+06
           41978    -4.09958E+06     1.55344E+06              0.    -1.82879E+06
           41979    -4.15878E+06     1.58234E+06              0.    -1.88116E+06
           41980    -4.21956E+06      1.6118E+06              0.    -1.93515E+06
           41981    -4.28198E+06     1.64184E+06              0.    -1.99081E+06
           41982    -4.34610E+06     1.67248E+06              0.    -2.04816E+06
           41983    -4.41195E+06     1.70373E+06              0.    -2.10727E+06
           41984    -4.47960E+06     1.73562E+06              0.    -2.16818E+06
           41985    -4.54911E+06     1.76817E+06              0.    -2.23095E+06
           41986    -4.62052E+06     1.80140E+06              0.    -2.29561E+06
           41987    -4.69391E+06     1.83533E+06              0.    -2.36223E+06
           41988    -4.76932E+06     1.86998E+06              0.    -2.43085E+06
           41989    -4.84683E+06     1.90536E+06              0.    -2.50153E+06
           41990    -4.92649E+06     1.94151E+06              0.    -2.57431E+06
           41991    -5.00837E+06     1.97844E+06              0.    -2.64927E+06
           41992    -5.09255E+06     2.01618E+06              0.    -2.72644E+06
           41993    -5.17909E+06     2.05474E+06              0.    -2.80588E+06
           41994    -5.26807E+06     2.09415E+06              0.    -2.88765E+06
           41995    -5.35955E+06     2.13443E+06              0.    -2.97181E+06
           41996    -5.45363E+06     2.17560E+06              0.    -3.05842E+06
           41997    -5.55037E+06     2.21767E+06              0.    -3.14752E+06
           41998    -5.64986E+06     2.26068E+06              0.    -3.23919E+06
           41999    -5.75218E+06     2.30464E+06              0.    -3.33347E+06
           42000    -5.85742E+06     2.34958E+06              0.    -3.43042E+06
           42001    -5.96568E+06     2.39551E+06              0.    -3.53011E+06
           42002    -6.07703E+06     2.44245E+06              0.    -3.63258E+06
           42003    -6.19158E+06     2.49042E+06              0.    -3.73790E+06
           42004    -6.30942E+06     2.53945E+06              0.    -3.84613E+06
           42005    -6.43065E+06     2.58955E+06              0.    -3.95731E+06
           42006    -6.55538E+06     2.64073E+06              0.    -4.07151E+06
           42007    -6.68372E+06     2.69302E+06              0.    -4.18879E+06
           42008    -6.81576E+06     2.74644E+06              0.    -4.30918E+06
           42009    -6.95163E+06     2.80099E+06              0.    -4.43275E+06
           42010    -7.09144E+06     2.85669E+06              0.    -4.55955E+06
           42011    -7.23531E+06     2.91355E+06              0.    -4.68963E+06
           42012    -7.38336E+06     2.97159E+06              0.    -4.82302E+06
           42013    -7.53572E+06     3.03082E+06              0.    -4.95979E+06
           42014    -7.69252E+06     3.09125E+06              0.    -5.09997E+06
           42015    -7.85389E+06     3.15287E+06              0.    -5.24359E+06
           42016    -8.01996E+06     3.21571E+06              0.    -5.39070E+06
           42017    -8.19089E+06     3.27976E+06              0.    -5.54132E+06
           42018    -8.36682E+06     3.34503E+06              0.    -5.69549E+06
           42019    -8.54789E+06     3.41150E+06              0.    -5.85323E+06
           42020    -8.73427E+06     3.47919E+06              0.    -6.01455E+06
           42021    -8.92610E+06     3.54808E+06              0.    -6.17948E+06
           42022    -9.12357E+06     3.61817E+06              0.    -6.34802E+06
           42023    -9.32683E+06     3.68944E+06              0.    -6.52017E+06
           42024    -9.53605E+06     3.76188E+06              0.    -6.69592E+06
           42025    -9.75143E+06     3.83547E+06              0.    -6.87527E+06
           42026    -9.97315E+06     3.91018E+06              0.    -7.05819E+06
           42027    -10.2014E+06     3.98599E+06              0.    -7.24465E+06
           42028    -10.4364E+06     4.06287E+06              0.    -7.43462E+06
           42029    -10.6783E+06     4.14078E+06              0.    -7.62805E+06
           42030    -10.9273E+06     4.21969E+06              0.    -7.82488E+06
           42031    -11.1837E+06     4.29954E+06              0.    -8.02503E+06
           42032    -11.4477E+06     4.38028E+06              0.    -8.22843E+06
           42033    -11.7196E+06     4.46185E+06              0.    -8.43498E+06
           42034    -11.9994E+06      4.5442E+06              0.    -8.64457E+06
           42035    -12.2877E+06     4.62724E+06              0.    -8.85707E+06
           42036    -12.5845E+06     4.71091E+06              0.    -9.07235E+06
           42037    -12.8901E+06     4.79511E+06              0.    -9.29025E+06
           42038    -13.2049E+06     4.87974E+06              0.    -9.51060E+06
           42039    -13.5292E+06     4.96472E+06              0.    -9.73319E+06
           42040    -13.8631E+06     5.04991E+06              0.    -9.95783E+06
           42041    -14.2072E+06     5.13521E+06              0.    -10.1843E+06
           42042    -14.5616E+06     5.22048E+06              0.    -10.4123E+06
           42043    -14.9269E+06     5.30557E+06              0.    -10.6415E+06
           42044    -15.3032E+06     5.39032E+06              0.    -10.8718E+06
           42045    -15.6910E+06     5.47458E+06              0.    -11.1027E+06
           42046    -16.0908E+06     5.55815E+06              0.    -11.3339E+06
           42047    -16.5029E+06     5.64085E+06              0.     -11.565E+06
           42048    -16.9278E+06     5.72245E+06              0.    -11.7956E+06
           42049    -17.3659E+06     5.80274E+06              0.    -12.0254E+06
           42050    -17.8178E+06     5.88145E+06              0.    -12.2538E+06
           42051    -18.2840E+06     5.95833E+06              0.    -12.4803E+06
           42052    -18.7649E+06     6.03309E+06              0.    -12.7045E+06
           42053    -19.2614E+06     6.10542E+06              0.    -12.9257E+06
           42054    -19.7738E+06     6.17498E+06              0.    -13.1435E+06
           42055    -20.3029E+06     6.24140E+06              0.    -13.3572E+06
           42056    -20.8495E+06     6.30429E+06              0.    -13.5662E+06
           42057    -21.4141E+06     6.36322E+06              0.    -13.7699E+06
           42058    -21.9976E+06     6.41771E+06              0.    -13.9675E+06
           42059    -22.6008E+06     6.46725E+06              0.    -14.1585E+06
           42060    -23.2245E+06     6.51128E+06              0.    -14.3420E+06
           42061    -23.8698E+06     6.54917E+06              0.    -14.5174E+06
           42062    -24.5375E+06     6.58024E+06              0.    -14.6839E+06
           42063    -25.2286E+06     6.60373E+06              0.    -14.8409E+06
           42064    -25.9443E+06     6.61877E+06              0.    -14.9876E+06
           42065    -26.6856E+06     6.62443E+06              0.    -15.1232E+06
           42066    -27.4538E+06     6.61963E+06              0.    -15.2472E+06
           42067    -28.2499E+06     6.60317E+06              0.    -15.3587E+06
           42068    -29.0753E+06     6.57368E+06              0.    -15.4573E+06
           42069    -29.9312E+06     6.52960E+06              0.    -15.5424E+06
           42070    -30.8190E+06     6.46917E+06              0.    -15.6134E+06
           42071    -31.7399E+06     6.39035E+06              0.    -15.6700E+06
           42072    -32.6953E+06     6.29079E+06              0.    -15.7117E+06
           42073    -33.6863E+06     6.16782E+06              0.    -15.7385E+06
           42074    -34.7142E+06     6.01831E+06              0.    -15.7502E+06
           42075    -35.7800E+06     5.83868E+06              0.    -15.7467E+06
           42076    -36.8847E+06     5.62477E+06              0.    -15.7284E+06
           42077    -38.0291E+06     5.37175E+06              0.    -15.6953E+06
           42078    -39.2136E+06     5.07407E+06              0.    -15.6480E+06
           42079    -40.4383E+06     4.72526E+06              0.    -15.5870E+06
           42080    -41.7031E+06     4.31789E+06              0.    -15.5127E+06
           42081    -43.0071E+06     3.84342E+06              0.    -15.4258E+06
           42082    -44.3491E+06     3.29201E+06              0.    -15.3269E+06
           42083    -45.7271E+06     2.65245E+06              0.    -15.2163E+06
           42084    -47.1382E+06     1.91199E+06              0.    -15.0941E+06
           42085    -48.5788E+06     1.05622E+06              0.    -14.9601E+06
           42086    -50.0444E+06     68.9812E+03              0.    -14.8135E+06
           42087    -51.5291E+06    -1.06773E+06              0.    -14.6525E+06
           42088    -53.0265E+06    -2.37379E+06              0.    -14.4745E+06
           42089    -54.5285E+06    -3.87093E+06              0.    -14.2757E+06
           42090    -56.0264E+06    -5.58268E+06              0.    -14.0504E+06
           42091    -57.5101E+06    -7.53418E+06              0.    -13.7915E+06
           42092    -58.9688E+06    -9.75205E+06              0.    -13.4897E+06
           42093    -60.3908E+06    -12.2641E+06              0.    -13.1335E+06
           42094    -61.7635E+06    -15.0991E+06              0.    -12.7089E+06
           42095    -63.0739E+06    -18.2863E+06              0.    -12.1997E+06
           42096    -64.3082E+06    -21.8552E+06              0.    -11.5869E+06
           42097    -65.4523E+06    -25.8355E+06              0.    -10.8491E+06
           42098    -67.2561E+06    -30.6650E+06              0.    -10.5705E+06
           42099    -1.72527E+06    -776.683E+03              0.    -371.094E+03
           42100    -1.72015E+06    -729.113E+03              0.    -370.411E+03
           42101    -1.73564E+06    -691.655E+03              0.    -366.483E+03
           42102    -1.75098E+06    -654.920E+03              0.    -362.944E+03
           42103    -1.76617E+06    -618.886E+03              0.    -359.783E+03
           42104    -1.78124E+06    -583.533E+03              0.    -356.990E+03
           42105    -1.79620E+06    -548.838E+03              0.    -354.555E+03
           42106    -1.81105E+06    -514.784E+03              0.    -352.468E+03
           42107    -1.82581E+06    -481.350E+03              0.    -350.723E+03
           42108    -1.84050E+06    -448.518E+03              0.    -349.311E+03
           42109    -1.85513E+06    -416.269E+03              0.    -348.225E+03
           42110    -1.86970E+06    -384.585E+03              0.    -347.458E+03
           42111    -1.88423E+06    -353.450E+03              0.    -347.005E+03
           42112    -1.89873E+06    -322.846E+03              0.    -346.861E+03
           42113    -1.91321E+06    -292.757E+03              0.    -347.019E+03
           42114    -1.92769E+06    -263.168E+03              0.    -347.477E+03
           42115    -1.94217E+06    -234.062E+03              0.    -348.229E+03
           42116    -1.95666E+06    -205.424E+03              0.    -349.272E+03
           42117    -1.97118E+06    -177.240E+03              0.    -350.604E+03
           42118    -1.98573E+06    -149.495E+03              0.    -352.221E+03
           42119    -2.00033E+06    -122.174E+03              0.    -354.121E+03
           42120    -2.01499E+06    -95.2643E+03              0.    -356.303E+03
           42121    -2.02971E+06    -68.7521E+03              0.    -358.765E+03
           42122    -2.04450E+06    -42.6235E+03              0.    -361.507E+03
           42123    -2.05938E+06    -16.8657E+03              0.    -364.527E+03
           42124    -2.07436E+06     8.53372E+03              0.    -367.826E+03
           42125    -2.08944E+06     33.5880E+03              0.    -371.403E+03
           42126    -2.10464E+06     58.3089E+03              0.    -375.259E+03
           42127    -2.11997E+06     82.7093E+03              0.    -379.396E+03
           42128    -2.13543E+06     106.801E+03              0.    -383.814E+03
           42129    -2.15103E+06     130.595E+03              0.    -388.516E+03
           42130    -2.16679E+06     154.103E+03              0.    -393.503E+03
           42131    -2.18272E+06     177.338E+03              0.    -398.777E+03
           42132    -2.19883E+06     200.310E+03              0.    -404.342E+03
           42133    -2.21512E+06     223.031E+03              0.    -410.201E+03
           42134    -2.23160E+06     245.511E+03              0.    -416.357E+03
           42135    -2.24830E+06     267.762E+03              0.    -422.814E+03
           42136    -2.26521E+06     289.794E+03              0.    -429.576E+03
           42137    -2.28235E+06     311.619E+03              0.    -436.648E+03
           42138    -2.29972E+06     333.247E+03              0.    -444.035E+03
           42139    -2.31735E+06     354.688E+03              0.    -451.743E+03
           42140    -2.33524E+06     375.954E+03              0.    -459.776E+03
           42141    -2.35340E+06     397.055E+03              0.    -468.142E+03
           42142    -2.37184E+06     418.000E+03              0.    -476.846E+03
           42143    -2.39058E+06     438.802E+03              0.    -485.895E+03
           42144    -2.40963E+06     459.470E+03              0.    -495.298E+03
           42145    -2.42899E+06     480.015E+03              0.    -505.061E+03
           42146    -2.44868E+06     500.446E+03              0.    -515.192E+03
           42147    -2.46872E+06     520.775E+03              0.    -525.701E+03
           42148    -2.48912E+06     541.012E+03              0.    -536.596E+03
           42149    -2.50988E+06     561.168E+03              0.    -547.885E+03
           42150    -2.53102E+06     581.253E+03              0.    -559.581E+03
           42151    -2.55256E+06     601.277E+03              0.    -571.691E+03
           42152    -2.57452E+06     621.251E+03              0.    -584.228E+03
           42153    -2.59689E+06     641.186E+03              0.    -597.202E+03
           42154    -2.61970E+06     661.093E+03              0.    -610.624E+03
           42155    -2.64297E+06     680.982E+03              0.    -624.508E+03
           42156    -2.66671E+06     700.864E+03              0.    -638.865E+03
           42157    -2.69093E+06     720.751E+03              0.    -653.708E+03
           42158    -2.71565E+06     740.653E+03              0.    -669.052E+03
           42159    -2.74088E+06     760.581E+03              0.    -684.910E+03
           42160    -2.76666E+06     780.548E+03              0.    -701.297E+03
           42161    -2.79298E+06     800.564E+03              0.    -718.228E+03
           42162    -2.81987E+06     820.640E+03              0.    -735.719E+03
           42163    -2.84735E+06     840.789E+03              0.    -753.787E+03
           42164    -2.87543E+06     861.023E+03              0.    -772.447E+03
           42165    -2.90415E+06     881.354E+03              0.    -791.718E+03
           42166    -2.93350E+06     901.793E+03              0.    -811.618E+03
           42167    -2.96353E+06     922.353E+03              0.    -832.166E+03
           42168    -2.99424E+06     943.047E+03              0.    -853.380E+03
           42169    -3.02566E+06     963.887E+03              0.    -875.281E+03
           42170    -3.05781E+06     984.886E+03              0.    -897.890E+03
           42171    -3.09072E+06     1.00606E+06              0.    -921.227E+03
           42172    -3.12440E+06     1.02742E+06              0.    -945.316E+03
           42173    -3.15889E+06     1.04897E+06              0.    -970.178E+03
           42174    -3.19420E+06     1.07074E+06              0.    -995.837E+03
           42175    -3.23037E+06     1.09274E+06              0.    -1.02232E+06
           42176    -3.26742E+06     1.11498E+06              0.    -1.04964E+06
           42177    -3.30538E+06     1.13748E+06              0.    -1.07784E+06
           42178    -3.34428E+06     1.16024E+06              0.    -1.10694E+06
           42179    -3.38414E+06     1.18329E+06              0.    -1.13696E+06
           42180    -3.42499E+06     1.20665E+06              0.    -1.16794E+06
           42181    -3.46688E+06     1.23032E+06              0.    -1.19990E+06
           42182    -3.50982E+06     1.25432E+06              0.    -1.23287E+06
           42183    -3.55385E+06     1.27867E+06              0.    -1.26689E+06
           42184    -3.59901E+06     1.30338E+06              0.    -1.30198E+06
           42185    -3.64533E+06     1.32848E+06              0.    -1.33817E+06
           42186    -3.69285E+06     1.35397E+06              0.    -1.37551E+06
           42187    -3.74160E+06     1.37988E+06              0.    -1.41401E+06
           42188    -3.79163E+06     1.40623E+06              0.    -1.45373E+06
           42189    -3.84296E+06     1.43302E+06              0.    -1.49469E+06
           42190    -3.89565E+06     1.46029E+06              0.    -1.53693E+06
           42191    -3.94974E+06     1.48804E+06              0.    -1.58049E+06
           42192    -4.00526E+06     1.51629E+06              0.    -1.62541E+06
           42193    -4.06226E+06     1.54507E+06              0.    -1.67172E+06
           42194    -4.12080E+06     1.57440E+06              0.    -1.71947E+06
           42195    -4.18091E+06     1.60429E+06              0.    -1.76870E+06
           42196    -4.24265E+06     1.63476E+06              0.    -1.81945E+06
           42197    -4.30606E+06     1.66584E+06              0.    -1.87176E+06
           42198    -4.37120E+06     1.69754E+06              0.    -1.92568E+06
           42199    -4.43812E+06     1.72988E+06              0.    -1.98125E+06
           42200    -4.50687E+06     1.76289E+06              0.    -2.03851E+06
           42201    -4.57752E+06     1.79658E+06              0.    -2.09753E+06
           42202    -4.65012E+06     1.83098E+06              0.    -2.15833E+06
           42203    -4.72473E+06     1.86611E+06              0.    -2.22097E+06
           42204    -4.80142E+06     1.90199E+06              0.    -2.28550E+06
           42205    -4.88024E+06     1.93864E+06              0.    -2.35197E+06
           42206    -4.96126E+06     1.97608E+06              0.    -2.42043E+06
           42207    -5.04456E+06     2.01434E+06              0.    -2.49093E+06
           42208    -5.13019E+06     2.05343E+06              0.    -2.56352E+06
           42209    -5.21824E+06     2.09339E+06              0.    -2.63826E+06
           42210    -5.30878E+06     2.13422E+06              0.    -2.71520E+06
           42211    -5.40187E+06     2.17595E+06              0.    -2.79439E+06
           42212    -5.49761E+06     2.21861E+06              0.    -2.87588E+06
           42213    -5.59607E+06     2.26222E+06              0.    -2.95974E+06
           42214    -5.69733E+06     2.30679E+06              0.    -3.04601E+06
           42215    -5.80147E+06     2.35235E+06              0.    -3.13475E+06
           42216    -5.90860E+06     2.39892E+06              0.    -3.22602E+06
           42217    -6.01879E+06     2.44652E+06              0.    -3.31986E+06
           42218    -6.13214E+06     2.49517E+06              0.    -3.41635E+06
           42219    -6.24875E+06     2.54489E+06              0.    -3.51552E+06
           42220    -6.36871E+06     2.59570E+06              0.    -3.61744E+06
           42221    -6.49212E+06     2.64762E+06              0.    -3.72216E+06
           42222    -6.61909E+06     2.70066E+06              0.    -3.82972E+06
           42223    -6.74973E+06     2.75484E+06              0.    -3.94020E+06
           42224    -6.88413E+06     2.81019E+06              0.    -4.05363E+06
           42225    -7.02243E+06     2.86670E+06              0.    -4.17006E+06
           42226    -7.16472E+06     2.92441E+06              0.    -4.28955E+06
           42227    -7.31114E+06     2.98331E+06              0.    -4.41215E+06
           42228    -7.46179E+06     3.04343E+06              0.    -4.53789E+06
           42229    -7.61682E+06     3.10477E+06              0.    -4.66682E+06
           42230    -7.77634E+06     3.16733E+06              0.    -4.79898E+06
           42231    -7.94050E+06     3.23113E+06              0.    -4.93441E+06
           42232    -8.10942E+06     3.29617E+06              0.    -5.07314E+06
           42233    -8.28324E+06     3.36246E+06              0.    -5.21521E+06
           42234    -8.46212E+06     3.42998E+06              0.    -5.36065E+06
           42235    -8.64620E+06     3.49874E+06              0.    -5.50947E+06
           42236    -8.83562E+06     3.56874E+06              0.    -5.66170E+06
           42237    -9.03055E+06     3.63996E+06              0.    -5.81735E+06
           42238    -9.23115E+06     3.71240E+06              0.    -5.97643E+06
           42239    -9.43758E+06     3.78603E+06              0.    -6.13894E+06
           42240    -9.65001E+06     3.86085E+06              0.    -6.30488E+06
           42241    -9.86861E+06     3.93682E+06              0.    -6.47423E+06
           42242    -10.0936E+06     4.01392E+06              0.    -6.64699E+06
           42243    -10.3251E+06     4.09213E+06              0.    -6.82312E+06
           42244    -10.5633E+06     4.17139E+06              0.    -7.00259E+06
           42245    -10.8085E+06     4.25168E+06              0.    -7.18535E+06
           42246    -11.0608E+06     4.33295E+06              0.    -7.37134E+06
           42247    -11.3204E+06     4.41514E+06              0.    -7.56051E+06
           42248    -11.5876E+06     4.49820E+06              0.    -7.75277E+06
           42249    -11.8626E+06     4.58205E+06              0.    -7.94804E+06
           42250    -12.1456E+06     4.66664E+06              0.    -8.14620E+06
           42251    -12.4368E+06     4.75188E+06              0.    -8.34715E+06
           42252    -12.7365E+06     4.83768E+06              0.    -8.55074E+06
           42253    -13.0449E+06     4.92395E+06              0.    -8.75682E+06
           42254    -13.3624E+06     5.01059E+06              0.    -8.96524E+06
           42255    -13.6891E+06     5.09748E+06              0.    -9.17580E+06
           42256    -14.0254E+06     5.18449E+06              0.    -9.38830E+06
           42257    -14.3716E+06     5.27151E+06              0.    -9.60252E+06
           42258    -14.7279E+06     5.35837E+06              0.    -9.81820E+06
           42259    -15.0948E+06     5.44494E+06              0.    -10.0351E+06
           42260    -15.4724E+06     5.53103E+06              0.    -10.2529E+06
           42261    -15.8612E+06     5.61647E+06              0.    -10.4713E+06
           42262    -16.2616E+06     5.70107E+06              0.    -10.6899E+06
           42263    -16.6739E+06     5.78462E+06              0.    -10.9084E+06
           42264    -17.0985E+06     5.86690E+06              0.    -11.1264E+06
           42265    -17.5358E+06     5.94765E+06              0.    -11.3434E+06
           42266    -17.9864E+06     6.02663E+06              0.    -11.5591E+06
           42267    -18.4506E+06     6.10357E+06              0.    -11.7729E+06
           42268    -18.9290E+06     6.17816E+06              0.    -11.9842E+06
           42269    -19.4221E+06     6.25009E+06              0.    -12.1927E+06
           42270    -19.9304E+06     6.31901E+06              0.    -12.3976E+06
           42271    -20.4545E+06     6.38457E+06              0.    -12.5984E+06
           42272    -20.9951E+06     6.44637E+06              0.    -12.7945E+06
           42273    -21.5528E+06     6.50399E+06              0.    -12.9851E+06
           42274    -22.1283E+06     6.55697E+06              0.    -13.1697E+06
           42275    -22.7223E+06     6.60483E+06              0.    -13.3474E+06
           42276    -23.3357E+06     6.64702E+06              0.    -13.5176E+06
           42277    -23.9693E+06     6.68296E+06              0.    -13.6794E+06
           42278    -24.6239E+06     6.71204E+06              0.    -13.8322E+06
           42279    -25.3005E+06     6.73355E+06              0.    -13.9750E+06
           42280    -26.0001E+06     6.74673E+06              0.    -14.1073E+06
           42281    -26.7238E+06     6.75075E+06              0.    -14.2281E+06
           42282    -27.4727E+06     6.74468E+06              0.    -14.3367E+06
           42283    -28.2479E+06     6.72748E+06              0.    -14.4323E+06
           42284    -29.0507E+06     6.69799E+06              0.    -14.5142E+06
           42285    -29.8823E+06      6.6549E+06              0.    -14.5819E+06
           42286    -30.7441E+06     6.59673E+06              0.    -14.6345E+06
           42287    -31.6374E+06     6.52179E+06              0.    -14.6717E+06
           42288    -32.5637E+06     6.42817E+06              0.    -14.6930E+06
           42289    -33.5243E+06     6.31364E+06              0.    -14.6980E+06
           42290    -34.5206E+06     6.17567E+06              0.    -14.6867E+06
           42291    -35.5539E+06     6.01129E+06              0.    -14.6588E+06
           42292    -36.6256E+06     5.81710E+06              0.    -14.6145E+06
           42293    -37.7367E+06     5.58912E+06              0.    -14.5542E+06
           42294    -38.8883E+06     5.32273E+06              0.    -14.4782E+06
           42295    -40.0811E+06     5.01256E+06              0.    -14.3874E+06
           42296    -41.3156E+06     4.65232E+06              0.    -14.2824E+06
           42297    -42.5918E+06     4.23475E+06              0.    -14.1644E+06
           42298    -43.9092E+06     3.75138E+06              0.    -14.0344E+06
           42299    -45.2668E+06     3.19242E+06              0.    -13.8938E+06
           42300    -46.6629E+06     2.54660E+06              0.    -13.7435E+06
           42301    -48.0948E+06     1.80096E+06              0.    -13.5848E+06
           42302    -49.5591E+06     940.753E+03              0.    -13.4183E+06
           42303    -51.0511E+06    -50.7637E+03              0.    -13.2444E+06
           42304    -52.5651E+06    -1.19238E+06              0.    -13.0627E+06
           42305    -54.0941E+06    -2.50503E+06              0.    -12.8717E+06
           42306    -55.6299E+06    -4.01180E+06              0.    -12.6689E+06
           42307    -57.1629E+06    -5.73785E+06              0.    -12.4502E+06
           42308    -58.6823E+06    -7.71029E+06              0.    -12.2096E+06
           42309    -60.1763E+06    -9.95788E+06              0.    -11.9390E+06
           42310    -61.6320E+06    -12.5109E+06              0.    -11.6279E+06
           42311    -63.0354E+06    -15.4005E+06              0.    -11.2633E+06
           42312    -64.3722E+06    -18.6588E+06              0.    -10.8294E+06
           42313    -65.6274E+06    -22.3177E+06              0.    -10.3081E+06
           42314    -66.7853E+06    -26.4092E+06              0.    -9.67806E+06
           42315    -68.6373E+06    -31.3832E+06              0.    -9.43081E+06
           42316    -1.73533E+06    -781.229E+03              0.    -355.411E+03
           42317    -1.73015E+06    -733.162E+03              0.    -354.756E+03
           42318    -1.74580E+06    -695.317E+03              0.    -350.990E+03
           42319    -1.76130E+06    -658.206E+03              0.    -347.599E+03
           42320    -1.77665E+06    -621.807E+03              0.    -344.572E+03
           42321    -1.79188E+06    -586.097E+03              0.    -341.898E+03
           42322    -1.80699E+06    -551.056E+03              0.    -339.570E+03
           42323    -1.82200E+06    -516.664E+03              0.    -337.577E+03
           42324    -1.83692E+06    -482.899E+03              0.    -335.914E+03
           42325    -1.85176E+06    -449.743E+03              0.    -334.570E+03
           42326    -1.86654E+06    -417.177E+03              0.    -333.541E+03
           42327    -1.88127E+06    -385.183E+03              0.    -332.820E+03
           42328    -1.89596E+06    -353.743E+03              0.    -332.401E+03
           42329    -1.91063E+06    -322.839E+03              0.    -332.279E+03
           42330    -1.92528E+06    -292.455E+03              0.    -332.448E+03
           42331    -1.93992E+06    -262.574E+03              0.    -332.905E+03
           42332    -1.95457E+06    -233.180E+03              0.    -333.646E+03
           42333    -1.96923E+06    -204.259E+03              0.    -334.668E+03
           42334    -1.98393E+06    -175.793E+03              0.    -335.967E+03
           42335    -1.99866E+06    -147.768E+03              0.    -337.541E+03
           42336    -2.01344E+06    -120.170E+03              0.    -339.388E+03
           42337    -2.02829E+06    -92.9846E+03              0.    -341.506E+03
           42338    -2.04320E+06    -66.1977E+03              0.    -343.894E+03
           42339    -2.05819E+06    -39.7952E+03              0.    -346.552E+03
           42340    -2.07328E+06    -13.7638E+03              0.    -349.477E+03
           42341    -2.08847E+06     11.9091E+03              0.    -352.671E+03
           42342    -2.10377E+06     37.2374E+03              0.    -356.133E+03
           42343    -2.11919E+06     62.2331E+03              0.    -359.865E+03
           42344    -2.13475E+06     86.9093E+03              0.    -363.866E+03
           42345    -2.15044E+06     111.278E+03              0.    -368.139E+03
           42346    -2.16629E+06     135.351E+03              0.    -372.685E+03
           42347    -2.18231E+06     159.142E+03              0.    -377.506E+03
           42348    -2.19850E+06     182.660E+03              0.    -382.604E+03
           42349    -2.21487E+06     205.919E+03              0.    -387.982E+03
           42350    -2.23144E+06     228.930E+03              0.    -393.644E+03
           42351    -2.24822E+06     251.705E+03              0.    -399.592E+03
           42352    -2.26521E+06     274.254E+03              0.    -405.830E+03
           42353    -2.28243E+06     296.588E+03              0.    -412.363E+03
           42354    -2.29989E+06     318.720E+03              0.    -419.195E+03
           42355    -2.31760E+06     340.660E+03              0.    -426.331E+03
           42356    -2.33557E+06     362.419E+03              0.    -433.776E+03
           42357    -2.35381E+06     384.009E+03              0.    -441.536E+03
           42358    -2.37234E+06     405.439E+03              0.    -449.616E+03
           42359    -2.39116E+06     426.721E+03              0.    -458.022E+03
           42360    -2.41029E+06     447.866E+03              0.    -466.763E+03
           42361    -2.42975E+06     468.885E+03              0.    -475.844E+03
           42362    -2.44953E+06     489.788E+03              0.    -485.273E+03
           42363    -2.46966E+06     510.586E+03              0.    -495.058E+03
           42364    -2.49015E+06     531.291E+03              0.    -505.207E+03
           42365    -2.51102E+06     551.912E+03              0.    -515.728E+03
           42366    -2.53226E+06     572.462E+03              0.    -526.632E+03
           42367    -2.55391E+06     592.950E+03              0.    -537.927E+03
           42368    -2.57598E+06     613.388E+03              0.    -549.623E+03
           42369    -2.59847E+06     633.787E+03              0.    -561.731E+03
           42370    -2.62140E+06     654.158E+03              0.    -574.261E+03
           42371    -2.64479E+06     674.513E+03              0.    -587.225E+03
           42372    -2.66866E+06     694.862E+03              0.    -600.634E+03
           42373    -2.69302E+06     715.216E+03              0.    -614.501E+03
           42374    -2.71788E+06     735.589E+03              0.    -628.838E+03
           42375    -2.74327E+06     755.990E+03              0.    -643.658E+03
           42376    -2.76920E+06     776.432E+03              0.    -658.975E+03
           42377    -2.79568E+06     796.927E+03              0.    -674.804E+03
           42378    -2.82275E+06     817.486E+03              0.    -691.158E+03
           42379    -2.85041E+06     838.122E+03              0.    -708.054E+03
           42380    -2.87868E+06     858.847E+03              0.    -725.506E+03
           42381    -2.90759E+06     879.673E+03              0.    -743.532E+03
           42382    -2.93715E+06     900.614E+03              0.    -762.148E+03
           42383    -2.96739E+06     921.681E+03              0.    -781.372E+03
           42384    -2.99833E+06     942.888E+03              0.    -801.222E+03
           42385    -3.02999E+06     964.249E+03              0.    -821.716E+03
           42386    -3.06239E+06     985.775E+03              0.    -842.875E+03
           42387    -3.09556E+06     1.00748E+06              0.    -864.717E+03
           42388    -3.12952E+06     1.02938E+06              0.    -887.264E+03
           42389    -3.16429E+06     1.05149E+06              0.    -910.537E+03
           42390    -3.19990E+06     1.07382E+06              0.    -934.558E+03
           42391    -3.23638E+06     1.09639E+06              0.    -959.350E+03
           42392    -3.27376E+06     1.11921E+06              0.    -984.935E+03
           42393    -3.31206E+06     1.14229E+06              0.    -1.01134E+06
           42394    -3.35131E+06     1.16566E+06              0.    -1.03859E+06
           42395    -3.39155E+06     1.18933E+06              0.     -1.0667E+06
           42396    -3.43279E+06     1.21330E+06              0.    -1.09571E+06
           42397    -3.47508E+06     1.23761E+06              0.    -1.12564E+06
           42398    -3.51845E+06     1.26226E+06              0.    -1.15652E+06
           42399    -3.56293E+06     1.28727E+06              0.    -1.18838E+06
           42400    -3.60855E+06     1.31267E+06              0.    -1.22125E+06
           42401    -3.65536E+06     1.33846E+06              0.    -1.25516E+06
           42402    -3.70338E+06     1.36466E+06              0.    -1.29013E+06
           42403    -3.75266E+06     1.39129E+06              0.    -1.32621E+06
           42404    -3.80323E+06     1.41838E+06              0.    -1.36342E+06
           42405    -3.85514E+06     1.44593E+06              0.    -1.40180E+06
           42406    -3.90842E+06     1.47397E+06              0.    -1.44138E+06
           42407    -3.96312E+06     1.50251E+06              0.    -1.48220E+06
           42408    -4.01929E+06     1.53158E+06              0.    -1.52429E+06
           42409    -4.07697E+06     1.56119E+06              0.    -1.56769E+06
           42410    -4.13620E+06     1.59137E+06              0.    -1.61245E+06
           42411    -4.19704E+06     1.62213E+06              0.    -1.65859E+06
           42412    -4.25953E+06     1.65350E+06              0.    -1.70615E+06
           42413    -4.32372E+06     1.68549E+06              0.    -1.75519E+06
           42414    -4.38968E+06     1.71812E+06              0.    -1.80573E+06
           42415    -4.45744E+06     1.75143E+06              0.    -1.85783E+06
           42416    -4.52708E+06     1.78542E+06              0.    -1.91152E+06
           42417    -4.59864E+06     1.82013E+06              0.    -1.96685E+06
           42418    -4.67218E+06     1.85556E+06              0.    -2.02386E+06
           42419    -4.74778E+06     1.89175E+06              0.    -2.08261E+06
           42420    -4.82548E+06     1.92872E+06              0.    -2.14313E+06
           42421    -4.90535E+06     1.96648E+06              0.    -2.20547E+06
           42422    -4.98747E+06     2.00506E+06              0.    -2.26968E+06
           42423    -5.07190E+06     2.04449E+06              0.    -2.33581E+06
           42424    -5.15870E+06     2.08478E+06              0.    -2.40391E+06
           42425    -5.24796E+06     2.12596E+06              0.    -2.47403E+06
           42426    -5.33975E+06     2.16806E+06              0.    -2.54622E+06
           42427    -5.43414E+06     2.21108E+06              0.    -2.62052E+06
           42428    -5.53122E+06     2.25506E+06              0.    -2.69700E+06
           42429    -5.63106E+06     2.30002E+06              0.    -2.77570E+06
           42430    -5.73375E+06     2.34598E+06              0.    -2.85667E+06
           42431    -5.83937E+06     2.39295E+06              0.    -2.93997E+06
           42432    -5.94802E+06     2.44097E+06              0.    -3.02565E+06
           42433    -6.05978E+06     2.49006E+06              0.    -3.11376E+06
           42434    -6.17475E+06     2.54023E+06              0.    -3.20436E+06
           42435    -6.29302E+06     2.59150E+06              0.    -3.29749E+06
           42436    -6.41470E+06     2.64390E+06              0.    -3.39321E+06
           42437    -6.53987E+06     2.69744E+06              0.    -3.49157E+06
           42438    -6.66866E+06     2.75214E+06              0.    -3.59262E+06
           42439    -6.80116E+06     2.80801E+06              0.    -3.69641E+06
           42440    -6.93748E+06     2.86508E+06              0.    -3.80299E+06
           42441    -7.07774E+06     2.92336E+06              0.    -3.91240E+06
           42442    -7.22205E+06     2.98286E+06              0.    -4.02471E+06
           42443    -7.37054E+06     3.04359E+06              0.    -4.13994E+06
           42444    -7.52331E+06     3.10557E+06              0.    -4.25815E+06
           42445    -7.68050E+06     3.16881E+06              0.    -4.37937E+06
           42446    -7.84224E+06     3.23330E+06              0.    -4.50365E+06
           42447    -8.00865E+06     3.29907E+06              0.    -4.63102E+06
           42448    -8.17988E+06     3.36610E+06              0.    -4.76152E+06
           42449    -8.35606E+06     3.43441E+06              0.    -4.89517E+06
           42450    -8.53733E+06     3.50399E+06              0.    -5.03201E+06
           42451    -8.72384E+06     3.57483E+06              0.    -5.17206E+06
           42452    -8.91573E+06     3.64693E+06              0.    -5.31534E+06
           42453    -9.11317E+06     3.72028E+06              0.    -5.46186E+06
           42454    -9.31630E+06     3.79487E+06              0.    -5.61163E+06
           42455    -9.52529E+06     3.87067E+06              0.    -5.76466E+06
           42456    -9.74031E+06     3.94768E+06              0.    -5.92095E+06
           42457    -9.96152E+06     4.02585E+06              0.    -6.08048E+06
           42458    -10.1891E+06     4.10517E+06              0.    -6.24324E+06
           42459    -10.4232E+06     4.18559E+06              0.    -6.40921E+06
           42460    -10.6641E+06     4.26708E+06              0.    -6.57835E+06
           42461    -10.9118E+06     4.34959E+06              0.    -6.75062E+06
           42462    -11.1667E+06     4.43307E+06              0.    -6.92598E+06
           42463    -11.4289E+06     4.51747E+06              0.    -7.10436E+06
           42464    -11.6986E+06     4.60272E+06              0.    -7.28568E+06
           42465    -11.9761E+06     4.68875E+06              0.    -7.46987E+06
           42466    -12.2614E+06     4.77548E+06              0.    -7.65683E+06
           42467    -12.5550E+06     4.86283E+06              0.    -7.84644E+06
           42468    -12.8569E+06     4.95070E+06              0.    -8.03858E+06
           42469    -13.1675E+06     5.03899E+06              0.    -8.23311E+06
           42470    -13.4869E+06     5.12759E+06              0.    -8.42986E+06
           42471    -13.8155E+06     5.21637E+06              0.    -8.62867E+06
           42472    -14.1534E+06     5.30521E+06              0.    -8.82932E+06
           42473    -14.5010E+06     5.39396E+06              0.    -9.03163E+06
           42474    -14.8586E+06     5.48247E+06              0.    -9.23533E+06
           42475    -15.2264E+06     5.57057E+06              0.    -9.44018E+06
           42476    -15.6047E+06     5.65808E+06              0.    -9.64590E+06
           42477    -15.9939E+06     5.74482E+06              0.    -9.85217E+06
           42478    -16.3942E+06     5.83057E+06              0.    -10.0587E+06
           42479    -16.8061E+06     5.91511E+06              0.    -10.2650E+06
           42480    -17.2298E+06     5.99821E+06              0.    -10.4709E+06
           42481    -17.6658E+06     6.07962E+06              0.    -10.6758E+06
           42482    -18.1145E+06     6.15907E+06              0.    -10.8793E+06
           42483    -18.5762E+06     6.23626E+06              0.    -11.0810E+06
           42484    -19.0515E+06     6.31090E+06              0.    -11.2803E+06
           42485    -19.5407E+06     6.38266E+06              0.    -11.4767E+06
           42486    -20.0443E+06     6.45118E+06              0.    -11.6697E+06
           42487    -20.5629E+06     6.51610E+06              0.    -11.8585E+06
           42488    -21.0971E+06     6.57702E+06              0.    -12.0427E+06
           42489    -21.6473E+06     6.63352E+06              0.    -12.2214E+06
           42490    -22.2143E+06     6.68514E+06              0.    -12.3941E+06
           42491    -22.7986E+06     6.73140E+06              0.    -12.5599E+06
           42492    -23.4010E+06     6.77180E+06              0.    -12.7181E+06
           42493    -24.0222E+06     6.80576E+06              0.    -12.8680E+06
           42494    -24.6631E+06     6.83269E+06              0.    -13.0086E+06
           42495    -25.3244E+06     6.85196E+06              0.    -13.1393E+06
           42496    -26.0071E+06     6.86285E+06              0.    -13.2591E+06
           42497    -26.7122E+06     6.86462E+06              0.    -13.3671E+06
           42498    -27.4406E+06     6.85643E+06              0.    -13.4627E+06
           42499    -28.1935E+06     6.83738E+06              0.    -13.5448E+06
           42500    -28.9720E+06     6.80645E+06              0.    -13.6127E+06
           42501    -29.7774E+06     6.76253E+06              0.    -13.6657E+06
           42502    -30.6109E+06     6.70438E+06              0.    -13.7029E+06
           42503    -31.4739E+06     6.63058E+06              0.    -13.7237E+06
           42504    -32.3679E+06     6.53957E+06              0.    -13.7275E+06
           42505    -33.2942E+06     6.42953E+06              0.    -13.7139E+06
           42506    -34.2543E+06     6.29839E+06              0.    -13.6824E+06
           42507    -35.2499E+06     6.14379E+06              0.    -13.6329E+06
           42508    -36.2823E+06     5.96294E+06              0.    -13.5654E+06
           42509    -37.3531E+06     5.75267E+06              0.    -13.4800E+06
           42510    -38.4636E+06     5.50924E+06              0.    -13.3771E+06
           42511    -39.6150E+06     5.22828E+06              0.    -13.2573E+06
           42512    -40.8084E+06     4.90468E+06              0.    -13.1217E+06
           42513    -42.0446E+06     4.53244E+06              0.    -12.9712E+06
           42514    -43.3240E+06     4.10452E+06              0.    -12.8075E+06
           42515    -44.6465E+06     3.61270E+06              0.    -12.6321E+06
           42516    -46.0113E+06     3.04735E+06              0.    -12.4469E+06
           42517    -47.4172E+06     2.39726E+06              0.    -12.2540E+06
           42518    -48.8618E+06     1.64942E+06              0.    -12.0553E+06
           42519    -50.3419E+06     788.853E+03              0.    -11.8527E+06
           42520    -51.8529E+06    -201.610E+03              0.    -11.6478E+06
           42521    -53.3892E+06    -1.34145E+06              0.    -11.4415E+06
           42522    -54.9435E+06    -2.65262E+06              0.    -11.2340E+06
           42523    -56.5073E+06    -4.15950E+06              0.    -11.0242E+06
           42524    -58.0705E+06    -5.88895E+06              0.    -10.8095E+06
           42525    -59.6215E+06    -7.87010E+06              0.    -10.5856E+06
           42526    -61.1473E+06    -10.1341E+06              0.    -10.3455E+06
           42527    -62.6338E+06    -12.7137E+06              0.    -10.0801E+06
           42528    -64.0658E+06    -15.6431E+06              0.    -9.77731E+06
           42529    -65.4275E+06    -18.9569E+06              0.    -9.42217E+06
           42530    -66.7023E+06    -22.6901E+06              0.    -8.99683E+06
           42531    -67.8734E+06    -26.8772E+06              0.    -8.48058E+06
           42532    -69.7687E+06    -31.9789E+06              0.    -8.26695E+06
           42533    -1.74496E+06    -785.586E+03              0.    -339.568E+03
           42534    -1.73973E+06    -737.040E+03              0.    -338.941E+03
           42535    -1.75554E+06    -698.823E+03              0.    -335.340E+03
           42536    -1.77119E+06    -661.350E+03              0.    -332.098E+03
           42537    -1.78670E+06    -624.599E+03              0.    -329.206E+03
           42538    -1.80207E+06    -588.548E+03              0.    -326.653E+03
           42539    -1.81733E+06    -553.173E+03              0.    -324.432E+03
           42540    -1.83249E+06    -518.455E+03              0.    -322.534E+03
           42541    -1.84756E+06    -484.372E+03              0.    -320.952E+03
           42542    -1.86256E+06    -450.905E+03              0.    -319.677E+03
           42543    -1.87749E+06    -418.035E+03              0.    -318.704E+03
           42544    -1.89237E+06    -385.742E+03              0.    -318.027E+03
           42545    -1.90722E+06    -354.008E+03              0.    -317.639E+03
           42546    -1.92204E+06    -322.816E+03              0.    -317.537E+03
           42547    -1.93684E+06    -292.148E+03              0.    -317.715E+03
           42548    -1.95164E+06    -261.987E+03              0.    -318.169E+03
           42549    -1.96646E+06    -232.317E+03              0.    -318.896E+03
           42550    -1.98129E+06    -203.121E+03              0.    -319.893E+03
           42551    -1.99615E+06    -174.384E+03              0.    -321.156E+03
           42552    -2.01106E+06    -146.091E+03              0.    -322.683E+03
           42553    -2.02602E+06    -118.227E+03              0.    -324.472E+03
           42554    -2.04105E+06    -90.7760E+03              0.    -326.522E+03
           42555    -2.05615E+06    -63.7249E+03              0.    -328.831E+03
           42556    -2.07133E+06    -37.0589E+03              0.    -331.398E+03
           42557    -2.08662E+06    -10.7644E+03              0.    -334.224E+03
           42558    -2.10201E+06     15.1718E+03              0.    -337.307E+03
           42559    -2.11751E+06     40.7637E+03              0.    -340.648E+03
           42560    -2.13315E+06     66.0238E+03              0.    -344.247E+03
           42561    -2.14893E+06     90.9655E+03              0.    -348.107E+03
           42562    -2.16486E+06     115.601E+03              0.    -352.227E+03
           42563    -2.18094E+06     139.943E+03              0.    -356.609E+03
           42564    -2.19720E+06     164.005E+03              0.    -361.256E+03
           42565    -2.21364E+06     187.797E+03              0.    -366.170E+03
           42566    -2.23028E+06     211.332E+03              0.    -371.352E+03
           42567    -2.24712E+06     234.623E+03              0.    -376.808E+03
           42568    -2.26417E+06     257.680E+03              0.    -382.538E+03
           42569    -2.28145E+06     280.516E+03              0.    -388.549E+03
           42570    -2.29897E+06     303.142E+03              0.    -394.842E+03
           42571    -2.31674E+06     325.570E+03              0.    -401.423E+03
           42572    -2.33477E+06     347.811E+03              0.    -408.296E+03
           42573    -2.35307E+06     369.876E+03              0.    -415.467E+03
           42574    -2.37165E+06     391.778E+03              0.    -422.940E+03
           42575    -2.39053E+06     413.526E+03              0.    -430.722E+03
           42576    -2.40972E+06     435.132E+03              0.    -438.819E+03
           42577    -2.42923E+06     456.608E+03              0.    -447.236E+03
           42578    -2.44908E+06     477.965E+03              0.    -455.982E+03
           42579    -2.46927E+06     499.214E+03              0.    -465.062E+03
           42580    -2.48983E+06     520.366E+03              0.    -474.485E+03
           42581    -2.51075E+06     541.432E+03              0.    -484.259E+03
           42582    -2.53207E+06     562.424E+03              0.    -494.392E+03
           42583    -2.55379E+06     583.354E+03              0.    -504.892E+03
           42584    -2.57592E+06     604.231E+03              0.    -515.770E+03
           42585    -2.59849E+06     625.069E+03              0.    -527.034E+03
           42586    -2.62150E+06     645.878E+03              0.    -538.694E+03
           42587    -2.64497E+06     666.669E+03              0.    -550.761E+03
           42588    -2.66893E+06     687.456E+03              0.    -563.246E+03
           42589    -2.69337E+06     708.248E+03              0.    -576.160E+03
           42590    -2.71833E+06     729.059E+03              0.    -589.515E+03
           42591    -2.74381E+06     749.900E+03              0.    -603.323E+03
           42592    -2.76984E+06     770.783E+03              0.    -617.596E+03
           42593    -2.79644E+06     791.720E+03              0.    -632.349E+03
           42594    -2.82362E+06     812.725E+03              0.    -647.594E+03
           42595    -2.85140E+06     833.809E+03              0.    -663.346E+03
           42596    -2.87980E+06     854.984E+03              0.    -679.620E+03
           42597    -2.90884E+06     876.265E+03              0.    -696.430E+03
           42598    -2.93854E+06     897.663E+03              0.    -713.793E+03
           42599    -2.96893E+06     919.193E+03              0.    -731.724E+03
           42600    -3.00002E+06     940.867E+03              0.    -750.242E+03
           42601    -3.03184E+06     962.699E+03              0.    -769.363E+03
           42602    -3.06441E+06     984.702E+03              0.    -789.105E+03
           42603    -3.09776E+06     1.00689E+06              0.    -809.487E+03
           42604    -3.13191E+06     1.02928E+06              0.    -830.528E+03
           42605    -3.16688E+06     1.05189E+06              0.    -852.249E+03
           42606    -3.20270E+06     1.07472E+06              0.    -874.669E+03
           42607    -3.23941E+06     1.09780E+06              0.     -897.81E+03
           42608    -3.27701E+06     1.12113E+06              0.    -921.694E+03
           42609    -3.31556E+06     1.14474E+06              0.    -946.343E+03
           42610    -3.35506E+06     1.16865E+06              0.    -971.781E+03
           42611    -3.39556E+06     1.19286E+06              0.    -998.031E+03
           42612    -3.43709E+06     1.21739E+06              0.    -1.02512E+06
           42613    -3.47967E+06     1.24226E+06              0.    -1.05307E+06
           42614    -3.52335E+06     1.26748E+06              0.    -1.08191E+06
           42615    -3.56815E+06     1.29308E+06              0.    -1.11166E+06
           42616    -3.61411E+06     1.31907E+06              0.    -1.14236E+06
           42617    -3.66127E+06     1.34547E+06              0.    -1.17402E+06
           42618    -3.70966E+06     1.37230E+06              0.    -1.20669E+06
           42619    -3.75932E+06     1.39957E+06              0.    -1.24039E+06
           42620    -3.81030E+06     1.42730E+06              0.    -1.27515E+06
           42621    -3.86263E+06     1.45552E+06              0.    -1.31100E+06
           42622    -3.91635E+06     1.48424E+06              0.    -1.34798E+06
           42623    -3.97151E+06     1.51347E+06              0.    -1.38612E+06
           42624    -4.02816E+06     1.54325E+06              0.    -1.42545E+06
           42625    -4.08634E+06     1.57359E+06              0.    -1.46600E+06
           42626    -4.14609E+06     1.60451E+06              0.    -1.50782E+06
           42627    -4.20748E+06     1.63604E+06              0.    -1.55094E+06
           42628    -4.27053E+06     1.66818E+06              0.    -1.59539E+06
           42629    -4.33532E+06     1.70097E+06              0.    -1.64122E+06
           42630    -4.40189E+06     1.73443E+06              0.    -1.68847E+06
           42631    -4.47029E+06     1.76857E+06              0.    -1.73716E+06
           42632    -4.54059E+06     1.80342E+06              0.    -1.78735E+06
           42633    -4.61284E+06     1.83901E+06              0.    -1.83908E+06
           42634    -4.68711E+06     1.87535E+06              0.    -1.89238E+06
           42635    -4.76345E+06     1.91246E+06              0.    -1.94731E+06
           42636    -4.84192E+06     1.95037E+06              0.    -2.00389E+06
           42637    -4.92261E+06     1.98911E+06              0.    -2.06219E+06
           42638    -5.00556E+06     2.02869E+06              0.    -2.12224E+06
           42639    -5.09085E+06     2.06914E+06              0.    -2.18409E+06
           42640    -5.17856E+06     2.11048E+06              0.    -2.24779E+06
           42641    -5.26875E+06     2.15273E+06              0.    -2.31338E+06
           42642    -5.36150E+06     2.19592E+06              0.    -2.38091E+06
           42643    -5.45689E+06     2.24007E+06              0.    -2.45043E+06
           42644    -5.55500E+06     2.28521E+06              0.    -2.52199E+06
           42645    -5.65590E+06     2.33135E+06              0.    -2.59563E+06
           42646    -5.75970E+06     2.37852E+06              0.    -2.67141E+06
           42647    -5.86646E+06     2.42674E+06              0.    -2.74938E+06
           42648    -5.97629E+06     2.47603E+06              0.    -2.82958E+06
           42649    -6.08927E+06     2.52642E+06              0.    -2.91206E+06
           42650    -6.20549E+06     2.57792E+06              0.    -2.99688E+06
           42651    -6.32506E+06     2.63056E+06              0.    -3.08408E+06
           42652    -6.44807E+06     2.68435E+06              0.    -3.17372E+06
           42653    -6.57462E+06     2.73932E+06              0.    -3.26583E+06
           42654    -6.70481E+06     2.79548E+06              0.    -3.36048E+06
           42655    -6.83877E+06     2.85285E+06              0.    -3.45771E+06
           42656    -6.97658E+06     2.91144E+06              0.    -3.55757E+06
           42657    -7.11838E+06     2.97128E+06              0.    -3.66009E+06
           42658    -7.26426E+06     3.03237E+06              0.    -3.76534E+06
           42659    -7.41435E+06     3.09473E+06              0.    -3.87335E+06
           42660    -7.56878E+06     3.15837E+06              0.    -3.98416E+06
           42661    -7.72766E+06     3.22329E+06              0.    -4.09781E+06
           42662    -7.89112E+06     3.28951E+06              0.    -4.21434E+06
           42663    -8.05930E+06     3.35703E+06              0.    -4.33380E+06
           42664    -8.23233E+06     3.42585E+06              0.    -4.45620E+06
           42665    -8.41034E+06     3.49597E+06              0.    -4.58159E+06
           42666    -8.59347E+06     3.56739E+06              0.    -4.70998E+06
           42667    -8.78188E+06     3.64011E+06              0.    -4.84141E+06
           42668    -8.97569E+06     3.71411E+06              0.    -4.97589E+06
           42669    -9.17507E+06     3.78939E+06              0.    -5.11343E+06
           42670    -9.38017E+06     3.86593E+06              0.    -5.25406E+06
           42671    -9.59115E+06     3.94371E+06              0.    -5.39777E+06
           42672    -9.80817E+06     4.02271E+06              0.    -5.54456E+06
           42673    -10.0314E+06     4.10290E+06              0.    -5.69444E+06
           42674    -10.2610E+06     4.18425E+06              0.    -5.84737E+06
           42675    -10.4971E+06     4.26672E+06              0.    -6.00335E+06
           42676    -10.7400E+06     4.35026E+06              0.    -6.16235E+06
           42677    -10.9897E+06     4.43484E+06              0.    -6.32432E+06
           42678    -11.2466E+06     4.52039E+06              0.    -6.48922E+06
           42679    -11.5107E+06     4.60686E+06              0.    -6.65700E+06
           42680    -11.7823E+06     4.69417E+06              0.    -6.82759E+06
           42681    -12.0615E+06     4.78226E+06              0.    -7.00091E+06
           42682    -12.3487E+06     4.87103E+06              0.    -7.17687E+06
           42683    -12.6439E+06     4.96040E+06              0.    -7.35537E+06
           42684    -12.9474E+06     5.05027E+06              0.    -7.53629E+06
           42685    -13.2595E+06     5.14052E+06              0.    -7.71949E+06
           42686    -13.5802E+06     5.23104E+06              0.    -7.90482E+06
           42687    -13.9100E+06     5.32169E+06              0.    -8.09213E+06
           42688    -14.2490E+06     5.41235E+06              0.    -8.28122E+06
           42689    -14.5974E+06     5.50285E+06              0.    -8.47190E+06
           42690    -14.9556E+06     5.59304E+06              0.    -8.66393E+06
           42691    -15.3238E+06     5.68274E+06              0.    -8.85707E+06
           42692    -15.7022E+06     5.77175E+06              0.    -9.05105E+06
           42693    -16.0912E+06     5.85988E+06              0.    -9.24558E+06
           42694    -16.4910E+06     5.94691E+06              0.    -9.44035E+06
           42695    -16.9019E+06     6.03260E+06              0.    -9.63500E+06
           42696    -17.3243E+06     6.11671E+06              0.    -9.82916E+06
           42697    -17.7584E+06     6.19898E+06              0.    -10.0224E+06
           42698    -18.2047E+06     6.27911E+06              0.    -10.2144E+06
           42699    -18.6635E+06     6.35682E+06              0.    -10.4046E+06
           42700    -19.1352E+06     6.43177E+06              0.    -10.5924E+06
           42701    -19.6202E+06     6.50364E+06              0.    -10.7775E+06
           42702    -20.1188E+06     6.57205E+06              0.    -10.9592E+06
           42703    -20.6316E+06     6.63663E+06              0.    -11.1370E+06
           42704    -21.1590E+06     6.69698E+06              0.    -11.3101E+06
           42705    -21.7015E+06     6.75266E+06              0.    -11.4779E+06
           42706    -22.2597E+06     6.80321E+06              0.    -11.6398E+06
           42707    -22.8340E+06     6.84815E+06              0.    -11.7949E+06
           42708    -23.4252E+06     6.88697E+06              0.    -11.9425E+06
           42709    -24.0339E+06     6.91913E+06              0.    -12.0818E+06
           42710    -24.6607E+06     6.94403E+06              0.    -12.2120E+06
           42711    -25.3065E+06     6.96106E+06              0.    -12.3322E+06
           42712    -25.9719E+06     6.96956E+06              0.    -12.4414E+06
           42713    -26.6579E+06     6.96883E+06              0.    -12.5389E+06
           42714    -27.3654E+06     6.95809E+06              0.    -12.6237E+06
           42715    -28.0954E+06     6.93652E+06              0.    -12.6948E+06
           42716    -28.8488E+06     6.90323E+06              0.    -12.7513E+06
           42717    -29.6269E+06     6.85724E+06              0.    -12.7925E+06
           42718    -30.4309E+06     6.79749E+06              0.    -12.8173E+06
           42719    -31.2620E+06     6.72278E+06              0.    -12.8249E+06
           42720    -32.1216E+06     6.63179E+06              0.    -12.8147E+06
           42721    -33.0111E+06     6.52305E+06              0.    -12.7860E+06
           42722    -33.9321E+06     6.39488E+06              0.    -12.7382E+06
           42723    -34.8861E+06     6.24536E+06              0.    -12.6708E+06
           42724    -35.8748E+06     6.07232E+06              0.    -12.5837E+06
           42725    -36.8997E+06     5.87320E+06              0.    -12.4769E+06
           42726    -37.9626E+06     5.64508E+06              0.    -12.3504E+06
           42727    -39.0650E+06     5.38451E+06              0.    -12.2047E+06
           42728    -40.2085E+06     5.08743E+06              0.    -12.0407E+06
           42729    -41.3944E+06     4.74908E+06              0.    -11.8594E+06
           42730    -42.6238E+06     4.36383E+06              0.    -11.6622E+06
           42731    -43.8976E+06     3.92499E+06              0.    -11.4511E+06
           42732    -45.2160E+06      3.4247E+06              0.    -11.2281E+06
           42733    -46.5790E+06     2.85363E+06              0.    -10.9958E+06
           42734    -47.9855E+06     2.20080E+06              0.    -10.7570E+06
           42735    -49.4338E+06     1.45333E+06              0.    -10.5148E+06
           42736    -50.9208E+06     596.171E+03              0.    -10.2721E+06
           42737    -52.4425E+06    -388.099E+03              0.    -10.0320E+06
           42738    -53.9932E+06    -1.51952E+06              0.    -9.79689E+06
           42739    -55.5657E+06    -2.82094E+06              0.    -9.56865E+06
           42740    -57.1512E+06    -4.31802E+06              0.    -9.34798E+06
           42741    -58.7391E+06    -6.03932E+06              0.    -9.13410E+06
           42742    -60.3170E+06    -8.01610E+06              0.    -8.92430E+06
           42743    -61.8709E+06    -10.2820E+06              0.    -8.71346E+06
           42744    -63.3854E+06    -12.8728E+06              0.    -8.49374E+06
           42745    -64.8439E+06    -15.8255E+06              0.    -8.25422E+06
           42746    -66.2289E+06    -19.1781E+06              0.    -7.98074E+06
           42747    -67.5220E+06    -22.9686E+06              0.    -7.65593E+06
           42748    -68.7044E+06    -27.2341E+06              0.    -7.25935E+06
           42749    -70.6366E+06    -32.4445E+06              0.    -7.08225E+06
           42750    -1.75417E+06    -789.750E+03              0.    -323.571E+03
           42751    -1.74889E+06    -740.745E+03              0.    -322.974E+03
           42752    -1.76485E+06    -702.171E+03              0.    -319.539E+03
           42753    -1.78064E+06    -664.352E+03              0.    -316.448E+03
           42754    -1.79630E+06    -627.263E+03              0.    -313.692E+03
           42755    -1.81182E+06    -590.883E+03              0.    -311.262E+03
           42756    -1.82722E+06    -555.188E+03              0.    -309.149E+03
           42757    -1.84252E+06    -520.158E+03              0.    -307.345E+03
           42758    -1.85774E+06    -485.770E+03              0.    -305.843E+03
           42759    -1.87288E+06    -452.005E+03              0.    -304.636E+03
           42760    -1.88796E+06    -418.843E+03              0.    -303.719E+03
           42761    -1.90299E+06    -386.263E+03              0.    -303.084E+03
           42762    -1.91798E+06    -354.248E+03              0.    -302.727E+03
           42763    -1.93295E+06    -322.779E+03              0.    -302.642E+03
           42764    -1.94790E+06    -291.839E+03              0.    -302.827E+03
           42765    -1.96286E+06    -261.409E+03              0.    -303.276E+03
           42766    -1.97783E+06    -231.474E+03              0.    -303.986E+03
           42767    -1.99282E+06    -202.016E+03              0.    -304.954E+03
           42768    -2.00785E+06    -173.020E+03              0.    -306.177E+03
           42769    -2.02292E+06    -144.469E+03              0.    -307.653E+03
           42770    -2.03805E+06    -116.349E+03              0.    -309.380E+03
           42771    -2.05325E+06    -88.6432E+03              0.    -311.357E+03
           42772    -2.06853E+06    -61.3387E+03              0.    -313.582E+03
           42773    -2.08390E+06    -34.4199E+03              0.    -316.055E+03
           42774    -2.09938E+06    -7.87288E+03              0.    -318.774E+03
           42775    -2.11496E+06     18.3159E+03              0.    -321.741E+03
           42776    -2.13067E+06     44.1608E+03              0.    -324.955E+03
           42777    -2.14652E+06     69.6746E+03              0.    -328.416E+03
           42778    -2.16251E+06     94.8712E+03              0.    -332.126E+03
           42779    -2.17865E+06     119.763E+03              0.    -336.087E+03
           42780    -2.19497E+06     144.363E+03              0.    -340.298E+03
           42781    -2.21146E+06     168.685E+03              0.    -344.763E+03
           42782    -2.22815E+06     192.740E+03              0.    -349.484E+03
           42783    -2.24503E+06     216.541E+03              0.    -354.463E+03
           42784    -2.26213E+06     240.100E+03              0.    -359.703E+03
           42785    -2.27945E+06     263.429E+03              0.    -365.207E+03
           42786    -2.29701E+06     286.541E+03              0.    -370.979E+03
           42787    -2.31481E+06     309.447E+03              0.    -377.023E+03
           42788    -2.33288E+06     332.159E+03              0.    -383.343E+03
           42789    -2.35121E+06     354.688E+03              0.    -389.943E+03
           42790    -2.36983E+06     377.048E+03              0.    -396.828E+03
           42791    -2.38874E+06     399.249E+03              0.    -404.004E+03
           42792    -2.40796E+06     421.302E+03              0.    -411.476E+03
           42793    -2.42751E+06     443.221E+03              0.    -419.249E+03
           42794    -2.44738E+06     465.015E+03              0.    -427.331E+03
           42795    -2.46761E+06     486.697E+03              0.    -435.727E+03
           42796    -2.48819E+06     508.278E+03              0.    -444.445E+03
           42797    -2.50915E+06     529.770E+03              0.    -453.492E+03
           42798    -2.53050E+06     551.184E+03              0.    -462.875E+03
           42799    -2.55225E+06     572.533E+03              0.    -472.603E+03
           42800    -2.57442E+06     593.827E+03              0.    -482.685E+03
           42801    -2.59702E+06     615.079E+03              0.    -493.127E+03
           42802    -2.62007E+06     636.301E+03              0.    -503.942E+03
           42803    -2.64358E+06     657.504E+03              0.    -515.136E+03
           42804    -2.66758E+06     678.700E+03              0.    -526.722E+03
           42805    -2.69207E+06     699.902E+03              0.    -538.708E+03
           42806    -2.71707E+06     721.121E+03              0.    -551.107E+03
           42807    -2.74261E+06     742.371E+03              0.    -563.929E+03
           42808    -2.76869E+06     763.662E+03              0.    -577.187E+03
           42809    -2.79534E+06     785.009E+03              0.    -590.891E+03
           42810    -2.82258E+06     806.423E+03              0.    -605.056E+03
           42811    -2.85042E+06     827.918E+03              0.    -619.694E+03
           42812    -2.87889E+06     849.507E+03              0.    -634.819E+03
           42813      -2.908E+06     871.202E+03              0.    -650.445E+03
           42814    -2.93778E+06     893.017E+03              0.    -666.587E+03
           42815    -2.96825E+06     914.966E+03              0.    -683.259E+03
           42816    -2.99943E+06     937.062E+03              0.    -700.478E+03
           42817    -3.03134E+06     959.319E+03              0.    -718.260E+03
           42818    -3.06401E+06     981.753E+03              0.    -736.621E+03
           42819    -3.09746E+06     1.00438E+06              0.    -755.580E+03
           42820    -3.13172E+06     1.02720E+06              0.    -775.153E+03
           42821    -3.16681E+06     1.05025E+06              0.    -795.360E+03
           42822    -3.20276E+06     1.07353E+06              0.    -816.219E+03
           42823    -3.23959E+06     1.09706E+06              0.    -837.751E+03
           42824    -3.27734E+06     1.12086E+06              0.    -859.975E+03
           42825    -3.31603E+06     1.14493E+06              0.    -882.913E+03
           42826    -3.35570E+06     1.16931E+06              0.    -906.586E+03
           42827    -3.39637E+06     1.19400E+06              0.    -931.017E+03
           42828    -3.43807E+06     1.21902E+06              0.    -956.229E+03
           42829    -3.48084E+06     1.24438E+06              0.    -982.245E+03
           42830    -3.52471E+06     1.27011E+06              0.    -1.00909E+06
           42831    -3.56972E+06     1.29622E+06              0.    -1.03679E+06
           42832    -3.61590E+06     1.32274E+06              0.    -1.06536E+06
           42833    -3.66328E+06     1.34967E+06              0.    -1.09485E+06
           42834    -3.71192E+06     1.37703E+06              0.    -1.12526E+06
           42835    -3.76183E+06     1.40486E+06              0.    -1.15664E+06
           42836    -3.81308E+06     1.43316E+06              0.    -1.18901E+06
           42837    -3.86569E+06     1.46195E+06              0.    -1.22240E+06
           42838    -3.91971E+06     1.49125E+06              0.    -1.25683E+06
           42839    -3.97518E+06     1.52109E+06              0.    -1.29235E+06
           42840    -4.03215E+06     1.55148E+06              0.    -1.32898E+06
           42841    -4.09067E+06     1.58245E+06              0.    -1.36675E+06
           42842    -4.15078E+06     1.61401E+06              0.    -1.40571E+06
           42843    -4.21253E+06     1.64619E+06              0.    -1.44587E+06
           42844    -4.27598E+06     1.67901E+06              0.    -1.48729E+06
           42845    -4.34117E+06     1.71249E+06              0.    -1.52998E+06
           42846    -4.40817E+06     1.74665E+06              0.    -1.57400E+06
           42847    -4.47702E+06     1.78151E+06              0.    -1.61937E+06
           42848    -4.54778E+06     1.81710E+06              0.    -1.66614E+06
           42849    -4.62052E+06     1.85344E+06              0.    -1.71434E+06
           42850    -4.69528E+06     1.89055E+06              0.    -1.76402E+06
           42851    -4.77215E+06     1.92846E+06              0.    -1.81521E+06
           42852    -4.85117E+06     1.96719E+06              0.    -1.86796E+06
           42853    -4.93242E+06     2.00676E+06              0.     -1.9223E+06
           42854    -5.01597E+06     2.04720E+06              0.    -1.97828E+06
           42855    -5.10188E+06     2.08852E+06              0.    -2.03595E+06
           42856    -5.19022E+06     2.13076E+06              0.    -2.09534E+06
           42857    -5.28108E+06     2.17394E+06              0.    -2.15650E+06
           42858    -5.37452E+06     2.21807E+06              0.    -2.21947E+06
           42859    -5.47063E+06     2.26320E+06              0.    -2.28431E+06
           42860    -5.56948E+06     2.30932E+06              0.    -2.35105E+06
           42861    -5.67116E+06     2.35649E+06              0.    -2.41975E+06
           42862    -5.77575E+06     2.40470E+06              0.    -2.49044E+06
           42863    -5.88334E+06     2.45399E+06              0.    -2.56318E+06
           42864    -5.99402E+06     2.50438E+06              0.    -2.63801E+06
           42865    -6.10788E+06     2.55589E+06              0.    -2.71499E+06
           42866    -6.22501E+06     2.60855E+06              0.    -2.79415E+06
           42867    -6.34552E+06     2.66237E+06              0.    -2.87554E+06
           42868    -6.46949E+06     2.71737E+06              0.    -2.95922E+06
           42869    -6.59705E+06     2.77358E+06              0.    -3.04522E+06
           42870    -6.72827E+06     2.83101E+06              0.    -3.13360E+06
           42871    -6.86328E+06     2.88968E+06              0.    -3.22440E+06
           42872    -7.00219E+06     2.94960E+06              0.    -3.31766E+06
           42873    -7.14510E+06      3.0108E+06              0.    -3.41343E+06
           42874    -7.29214E+06     3.07328E+06              0.    -3.51176E+06
           42875    -7.44341E+06     3.13706E+06              0.    -3.61268E+06
           42876    -7.59904E+06     3.20216E+06              0.    -3.71623E+06
           42877    -7.75916E+06     3.26856E+06              0.    -3.82246E+06
           42878    -7.92389E+06     3.33630E+06              0.    -3.93139E+06
           42879    -8.09336E+06     3.40536E+06              0.    -4.04308E+06
           42880    -8.26770E+06     3.47576E+06              0.    -4.15754E+06
           42881    -8.44704E+06     3.54749E+06              0.    -4.27481E+06
           42882    -8.63154E+06     3.62055E+06              0.    -4.39491E+06
           42883    -8.82132E+06     3.69494E+06              0.    -4.51787E+06
           42884    -9.01654E+06     3.77064E+06              0.    -4.64372E+06
           42885    -9.21733E+06     3.84765E+06              0.    -4.77245E+06
           42886    -9.42386E+06     3.92594E+06              0.    -4.90410E+06
           42887    -9.63627E+06     4.00550E+06              0.    -5.03866E+06
           42888    -9.85473E+06     4.08631E+06              0.    -5.17613E+06
           42889    -10.0794E+06     4.16832E+06              0.    -5.31652E+06
           42890    -10.3104E+06     4.25152E+06              0.    -5.45980E+06
           42891    -10.5480E+06     4.33586E+06              0.    -5.60597E+06
           42892    -10.7922E+06     4.42130E+06              0.    -5.75500E+06
           42893    -11.0434E+06     4.50778E+06              0.    -5.90685E+06
           42894    -11.3016E+06     4.59524E+06              0.    -6.06149E+06
           42895    -11.5671E+06     4.68364E+06              0.    -6.21887E+06
           42896    -11.8399E+06     4.77288E+06              0.    -6.37892E+06
           42897    -12.1204E+06     4.86290E+06              0.    -6.54157E+06
           42898    -12.4087E+06     4.95360E+06              0.    -6.70674E+06
           42899    -12.7050E+06     5.04489E+06              0.    -6.87433E+06
           42900    -13.0095E+06     5.13667E+06              0.    -7.04424E+06
           42901    -13.3225E+06     5.22881E+06              0.    -7.21634E+06
           42902    -13.6440E+06     5.32121E+06              0.    -7.39049E+06
           42903    -13.9744E+06     5.41371E+06              0.    -7.56654E+06
           42904    -14.3138E+06     5.50617E+06              0.    -7.74431E+06
           42905    -14.6626E+06     5.59843E+06              0.    -7.92361E+06
           42906    -15.0208E+06     5.69033E+06              0.    -8.10425E+06
           42907    -15.3888E+06     5.78168E+06              0.    -8.28597E+06
           42908    -15.7668E+06     5.87227E+06              0.    -8.46852E+06
           42909    -16.1551E+06     5.96190E+06              0.    -8.65164E+06
           42910    -16.5538E+06     6.05034E+06              0.    -8.83501E+06
           42911    -16.9634E+06     6.13734E+06              0.    -9.01832E+06
           42912    -17.3840E+06     6.22265E+06              0.    -9.20119E+06
           42913    -17.8159E+06     6.30598E+06              0.    -9.38326E+06
           42914    -18.2595E+06     6.38704E+06              0.    -9.56410E+06
           42915    -18.7150E+06     6.46552E+06              0.    -9.74326E+06
           42916    -19.1828E+06     6.54109E+06              0.    -9.92027E+06
           42917    -19.6633E+06     6.61339E+06              0.    -10.0946E+06
           42918    -20.1567E+06     6.68204E+06              0.    -10.2657E+06
           42919    -20.6635E+06     6.74665E+06              0.    -10.4331E+06
           42920    -21.1840E+06      6.8068E+06              0.    -10.5960E+06
           42921    -21.7187E+06     6.86205E+06              0.    -10.7538E+06
           42922    -22.2680E+06     6.91193E+06              0.    -10.9058E+06
           42923    -22.8324E+06     6.95595E+06              0.    -11.0513E+06
           42924    -23.4125E+06     6.99359E+06              0.    -11.1895E+06
           42925    -24.0086E+06     7.02429E+06              0.    -11.3196E+06
           42926    -24.6216E+06     7.04748E+06              0.    -11.4408E+06
           42927    -25.2518E+06     7.06255E+06              0.    -11.5520E+06
           42928    -25.9001E+06     7.06885E+06              0.    -11.6526E+06
           42929    -26.5672E+06     7.06569E+06              0.    -11.7414E+06
           42930    -27.2538E+06     7.05235E+06              0.    -11.8175E+06
           42931    -27.9608E+06     7.02806E+06              0.    -11.8799E+06
           42932    -28.6892E+06     6.99199E+06              0.    -11.9277E+06
           42933    -29.4399E+06     6.94326E+06              0.    -11.9598E+06
           42934    -30.2139E+06     6.88091E+06              0.    -11.9753E+06
           42935    -31.0125E+06     6.80392E+06              0.    -11.9732E+06
           42936    -31.8370E+06     6.71115E+06              0.    -11.9526E+06
           42937    -32.6886E+06     6.60137E+06              0.    -11.9126E+06
           42938    -33.5688E+06     6.47319E+06              0.    -11.8525E+06
           42939    -34.4791E+06     6.32509E+06              0.    -11.7716E+06
           42940    -35.4212E+06     6.15531E+06              0.    -11.6695E+06
           42941    -36.3967E+06     5.96188E+06              0.    -11.5457E+06
           42942    -37.4075E+06     5.74249E+06              0.    -11.4003E+06
           42943    -38.4553E+06     5.49451E+06              0.    -11.2333E+06
           42944    -39.5420E+06      5.2148E+06              0.    -11.0452E+06
           42945    -40.6693E+06     4.89971E+06              0.    -10.8369E+06
           42946    -41.8390E+06     4.54488E+06              0.    -10.6095E+06
           42947    -43.0525E+06     4.14513E+06              0.    -10.3648E+06
           42948    -44.3112E+06     3.69427E+06              0.    -10.1049E+06
           42949    -45.6160E+06     3.18492E+06              0.    -9.83238E+06
           42950    -46.9671E+06     2.60822E+06              0.    -9.55048E+06
           42951    -48.3642E+06     1.95361E+06              0.    -9.26281E+06
           42952    -49.8060E+06     1.20853E+06              0.    -8.97337E+06
           42953    -51.2902E+06     358.099E+03              0.    -8.68649E+06
           42954    -52.8131E+06    -615.179E+03              0.    -8.40655E+06
           42955    -54.3694E+06    -1.73170E+06              0.    -8.13777E+06
           42956    -55.9520E+06    -3.01505E+06              0.    -7.88387E+06
           42957    -57.5520E+06    -4.49209E+06              0.    -7.64760E+06
           42958    -59.1584E+06    -6.19308E+06              0.    -7.43029E+06
           42959    -60.7581E+06    -8.15149E+06              0.    -7.23130E+06
           42960    -62.3361E+06    -10.4037E+06              0.    -7.04747E+06
           42961    -63.8756E+06    -12.9887E+06              0.    -6.87263E+06
           42962    -65.3584E+06    -15.9470E+06              0.    -6.69718E+06
           42963    -66.7653E+06    -19.3201E+06              0.    -6.50791E+06
           42964    -68.0761E+06    -23.1495E+06              0.    -6.28791E+06
           42965    -69.2708E+06    -27.4758E+06              0.    -6.01684E+06
           42966    -71.2355E+06    -32.7767E+06              0.    -5.87888E+06
           42967    -1.76294E+06    -793.718E+03              0.    -307.428E+03
           42968    -1.75762E+06    -744.275E+03              0.    -306.860E+03
           42969    -1.77372E+06    -705.360E+03              0.    -303.593E+03
           42970    -1.78966E+06    -667.208E+03              0.    -300.655E+03
           42971    -1.80545E+06    -629.797E+03              0.    -298.037E+03
           42972    -1.82111E+06    -593.103E+03              0.    -295.729E+03
           42973    -1.83665E+06    -557.102E+03              0.    -293.725E+03
           42974    -1.85209E+06    -521.774E+03              0.    -292.015E+03
           42975    -1.86744E+06    -487.094E+03              0.    -290.594E+03
           42976    -1.88272E+06    -453.044E+03              0.    -289.455E+03
           42977    -1.89794E+06    -419.602E+03              0.    -288.591E+03
           42978    -1.91311E+06    -386.748E+03              0.    -287.998E+03
           42979    -1.92824E+06    -354.465E+03              0.    -287.669E+03
           42980    -1.94335E+06    -322.731E+03              0.    -287.601E+03
           42981    -1.95845E+06     -291.53E+03              0.    -287.789E+03
           42982    -1.97356E+06    -260.844E+03              0.    -288.230E+03
           42983    -1.98867E+06    -230.655E+03              0.    -288.920E+03
           42984    -2.00382E+06    -200.946E+03              0.    -289.857E+03
           42985    -2.01900E+06    -171.702E+03              0.    -291.037E+03
           42986    -2.03423E+06    -142.904E+03              0.    -292.458E+03
           42987    -2.04953E+06    -114.540E+03              0.    -294.119E+03
           42988    -2.06490E+06    -86.5909E+03              0.    -296.019E+03
           42989    -2.08035E+06    -59.0440E+03              0.    -298.155E+03
           42990    -2.09590E+06    -31.8834E+03              0.    -300.528E+03
           42991    -2.11155E+06    -5.09493E+03              0.    -303.137E+03
           42992    -2.12732E+06     21.3354E+03              0.    -305.981E+03
           42993    -2.14322E+06     47.4223E+03              0.    -309.062E+03
           42994    -2.15927E+06     73.1788E+03              0.    -312.379E+03
           42995    -2.17546E+06     98.6193E+03              0.    -315.934E+03
           42996    -2.19182E+06     123.756E+03              0.    -319.728E+03
           42997    -2.20835E+06     148.604E+03              0.    -323.761E+03
           42998    -2.22507E+06     173.174E+03              0.    -328.037E+03
           42999    -2.24199E+06     197.480E+03              0.    -332.557E+03
           43000    -2.25911E+06     221.535E+03              0.    -337.324E+03
           43001    -2.27646E+06     245.351E+03              0.    -342.341E+03
           43002    -2.29404E+06     268.941E+03              0.    -347.610E+03
           43003    -2.31186E+06     292.316E+03              0.    -353.134E+03
           43004    -2.32994E+06     315.490E+03              0.    -358.919E+03
           43005    -2.34829E+06     338.474E+03              0.    -364.967E+03
           43006    -2.36692E+06     361.281E+03              0.    -371.284E+03
           43007    -2.38584E+06     383.922E+03              0.    -377.873E+03
           43008    -2.40507E+06     406.410E+03              0.    -384.740E+03
           43009    -2.42462E+06     428.757E+03              0.    -391.890E+03
           43010    -2.44450E+06     450.973E+03              0.    -399.328E+03
           43011    -2.46473E+06     473.072E+03              0.    -407.061E+03
           43012    -2.48531E+06     495.066E+03              0.    -415.095E+03
           43013    -2.50627E+06     516.965E+03              0.    -423.437E+03
           43014    -2.52762E+06     538.783E+03              0.    -432.094E+03
           43015    -2.54937E+06     560.531E+03              0.    -441.072E+03
           43016    -2.57154E+06     582.221E+03              0.    -450.381E+03
           43017    -2.59414E+06     603.866E+03              0.    -460.027E+03
           43018    -2.61719E+06     625.477E+03              0.    -470.019E+03
           43019    -2.64071E+06     647.067E+03              0.    -480.367E+03
           43020     -2.6647E+06     668.647E+03              0.    -491.078E+03
           43021    -2.68919E+06     690.232E+03              0.    -502.164E+03
           43022    -2.71420E+06     711.832E+03              0.    -513.634E+03
           43023    -2.73974E+06     733.460E+03              0.    -525.498E+03
           43024    -2.76582E+06     755.130E+03              0.    -537.768E+03
           43025    -2.79248E+06     776.854E+03              0.    -550.454E+03
           43026    -2.81973E+06     798.646E+03              0.    -563.568E+03
           43027    -2.84758E+06     820.517E+03              0.    -577.123E+03
           43028    -2.87606E+06     842.482E+03              0.    -591.131E+03
           43029    -2.90519E+06     864.555E+03              0.    -605.605E+03
           43030    -2.93498E+06     886.748E+03              0.    -620.559E+03
           43031    -2.96547E+06     909.076E+03              0.    -636.006E+03
           43032    -2.99667E+06     931.553E+03              0.    -651.962E+03
           43033    -3.02861E+06     954.193E+03              0.    -668.441E+03
           43034    -3.06131E+06     977.010E+03              0.    -685.459E+03
           43035    -3.09480E+06     1.00002E+06              0.    -703.032E+03
           43036    -3.12909E+06     1.02324E+06              0.    -721.177E+03
           43037    -3.16422E+06     1.04668E+06              0.     -739.91E+03
           43038    -3.20022E+06     1.07035E+06              0.    -759.250E+03
           43039    -3.23710E+06     1.09428E+06              0.    -779.215E+03
           43040    -3.27491E+06     1.11848E+06              0.    -799.823E+03
           43041    -3.31366E+06     1.14297E+06              0.    -821.095E+03
           43042    -3.35339E+06     1.16776E+06              0.    -843.051E+03
           43043    -3.39413E+06     1.19286E+06              0.    -865.710E+03
           43044    -3.43591E+06     1.21830E+06              0.    -889.095E+03
           43045    -3.47877E+06     1.24410E+06              0.    -913.227E+03
           43046    -3.52273E+06     1.27027E+06              0.    -938.129E+03
           43047    -3.56784E+06     1.29682E+06              0.    -963.825E+03
           43048    -3.61412E+06     1.32378E+06              0.    -990.338E+03
           43049    -3.66162E+06     1.35117E+06              0.    -1.01769E+06
           43050    -3.71038E+06     1.37900E+06              0.    -1.04592E+06
           43051    -3.76043E+06     1.40730E+06              0.    -1.07503E+06
           43052    -3.81181E+06     1.43608E+06              0.    -1.10507E+06
           43053    -3.86457E+06     1.46536E+06              0.    -1.13605E+06
           43054    -3.91875E+06     1.49517E+06              0.    -1.16801E+06
           43055    -3.97439E+06     1.52552E+06              0.    -1.20097E+06
           43056    -4.03154E+06     1.55643E+06              0.    -1.23497E+06
           43057    -4.09024E+06     1.58793E+06              0.    -1.27004E+06
           43058    -4.15055E+06     1.62003E+06              0.    -1.30620E+06
           43059    -4.21251E+06     1.65277E+06              0.    -1.34348E+06
           43060    -4.27618E+06     1.68616E+06              0.    -1.38193E+06
           43061    -4.34161E+06     1.72021E+06              0.    -1.42157E+06
           43062    -4.40885E+06     1.75497E+06              0.    -1.46244E+06
           43063    -4.47796E+06     1.79044E+06              0.    -1.50457E+06
           43064      -4.549E+06     1.82665E+06              0.    -1.54800E+06
           43065    -4.62202E+06     1.86363E+06              0.    -1.59277E+06
           43066    -4.69709E+06     1.90140E+06              0.    -1.63891E+06
           43067    -4.77427E+06     1.93998E+06              0.    -1.68645E+06
           43068    -4.85363E+06     1.97939E+06              0.    -1.73545E+06
           43069    -4.93523E+06     2.01966E+06              0.    -1.78593E+06
           43070    -5.01914E+06     2.06082E+06              0.    -1.83794E+06
           43071    -5.10543E+06     2.10288E+06              0.    -1.89152E+06
           43072    -5.19417E+06     2.14588E+06              0.    -1.94670E+06
           43073    -5.28544E+06     2.18983E+06              0.    -2.00353E+06
           43074    -5.37931E+06     2.23477E+06              0.    -2.06206E+06
           43075    -5.47587E+06     2.28071E+06              0.    -2.12232E+06
           43076    -5.57519E+06     2.32768E+06              0.    -2.18436E+06
           43077    -5.67735E+06     2.37570E+06              0.    -2.24822E+06
           43078    -5.78245E+06     2.42480E+06              0.    -2.31395E+06
           43079    -5.89056E+06     2.47499E+06              0.    -2.38158E+06
           43080    -6.00179E+06     2.52632E+06              0.    -2.45117E+06
           43081    -6.11621E+06     2.57878E+06              0.    -2.52275E+06
           43082    -6.23393E+06     2.63242E+06              0.    -2.59638E+06
           43083    -6.35504E+06     2.68724E+06              0.    -2.67210E+06
           43084    -6.47965E+06     2.74327E+06              0.    -2.74994E+06
           43085    -6.60784E+06     2.80054E+06              0.    -2.82997E+06
           43086    -6.73974E+06     2.85905E+06              0.    -2.91221E+06
           43087    -6.87544E+06     2.91883E+06              0.    -2.99671E+06
           43088    -7.01505E+06     2.97989E+06              0.    -3.08352E+06
           43089    -7.15869E+06     3.04226E+06              0.    -3.17268E+06
           43090    -7.30648E+06     3.10594E+06              0.    -3.26423E+06
           43091    -7.45852E+06     3.17094E+06              0.    -3.35821E+06
           43092    -7.61494E+06     3.23729E+06              0.    -3.45465E+06
           43093    -7.77586E+06     3.30498E+06              0.    -3.55361E+06
           43094    -7.94141E+06     3.37403E+06              0.    -3.65510E+06
           43095    -8.11172E+06     3.44444E+06              0.    -3.75917E+06
           43096    -8.28692E+06     3.51621E+06              0.    -3.86585E+06
           43097    -8.46713E+06     3.58935E+06              0.    -3.97516E+06
           43098    -8.65251E+06     3.66384E+06              0.    -4.08714E+06
           43099    -8.84319E+06     3.73969E+06              0.     -4.2018E+06
           43100    -9.03930E+06     3.81689E+06              0.    -4.31917E+06
           43101    -9.24101E+06     3.89542E+06              0.    -4.43927E+06
           43102    -9.44845E+06     3.97527E+06              0.    -4.56210E+06
           43103    -9.66177E+06     4.05641E+06              0.    -4.68768E+06
           43104    -9.88114E+06     4.13883E+06              0.    -4.81601E+06
           43105    -10.1067E+06     4.22248E+06              0.    -4.94708E+06
           43106    -10.3386E+06     4.30735E+06              0.    -5.08090E+06
           43107    -10.5771E+06     4.39338E+06              0.    -5.21744E+06
           43108    -10.8222E+06     4.48052E+06              0.    -5.35669E+06
           43109    -11.0742E+06     4.56874E+06              0.    -5.49861E+06
           43110    -11.3332E+06     4.65796E+06              0.    -5.64317E+06
           43111    -11.5994E+06     4.74813E+06              0.    -5.79033E+06
           43112    -11.8730E+06     4.83916E+06              0.    -5.94003E+06
           43113    -12.1541E+06     4.93098E+06              0.    -6.09221E+06
           43114    -12.4430E+06     5.02349E+06              0.    -6.24678E+06
           43115    -12.7398E+06     5.11660E+06              0.    -6.40368E+06
           43116    -13.0448E+06     5.21019E+06              0.    -6.56278E+06
           43117    -13.3580E+06     5.30416E+06              0.    -6.72399E+06
           43118    -13.6798E+06     5.39836E+06              0.    -6.88718E+06
           43119    -14.0102E+06     5.49267E+06              0.    -7.05219E+06
           43120    -14.3496E+06     5.58691E+06              0.    -7.21887E+06
           43121    -14.6981E+06     5.68094E+06              0.    -7.38705E+06
           43122    -15.0559E+06     5.77457E+06              0.    -7.55653E+06
           43123    -15.4232E+06     5.86761E+06              0.    -7.72708E+06
           43124    -15.8003E+06     5.95985E+06              0.    -7.89849E+06
           43125    -16.1874E+06     6.05107E+06              0.    -8.07047E+06
           43126    -16.5847E+06     6.14104E+06              0.    -8.24275E+06
           43127    -16.9925E+06     6.22950E+06              0.    -8.41503E+06
           43128    -17.4109E+06     6.31619E+06              0.    -8.58696E+06
           43129    -17.8403E+06      6.4008E+06              0.    -8.75818E+06
           43130    -18.2808E+06     6.48304E+06              0.    -8.92830E+06
           43131    -18.7329E+06     6.56257E+06              0.    -9.09688E+06
           43132    -19.1966E+06     6.63906E+06              0.    -9.26348E+06
           43133    -19.6724E+06     6.71213E+06              0.    -9.42760E+06
           43134    -20.1605E+06     6.78139E+06              0.    -9.58870E+06
           43135    -20.6612E+06     6.84644E+06              0.    -9.74624E+06
           43136    -21.1748E+06     6.90683E+06              0.    -9.89960E+06
           43137    -21.7018E+06     6.96211E+06              0.    -10.0481E+06
           43138    -22.2424E+06     7.01181E+06              0.    -10.1912E+06
           43139    -22.7970E+06     7.05540E+06              0.    -10.3280E+06
           43140    -23.3661E+06     7.09235E+06              0.    -10.4578E+06
           43141    -23.9501E+06     7.12211E+06              0.    -10.5798E+06
           43142    -24.5495E+06     7.14409E+06              0.    -10.6931E+06
           43143    -25.1647E+06     7.15767E+06              0.    -10.7969E+06
           43144    -25.7964E+06     7.16220E+06              0.    -10.8902E+06
           43145    -26.4451E+06     7.15700E+06              0.    -10.9721E+06
           43146    -27.1114E+06     7.14135E+06              0.    -11.0415E+06
           43147    -27.7961E+06     7.11452E+06              0.    -11.0975E+06
           43148    -28.4999E+06     7.07570E+06              0.    -11.1389E+06
           43149    -29.2237E+06     7.02406E+06              0.    -11.1646E+06
           43150    -29.9683E+06     6.95874E+06              0.    -11.1737E+06
           43151    -30.7348E+06     6.87877E+06              0.    -11.1651E+06
           43152    -31.5243E+06     6.78318E+06              0.    -11.1375E+06
           43153    -32.3380E+06     6.67088E+06              0.    -11.0902E+06
           43154    -33.1771E+06     6.54070E+06              0.    -11.0220E+06
           43155    -34.0431E+06     6.39138E+06              0.    -10.9322E+06
           43156    -34.9374E+06     6.22151E+06              0.    -10.8198E+06
           43157    -35.8618E+06     6.02950E+06              0.    -10.6844E+06
           43158    -36.8180E+06     5.81360E+06              0.    -10.5255E+06
           43159    -37.8078E+06     5.57177E+06              0.    -10.3428E+06
           43160    -38.8332E+06     5.30167E+06              0.    -10.1364E+06
           43161    -39.8963E+06     5.00056E+06              0.    -9.90678E+06
           43162    -40.9990E+06     4.66519E+06              0.    -9.65473E+06
           43163    -42.1435E+06     4.29171E+06              0.    -9.38151E+06
           43164    -43.3316E+06     3.87548E+06              0.    -9.08893E+06
           43165    -44.5652E+06     3.41093E+06              0.    -8.77940E+06
           43166    -45.8457E+06     2.89128E+06              0.    -8.45594E+06
           43167    -47.1740E+06     2.30835E+06              0.    -8.12227E+06
           43168    -48.5506E+06     1.65221E+06              0.    -7.78277E+06
           43169    -49.9748E+06     910.839E+03              0.    -7.44249E+06
           43170    -51.4452E+06     69.7891E+03              0.    -7.10699E+06
           43171    -52.9586E+06    -888.231E+03              0.    -6.78223E+06
           43172    -54.5103E+06    -1.98373E+06              0.    -6.47428E+06
           43173    -56.0938E+06    -3.24080E+06              0.    -6.18897E+06
           43174    -57.7000E+06    -4.68735E+06              0.    -5.93138E+06
           43175    -59.3178E+06    -6.35529E+06              0.    -5.70533E+06
           43176    -60.9335E+06    -8.28040E+06              0.    -5.51263E+06
           43177    -62.5311E+06    -10.5021E+06              0.    -5.35248E+06
           43178    -64.0924E+06    -13.0628E+06              0.    -5.22074E+06
           43179    -65.5974E+06    -16.0071E+06              0.    -5.10942E+06
           43180    -67.0250E+06    -19.3806E+06              0.    -5.00633E+06
           43181    -68.3531E+06    -23.2290E+06              0.    -4.89503E+06
           43182    -69.5594E+06    -27.5963E+06              0.    -4.75507E+06
           43183    -71.5508E+06    -32.9677E+06              0.    -4.65829E+06
           43184    -1.77128E+06    -797.488E+03              0.    -291.144E+03
           43185    -1.76591E+06    -747.627E+03              0.    -290.606E+03
           43186    -1.78215E+06    -708.386E+03              0.    -287.510E+03
           43187    -1.79822E+06    -669.918E+03              0.    -284.726E+03
           43188    -1.81414E+06      -632.2E+03              0.    -282.246E+03
           43189    -1.82993E+06    -595.207E+03              0.    -280.063E+03
           43190    -1.84561E+06    -558.915E+03              0.    -278.167E+03
           43191    -1.86118E+06    -523.301E+03              0.    -276.552E+03
           43192    -1.87666E+06    -488.344E+03              0.    -275.211E+03
           43193    -1.89207E+06    -454.022E+03              0.    -274.139E+03
           43194    -1.90742E+06    -420.314E+03              0.    -273.328E+03
           43195    -1.92272E+06    -387.199E+03              0.    -272.774E+03
           43196    -1.93799E+06    -354.659E+03              0.    -272.473E+03
           43197    -1.95324E+06    -322.674E+03              0.    -272.420E+03
           43198    -1.96848E+06    -291.224E+03              0.    -272.610E+03
           43199    -1.98372E+06    -260.294E+03              0.    -273.040E+03
           43200    -1.99898E+06    -229.863E+03              0.    -273.708E+03
           43201    -2.01428E+06    -199.915E+03              0.    -274.609E+03
           43202    -2.02961E+06    -170.434E+03              0.    -275.743E+03
           43203    -2.04499E+06    -141.402E+03              0.    -277.106E+03
           43204    -2.06044E+06    -112.804E+03              0.    -278.697E+03
           43205    -2.07597E+06    -84.6234E+03              0.    -280.515E+03
           43206    -2.09159E+06    -56.8455E+03              0.    -282.559E+03
           43207    -2.10730E+06    -29.4545E+03              0.    -284.827E+03
           43208    -2.12313E+06    -2.43575E+03              0.    -287.320E+03
           43209    -2.13908E+06     24.2249E+03              0.    -290.037E+03
           43210    -2.15516E+06     50.5425E+03              0.    -292.979E+03
           43211    -2.17140E+06     76.5305E+03              0.    -296.146E+03
           43212    -2.18779E+06     102.203E+03              0.    -299.539E+03
           43213    -2.20435E+06     127.574E+03              0.    -303.159E+03
           43214    -2.22109E+06     152.657E+03              0.    -307.008E+03
           43215    -2.23802E+06     177.465E+03              0.    -311.088E+03
           43216    -2.25516E+06     202.011E+03              0.    -315.400E+03
           43217    -2.27251E+06     226.308E+03              0.    -319.947E+03
           43218    -2.29009E+06     250.369E+03              0.    -324.732E+03
           43219    -2.30792E+06     274.207E+03              0.    -329.757E+03
           43220    -2.32599E+06     297.835E+03              0.    -335.025E+03
           43221    -2.34434E+06     321.264E+03              0.    -340.542E+03
           43222    -2.36296E+06     344.508E+03              0.    -346.309E+03
           43223    -2.38187E+06     367.579E+03              0.    -352.332E+03
           43224    -2.40108E+06     390.489E+03              0.    -358.614E+03
           43225    -2.42061E+06     413.251E+03              0.    -365.161E+03
           43226    -2.44047E+06     435.877E+03              0.    -371.978E+03
           43227    -2.46068E+06     458.378E+03              0.    -379.070E+03
           43228    -2.48124E+06     480.769E+03              0.    -386.443E+03
           43229    -2.50217E+06     503.059E+03              0.    -394.103E+03
           43230    -2.52349E+06     525.263E+03              0.    -402.055E+03
           43231    -2.54521E+06     547.392E+03              0.    -410.308E+03
           43232    -2.56735E+06     569.459E+03              0.    -418.868E+03
           43233    -2.58992E+06     591.475E+03              0.    -427.742E+03
           43234    -2.61293E+06     613.454E+03              0.    -436.938E+03
           43235    -2.63641E+06     635.408E+03              0.    -446.464E+03
           43236    -2.66036E+06     657.350E+03              0.    -456.329E+03
           43237    -2.68482E+06     679.291E+03              0.    -466.542E+03
           43238    -2.70979E+06     701.246E+03              0.    -477.111E+03
           43239    -2.73529E+06     723.227E+03              0.    -488.046E+03
           43240    -2.76133E+06     745.247E+03              0.    -499.357E+03
           43241    -2.78795E+06     767.318E+03              0.    -511.055E+03
           43242    -2.81516E+06     789.455E+03              0.    -523.150E+03
           43243    -2.84297E+06     811.672E+03              0.    -535.653E+03
           43244    -2.87141E+06     833.980E+03              0.    -548.577E+03
           43245    -2.90050E+06     856.395E+03              0.    -561.933E+03
           43246    -2.93026E+06     878.930E+03              0.    -575.733E+03
           43247    -2.96071E+06     901.599E+03              0.    -589.991E+03
           43248    -2.99188E+06     924.417E+03              0.    -604.720E+03
           43249    -3.02378E+06     947.399E+03              0.    -619.934E+03
           43250    -3.05645E+06     970.558E+03              0.    -635.647E+03
           43251    -3.08990E+06     993.911E+03              0.    -651.874E+03
           43252    -3.12416E+06     1.01747E+06              0.    -668.631E+03
           43253    -3.15926E+06     1.04126E+06              0.    -685.933E+03
           43254    -3.19523E+06     1.06528E+06              0.    -703.797E+03
           43255    -3.23209E+06     1.08956E+06              0.    -722.239E+03
           43256    -3.26987E+06     1.11411E+06              0.    -741.278E+03
           43257    -3.30860E+06     1.13895E+06              0.    -760.930E+03
           43258    -3.34831E+06     1.16409E+06              0.    -781.215E+03
           43259    -3.38904E+06     1.18956E+06              0.    -802.153E+03
           43260    -3.43081E+06     1.21536E+06              0.    -823.762E+03
           43261    -3.47365E+06     1.24153E+06              0.    -846.063E+03
           43262    -3.51761E+06     1.26807E+06              0.    -869.077E+03
           43263    -3.56271E+06     1.29500E+06              0.    -892.826E+03
           43264    -3.60900E+06     1.32234E+06              0.    -917.331E+03
           43265    -3.65650E+06     1.35011E+06              0.    -942.616E+03
           43266    -3.70527E+06     1.37834E+06              0.    -968.705E+03
           43267    -3.75533E+06     1.40703E+06              0.    -995.621E+03
           43268    -3.80673E+06     1.43622E+06              0.    -1.02339E+06
           43269    -3.85951E+06     1.46591E+06              0.    -1.05203E+06
           43270    -3.91372E+06     1.49613E+06              0.    -1.08158E+06
           43271    -3.96940E+06     1.52691E+06              0.    -1.11206E+06
           43272    -4.02658E+06     1.55826E+06              0.    -1.14350E+06
           43273    -4.08534E+06     1.59020E+06              0.    -1.17593E+06
           43274    -4.14570E+06     1.62275E+06              0.    -1.20937E+06
           43275    -4.20772E+06     1.65595E+06              0.    -1.24385E+06
           43276    -4.27145E+06     1.68980E+06              0.    -1.27941E+06
           43277    -4.33695E+06     1.72434E+06              0.    -1.31608E+06
           43278    -4.40427E+06     1.75958E+06              0.    -1.35389E+06
           43279    -4.47347E+06     1.79556E+06              0.    -1.39286E+06
           43280    -4.54460E+06     1.83228E+06              0.    -1.43304E+06
           43281    -4.61773E+06     1.86979E+06              0.    -1.47446E+06
           43282    -4.69291E+06     1.90809E+06              0.    -1.51715E+06
           43283    -4.77021E+06     1.94722E+06              0.    -1.56115E+06
           43284    -4.84970E+06     1.98719E+06              0.    -1.60649E+06
           43285    -4.93143E+06     2.02804E+06              0.    -1.65321E+06
           43286    -5.01549E+06     2.06979E+06              0.    -1.70134E+06
           43287    -5.10193E+06     2.11246E+06              0.    -1.75093E+06
           43288    -5.19084E+06     2.15608E+06              0.    -1.80202E+06
           43289    -5.28229E+06     2.20067E+06              0.    -1.85464E+06
           43290    -5.37635E+06     2.24626E+06              0.    -1.90882E+06
           43291    -5.47310E+06     2.29288E+06              0.    -1.96462E+06
           43292    -5.57263E+06     2.34053E+06              0.    -2.02207E+06
           43293    -5.67501E+06     2.38926E+06              0.    -2.08122E+06
           43294    -5.78034E+06     2.43909E+06              0.    -2.14209E+06
           43295    -5.88870E+06     2.49004E+06              0.    -2.20475E+06
           43296    -6.00018E+06     2.54212E+06              0.    -2.26921E+06
           43297    -6.11487E+06     2.59538E+06              0.    -2.33554E+06
           43298    -6.23286E+06     2.64982E+06              0.    -2.40377E+06
           43299    -6.35427E+06     2.70548E+06              0.    -2.47394E+06
           43300    -6.47917E+06     2.76237E+06              0.    -2.54609E+06
           43301    -6.60768E+06     2.82051E+06              0.    -2.62027E+06
           43302    -6.73990E+06     2.87993E+06              0.    -2.69652E+06
           43303    -6.87593E+06     2.94063E+06              0.    -2.77487E+06
           43304    -7.01590E+06     3.00265E+06              0.    -2.85538E+06
           43305    -7.15989E+06     3.06599E+06              0.    -2.93808E+06
           43306    -7.30804E+06     3.13067E+06              0.    -3.02300E+06
           43307    -7.46047E+06     3.19671E+06              0.    -3.11019E+06
           43308    -7.61727E+06     3.26412E+06              0.    -3.19969E+06
           43309    -7.77859E+06     3.33290E+06              0.    -3.29152E+06
           43310    -7.94455E+06     3.40306E+06              0.    -3.38573E+06
           43311    -8.11527E+06     3.47461E+06              0.    -3.48235E+06
           43312    -8.29089E+06     3.54756E+06              0.    -3.58141E+06
           43313    -8.47153E+06     3.62190E+06              0.    -3.68294E+06
           43314    -8.65733E+06     3.69763E+06              0.    -3.78695E+06
           43315    -8.84844E+06     3.77474E+06              0.    -3.89349E+06
           43316    -9.04499E+06     3.85323E+06              0.    -4.00257E+06
           43317    -9.24712E+06     3.93309E+06              0.    -4.11420E+06
           43318    -9.45498E+06     4.01429E+06              0.    -4.22840E+06
           43319    -9.66873E+06     4.09682E+06              0.    -4.34518E+06
           43320     -9.8885E+06     4.18065E+06              0.    -4.46454E+06
           43321    -10.1145E+06     4.26575E+06              0.    -4.58649E+06
           43322    -10.3468E+06     4.35209E+06              0.    -4.71101E+06
           43323    -10.5856E+06     4.43963E+06              0.    -4.83811E+06
           43324    -10.8310E+06     4.52831E+06              0.    -4.96776E+06
           43325    -11.0833E+06     4.61809E+06              0.    -5.09994E+06
           43326    -11.3426E+06     4.70890E+06              0.    -5.23461E+06
           43327    -11.6090E+06     4.80068E+06              0.    -5.37174E+06
           43328    -11.8828E+06     4.89335E+06              0.    -5.51129E+06
           43329    -12.1640E+06     4.98683E+06              0.    -5.65318E+06
           43330    -12.4530E+06     5.08102E+06              0.    -5.79737E+06
           43331    -12.7497E+06     5.17583E+06              0.    -5.94375E+06
           43332    -13.0546E+06     5.27115E+06              0.    -6.09226E+06
           43333    -13.3676E+06     5.36684E+06              0.    -6.24278E+06
           43334    -13.6890E+06     5.46278E+06              0.     -6.3952E+06
           43335    -14.0190E+06     5.55883E+06              0.    -6.54939E+06
           43336    -14.3578E+06     5.65482E+06              0.    -6.70519E+06
           43337    -14.7055E+06     5.75059E+06              0.    -6.86246E+06
           43338    -15.0624E+06     5.84596E+06              0.    -7.02101E+06
           43339    -15.4286E+06     5.94072E+06              0.    -7.18063E+06
           43340    -15.8044E+06     6.03467E+06              0.    -7.34111E+06
           43341    -16.1899E+06     6.12756E+06              0.    -7.50221E+06
           43342    -16.5854E+06     6.21918E+06              0.    -7.66366E+06
           43343    -16.9910E+06     6.30923E+06              0.    -7.82518E+06
           43344    -17.4069E+06     6.39746E+06              0.    -7.98645E+06
           43345    -17.8334E+06     6.48356E+06              0.    -8.14713E+06
           43346    -18.2707E+06     6.56721E+06              0.    -8.30685E+06
           43347    -18.7190E+06     6.64807E+06              0.    -8.46520E+06
           43348    -19.1786E+06     6.72579E+06              0.    -8.62176E+06
           43349    -19.6496E+06     6.79998E+06              0.    -8.77606E+06
           43350    -20.1323E+06     6.87024E+06              0.    -8.92760E+06
           43351    -20.6269E+06     6.93614E+06              0.    -9.07583E+06
           43352    -21.1338E+06     6.99724E+06              0.    -9.22019E+06
           43353    -21.6532E+06     7.05305E+06              0.    -9.36005E+06
           43354    -22.1853E+06     7.10309E+06              0.    -9.49475E+06
           43355    -22.7305E+06     7.14682E+06              0.    -9.62360E+06
           43356    -23.2891E+06     7.18369E+06              0.    -9.74584E+06
           43357    -23.8614E+06     7.21313E+06              0.    -9.86068E+06
           43358    -24.4478E+06     7.23452E+06              0.    -9.96729E+06
           43359    -25.0487E+06     7.24725E+06              0.    -10.0648E+06
           43360    -25.6645E+06     7.25064E+06              0.    -10.1522E+06
           43361    -26.2956E+06     7.24401E+06              0.    -10.2287E+06
           43362    -26.9425E+06     7.22663E+06              0.    -10.2931E+06
           43363    -27.6059E+06     7.19777E+06              0.    -10.3444E+06
           43364    -28.2863E+06     7.15663E+06              0.    -10.3815E+06
           43365    -28.9843E+06     7.10240E+06              0.    -10.4033E+06
           43366    -29.7007E+06     7.03423E+06              0.    -10.4086E+06
           43367    -30.4363E+06     6.95124E+06              0.    -10.3964E+06
           43368    -31.1920E+06     6.85249E+06              0.    -10.3653E+06
           43369    -31.9687E+06     6.73700E+06              0.    -10.3142E+06
           43370    -32.7677E+06     6.60375E+06              0.    -10.2421E+06
           43371    -33.5900E+06     6.45163E+06              0.    -10.1477E+06
           43372    -34.4370E+06     6.27946E+06              0.    -10.0301E+06
           43373    -35.3103E+06     6.08596E+06              0.    -9.88841E+06
           43374    -36.2113E+06     5.86972E+06              0.    -9.72177E+06
           43375    -37.1420E+06     5.62919E+06              0.    -9.52963E+06
           43376    -38.1041E+06     5.36261E+06              0.    -9.31161E+06
           43377    -39.0998E+06     5.06795E+06              0.    -9.06764E+06
           43378    -40.1313E+06     4.74289E+06              0.    -8.79803E+06
           43379    -41.2008E+06     4.38464E+06              0.    -8.50349E+06
           43380    -42.3107E+06      3.9899E+06              0.    -8.18526E+06
           43381    -43.4634E+06     3.55468E+06              0.    -7.84520E+06
           43382    -44.6611E+06     3.07412E+06              0.    -7.48583E+06
           43383    -45.9060E+06     2.54223E+06              0.    -7.11049E+06
           43384    -47.1997E+06     1.95167E+06              0.    -6.72334E+06
           43385    -48.5436E+06     1.29336E+06              0.    -6.32944E+06
           43386    -49.9378E+06     556.128E+03              0.    -5.93478E+06
           43387    -51.3819E+06    -273.752E+03              0.    -5.54620E+06
           43388    -52.8737E+06    -1.21303E+06              0.    -5.17127E+06
           43389    -54.4093E+06    -2.28197E+06              0.    -4.81803E+06
           43390    -55.9827E+06    -3.50488E+06              0.    -4.49465E+06
           43391    -57.5855E+06    -4.91047E+06              0.    -4.20891E+06
           43392    -59.2065E+06    -6.53218E+06              0.    -3.96747E+06
           43393    -60.8315E+06    -8.40813E+06              0.    -3.77514E+06
           43394    -62.4435E+06    -10.5809E+06              0.    -3.63397E+06
           43395    -64.0230E+06    -13.0971E+06              0.    -3.54232E+06
           43396    -65.5480E+06    -16.0058E+06              0.    -3.49418E+06
           43397    -66.9952E+06    -19.3577E+06              0.    -3.47857E+06
           43398    -68.3404E+06    -23.2032E+06              0.    -3.47946E+06
           43399    -69.5592E+06    -27.5907E+06              0.    -3.47605E+06
           43400    -71.5723E+06    -33.0123E+06              0.    -3.42244E+06
           43401    -1.77917E+06    -801.058E+03              0.    -274.727E+03
           43402    -1.77376E+06    -750.800E+03              0.    -274.220E+03
           43403    -1.79013E+06    -711.249E+03              0.    -271.295E+03
           43404    -1.80633E+06    -672.481E+03              0.    -268.667E+03
           43405    -1.82238E+06    -634.471E+03              0.    -266.327E+03
           43406    -1.83829E+06    -597.194E+03              0.    -264.268E+03
           43407    -1.85409E+06    -560.625E+03              0.    -262.482E+03
           43408    -1.86979E+06    -524.741E+03              0.    -260.961E+03
           43409    -1.88540E+06    -489.520E+03              0.    -259.701E+03
           43410    -1.90093E+06    -454.940E+03              0.    -258.694E+03
           43411    -1.91640E+06    -420.979E+03              0.    -257.936E+03
           43412    -1.93183E+06    -387.617E+03              0.    -257.421E+03
           43413    -1.94723E+06    -354.833E+03              0.    -257.146E+03
           43414    -1.96261E+06    -322.608E+03              0.    -257.105E+03
           43415    -1.97798E+06    -290.924E+03              0.    -257.295E+03
           43416    -1.99336E+06    -259.761E+03              0.    -257.713E+03
           43417    -2.00875E+06    -229.100E+03              0.    -258.355E+03
           43418    -2.02418E+06    -198.926E+03              0.    -259.219E+03
           43419    -2.03965E+06    -169.220E+03              0.    -260.303E+03
           43420    -2.05518E+06    -139.965E+03              0.    -261.605E+03
           43421    -2.07078E+06    -111.146E+03              0.    -263.122E+03
           43422    -2.08646E+06    -82.7448E+03              0.    -264.855E+03
           43423    -2.10223E+06    -54.7476E+03              0.    -266.801E+03
           43424    -2.11811E+06    -27.1377E+03              0.     -268.96E+03
           43425    -2.13410E+06         99.6522              0.    -271.332E+03
           43426    -2.15022E+06     26.9790E+03              0.    -273.917E+03
           43427    -2.16648E+06     53.5158E+03              0.    -276.714E+03
           43428    -2.18289E+06     79.7236E+03              0.    -279.726E+03
           43429    -2.19947E+06     105.617E+03              0.    -282.951E+03
           43430    -2.21622E+06     131.210E+03              0.    -286.392E+03
           43431    -2.23316E+06     156.517E+03              0.    -290.050E+03
           43432    -2.25029E+06     181.550E+03              0.    -293.926E+03
           43433    -2.26764E+06     206.324E+03              0.    -298.023E+03
           43434    -2.28522E+06     230.852E+03              0.    -302.343E+03
           43435    -2.30302E+06     255.146E+03              0.    -306.888E+03
           43436    -2.32108E+06     279.220E+03              0.    -311.661E+03
           43437    -2.33940E+06     303.087E+03              0.    -316.665E+03
           43438    -2.35799E+06     326.759E+03              0.    -321.904E+03
           43439    -2.37687E+06     350.250E+03              0.    -327.381E+03
           43440    -2.39605E+06     373.572E+03              0.    -333.101E+03
           43441    -2.41554E+06     396.738E+03              0.    -339.067E+03
           43442    -2.43535E+06     419.761E+03              0.    -345.284E+03
           43443    -2.45551E+06     442.652E+03              0.    -351.757E+03
           43444    -2.47602E+06     465.425E+03              0.    -358.492E+03
           43445    -2.49690E+06     488.092E+03              0.    -365.493E+03
           43446    -2.51817E+06     510.666E+03              0.    -372.766E+03
           43447    -2.53983E+06     533.159E+03              0.    -380.317E+03
           43448    -2.56190E+06     555.584E+03              0.    -388.153E+03
           43449    -2.58441E+06     577.953E+03              0.    -396.281E+03
           43450    -2.60735E+06     600.280E+03              0.    -404.707E+03
           43451    -2.63076E+06     622.577E+03              0.    -413.439E+03
           43452    -2.65465E+06     644.858E+03              0.    -422.484E+03
           43453    -2.67903E+06     667.134E+03              0.    -431.851E+03
           43454    -2.70392E+06     689.419E+03              0.    -441.548E+03
           43455    -2.72934E+06     711.726E+03              0.    -451.584E+03
           43456    -2.75531E+06     734.069E+03              0.    -461.967E+03
           43457    -2.78184E+06     756.461E+03              0.    -472.708E+03
           43458    -2.80896E+06     778.916E+03              0.    -483.816E+03
           43459    -2.83669E+06     801.446E+03              0.    -495.301E+03
           43460    -2.86505E+06     824.066E+03              0.    -507.174E+03
           43461    -2.89405E+06     846.791E+03              0.    -519.446E+03
           43462    -2.92372E+06     869.634E+03              0.    -532.129E+03
           43463    -2.95408E+06     892.609E+03              0.    -545.234E+03
           43464    -2.98515E+06     915.732E+03              0.    -558.774E+03
           43465    -3.01696E+06     939.016E+03              0.    -572.761E+03
           43466    -3.04953E+06     962.478E+03              0.    -587.209E+03
           43467    -3.08289E+06     986.132E+03              0.    -602.131E+03
           43468    -3.11705E+06     1.00999E+06              0.    -617.542E+03
           43469    -3.15206E+06     1.03408E+06              0.    -633.456E+03
           43470    -3.18793E+06     1.05840E+06              0.    -649.888E+03
           43471    -3.22469E+06     1.08298E+06              0.    -666.853E+03
           43472    -3.26238E+06     1.10784E+06              0.    -684.368E+03
           43473    -3.30101E+06     1.13298E+06              0.     -702.45E+03
           43474    -3.34062E+06     1.15843E+06              0.    -721.115E+03
           43475    -3.38125E+06     1.18420E+06              0.    -740.381E+03
           43476    -3.42292E+06     1.21031E+06              0.    -760.267E+03
           43477    -3.46567E+06     1.23678E+06              0.    -780.791E+03
           43478    -3.50952E+06     1.26363E+06              0.    -801.973E+03
           43479    -3.55453E+06     1.29088E+06              0.    -823.832E+03
           43480    -3.60072E+06     1.31854E+06              0.    -846.388E+03
           43481    -3.64813E+06     1.34663E+06              0.    -869.664E+03
           43482    -3.69680E+06     1.37518E+06              0.    -893.681E+03
           43483    -3.74677E+06     1.40420E+06              0.    -918.460E+03
           43484    -3.79807E+06     1.43371E+06              0.    -944.026E+03
           43485    -3.85076E+06     1.46374E+06              0.    -970.401E+03
           43486    -3.90488E+06     1.49430E+06              0.    -997.610E+03
           43487    -3.96046E+06     1.52542E+06              0.    -1.02568E+06
           43488    -4.01756E+06     1.55712E+06              0.    -1.05463E+06
           43489    -4.07622E+06     1.58942E+06              0.    -1.08449E+06
           43490    -4.13650E+06     1.62234E+06              0.    -1.11529E+06
           43491    -4.19844E+06     1.65590E+06              0.    -1.14705E+06
           43492    -4.26209E+06     1.69013E+06              0.    -1.17981E+06
           43493    -4.32751E+06     1.72505E+06              0.    -1.21358E+06
           43494    -4.39475E+06     1.76069E+06              0.    -1.24841E+06
           43495    -4.46387E+06     1.79706E+06              0.    -1.28432E+06
           43496    -4.53493E+06     1.83419E+06              0.    -1.32134E+06
           43497    -4.60799E+06     1.87211E+06              0.    -1.35950E+06
           43498    -4.68310E+06     1.91084E+06              0.    -1.39884E+06
           43499    -4.76034E+06     1.95040E+06              0.    -1.43938E+06
           43500    -4.83976E+06     1.99082E+06              0.    -1.48117E+06
           43501    -4.92144E+06     2.03213E+06              0.    -1.52423E+06
           43502    -5.00543E+06     2.07435E+06              0.    -1.56860E+06
           43503    -5.09183E+06     2.11750E+06              0.    -1.61431E+06
           43504    -5.18069E+06     2.16161E+06              0.    -1.66141E+06
           43505    -5.27208E+06     2.20671E+06              0.    -1.70992E+06
           43506    -5.36610E+06     2.25281E+06              0.    -1.75989E+06
           43507    -5.46282E+06     2.29996E+06              0.    -1.81134E+06
           43508    -5.56231E+06     2.34816E+06              0.    -1.86433E+06
           43509    -5.66466E+06     2.39746E+06              0.    -1.91888E+06
           43510    -5.76996E+06     2.44786E+06              0.    -1.97503E+06
           43511    -5.87830E+06     2.49940E+06              0.    -2.03283E+06
           43512    -5.98975E+06     2.55210E+06              0.    -2.09231E+06
           43513    -6.10443E+06     2.60599E+06              0.    -2.15351E+06
           43514    -6.22241E+06     2.66108E+06              0.    -2.21647E+06
           43515    -6.34380E+06     2.71740E+06              0.    -2.28124E+06
           43516    -6.46870E+06     2.77497E+06              0.    -2.34784E+06
           43517    -6.59720E+06     2.83382E+06              0.    -2.41632E+06
           43518    -6.72942E+06     2.89396E+06              0.    -2.48672E+06
           43519    -6.86546E+06     2.95542E+06              0.    -2.55908E+06
           43520    -7.00543E+06     3.01821E+06              0.    -2.63344E+06
           43521    -7.14944E+06     3.08234E+06              0.    -2.70982E+06
           43522    -7.29760E+06     3.14785E+06              0.    -2.78828E+06
           43523    -7.45002E+06     3.21473E+06              0.    -2.86885E+06
           43524    -7.60685E+06     3.28300E+06              0.    -2.95156E+06
           43525    -7.76818E+06     3.35267E+06              0.    -3.03644E+06
           43526    -7.93415E+06     3.42375E+06              0.    -3.12354E+06
           43527    -8.10487E+06     3.49625E+06              0.    -3.21288E+06
           43528    -8.28049E+06     3.57018E+06              0.    -3.30449E+06
           43529    -8.46114E+06     3.64552E+06              0.    -3.39840E+06
           43530    -8.64694E+06     3.72228E+06              0.    -3.49464E+06
           43531    -8.83803E+06     3.80046E+06              0.    -3.59322E+06
           43532    -9.03456E+06     3.88004E+06              0.    -3.69418E+06
           43533    -9.23667E+06     3.96102E+06              0.    -3.79753E+06
           43534    -9.44449E+06     4.04338E+06              0.    -3.90328E+06
           43535    -9.65818E+06     4.12710E+06              0.    -4.01144E+06
           43536    -9.87788E+06     4.21215E+06              0.    -4.12202E+06
           43537    -10.1037E+06     4.29851E+06              0.    -4.23503E+06
           43538    -10.3359E+06     4.38613E+06              0.    -4.35046E+06
           43539    -10.5746E+06     4.47498E+06              0.    -4.46830E+06
           43540    -10.8199E+06     4.56502E+06              0.    -4.58854E+06
           43541    -11.0719E+06     4.65618E+06              0.    -4.71117E+06
           43542    -11.3310E+06     4.74841E+06              0.    -4.83614E+06
           43543    -11.5971E+06     4.84164E+06              0.    -4.96344E+06
           43544    -11.8705E+06     4.93579E+06              0.    -5.09302E+06
           43545    -12.1514E+06     5.03078E+06              0.    -5.22483E+06
           43546    -12.4398E+06     5.12653E+06              0.    -5.35881E+06
           43547    -12.7361E+06     5.22291E+06              0.    -5.49489E+06
           43548    -13.0403E+06     5.31982E+06              0.    -5.63299E+06
           43549    -13.3526E+06     5.41714E+06              0.    -5.77301E+06
           43550    -13.6732E+06     5.51474E+06              0.    -5.91486E+06
           43551    -14.0022E+06     5.61246E+06              0.    -6.05842E+06
           43552    -14.3399E+06     5.71015E+06              0.    -6.20355E+06
           43553    -14.6865E+06     5.80763E+06              0.    -6.35010E+06
           43554    -15.0420E+06     5.90471E+06              0.    -6.49792E+06
           43555    -15.4066E+06     6.00121E+06              0.    -6.64681E+06
           43556    -15.7806E+06     6.09689E+06              0.    -6.79658E+06
           43557    -16.1642E+06     6.19152E+06              0.    -6.94701E+06
           43558    -16.5574E+06     6.28486E+06              0.    -7.09785E+06
           43559    -16.9605E+06     6.37664E+06              0.    -7.24884E+06
           43560    -17.3737E+06     6.46656E+06              0.    -7.39968E+06
           43561    -17.7971E+06     6.55432E+06              0.    -7.55006E+06
           43562    -18.2309E+06     6.63960E+06              0.    -7.69964E+06
           43563    -18.6753E+06     6.72205E+06              0.    -7.84804E+06
           43564    -19.1305E+06     6.80129E+06              0.    -7.99486E+06
           43565    -19.5967E+06     6.87694E+06              0.    -8.13967E+06
           43566     -20.074E+06     6.94858E+06              0.    -8.28198E+06
           43567    -20.5627E+06     7.01577E+06              0.    -8.42129E+06
           43568    -21.0629E+06     7.07804E+06              0.    -8.55707E+06
           43569    -21.5749E+06     7.13490E+06              0.    -8.68871E+06
           43570    -22.0989E+06     7.18584E+06              0.     -8.8156E+06
           43571    -22.6351E+06     7.23031E+06              0.    -8.93706E+06
           43572    -23.1836E+06     7.26775E+06              0.    -9.05239E+06
           43573    -23.7449E+06     7.29755E+06              0.    -9.16080E+06
           43574    -24.3190E+06     7.31909E+06              0.    -9.26150E+06
           43575    -24.9064E+06     7.33171E+06              0.    -9.35363E+06
           43576    -25.5072E+06     7.33475E+06              0.    -9.43627E+06
           43577    -26.1219E+06     7.32748E+06              0.    -9.50848E+06
           43578    -26.7507E+06     7.30916E+06              0.    -9.56922E+06
           43579    -27.3941E+06     7.27905E+06              0.    -9.61746E+06
           43580    -28.0525E+06     7.23633E+06              0.    -9.65208E+06
           43581    -28.7264E+06     7.18019E+06              0.    -9.67192E+06
           43582    -29.4162E+06     7.10978E+06              0.    -9.67582E+06
           43583    -30.1227E+06     7.02422E+06              0.    -9.66252E+06
           43584    -30.8464E+06     6.92261E+06              0.    -9.63079E+06
           43585    -31.5882E+06     6.80401E+06              0.    -9.57934E+06
           43586    -32.3488E+06     6.66745E+06              0.    -9.50692E+06
           43587    -33.1293E+06     6.51193E+06              0.    -9.41224E+06
           43588    -33.9308E+06     6.33639E+06              0.    -9.29408E+06
           43589    -34.7545E+06     6.13973E+06              0.    -9.15127E+06
           43590    -35.6017E+06     5.92079E+06              0.    -8.98272E+06
           43591    -36.4739E+06     5.67832E+06              0.    -8.78747E+06
           43592    -37.3731E+06     5.41097E+06              0.    -8.56474E+06
           43593    -38.3009E+06     5.11724E+06              0.    -8.31396E+06
           43594    -39.2596E+06     4.79544E+06              0.    -8.03485E+06
           43595    -40.2515E+06     4.44365E+06              0.    -7.72753E+06
           43596    -41.2790E+06     4.05960E+06              0.    -7.39254E+06
           43597    -42.3448E+06     3.64059E+06              0.    -7.03098E+06
           43598    -43.4516E+06     3.18333E+06              0.    -6.64463E+06
           43599    -44.6023E+06     2.68378E+06              0.    -6.23603E+06
           43600    -45.7995E+06     2.13691E+06              0.    -5.80865E+06
           43601    -47.0460E+06     1.53640E+06              0.    -5.36697E+06
           43602    -48.3436E+06     874.272E+03              0.    -4.91662E+06
           43603    -49.6941E+06     140.502E+03              0.    -4.46440E+06
           43604    -51.0979E+06    -677.541E+03              0.    -4.01834E+06
           43605    -52.5541E+06    -1.59565E+06              0.    -3.58764E+06
           43606    -54.0601E+06    -2.63343E+06              0.    -3.18242E+06
           43607    -55.6109E+06    -3.81496E+06              0.    -2.81340E+06
           43608    -57.1989E+06    -5.16938E+06              0.    -2.49136E+06
           43609    -58.8131E+06    -6.73140E+06              0.    -2.22636E+06
           43610    -60.4394E+06    -8.54146E+06              0.    -2.02675E+06
           43611    -62.0598E+06    -10.6456E+06              0.    -1.89810E+06
           43612    -63.6533E+06    -13.0949E+06              0.    -1.84195E+06
           43613    -65.1959E+06    -15.9440E+06              0.    -1.85476E+06
           43614    -66.6617E+06    -19.2497E+06              0.    -1.92707E+06
           43615    -68.0238E+06    -23.0682E+06              0.    -2.04322E+06
           43616    -69.2555E+06    -27.4532E+06              0.    -2.18172E+06
           43617    -71.2844E+06    -32.9027E+06              0.    -2.17270E+06
           43618    -1.78662E+06    -804.424E+03              0.    -258.184E+03
           43619    -1.78116E+06    -753.790E+03              0.    -257.707E+03
           43620    -1.79765E+06    -713.948E+03              0.    -254.956E+03
           43621    -1.81397E+06    -674.896E+03              0.    -252.485E+03
           43622    -1.83014E+06    -636.609E+03              0.    -250.286E+03
           43623    -1.84618E+06    -599.063E+03              0.    -248.352E+03
           43624    -1.86209E+06    -562.232E+03              0.    -246.675E+03
           43625    -1.87791E+06    -526.094E+03              0.    -245.250E+03
           43626    -1.89363E+06    -490.623E+03              0.    -244.069E+03
           43627    -1.90928E+06    -455.799E+03              0.    -243.128E+03
           43628    -1.92488E+06    -421.599E+03              0.    -242.422E+03
           43629    -1.94043E+06    -388.002E+03              0.    -241.945E+03
           43630    -1.95594E+06    -354.989E+03              0.    -241.693E+03
           43631    -1.97144E+06    -322.538E+03              0.    -241.664E+03
           43632    -1.98694E+06    -290.630E+03              0.    -241.852E+03
           43633    -2.00244E+06    -259.247E+03              0.    -242.254E+03
           43634    -2.01797E+06    -228.370E+03              0.    -242.869E+03
           43635    -2.03353E+06    -197.981E+03              0.    -243.693E+03
           43636    -2.04914E+06    -168.063E+03              0.    -244.724E+03
           43637    -2.06480E+06    -138.597E+03              0.    -245.961E+03
           43638    -2.08054E+06    -109.568E+03              0.    -247.401E+03
           43639    -2.09636E+06    -80.9594E+03              0.    -249.044E+03
           43640    -2.11228E+06    -52.7547E+03              0.    -250.889E+03
           43641    -2.12831E+06    -24.9378E+03              0.    -252.935E+03
           43642    -2.14446E+06     2.50636E+03              0.    -255.182E+03
           43643    -2.16074E+06     29.5926E+03              0.    -257.629E+03
           43644    -2.17716E+06     56.3367E+03              0.    -260.278E+03
           43645    -2.19375E+06     82.7525E+03              0.    -263.128E+03
           43646    -2.21050E+06     108.855E+03              0.    -266.180E+03
           43647    -2.22743E+06     134.658E+03              0.    -269.435E+03
           43648    -2.24455E+06     160.177E+03              0.    -272.896E+03
           43649    -2.26188E+06     185.424E+03              0.    -276.562E+03
           43650    -2.27943E+06     210.413E+03              0.    -280.437E+03
           43651    -2.29721E+06     235.158E+03              0.    -284.522E+03
           43652    -2.31523E+06     259.673E+03              0.    -288.820E+03
           43653    -2.33351E+06     283.971E+03              0.    -293.334E+03
           43654    -2.35206E+06     308.064E+03              0.    -298.065E+03
           43655    -2.37089E+06     331.967E+03              0.    -303.019E+03
           43656    -2.39001E+06     355.692E+03              0.    -308.197E+03
           43657    -2.40944E+06     379.252E+03              0.    -313.605E+03
           43658    -2.42919E+06     402.659E+03              0.    -319.245E+03
           43659    -2.44928E+06     425.929E+03              0.    -325.123E+03
           43660    -2.46972E+06     449.072E+03              0.    -331.242E+03
           43661    -2.49053E+06     472.101E+03              0.    -337.608E+03
           43662    -2.51171E+06     495.030E+03              0.    -344.226E+03
           43663    -2.53328E+06     517.872E+03              0.    -351.102E+03
           43664    -2.55527E+06     540.639E+03              0.     -358.24E+03
           43665    -2.57768E+06     563.345E+03              0.    -365.647E+03
           43666    -2.60053E+06     586.001E+03              0.    -373.330E+03
           43667    -2.62384E+06     608.622E+03              0.    -381.295E+03
           43668    -2.64762E+06     631.221E+03              0.    -389.549E+03
           43669    -2.67189E+06     653.811E+03              0.      -398.1E+03
           43670    -2.69667E+06     676.404E+03              0.    -406.954E+03
           43671    -2.72198E+06     699.015E+03              0.    -416.121E+03
           43672    -2.74783E+06     721.656E+03              0.    -425.607E+03
           43673    -2.77424E+06     744.342E+03              0.    -435.423E+03
           43674    -2.80124E+06     767.087E+03              0.    -445.576E+03
           43675    -2.82884E+06     789.904E+03              0.    -456.077E+03
           43676    -2.85706E+06     812.807E+03              0.    -466.934E+03
           43677    -2.88592E+06     835.811E+03              0.    -478.158E+03
           43678    -2.91546E+06     858.930E+03              0.    -489.759E+03
           43679    -2.94568E+06     882.178E+03              0.    -501.749E+03
           43680    -2.97661E+06     905.571E+03              0.    -514.138E+03
           43681    -3.00827E+06     929.123E+03              0.    -526.939E+03
           43682    -3.04069E+06      952.85E+03              0.    -540.162E+03
           43683    -3.07389E+06     976.767E+03              0.    -553.822E+03
           43684    -3.10791E+06     1.00089E+06              0.    -567.929E+03
           43685    -3.14275E+06     1.02523E+06              0.    -582.499E+03
           43686    -3.17846E+06     1.04982E+06              0.    -597.544E+03
           43687    -3.21506E+06     1.07465E+06              0.     -613.08E+03
           43688    -3.25257E+06     1.09976E+06              0.    -629.120E+03
           43689    -3.29104E+06     1.12516E+06              0.    -645.681E+03
           43690    -3.33048E+06     1.15086E+06              0.    -662.777E+03
           43691    -3.37093E+06     1.17689E+06              0.    -680.424E+03
           43692    -3.41242E+06     1.20325E+06              0.    -698.641E+03
           43693    -3.45499E+06     1.22998E+06              0.    -717.443E+03
           43694    -3.49866E+06     1.25708E+06              0.    -736.849E+03
           43695    -3.54348E+06     1.28458E+06              0.    -756.877E+03
           43696    -3.58948E+06     1.31250E+06              0.    -777.545E+03
           43697    -3.63670E+06     1.34085E+06              0.    -798.874E+03
           43698    -3.68518E+06     1.36965E+06              0.    -820.882E+03
           43699    -3.73495E+06     1.39893E+06              0.    -843.592E+03
           43700    -3.78606E+06     1.42871E+06              0.    -867.022E+03
           43701    -3.83854E+06     1.45900E+06              0.    -891.196E+03
           43702    -3.89245E+06     1.48983E+06              0.    -916.135E+03
           43703    -3.94783E+06     1.52121E+06              0.    -941.863E+03
           43704    -4.00472E+06     1.55318E+06              0.    -968.403E+03
           43705    -4.06317E+06     1.58576E+06              0.    -995.778E+03
           43706    -4.12323E+06     1.61895E+06              0.    -1.02401E+06
           43707    -4.18495E+06     1.65280E+06              0.    -1.05314E+06
           43708    -4.24838E+06     1.68731E+06              0.    -1.08317E+06
           43709    -4.31358E+06     1.72253E+06              0.    -1.11414E+06
           43710    -4.38060E+06     1.75846E+06              0.    -1.14608E+06
           43711    -4.44949E+06     1.79513E+06              0.    -1.17901E+06
           43712    -4.52032E+06     1.83257E+06              0.    -1.21296E+06
           43713    -4.59314E+06     1.87080E+06              0.    -1.24797E+06
           43714    -4.66802E+06     1.90985E+06              0.    -1.28405E+06
           43715    -4.74502E+06     1.94974E+06              0.    -1.32124E+06
           43716    -4.82420E+06     1.99050E+06              0.    -1.35958E+06
           43717    -4.90563E+06     2.03215E+06              0.    -1.39909E+06
           43718    -4.98938E+06     2.07471E+06              0.    -1.43980E+06
           43719    -5.07552E+06     2.11822E+06              0.    -1.48175E+06
           43720    -5.16413E+06     2.16270E+06              0.    -1.52497E+06
           43721    -5.25527E+06     2.20818E+06              0.    -1.56949E+06
           43722    -5.34903E+06     2.25467E+06              0.    -1.61535E+06
           43723    -5.44549E+06     2.30222E+06              0.    -1.66259E+06
           43724    -5.54471E+06     2.35083E+06              0.    -1.71123E+06
           43725     -5.6468E+06     2.40055E+06              0.    -1.76131E+06
           43726    -5.75183E+06     2.45139E+06              0.    -1.81288E+06
           43727    -5.85989E+06     2.50337E+06              0.    -1.86595E+06
           43728    -5.97106E+06     2.55654E+06              0.    -1.92058E+06
           43729    -6.08546E+06     2.61090E+06              0.     -1.9768E+06
           43730    -6.20315E+06     2.66648E+06              0.    -2.03464E+06
           43731    -6.32425E+06     2.72331E+06              0.    -2.09414E+06
           43732    -6.44886E+06     2.78140E+06              0.    -2.15534E+06
           43733    -6.57706E+06     2.84079E+06              0.    -2.21828E+06
           43734    -6.70898E+06     2.90149E+06              0.    -2.28299E+06
           43735    -6.84470E+06     2.96352E+06              0.    -2.34951E+06
           43736    -6.98435E+06     3.02691E+06              0.    -2.41787E+06
           43737    -7.12804E+06     3.09166E+06              0.    -2.48811E+06
           43738    -7.27587E+06     3.15780E+06              0.    -2.56026E+06
           43739    -7.42796E+06     3.22534E+06              0.    -2.63437E+06
           43740    -7.58444E+06     3.29429E+06              0.    -2.71046E+06
           43741    -7.74541E+06     3.36467E+06              0.    -2.78857E+06
           43742    -7.91102E+06     3.43648E+06              0.    -2.86873E+06
           43743    -8.08137E+06     3.50973E+06              0.    -2.95096E+06
           43744    -8.25661E+06     3.58444E+06              0.    -3.03530E+06
           43745    -8.43685E+06     3.66059E+06              0.    -3.12178E+06
           43746    -8.62224E+06     3.73819E+06              0.    -3.21042E+06
           43747    -8.81291E+06     3.81723E+06              0.    -3.30124E+06
           43748    -9.00900E+06     3.89771E+06              0.    -3.39427E+06
           43749    -9.21064E+06     3.97961E+06              0.    -3.48952E+06
           43750    -9.41798E+06     4.06293E+06              0.    -3.58700E+06
           43751    -9.63117E+06     4.14764E+06              0.    -3.68674E+06
           43752    -9.85034E+06     4.23371E+06              0.    -3.78874E+06
           43753    -10.0757E+06     4.32112E+06              0.    -3.89300E+06
           43754    -10.3073E+06     4.40984E+06              0.    -3.99952E+06
           43755    -10.5453E+06     4.49982E+06              0.     -4.1083E+06
           43756    -10.7899E+06     4.59102E+06              0.    -4.21933E+06
           43757    -11.0413E+06     4.68339E+06              0.    -4.33259E+06
           43758    -11.2996E+06     4.77686E+06              0.    -4.44807E+06
           43759    -11.5649E+06     4.87136E+06              0.    -4.56573E+06
           43760    -11.8375E+06     4.96683E+06              0.    -4.68554E+06
           43761    -12.1175E+06     5.06318E+06              0.    -4.80745E+06
           43762    -12.4050E+06     5.16032E+06              0.    -4.93142E+06
           43763    -12.7002E+06     5.25814E+06              0.    -5.05738E+06
           43764    -13.0032E+06     5.35652E+06              0.    -5.18526E+06
           43765    -13.3143E+06     5.45536E+06              0.    -5.31498E+06
           43766    -13.6336E+06     5.55450E+06              0.    -5.44645E+06
           43767    -13.9613E+06     5.65381E+06              0.    -5.57956E+06
           43768    -14.2974E+06     5.75312E+06              0.    -5.71420E+06
           43769    -14.6423E+06     5.85225E+06              0.    -5.85023E+06
           43770    -14.9960E+06     5.95103E+06              0.    -5.98750E+06
           43771    -15.3587E+06     6.04924E+06              0.    -6.12584E+06
           43772    -15.7305E+06     6.14667E+06              0.    -6.26509E+06
           43773    -16.1117E+06     6.24308E+06              0.    -6.40502E+06
           43774    -16.5024E+06     6.33821E+06              0.    -6.54544E+06
           43775    -16.9027E+06     6.43179E+06              0.    -6.68608E+06
           43776    -17.3128E+06     6.52353E+06              0.    -6.82669E+06
           43777    -17.7328E+06     6.61313E+06              0.    -6.96697E+06
           43778    -18.1629E+06     6.70023E+06              0.    -7.10662E+06
           43779    -18.6033E+06     6.78449E+06              0.    -7.24528E+06
           43780    -19.0540E+06     6.86554E+06              0.    -7.38258E+06
           43781    -19.5153E+06     6.94296E+06              0.    -7.51812E+06
           43782    -19.9873E+06     7.01634E+06              0.    -7.65146E+06
           43783    -20.4701E+06     7.08521E+06              0.    -7.78213E+06
           43784    -20.9639E+06     7.14911E+06              0.    -7.90962E+06
           43785    -21.4688E+06     7.20753E+06              0.    -8.03338E+06
           43786    -21.9849E+06     7.25993E+06              0.    -8.15283E+06
           43787    -22.5125E+06     7.30576E+06              0.    -8.26733E+06
           43788    -23.0516E+06     7.34442E+06              0.    -8.37620E+06
           43789    -23.6025E+06     7.37531E+06              0.    -8.47872E+06
           43790    -24.1652E+06     7.39777E+06              0.    -8.57413E+06
           43791    -24.7400E+06     7.41112E+06              0.    -8.66158E+06
           43792    -25.3270E+06     7.41467E+06              0.    -8.74022E+06
           43793    -25.9264E+06     7.40767E+06              0.    -8.80910E+06
           43794    -26.5385E+06     7.38937E+06              0.    -8.86726E+06
           43795    -27.1635E+06     7.35897E+06              0.    -8.91364E+06
           43796    -27.8016E+06     7.31565E+06              0.    -8.94716E+06
           43797    -28.4532E+06     7.25858E+06              0.    -8.96667E+06
           43798    -29.1186E+06     7.18688E+06              0.    -8.97096E+06
           43799    -29.7981E+06     7.09966E+06              0.    -8.95879E+06
           43800    -30.4923E+06       6.996E+06              0.    -8.92886E+06
           43801    -31.2016E+06     6.87497E+06              0.    -8.87984E+06
           43802    -31.9267E+06     6.73560E+06              0.    -8.81035E+06
           43803    -32.6682E+06     6.57693E+06              0.    -8.71903E+06
           43804    -33.4270E+06     6.39795E+06              0.    -8.60447E+06
           43805    -34.2038E+06     6.19765E+06              0.    -8.46530E+06
           43806    -35.0000E+06     5.97499E+06              0.    -8.30019E+06
           43807    -35.8165E+06     5.72891E+06              0.    -8.10787E+06
           43808    -36.6549E+06     5.45827E+06              0.    -7.88716E+06
           43809    -37.5168E+06     5.16193E+06              0.    -7.63707E+06
           43810    -38.4041E+06     4.83863E+06              0.    -7.35678E+06
           43811    -39.3187E+06     4.48701E+06              0.    -7.04577E+06
           43812    -40.2631E+06     4.10556E+06              0.    -6.70386E+06
           43813    -41.2399E+06     3.69253E+06              0.    -6.33135E+06
           43814    -42.2518E+06     3.24585E+06              0.    -5.92909E+06
           43815    -43.3021E+06     2.76300E+06              0.    -5.49864E+06
           43816    -44.3941E+06     2.24084E+06              0.    -5.04240E+06
           43817    -45.5310E+06     1.67541E+06              0.    -4.56382E+06
           43818    -46.7164E+06     1.06162E+06              0.    -4.06751E+06
           43819    -47.9534E+06     392.857E+03              0.    -3.55942E+06
           43820    -49.2448E+06    -339.441E+03              0.    -3.04705E+06
           43821    -50.5925E+06    -1.14640E+06              0.    -2.53947E+06
           43822    -51.9972E+06    -2.04236E+06              0.    -2.04739E+06
           43823    -53.4579E+06    -3.04570E+06              0.    -1.58305E+06
           43824    -54.9711E+06    -4.17970E+06              0.    -1.15988E+06
           43825    -56.5306E+06    -5.47338E+06              0.    -792.031E+03
           43826    -58.1262E+06    -6.96230E+06              0.    -493.458E+03
           43827    -59.7439E+06    -8.68903E+06              0.    -276.827E+03
           43828    -61.3653E+06    -10.7032E+06              0.    -152.064E+03
           43829    -62.9678E+06    -13.0611E+06              0.    -124.754E+03
           43830    -64.5252E+06    -15.8237E+06              0.    -194.599E+03
           43831    -66.0085E+06    -19.0553E+06              0.    -354.153E+03
           43832    -67.3877E+06    -22.8198E+06              0.    -588.218E+03
           43833    -68.6329E+06    -27.1775E+06              0.    -874.138E+03
           43834    -70.6716E+06    -32.6314E+06              0.    -911.332E+03
           43835    -1.79360E+06    -807.585E+03              0.    -241.521E+03
           43836    -1.78811E+06    -756.597E+03              0.    -241.075E+03
           43837    -1.80471E+06    -716.479E+03              0.    -238.500E+03
           43838    -1.82115E+06    -677.160E+03              0.    -236.187E+03
           43839    -1.83743E+06    -638.614E+03              0.    -234.131E+03
           43840    -1.85358E+06    -600.815E+03              0.    -232.322E+03
           43841    -1.86961E+06    -563.738E+03              0.    -230.755E+03
           43842    -1.88553E+06    -527.359E+03              0.    -229.425E+03
           43843    -1.90137E+06    -491.653E+03              0.    -228.324E+03
           43844    -1.91713E+06    -456.599E+03              0.    -227.448E+03
           43845    -1.93284E+06    -422.174E+03              0.    -226.792E+03
           43846    -1.94850E+06    -388.357E+03              0.    -226.352E+03
           43847    -1.96413E+06    -355.127E+03              0.    -226.124E+03
           43848    -1.97974E+06    -322.463E+03              0.    -226.103E+03
           43849    -1.99536E+06    -290.346E+03              0.    -226.287E+03
           43850    -2.01098E+06    -258.756E+03              0.    -226.673E+03
           43851    -2.02663E+06    -227.675E+03              0.    -227.257E+03
           43852    -2.04231E+06    -197.084E+03              0.    -228.038E+03
           43853    -2.05804E+06    -166.965E+03              0.    -229.014E+03
           43854    -2.07384E+06    -137.302E+03              0.    -230.183E+03
           43855    -2.08971E+06    -108.076E+03              0.    -231.543E+03
           43856    -2.10567E+06    -79.2707E+03              0.    -233.093E+03
           43857    -2.12172E+06    -50.8707E+03              0.    -234.833E+03
           43858    -2.13789E+06    -22.8589E+03              0.    -236.761E+03
           43859    -2.15419E+06     4.77992E+03              0.    -238.878E+03
           43860    -2.17062E+06      32.061E+03              0.    -241.184E+03
           43861    -2.18720E+06     59.0003E+03              0.    -243.678E+03
           43862    -2.20395E+06     85.6119E+03              0.    -246.362E+03
           43863    -2.22086E+06     111.911E+03              0.    -249.235E+03
           43864    -2.23796E+06     137.913E+03              0.    -252.300E+03
           43865    -2.25527E+06     163.630E+03              0.    -255.557E+03
           43866    -2.27278E+06     189.078E+03              0.    -259.008E+03
           43867    -2.29052E+06     214.271E+03              0.    -262.654E+03
           43868    -2.30849E+06     239.221E+03              0.    -266.498E+03
           43869    -2.32671E+06     263.944E+03              0.    -270.542E+03
           43870    -2.34520E+06     288.452E+03              0.    -274.789E+03
           43871    -2.36396E+06     312.759E+03              0.    -279.240E+03
           43872    -2.38301E+06     336.878E+03              0.    -283.900E+03
           43873    -2.40237E+06     360.824E+03              0.    -288.772E+03
           43874    -2.42204E+06     384.608E+03              0.    -293.859E+03
           43875    -2.44204E+06     408.244E+03              0.    -299.164E+03
           43876    -2.46238E+06     431.745E+03              0.    -304.693E+03
           43877    -2.48309E+06     455.125E+03              0.    -310.449E+03
           43878    -2.50417E+06     478.397E+03              0.    -316.437E+03
           43879    -2.52563E+06     501.573E+03              0.    -322.662E+03
           43880    -2.54750E+06     524.668E+03              0.    -329.128E+03
           43881    -2.56979E+06     547.693E+03              0.    -335.843E+03
           43882    -2.59252E+06     570.663E+03              0.    -342.810E+03
           43883    -2.61570E+06     593.591E+03              0.    -350.036E+03
           43884    -2.63935E+06     616.489E+03              0.    -357.528E+03
           43885    -2.66348E+06     639.372E+03              0.    -365.291E+03
           43886    -2.68812E+06     662.253E+03              0.    -373.333E+03
           43887    -2.71327E+06     685.146E+03              0.    -381.661E+03
           43888    -2.73897E+06     708.063E+03              0.    -390.283E+03
           43889    -2.76523E+06     731.020E+03              0.    -399.206E+03
           43890    -2.79206E+06     754.030E+03              0.    -408.438E+03
           43891    -2.81949E+06     777.108E+03              0.    -417.988E+03
           43892    -2.84754E+06     800.266E+03              0.    -427.865E+03
           43893    -2.87623E+06     823.521E+03              0.    -438.077E+03
           43894    -2.90558E+06     846.886E+03              0.    -448.635E+03
           43895    -2.93561E+06     870.377E+03              0.    -459.547E+03
           43896    -2.96635E+06     894.008E+03              0.    -470.825E+03
           43897    -2.99782E+06     917.795E+03              0.    -482.479E+03
           43898    -3.03004E+06     941.753E+03              0.    -494.520E+03
           43899    -3.06304E+06     965.897E+03              0.    -506.959E+03
           43900    -3.09684E+06     990.243E+03              0.    -519.808E+03
           43901    -3.13147E+06     1.01481E+06              0.    -533.078E+03
           43902    -3.16696E+06     1.03961E+06              0.    -546.784E+03
           43903    -3.20333E+06     1.06466E+06              0.    -560.938E+03
           43904    -3.24061E+06     1.08998E+06              0.    -575.552E+03
           43905    -3.27884E+06     1.11559E+06              0.    -590.641E+03
           43906    -3.31804E+06     1.14150E+06              0.    -606.220E+03
           43907    -3.35824E+06     1.16773E+06              0.    -622.303E+03
           43908    -3.39948E+06     1.19430E+06              0.    -638.906E+03
           43909    -3.44179E+06     1.22123E+06              0.    -656.043E+03
           43910    -3.48521E+06     1.24853E+06              0.    -673.732E+03
           43911    -3.52976E+06     1.27623E+06              0.    -691.988E+03
           43912    -3.57548E+06     1.30434E+06              0.    -710.830E+03
           43913    -3.62242E+06     1.33289E+06              0.    -730.275E+03
           43914    -3.67061E+06     1.36189E+06              0.    -750.341E+03
           43915    -3.72009E+06     1.39136E+06              0.    -771.047E+03
           43916    -3.77090E+06     1.42134E+06              0.    -792.411E+03
           43917    -3.82308E+06     1.45182E+06              0.    -814.455E+03
           43918    -3.87668E+06     1.48285E+06              0.    -837.198E+03
           43919    -3.93174E+06     1.51443E+06              0.    -860.662E+03
           43920    -3.98831E+06     1.54660E+06              0.    -884.867E+03
           43921    -4.04643E+06     1.57937E+06              0.    -909.836E+03
           43922    -4.10616E+06     1.61277E+06              0.    -935.592E+03
           43923    -4.16754E+06     1.64681E+06              0.    -962.157E+03
           43924    -4.23062E+06     1.68153E+06              0.    -989.555E+03
           43925    -4.29546E+06     1.71695E+06              0.    -1.01781E+06
           43926    -4.36212E+06     1.75308E+06              0.    -1.04695E+06
           43927    -4.43064E+06     1.78997E+06              0.    -1.07700E+06
           43928    -4.50109E+06     1.82762E+06              0.    -1.10798E+06
           43929    -4.57353E+06     1.86607E+06              0.    -1.13992E+06
           43930    -4.64801E+06     1.90534E+06              0.    -1.17285E+06
           43931    -4.72461E+06     1.94545E+06              0.    -1.20680E+06
           43932    -4.80338E+06     1.98643E+06              0.    -1.24179E+06
           43933    -4.88440E+06     2.02832E+06              0.    -1.27785E+06
           43934    -4.96772E+06     2.07112E+06              0.    -1.31502E+06
           43935    -5.05343E+06     2.11488E+06              0.    -1.35331E+06
           43936    -5.14160E+06     2.15960E+06              0.    -1.39278E+06
           43937    -5.23229E+06     2.20534E+06              0.    -1.43343E+06
           43938    -5.32559E+06     2.25210E+06              0.    -1.47531E+06
           43939    -5.42157E+06     2.29991E+06              0.    -1.51845E+06
           43940    -5.52032E+06     2.34881E+06              0.    -1.56288E+06
           43941    -5.62192E+06     2.39881E+06              0.    -1.60863E+06
           43942    -5.72645E+06     2.44994E+06              0.    -1.65574E+06
           43943    -5.83399E+06     2.50224E+06              0.    -1.70423E+06
           43944    -5.94465E+06     2.55572E+06              0.    -1.75415E+06
           43945    -6.05851E+06     2.61041E+06              0.    -1.80553E+06
           43946    -6.17567E+06     2.66633E+06              0.    -1.85839E+06
           43947    -6.29621E+06     2.72351E+06              0.    -1.91278E+06
           43948    -6.42025E+06     2.78197E+06              0.    -1.96873E+06
           43949    -6.54787E+06     2.84174E+06              0.    -2.02628E+06
           43950    -6.67920E+06     2.90283E+06              0.    -2.08545E+06
           43951    -6.81432E+06     2.96528E+06              0.    -2.14629E+06
           43952    -6.95335E+06     3.02908E+06              0.    -2.20882E+06
           43953    -7.09640E+06     3.09428E+06              0.    -2.27308E+06
           43954    -7.24358E+06     3.16088E+06              0.    -2.33911E+06
           43955    -7.39501E+06     3.22890E+06              0.    -2.40693E+06
           43956    -7.55080E+06     3.29835E+06              0.    -2.47658E+06
           43957    -7.71108E+06     3.36925E+06              0.    -2.54808E+06
           43958    -7.87596E+06     3.44161E+06              0.    -2.62148E+06
           43959    -8.04558E+06     3.51543E+06              0.    -2.69679E+06
           43960    -8.22006E+06     3.59072E+06              0.    -2.77405E+06
           43961    -8.39953E+06     3.66749E+06              0.    -2.85329E+06
           43962    -8.58413E+06     3.74573E+06              0.    -2.93451E+06
           43963    -8.77397E+06     3.82544E+06              0.    -3.01776E+06
           43964    -8.96921E+06     3.90662E+06              0.    -3.10305E+06
           43965    -9.16999E+06     3.98925E+06              0.    -3.19040E+06
           43966    -9.37643E+06     4.07333E+06              0.    -3.27982E+06
           43967    -9.58868E+06     4.15883E+06              0.    -3.37133E+06
           43968    -9.80690E+06     4.24573E+06              0.    -3.46493E+06
           43969    -10.0312E+06     4.33400E+06              0.    -3.56064E+06
           43970    -10.2618E+06     4.42362E+06              0.    -3.65846E+06
           43971    -10.4988E+06     4.51454E+06              0.    -3.75837E+06
           43972    -10.7423E+06     4.60671E+06              0.    -3.86039E+06
           43973    -10.9925E+06     4.70009E+06              0.    -3.96449E+06
           43974    -11.2496E+06     4.79462E+06              0.    -4.07066E+06
           43975    -11.5137E+06     4.89023E+06              0.    -4.17888E+06
           43976    -11.7849E+06     4.98684E+06              0.    -4.28911E+06
           43977    -12.0635E+06     5.08438E+06              0.    -4.40132E+06
           43978    -12.3496E+06     5.18275E+06              0.    -4.51547E+06
           43979    -12.6433E+06     5.28185E+06              0.    -4.63150E+06
           43980    -12.9447E+06     5.38157E+06              0.    -4.74936E+06
           43981    -13.2542E+06     5.48179E+06              0.    -4.86896E+06
           43982    -13.5717E+06     5.58236E+06              0.    -4.99023E+06
           43983    -13.8975E+06     5.68315E+06              0.    -5.11308E+06
           43984    -14.2316E+06     5.78400E+06              0.    -5.23740E+06
           43985    -14.5744E+06     5.88471E+06              0.    -5.36308E+06
           43986    -14.9258E+06     5.98513E+06              0.    -5.48997E+06
           43987    -15.2862E+06     6.08502E+06              0.    -5.61794E+06
           43988    -15.6555E+06     6.18418E+06              0.    -5.74682E+06
           43989    -16.0339E+06     6.28237E+06              0.    -5.87643E+06
           43990    -16.4217E+06     6.37933E+06              0.    -6.00658E+06
           43991    -16.8188E+06     6.47478E+06              0.    -6.13703E+06
           43992    -17.2256E+06     6.56844E+06              0.    -6.26756E+06
           43993    -17.6420E+06     6.65998E+06              0.    -6.39790E+06
           43994    -18.0682E+06     6.74907E+06              0.    -6.52776E+06
           43995    -18.5044E+06     6.83535E+06              0.    -6.65683E+06
           43996    -18.9506E+06     6.91844E+06              0.    -6.78477E+06
           43997    -19.4070E+06     6.99792E+06              0.    -6.91121E+06
           43998    -19.8736E+06     7.07336E+06              0.    -7.03575E+06
           43999    -20.3506E+06     7.14430E+06              0.    -7.15796E+06
           44000    -20.8381E+06     7.21025E+06              0.    -7.27736E+06
           44001    -21.3362E+06     7.27070E+06              0.    -7.39346E+06
           44002    -21.8448E+06     7.32511E+06              0.    -7.50570E+06
           44003    -22.3643E+06     7.37289E+06              0.    -7.61349E+06
           44004    -22.8945E+06     7.41344E+06              0.    -7.71622E+06
           44005    -23.4357E+06     7.44613E+06              0.    -7.81319E+06
           44006    -23.9878E+06     7.47029E+06              0.    -7.90369E+06
           44007    -24.5510E+06     7.48522E+06              0.    -7.98694E+06
           44008    -25.1253E+06     7.49020E+06              0.    -8.06211E+06
           44009    -25.7108E+06     7.48445E+06              0.    -8.12832E+06
           44010    -26.3076E+06      7.4672E+06              0.    -8.18462E+06
           44011    -26.9158E+06     7.43762E+06              0.    -8.23002E+06
           44012    -27.5356E+06     7.39485E+06              0.    -8.26346E+06
           44013    -28.1670E+06     7.33803E+06              0.    -8.28382E+06
           44014    -28.8102E+06     7.26625E+06              0.    -8.28992E+06
           44015    -29.4653E+06     7.17858E+06              0.    -8.28051E+06
           44016    -30.1328E+06     7.07407E+06              0.    -8.25430E+06
           44017    -30.8126E+06     6.95176E+06              0.    -8.20994E+06
           44018    -31.5054E+06     6.81067E+06              0.    -8.14601E+06
           44019    -32.2113E+06     6.64981E+06              0.    -8.06106E+06
           44020    -32.9310E+06     6.46816E+06              0.    -7.95360E+06
           44021    -33.6650E+06     6.26474E+06              0.    -7.82214E+06
           44022    -34.4139E+06     6.03852E+06              0.    -7.66513E+06
           44023    -35.1788E+06     5.78852E+06              0.    -7.48109E+06
           44024    -35.9606E+06     5.51373E+06              0.    -7.26854E+06
           44025    -36.7605E+06     5.21313E+06              0.    -7.02611E+06
           44026    -37.5799E+06     4.88574E+06              0.    -6.75253E+06
           44027    -38.4205E+06     4.53052E+06              0.    -6.44672E+06
           44028    -39.2844E+06     4.14641E+06              0.    -6.10784E+06
           44029    -40.1738E+06     3.73230E+06              0.    -5.73538E+06
           44030    -41.0913E+06     3.28693E+06              0.    -5.32928E+06
           44031    -42.0399E+06     2.80888E+06              0.    -4.89003E+06
           44032    -43.0230E+06     2.29642E+06              0.    -4.41884E+06
           44033    -44.0442E+06     1.74740E+06              0.    -3.91780E+06
           44034    -45.1077E+06     1.15901E+06              0.    -3.39011E+06
           44035    -46.2175E+06     527.560E+03              0.    -2.84026E+06
           44036    -47.3781E+06    -151.957E+03              0.    -2.27433E+06
           44037    -48.5935E+06    -886.299E+03              0.    -1.70019E+06
           44038    -49.8674E+06    -1.68463E+06              0.    -1.12771E+06
           44039    -51.2023E+06    -2.55929E+06              0.    -568.944E+03
           44040    -52.5993E+06    -3.52675E+06              0.    -38.1391E+03
           44041    -54.0572E+06    -4.60872E+06              0.     448.469E+03
           44042    -55.5715E+06    -5.83331E+06              0.     873.091E+03
           44043    -57.1337E+06    -7.23627E+06              0.     1.21728E+06
           44044    -58.7305E+06    -8.86185E+06              0.     1.46323E+06
           44045    -60.3435E+06    -10.7633E+06              0.     1.59553E+06
           44046    -61.9488E+06    -13.0025E+06              0.     1.60337E+06
           44047    -63.5174E+06    -15.6483E+06              0.     1.48268E+06
           44048    -65.0173E+06    -18.7743E+06              0.     1.23812E+06
           44049    -66.4144E+06    -22.4540E+06              0.     884.219E+03
           44050    -67.6749E+06    -26.7567E+06              0.     445.317E+03
           44051    -69.7186E+06    -32.1915E+06              0.     360.684E+03
           44052    -1.80013E+06    -810.537E+03              0.    -224.747E+03
           44053    -1.79460E+06    -759.219E+03              0.    -224.331E+03
           44054    -1.81131E+06    -718.843E+03              0.    -221.933E+03
           44055    -1.82785E+06    -679.273E+03              0.    -219.781E+03
           44056    -1.84424E+06    -640.484E+03              0.    -217.867E+03
           44057    -1.86049E+06    -602.448E+03              0.    -216.185E+03
           44058    -1.87663E+06    -565.140E+03              0.    -214.728E+03
           44059    -1.89266E+06    -528.536E+03              0.    -213.492E+03
           44060    -1.90860E+06    -492.610E+03              0.    -212.471E+03
           44061    -1.92446E+06    -457.341E+03              0.    -211.660E+03
           44062    -1.94027E+06    -422.706E+03              0.    -211.054E+03
           44063    -1.95604E+06    -388.682E+03              0.    -210.650E+03
           44064    -1.97178E+06    -355.250E+03              0.    -210.443E+03
           44065    -1.98750E+06    -322.386E+03              0.    -210.430E+03
           44066    -2.00322E+06    -290.073E+03              0.    -210.609E+03
           44067    -2.01896E+06    -258.290E+03              0.    -210.975E+03
           44068    -2.03472E+06    -227.017E+03              0.    -211.528E+03
           44069    -2.05052E+06    -196.237E+03              0.    -212.263E+03
           44070    -2.06637E+06    -165.931E+03              0.    -213.181E+03
           44071    -2.08228E+06    -136.081E+03              0.    -214.279E+03
           44072    -2.09828E+06    -106.671E+03              0.    -215.555E+03
           44073    -2.11436E+06    -77.6824E+03              0.    -217.009E+03
           44074    -2.13055E+06    -49.0995E+03              0.    -218.640E+03
           44075    -2.14686E+06    -20.9053E+03              0.    -220.447E+03
           44076    -2.16329E+06     6.91594E+03              0.    -222.431E+03
           44077    -2.17986E+06     34.3795E+03              0.    -224.590E+03
           44078    -2.19659E+06     61.5016E+03              0.    -226.926E+03
           44079    -2.21348E+06     88.2966E+03              0.    -229.438E+03
           44080    -2.23055E+06     114.780E+03              0.    -232.128E+03
           44081    -2.24782E+06     140.967E+03              0.    -234.997E+03
           44082    -2.26528E+06     166.871E+03              0.    -238.045E+03
           44083    -2.28297E+06     192.508E+03              0.    -241.274E+03
           44084    -2.30088E+06     217.891E+03              0.    -244.686E+03
           44085    -2.31904E+06     243.034E+03              0.    -248.282E+03
           44086    -2.33745E+06     267.951E+03              0.    -252.066E+03
           44087    -2.35613E+06     292.656E+03              0.    -256.038E+03
           44088    -2.37510E+06     317.164E+03              0.    -260.203E+03
           44089    -2.39436E+06     341.486E+03              0.    -264.562E+03
           44090    -2.41393E+06     365.638E+03              0.    -269.119E+03
           44091    -2.43382E+06     389.632E+03              0.    -273.876E+03
           44092    -2.45406E+06     413.482E+03              0.    -278.839E+03
           44093    -2.47464E+06     437.202E+03              0.    -284.010E+03
           44094    -2.49559E+06     460.804E+03              0.    -289.394E+03
           44095    -2.51693E+06     484.303E+03              0.    -294.994E+03
           44096    -2.53866E+06     507.711E+03              0.    -300.816E+03
           44097    -2.56081E+06     531.042E+03              0.    -306.864E+03
           44098    -2.58339E+06     554.310E+03              0.    -313.144E+03
           44099    -2.60641E+06     577.528E+03              0.    -319.660E+03
           44100    -2.62990E+06     600.709E+03              0.    -326.418E+03
           44101    -2.65386E+06     623.868E+03              0.    -333.424E+03
           44102    -2.67833E+06     647.018E+03              0.    -340.685E+03
           44103    -2.70331E+06     670.172E+03              0.    -348.207E+03
           44104    -2.72882E+06     693.345E+03              0.    -355.996E+03
           44105    -2.75488E+06     716.551E+03              0.    -364.059E+03
           44106    -2.78152E+06     739.804E+03              0.    -372.404E+03
           44107    -2.80875E+06     763.117E+03              0.    -381.039E+03
           44108    -2.83659E+06     786.507E+03              0.    -389.971E+03
           44109    -2.86506E+06     809.987E+03              0.    -399.208E+03
           44110    -2.89419E+06     833.571E+03              0.    -408.759E+03
           44111    -2.92399E+06     857.276E+03              0.    -418.634E+03
           44112    -2.95449E+06     881.115E+03              0.    -428.840E+03
           44113    -2.98572E+06     905.106E+03              0.    -439.389E+03
           44114    -3.01769E+06     929.262E+03              0.    -450.289E+03
           44115    -3.05043E+06     953.600E+03              0.    -461.551E+03
           44116    -3.08397E+06     978.136E+03              0.    -473.185E+03
           44117    -3.11833E+06     1.00289E+06              0.    -485.204E+03
           44118    -3.15354E+06     1.02787E+06              0.    -497.617E+03
           44119    -3.18963E+06     1.05309E+06              0.    -510.437E+03
           44120    -3.22663E+06     1.07859E+06              0.    -523.675E+03
           44121    -3.26456E+06     1.10436E+06              0.    -537.346E+03
           44122    -3.30345E+06     1.13043E+06              0.    -551.460E+03
           44123    -3.34334E+06     1.15683E+06              0.    -566.033E+03
           44124    -3.38426E+06     1.18355E+06              0.    -581.077E+03
           44125    -3.42624E+06     1.21063E+06              0.    -596.607E+03
           44126    -3.46932E+06     1.23809E+06              0.    -612.638E+03
           44127    -3.51353E+06     1.26593E+06              0.    -629.185E+03
           44128    -3.55890E+06     1.29419E+06              0.    -646.263E+03
           44129    -3.60547E+06     1.32288E+06              0.    -663.888E+03
           44130    -3.65329E+06     1.35202E+06              0.    -682.078E+03
           44131    -3.70239E+06     1.38163E+06              0.    -700.849E+03
           44132    -3.75282E+06     1.41174E+06              0.    -720.218E+03
           44133    -3.80460E+06     1.44236E+06              0.    -740.205E+03
           44134    -3.85779E+06     1.47351E+06              0.    -760.826E+03
           44135    -3.91244E+06     1.50523E+06              0.    -782.102E+03
           44136    -3.96858E+06     1.53752E+06              0.    -804.052E+03
           44137    -4.02627E+06     1.57042E+06              0.    -826.695E+03
           44138    -4.08554E+06     1.60394E+06              0.    -850.053E+03
           44139    -4.14647E+06     1.63811E+06              0.    -874.147E+03
           44140    -4.20908E+06     1.67295E+06              0.    -898.998E+03
           44141    -4.27344E+06     1.70849E+06              0.    -924.629E+03
           44142    -4.33960E+06     1.74475E+06              0.    -951.061E+03
           44143    -4.40763E+06     1.78176E+06              0.    -978.320E+03
           44144    -4.47756E+06     1.81953E+06              0.    -1.00643E+06
           44145    -4.54947E+06     1.85810E+06              0.    -1.03541E+06
           44146    -4.62342E+06     1.89750E+06              0.    -1.06529E+06
           44147    -4.69947E+06     1.93774E+06              0.    -1.09609E+06
           44148    -4.77767E+06     1.97885E+06              0.    -1.12785E+06
           44149    -4.85811E+06     2.02086E+06              0.    -1.16058E+06
           44150    -4.94085E+06     2.06380E+06              0.    -1.19431E+06
           44151    -5.02595E+06     2.10769E+06              0.    -1.22908E+06
           44152    -5.11350E+06     2.15255E+06              0.    -1.26490E+06
           44153    -5.20356E+06     2.19843E+06              0.    -1.30181E+06
           44154    -5.29620E+06     2.24533E+06              0.    -1.33984E+06
           44155    -5.39152E+06     2.29329E+06              0.    -1.37901E+06
           44156    -5.48959E+06     2.34234E+06              0.    -1.41935E+06
           44157    -5.59049E+06     2.39251E+06              0.    -1.46091E+06
           44158    -5.69431E+06     2.44381E+06              0.    -1.50370E+06
           44159    -5.80113E+06     2.49628E+06              0.    -1.54775E+06
           44160    -5.91104E+06     2.54993E+06              0.    -1.59310E+06
           44161    -6.02413E+06     2.60481E+06              0.    -1.63978E+06
           44162    -6.14050E+06     2.66093E+06              0.    -1.68783E+06
           44163    -6.26025E+06     2.71831E+06              0.    -1.73726E+06
           44164    -6.38346E+06     2.77699E+06              0.    -1.78812E+06
           44165    -6.51025E+06     2.83698E+06              0.    -1.84043E+06
           44166    -6.64071E+06     2.89832E+06              0.    -1.89423E+06
           44167    -6.77495E+06     2.96101E+06              0.    -1.94956E+06
           44168    -6.91307E+06     3.02508E+06              0.    -2.00643E+06
           44169    -7.05520E+06     3.09055E+06              0.    -2.06488E+06
           44170    -7.20143E+06     3.15744E+06              0.    -2.12495E+06
           44171    -7.35188E+06     3.22576E+06              0.    -2.18666E+06
           44172    -7.50668E+06     3.29554E+06              0.    -2.25005E+06
           44173    -7.66594E+06     3.36678E+06              0.    -2.31514E+06
           44174    -7.82977E+06     3.43950E+06              0.    -2.38196E+06
           44175    -7.99832E+06     3.51370E+06              0.    -2.45054E+06
           44176    -8.17170E+06     3.58940E+06              0.    -2.52091E+06
           44177    -8.35003E+06     3.66659E+06              0.    -2.59309E+06
           44178    -8.53346E+06     3.74529E+06              0.    -2.66710E+06
           44179    -8.72212E+06     3.82548E+06              0.    -2.74297E+06
           44180    -8.91613E+06     3.90716E+06              0.    -2.82072E+06
           44181    -9.11564E+06     3.99033E+06              0.    -2.90037E+06
           44182    -9.32079E+06     4.07497E+06              0.    -2.98192E+06
           44183    -9.53171E+06     4.16106E+06              0.    -3.06540E+06
           44184    -9.74856E+06     4.24860E+06              0.    -3.15082E+06
           44185    -9.97146E+06     4.33754E+06              0.    -3.23819E+06
           44186    -10.2006E+06     4.42785E+06              0.    -3.32750E+06
           44187    -10.4361E+06     4.51951E+06              0.    -3.41876E+06
           44188    -10.6780E+06     4.61247E+06              0.    -3.51196E+06
           44189    -10.9267E+06     4.70668E+06              0.    -3.60711E+06
           44190    -11.1821E+06     4.80207E+06              0.    -3.70417E+06
           44191    -11.4445E+06     4.89860E+06              0.    -3.80315E+06
           44192    -11.7140E+06     4.99618E+06              0.    -3.90401E+06
           44193    -11.9907E+06     5.09474E+06              0.    -4.00672E+06
           44194    -12.2749E+06     5.19418E+06              0.    -4.11124E+06
           44195    -12.5666E+06     5.29440E+06              0.    -4.21754E+06
           44196    -12.8660E+06     5.39530E+06              0.    -4.32555E+06
           44197    -13.1733E+06     5.49675E+06              0.    -4.43522E+06
           44198    -13.4886E+06     5.59863E+06              0.    -4.54648E+06
           44199    -13.8121E+06     5.70078E+06              0.    -4.65924E+06
           44200    -14.1439E+06     5.80304E+06              0.    -4.77342E+06
           44201    -14.4841E+06     5.90525E+06              0.    -4.88890E+06
           44202    -14.8329E+06     6.00722E+06              0.    -5.00559E+06
           44203    -15.1904E+06     6.10874E+06              0.    -5.12333E+06
           44204    -15.5568E+06     6.20959E+06              0.    -5.24200E+06
           44205    -15.9322E+06     6.30954E+06              0.    -5.36142E+06
           44206    -16.3167E+06     6.40833E+06              0.    -5.48143E+06
           44207    -16.7104E+06     6.50569E+06              0.    -5.60183E+06
           44208    -17.1135E+06     6.60132E+06              0.    -5.72240E+06
           44209    -17.5261E+06     6.69490E+06              0.    -5.84291E+06
           44210    -17.9482E+06     6.78610E+06              0.    -5.96310E+06
           44211    -18.3800E+06     6.87456E+06              0.    -6.08269E+06
           44212    -18.8215E+06     6.95987E+06              0.    -6.20138E+06
           44213    -19.2729E+06     7.04165E+06              0.    -6.31882E+06
           44214    -19.7342E+06     7.11944E+06              0.    -6.43466E+06
           44215    -20.2055E+06     7.19278E+06              0.    -6.54850E+06
           44216    -20.6869E+06     7.26117E+06              0.    -6.65991E+06
           44217    -21.1783E+06      7.3241E+06              0.    -6.76845E+06
           44218    -21.6799E+06     7.38100E+06              0.    -6.87360E+06
           44219    -22.1916E+06     7.43130E+06              0.    -6.97482E+06
           44220    -22.7135E+06     7.47436E+06              0.    -7.07155E+06
           44221    -23.2457E+06     7.50955E+06              0.    -7.16315E+06
           44222    -23.7880E+06     7.53618E+06              0.    -7.24895E+06
           44223    -24.3405E+06     7.55352E+06              0.    -7.32824E+06
           44224    -24.9032E+06     7.56084E+06              0.    -7.40025E+06
           44225    -25.4761E+06     7.55734E+06              0.    -7.46414E+06
           44226    -26.0592E+06     7.54221E+06              0.    -7.51903E+06
           44227    -26.6523E+06     7.51459E+06              0.    -7.56398E+06
           44228    -27.2556E+06     7.47360E+06              0.    -7.59799E+06
           44229    -27.8689E+06     7.41834E+06              0.    -7.61998E+06
           44230    -28.4924E+06     7.34784E+06              0.    -7.62883E+06
           44231    -29.1259E+06     7.26115E+06              0.    -7.62332E+06
           44232    -29.7694E+06     7.15727E+06              0.    -7.60220E+06
           44233    -30.4232E+06     7.03520E+06              0.    -7.56413E+06
           44234    -31.0871E+06     6.89389E+06              0.    -7.50769E+06
           44235    -31.7614E+06     6.73232E+06              0.    -7.43143E+06
           44236    -32.4461E+06     6.54943E+06              0.    -7.33382E+06
           44237    -33.1417E+06     6.34419E+06              0.    -7.21327E+06
           44238    -33.8484E+06     6.11555E+06              0.    -7.06816E+06
           44239    -34.5667E+06     5.86250E+06              0.    -6.89685E+06
           44240    -35.2971E+06     5.58405E+06              0.    -6.69765E+06
           44241    -36.0404E+06     5.27922E+06              0.    -6.46892E+06
           44242    -36.7976E+06     4.94709E+06              0.    -6.20905E+06
           44243    -37.5699E+06     4.58678E+06              0.    -5.91651E+06
           44244    -38.3586E+06     4.19745E+06              0.    -5.58990E+06
           44245    -39.1655E+06     3.77829E+06              0.    -5.22805E+06
           44246    -39.9928E+06     3.32854E+06              0.    -4.83004E+06
           44247    -40.8430E+06     2.84742E+06              0.    -4.39538E+06
           44248    -41.7190E+06     2.33412E+06              0.    -3.92408E+06
           44249    -42.6243E+06     1.78771E+06              0.    -3.41685E+06
           44250    -43.5630E+06     1.20703E+06              0.    -2.87528E+06
           44251    -44.5394E+06     590.510E+03              0.    -2.30210E+06
           44252    -45.5586E+06    -64.0327E+03              0.    -1.70142E+06
           44253    -46.6259E+06    -759.787E+03              0.    -1.07909E+06
           44254    -47.7470E+06    -1.50139E+06              0.    -442.990E+03
           44255    -48.9272E+06    -2.29558E+06              0.     196.558E+03
           44256    -50.1715E+06    -3.15208E+06              0.     826.515E+03
           44257    -51.4834E+06    -4.08463E+06              0.     1.43089E+06
           44258    -52.8645E+06    -5.11242E+06              0.     1.99073E+06
           44259    -54.3131E+06    -6.26160E+06              0.     2.48444E+06
           44260    -55.8233E+06    -7.56704E+06              0.     2.88853E+06
           44261    -57.3836E+06    -9.07382E+06              0.     3.17908E+06
           44262    -58.9760E+06    -10.8384E+06              0.     3.33388E+06
           44263    -60.5755E+06    -12.9289E+06              0.     3.33520E+06
           44264    -62.1510E+06    -15.4235E+06              0.     3.17300E+06
           44265    -63.6660E+06    -18.4071E+06              0.     2.84790E+06
           44266    -65.0818E+06    -21.9664E+06              0.     2.37333E+06
           44267    -66.3597E+06    -26.1828E+06              0.     1.77584E+06
           44268    -68.4029E+06    -31.5728E+06              0.     1.64324E+06
           44269    -1.80620E+06    -813.280E+03              0.    -207.867E+03
           44270    -1.80063E+06    -761.653E+03              0.    -207.482E+03
           44271    -1.81744E+06    -721.037E+03              0.    -205.263E+03
           44272    -1.83408E+06    -681.235E+03              0.    -203.272E+03
           44273    -1.85057E+06    -642.218E+03              0.    -201.502E+03
           44274    -1.86692E+06    -603.962E+03              0.    -199.947E+03
           44275    -1.88315E+06    -566.439E+03              0.    -198.601E+03
           44276    -1.89927E+06    -529.625E+03              0.    -197.460E+03
           44277    -1.91531E+06    -493.495E+03              0.    -196.518E+03
           44278    -1.93128E+06    -458.026E+03              0.    -195.771E+03
           44279    -1.94718E+06    -423.195E+03              0.    -195.215E+03
           44280    -1.96305E+06    -388.979E+03              0.    -194.845E+03
           44281    -1.97889E+06    -355.358E+03              0.    -194.659E+03
           44282    -1.99471E+06    -322.309E+03              0.    -194.653E+03
           44283    -2.01053E+06    -289.812E+03              0.    -194.824E+03
           44284    -2.02637E+06    -257.849E+03              0.    -195.170E+03
           44285    -2.04224E+06    -226.398E+03              0.    -195.688E+03
           44286    -2.05815E+06    -195.443E+03              0.    -196.376E+03
           44287    -2.07411E+06    -164.962E+03              0.    -197.233E+03
           44288    -2.09014E+06    -134.940E+03              0.    -198.257E+03
           44289    -2.10624E+06    -105.358E+03              0.    -199.446E+03
           44290    -2.12245E+06    -76.1979E+03              0.    -200.801E+03
           44291    -2.13876E+06    -47.4448E+03              0.    -202.320E+03
           44292    -2.15519E+06    -19.0806E+03              0.    -204.002E+03
           44293    -2.17175E+06     8.91040E+03              0.    -205.848E+03
           44294    -2.18845E+06     36.5438E+03              0.    -207.857E+03
           44295    -2.20532E+06     63.8362E+03              0.    -210.030E+03
           44296    -2.22235E+06     90.8021E+03              0.    -212.367E+03
           44297    -2.23957E+06     117.458E+03              0.    -214.869E+03
           44298    -2.25698E+06     143.817E+03              0.    -217.536E+03
           44299    -2.27460E+06     169.895E+03              0.    -220.370E+03
           44300    -2.29244E+06     195.707E+03              0.    -223.372E+03
           44301    -2.31052E+06     221.267E+03              0.    -226.544E+03
           44302    -2.32885E+06     246.589E+03              0.    -229.887E+03
           44303    -2.34744E+06     271.688E+03              0.    -233.404E+03
           44304    -2.36630E+06     296.577E+03              0.    -237.096E+03
           44305    -2.38545E+06     321.271E+03              0.    -240.966E+03
           44306    -2.40491E+06     345.783E+03              0.    -245.018E+03
           44307    -2.42468E+06     370.127E+03              0.    -249.252E+03
           44308    -2.44478E+06     394.317E+03              0.    -253.674E+03
           44309    -2.46523E+06     418.366E+03              0.    -258.286E+03
           44310    -2.48604E+06     442.289E+03              0.    -263.091E+03
           44311    -2.50723E+06     466.099E+03              0.    -268.094E+03
           44312    -2.52881E+06     489.809E+03              0.    -273.298E+03
           44313    -2.55079E+06     513.433E+03              0.    -278.708E+03
           44314    -2.57319E+06     536.985E+03              0.    -284.328E+03
           44315    -2.59604E+06     560.479E+03              0.    -290.163E+03
           44316    -2.61934E+06     583.928E+03              0.    -296.217E+03
           44317    -2.64311E+06     607.346E+03              0.    -302.497E+03
           44318    -2.66737E+06     630.747E+03              0.    -309.008E+03
           44319    -2.69215E+06     654.146E+03              0.    -315.755E+03
           44320    -2.71744E+06     677.555E+03              0.    -322.744E+03
           44321    -2.74329E+06     700.990E+03              0.    -329.981E+03
           44322    -2.76969E+06     724.464E+03              0.    -337.474E+03
           44323    -2.79668E+06     747.993E+03              0.    -345.228E+03
           44324    -2.82428E+06     771.590E+03              0.    -353.252E+03
           44325    -2.85250E+06     795.270E+03              0.    -361.551E+03
           44326    -2.88137E+06     819.049E+03              0.    -370.135E+03
           44327    -2.91090E+06     842.941E+03              0.    -379.011E+03
           44328    -2.94113E+06     866.962E+03              0.    -388.186E+03
           44329    -2.97207E+06     891.128E+03              0.    -397.671E+03
           44330    -3.00375E+06     915.453E+03              0.    -407.473E+03
           44331    -3.03619E+06     939.953E+03              0.    -417.602E+03
           44332    -3.06942E+06     964.646E+03              0.    -428.068E+03
           44333    -3.10347E+06     989.547E+03              0.    -438.880E+03
           44334    -3.13835E+06     1.01467E+06              0.    -450.048E+03
           44335    -3.17410E+06     1.04004E+06              0.    -461.584E+03
           44336    -3.21075E+06     1.06567E+06              0.    -473.497E+03
           44337    -3.24833E+06     1.09157E+06              0.    -485.800E+03
           44338    -3.28686E+06     1.11777E+06              0.    -498.505E+03
           44339    -3.32638E+06     1.14428E+06              0.    -511.622E+03
           44340    -3.36691E+06     1.17112E+06              0.    -525.165E+03
           44341    -3.40850E+06     1.19831E+06              0.    -539.146E+03
           44342    -3.45117E+06     1.22587E+06              0.    -553.579E+03
           44343    -3.49496E+06     1.25381E+06              0.    -568.478E+03
           44344    -3.53991E+06     1.28216E+06              0.    -583.856E+03
           44345    -3.58605E+06     1.31094E+06              0.    -599.728E+03
           44346    -3.63342E+06     1.34017E+06              0.    -616.109E+03
           44347    -3.68206E+06     1.36986E+06              0.    -633.015E+03
           44348    -3.73201E+06     1.40004E+06              0.    -650.460E+03
           44349    -3.78331E+06     1.43074E+06              0.    -668.462E+03
           44350    -3.83600E+06     1.46196E+06              0.    -687.038E+03
           44351    -3.89014E+06     1.49374E+06              0.    -706.203E+03
           44352    -3.94576E+06     1.52609E+06              0.    -725.977E+03
           44353    -4.00291E+06     1.55905E+06              0.    -746.378E+03
           44354    -4.06163E+06     1.59263E+06              0.    -767.423E+03
           44355    -4.12199E+06     1.62685E+06              0.    -789.132E+03
           44356    -4.18403E+06     1.66174E+06              0.    -811.525E+03
           44357    -4.24780E+06     1.69732E+06              0.    -834.622E+03
           44358    -4.31335E+06     1.73363E+06              0.    -858.443E+03
           44359    -4.38075E+06     1.77068E+06              0.    -883.010E+03
           44360    -4.45004E+06     1.80849E+06              0.    -908.344E+03
           44361    -4.52130E+06     1.84710E+06              0.    -934.467E+03
           44362    -4.59457E+06     1.88653E+06              0.    -961.402E+03
           44363    -4.66992E+06     1.92680E+06              0.    -989.172E+03
           44364    -4.74742E+06     1.96795E+06              0.    -1.01780E+06
           44365    -4.82713E+06     2.00999E+06              0.    -1.04731E+06
           44366    -4.90912E+06     2.05296E+06              0.    -1.07773E+06
           44367    -4.99346E+06     2.09688E+06              0.    -1.10908E+06
           44368    -5.08022E+06     2.14178E+06              0.    -1.14139E+06
           44369    -5.16948E+06     2.18768E+06              0.    -1.17468E+06
           44370    -5.26130E+06     2.23462E+06              0.    -1.20898E+06
           44371    -5.35578E+06     2.28262E+06              0.    -1.24432E+06
           44372    -5.45298E+06     2.33171E+06              0.    -1.28072E+06
           44373    -5.55299E+06     2.38191E+06              0.    -1.31821E+06
           44374    -5.65590E+06     2.43325E+06              0.    -1.35682E+06
           44375    -5.76178E+06     2.48576E+06              0.    -1.39658E+06
           44376    -5.87073E+06     2.53947E+06              0.    -1.43751E+06
           44377    -5.98285E+06     2.59440E+06              0.    -1.47965E+06
           44378    -6.09821E+06     2.65057E+06              0.    -1.52302E+06
           44379    -6.21692E+06     2.70802E+06              0.    -1.56766E+06
           44380    -6.33908E+06     2.76677E+06              0.    -1.61358E+06
           44381    -6.46478E+06     2.82684E+06              0.    -1.66083E+06
           44382    -6.59412E+06     2.88826E+06              0.    -1.70943E+06
           44383    -6.72722E+06     2.95104E+06              0.    -1.75940E+06
           44384    -6.86418E+06     3.01522E+06              0.    -1.81079E+06
           44385    -7.00510E+06     3.08081E+06              0.    -1.86361E+06
           44386    -7.15010E+06     3.14783E+06              0.    -1.91791E+06
           44387    -7.29929E+06     3.21629E+06              0.    -1.97369E+06
           44388    -7.45280E+06     3.28622E+06              0.    -2.03100E+06
           44389    -7.61073E+06     3.35763E+06              0.    -2.08986E+06
           44390    -7.77321E+06     3.43054E+06              0.    -2.15030E+06
           44391    -7.94035E+06     3.50495E+06              0.    -2.21235E+06
           44392    -8.11230E+06     3.58086E+06              0.    -2.27602E+06
           44393    -8.28917E+06     3.65830E+06              0.    -2.34134E+06
           44394    -8.47110E+06     3.73726E+06              0.    -2.40834E+06
           44395    -8.65821E+06     3.81774E+06              0.    -2.47704E+06
           44396    -8.85064E+06     3.89974E+06              0.    -2.54745E+06
           44397    -9.04852E+06     3.98325E+06              0.    -2.61960E+06
           44398    -9.25200E+06     4.06826E+06              0.    -2.69350E+06
           44399    -9.46121E+06     4.15476E+06              0.    -2.76916E+06
           44400    -9.67629E+06     4.24272E+06              0.    -2.84660E+06
           44401    -9.89740E+06     4.33213E+06              0.    -2.92583E+06
           44402    -10.1247E+06     4.42296E+06              0.    -3.00685E+06
           44403    -10.3582E+06     4.51516E+06              0.    -3.08966E+06
           44404    -10.5982E+06     4.60871E+06              0.    -3.17426E+06
           44405    -10.8449E+06     4.70355E+06              0.    -3.26066E+06
           44406    -11.0982E+06     4.79962E+06              0.    -3.34883E+06
           44407    -11.3585E+06     4.89687E+06              0.    -3.43877E+06
           44408    -11.6258E+06     4.99523E+06              0.    -3.53046E+06
           44409    -11.9003E+06     5.09462E+06              0.    -3.62387E+06
           44410    -12.1821E+06     5.19496E+06              0.    -3.71897E+06
           44411    -12.4714E+06     5.29613E+06              0.    -3.81572E+06
           44412    -12.7684E+06     5.39805E+06              0.    -3.91409E+06
           44413    -13.0731E+06     5.50058E+06              0.    -4.01401E+06
           44414    -13.3858E+06     5.60360E+06              0.    -4.11543E+06
           44415    -13.7065E+06     5.70698E+06              0.    -4.21828E+06
           44416    -14.0354E+06     5.81054E+06              0.    -4.32249E+06
           44417    -14.3727E+06     5.91412E+06              0.    -4.42795E+06
           44418    -14.7184E+06     6.01755E+06              0.    -4.53457E+06
           44419    -15.0728E+06     6.12060E+06              0.    -4.64224E+06
           44420    -15.4359E+06     6.22308E+06              0.    -4.75083E+06
           44421    -15.8078E+06     6.32475E+06              0.    -4.86021E+06
           44422    -16.1887E+06     6.42535E+06              0.    -4.97020E+06
           44423    -16.5787E+06     6.52460E+06              0.    -5.08065E+06
           44424    -16.9779E+06     6.62223E+06              0.    -5.19137E+06
           44425    -17.3863E+06     6.71790E+06              0.    -5.30214E+06
           44426    -17.8041E+06     6.81129E+06              0.    -5.41274E+06
           44427    -18.2313E+06     6.90203E+06              0.    -5.52292E+06
           44428    -18.6681E+06     6.98974E+06              0.    -5.63240E+06
           44429    -19.1144E+06     7.07400E+06              0.    -5.74089E+06
           44430    -19.5704E+06     7.15437E+06              0.    -5.84807E+06
           44431    -20.0360E+06     7.23039E+06              0.    -5.95357E+06
           44432    -20.5114E+06     7.30155E+06              0.    -6.05703E+06
           44433    -20.9964E+06     7.36734E+06              0.    -6.15802E+06
           44434    -21.4911E+06     7.42718E+06              0.    -6.25609E+06
           44435    -21.9955E+06     7.48049E+06              0.    -6.35076E+06
           44436    -22.5096E+06     7.52664E+06              0.    -6.44150E+06
           44437    -23.0333E+06     7.56496E+06              0.    -6.52775E+06
           44438    -23.5666E+06     7.59477E+06              0.    -6.60890E+06
           44439    -24.1094E+06     7.61533E+06              0.    -6.68428E+06
           44440    -24.6616E+06     7.62587E+06              0.    -6.75320E+06
           44441    -25.2231E+06     7.62558E+06              0.    -6.81489E+06
           44442    -25.7937E+06     7.61362E+06              0.    -6.86853E+06
           44443    -26.3735E+06     7.58912E+06              0.    -6.91326E+06
           44444    -26.9622E+06     7.55116E+06              0.    -6.94814E+06
           44445    -27.5596E+06     7.49878E+06              0.    -6.97216E+06
           44446    -28.1656E+06     7.43102E+06              0.    -6.98427E+06
           44447    -28.7801E+06     7.34685E+06              0.    -6.98332E+06
           44448    -29.4029E+06     7.24523E+06              0.    -6.96811E+06
           44449    -30.0337E+06     7.12510E+06              0.    -6.93736E+06
           44450    -30.6726E+06     6.98537E+06              0.    -6.88970E+06
           44451    -31.3192E+06     6.82494E+06              0.    -6.82369E+06
           44452    -31.9736E+06     6.64269E+06              0.    -6.73784E+06
           44453    -32.6357E+06     6.43752E+06              0.    -6.63055E+06
           44454    -33.3054E+06     6.20831E+06              0.    -6.50016E+06
           44455    -33.9828E+06     5.95397E+06              0.    -6.34496E+06
           44456    -34.6680E+06     5.67346E+06              0.    -6.16318E+06
           44457    -35.3614E+06     5.36574E+06              0.    -5.95299E+06
           44458    -36.0634E+06     5.02986E+06              0.    -5.71257E+06
           44459    -36.7745E+06     4.66493E+06              0.    -5.44007E+06
           44460    -37.4956E+06     4.27012E+06              0.    -5.13370E+06
           44461    -38.2278E+06     3.84475E+06              0.    -4.79176E+06
           44462    -38.9724E+06     3.38822E+06              0.    -4.41268E+06
           44463    -39.7313E+06     2.90003E+06              0.    -3.99512E+06
           44464    -40.5068E+06     2.37985E+06              0.    -3.53807E+06
           44465    -41.3016E+06     1.82741E+06              0.    -3.04098E+06
           44466    -42.1192E+06     1.24253E+06              0.    -2.50392E+06
           44467    -42.9635E+06     625.011E+03              0.    -1.92779E+06
           44468    -43.8394E+06    -25.4577E+03              0.    -1.31460E+06
           44469    -44.7525E+06    -709.491E+03              0.    -667.769E+03
           44470    -45.7091E+06    -1.42832E+06              0.     7.48331E+03
           44471    -46.7161E+06    -2.18417E+06              0.     703.678E+03
           44472    -47.7808E+06    -2.98098E+06              0.     1.41060E+06
           44473    -48.9107E+06    -3.82515E+06              0.     2.11475E+06
           44474    -50.1124E+06    -4.72687E+06              0.     2.79888E+06
           44475    -51.3910E+06    -5.70160E+06              0.     3.44169E+06
           44476    -52.7487E+06    -6.77213E+06              0.     4.01780E+06
           44477    -54.1833E+06    -7.97089E+06              0.     4.49833E+06
           44478    -55.6864E+06    -9.34239E+06              0.     4.85225E+06
           44479    -57.2416E+06    -10.9455E+06              0.     5.04887E+06
           44480    -58.8240E+06    -12.8544E+06              0.     5.06139E+06
           44481    -60.3997E+06    -15.1580E+06              0.     4.87136E+06
           44482    -61.9277E+06    -17.9563E+06              0.     4.47339E+06
           44483    -63.3629E+06    -21.3530E+06              0.     3.87878E+06
           44484    -64.6602E+06    -25.4464E+06              0.     3.11683E+06
           44485    -66.6972E+06    -30.7630E+06              0.     2.93589E+06
           44486    -1.81179E+06    -815.810E+03              0.    -190.891E+03
           44487    -1.80620E+06    -763.898E+03              0.    -190.537E+03
           44488    -1.82310E+06    -723.061E+03              0.    -188.498E+03
           44489    -1.83983E+06    -683.043E+03              0.    -186.669E+03
           44490    -1.85641E+06    -643.817E+03              0.    -185.043E+03
           44491    -1.87285E+06    -605.357E+03              0.    -183.616E+03
           44492    -1.88917E+06    -567.635E+03              0.    -182.382E+03
           44493    -1.90538E+06    -530.628E+03              0.    -181.335E+03
           44494    -1.92151E+06    -494.309E+03              0.    -180.473E+03
           44495    -1.93756E+06    -458.654E+03              0.    -179.789E+03
           44496    -1.95356E+06    -423.642E+03              0.    -179.282E+03
           44497    -1.96952E+06    -389.248E+03              0.    -178.946E+03
           44498    -1.98545E+06    -355.452E+03              0.    -178.779E+03
           44499    -2.00136E+06    -322.232E+03              0.    -178.778E+03
           44500    -2.01728E+06    -289.567E+03              0.    -178.941E+03
           44501    -2.03322E+06    -257.437E+03              0.    -179.264E+03
           44502    -2.04918E+06    -225.821E+03              0.    -179.745E+03
           44503    -2.06519E+06    -194.703E+03              0.    -180.384E+03
           44504    -2.08125E+06    -164.061E+03              0.    -181.178E+03
           44505    -2.09738E+06    -133.879E+03              0.    -182.126E+03
           44506    -2.11360E+06    -104.138E+03              0.    -183.226E+03
           44507    -2.12991E+06    -74.8203E+03              0.    -184.478E+03
           44508    -2.14633E+06    -45.9097E+03              0.    -185.882E+03
           44509    -2.16288E+06    -17.3884E+03              0.    -187.436E+03
           44510    -2.17956E+06     10.7596E+03              0.    -189.141E+03
           44511    -2.19638E+06     38.5501E+03              0.    -190.996E+03
           44512    -2.21337E+06     65.9999E+03              0.    -193.002E+03
           44513    -2.23054E+06     93.1238E+03              0.    -195.159E+03
           44514    -2.24789E+06     119.938E+03              0.    -197.468E+03
           44515    -2.26544E+06     146.457E+03              0.    -199.929E+03
           44516    -2.28320E+06     172.696E+03              0.    -202.544E+03
           44517    -2.30119E+06     198.671E+03              0.    -205.314E+03
           44518    -2.31942E+06     224.394E+03              0.    -208.241E+03
           44519    -2.33791E+06     249.882E+03              0.    -211.325E+03
           44520    -2.35666E+06     275.149E+03              0.    -214.569E+03
           44521    -2.37569E+06     300.208E+03              0.    -217.975E+03
           44522    -2.39502E+06     325.074E+03              0.    -221.546E+03
           44523    -2.41465E+06     349.762E+03              0.    -225.282E+03
           44524    -2.43461E+06     374.284E+03              0.    -229.189E+03
           44525    -2.45491E+06     398.655E+03              0.    -233.267E+03
           44526    -2.47556E+06     422.889E+03              0.    -237.520E+03
           44527    -2.49658E+06     447.000E+03              0.    -241.952E+03
           44528    -2.51798E+06     471.001E+03              0.    -246.566E+03
           44529    -2.53978E+06     494.907E+03              0.    -251.366E+03
           44530    -2.56199E+06     518.731E+03              0.    -256.355E+03
           44531    -2.58464E+06     542.488E+03              0.    -261.539E+03
           44532    -2.60773E+06     566.191E+03              0.    -266.920E+03
           44533    -2.63128E+06     589.854E+03              0.    -272.504E+03
           44534    -2.65532E+06     613.491E+03              0.    -278.296E+03
           44535    -2.67986E+06     637.117E+03              0.    -284.300E+03
           44536    -2.70492E+06     660.745E+03              0.    -290.522E+03
           44537    -2.73051E+06     684.391E+03              0.    -296.968E+03
           44538    -2.75666E+06     708.068E+03              0.    -303.643E+03
           44539    -2.78338E+06     731.791E+03              0.    -310.553E+03
           44540    -2.81070E+06     755.575E+03              0.    -317.704E+03
           44541    -2.83864E+06     779.434E+03              0.    -325.104E+03
           44542    -2.86721E+06     803.384E+03              0.    -332.759E+03
           44543    -2.89644E+06     827.440E+03              0.    -340.675E+03
           44544    -2.92636E+06     851.617E+03              0.    -348.861E+03
           44545    -2.95698E+06     875.931E+03              0.    -357.324E+03
           44546    -2.98833E+06     900.398E+03              0.    -366.071E+03
           44547    -3.02043E+06     925.033E+03              0.    -375.112E+03
           44548    -3.05330E+06     949.853E+03              0.    -384.454E+03
           44549    -3.08698E+06     974.875E+03              0.    -394.107E+03
           44550    -3.12150E+06     1.00011E+06              0.    -404.079E+03
           44551    -3.15687E+06     1.02559E+06              0.    -414.380E+03
           44552    -3.19312E+06     1.05131E+06              0.    -425.019E+03
           44553    -3.23029E+06     1.07731E+06              0.    -436.008E+03
           44554    -3.26840E+06     1.10359E+06              0.    -447.356E+03
           44555    -3.30749E+06     1.13018E+06              0.    -459.074E+03
           44556    -3.34758E+06     1.15710E+06              0.    -471.173E+03
           44557    -3.38872E+06     1.18435E+06              0.    -483.665E+03
           44558    -3.43092E+06     1.21197E+06              0.    -496.561E+03
           44559    -3.47423E+06     1.23997E+06              0.    -509.874E+03
           44560    -3.51869E+06     1.26837E+06              0.    -523.616E+03
           44561    -3.56432E+06     1.29719E+06              0.    -537.801E+03
           44562    -3.61117E+06     1.32645E+06              0.    -552.442E+03
           44563    -3.65927E+06     1.35618E+06              0.    -567.552E+03
           44564    -3.70867E+06     1.38638E+06              0.    -583.146E+03
           44565    -3.75941E+06     1.41709E+06              0.    -599.238E+03
           44566    -3.81153E+06     1.44833E+06              0.    -615.844E+03
           44567    -3.86506E+06     1.48011E+06              0.    -632.978E+03
           44568    -3.92007E+06     1.51247E+06              0.    -650.657E+03
           44569    -3.97659E+06     1.54542E+06              0.    -668.898E+03
           44570    -4.03467E+06     1.57899E+06              0.    -687.716E+03
           44571    -4.09437E+06     1.61319E+06              0.    -707.128E+03
           44572    -4.15572E+06     1.64806E+06              0.    -727.154E+03
           44573    -4.21879E+06     1.68362E+06              0.     -747.81E+03
           44574    -4.28362E+06     1.71990E+06              0.    -769.115E+03
           44575    -4.35028E+06     1.75691E+06              0.    -791.089E+03
           44576    -4.41882E+06     1.79468E+06              0.    -813.750E+03
           44577    -4.48930E+06     1.83325E+06              0.    -837.118E+03
           44578    -4.56177E+06     1.87263E+06              0.    -861.215E+03
           44579    -4.63630E+06     1.91285E+06              0.    -886.060E+03
           44580    -4.71296E+06     1.95394E+06              0.    -911.675E+03
           44581    -4.79181E+06     1.99592E+06              0.    -938.082E+03
           44582    -4.87291E+06     2.03883E+06              0.    -965.302E+03
           44583    -4.95634E+06     2.08268E+06              0.    -993.359E+03
           44584    -5.04216E+06     2.12752E+06              0.    -1.02228E+06
           44585    -5.13046E+06     2.17335E+06              0.    -1.05207E+06
           44586    -5.22130E+06     2.22021E+06              0.    -1.08278E+06
           44587    -5.31476E+06     2.26814E+06              0.    -1.11442E+06
           44588    -5.41092E+06     2.31715E+06              0.    -1.14701E+06
           44589    -5.50986E+06     2.36727E+06              0.    -1.18058E+06
           44590    -5.61167E+06     2.41854E+06              0.    -1.21516E+06
           44591    -5.71643E+06     2.47097E+06              0.    -1.25077E+06
           44592    -5.82423E+06     2.52460E+06              0.    -1.28743E+06
           44593    -5.93516E+06     2.57946E+06              0.    -1.32518E+06
           44594    -6.04931E+06     2.63556E+06              0.    -1.36404E+06
           44595    -6.16677E+06     2.69294E+06              0.    -1.40404E+06
           44596    -6.28765E+06     2.75162E+06              0.    -1.44519E+06
           44597    -6.41203E+06     2.81163E+06              0.    -1.48754E+06
           44598    -6.54003E+06     2.87299E+06              0.    -1.53110E+06
           44599    -6.67175E+06     2.93572E+06              0.    -1.57591E+06
           44600    -6.80728E+06     2.99985E+06              0.    -1.62199E+06
           44601    -6.94675E+06     3.06540E+06              0.    -1.66937E+06
           44602    -7.09026E+06     3.13239E+06              0.    -1.71806E+06
           44603    -7.23792E+06     3.20083E+06              0.    -1.76811E+06
           44604    -7.38985E+06     3.27075E+06              0.    -1.81954E+06
           44605    -7.54617E+06     3.34217E+06              0.    -1.87236E+06
           44606    -7.70700E+06     3.41509E+06              0.    -1.92661E+06
           44607    -7.87245E+06     3.48952E+06              0.    -1.98232E+06
           44608    -8.04266E+06     3.56549E+06              0.    -2.03949E+06
           44609    -8.21775E+06     3.64299E+06              0.    -2.09816E+06
           44610    -8.39785E+06     3.72203E+06              0.    -2.15835E+06
           44611    -8.58308E+06     3.80262E+06              0.    -2.22008E+06
           44612    -8.77359E+06     3.88474E+06              0.    -2.28337E+06
           44613    -8.96951E+06     3.96841E+06              0.    -2.34824E+06
           44614    -9.17097E+06     4.05360E+06              0.    -2.41469E+06
           44615    -9.37810E+06     4.14031E+06              0.    -2.48275E+06
           44616    -9.59106E+06     4.22851E+06              0.    -2.55243E+06
           44617    -9.80998E+06     4.31820E+06              0.    -2.62374E+06
           44618    -10.0350E+06     4.40934E+06              0.    -2.69668E+06
           44619    -10.2663E+06     4.50189E+06              0.    -2.77126E+06
           44620    -10.5039E+06     4.59583E+06              0.    -2.84748E+06
           44621    -10.7482E+06     4.69110E+06              0.    -2.92534E+06
           44622    -10.9990E+06     4.78766E+06              0.    -3.00483E+06
           44623    -11.2568E+06     4.88545E+06              0.    -3.08595E+06
           44624    -11.5214E+06     4.98440E+06              0.    -3.16867E+06
           44625    -11.7933E+06     5.08444E+06              0.    -3.25299E+06
           44626    -12.0723E+06     5.18547E+06              0.    -3.33887E+06
           44627    -12.3588E+06     5.28742E+06              0.    -3.42628E+06
           44628    -12.6529E+06     5.39018E+06              0.    -3.51519E+06
           44629    -12.9546E+06     5.49362E+06              0.    -3.60556E+06
           44630    -13.2642E+06     5.59763E+06              0.    -3.69733E+06
           44631    -13.5818E+06     5.70207E+06              0.    -3.79045E+06
           44632    -13.9075E+06     5.80678E+06              0.    -3.88485E+06
           44633    -14.2414E+06     5.91161E+06              0.    -3.98045E+06
           44634    -14.5837E+06     6.01637E+06              0.    -4.07717E+06
           44635    -14.9345E+06     6.12085E+06              0.    -4.17491E+06
           44636    -15.2939E+06     6.22486E+06              0.    -4.27356E+06
           44637    -15.6620E+06     6.32817E+06              0.    -4.37300E+06
           44638    -16.0390E+06     6.43051E+06              0.    -4.47310E+06
           44639    -16.4249E+06     6.53163E+06              0.    -4.57370E+06
           44640    -16.8199E+06     6.63123E+06              0.    -4.67464E+06
           44641    -17.2239E+06     6.72900E+06              0.    -4.77574E+06
           44642    -17.6372E+06     6.82462E+06              0.    -4.87681E+06
           44643    -18.0597E+06     6.91772E+06              0.    -4.97762E+06
           44644    -18.4915E+06     7.00791E+06              0.    -5.07792E+06
           44645    -18.9327E+06     7.09480E+06              0.    -5.17747E+06
           44646    -19.3832E+06     7.17793E+06              0.    -5.27597E+06
           44647    -19.8432E+06     7.25685E+06              0.    -5.37312E+06
           44648    -20.3125E+06     7.33105E+06              0.    -5.46857E+06
           44649    -20.7913E+06     7.40001E+06              0.    -5.56196E+06
           44650    -21.2794E+06     7.46317E+06              0.    -5.65289E+06
           44651    -21.7768E+06     7.51993E+06              0.    -5.74092E+06
           44652    -22.2835E+06     7.56966E+06              0.    -5.82558E+06
           44653    -22.7993E+06     7.61169E+06              0.    -5.90638E+06
           44654    -23.3242E+06     7.64532E+06              0.    -5.98276E+06
           44655    -23.8581E+06     7.66981E+06              0.    -6.05413E+06
           44656    -24.4007E+06     7.68438E+06              0.    -6.11985E+06
           44657    -24.9519E+06     7.68820E+06              0.    -6.17925E+06
           44658    -25.5116E+06     7.68042E+06              0.    -6.23157E+06
           44659    -26.0794E+06     7.66013E+06              0.    -6.27602E+06
           44660    -26.6553E+06     7.62640E+06              0.    -6.31176E+06
           44661    -27.2388E+06     7.57824E+06              0.    -6.33786E+06
           44662    -27.8297E+06     7.51465E+06              0.    -6.35334E+06
           44663    -28.4278E+06     7.43456E+06              0.    -6.35715E+06
           44664    -29.0326E+06     7.33688E+06              0.    -6.34817E+06
           44665    -29.6439E+06     7.22051E+06              0.    -6.32520E+06
           44666    -30.2613E+06     7.08428E+06              0.    -6.28695E+06
           44667    -30.8844E+06     6.92703E+06              0.    -6.23206E+06
           44668    -31.5129E+06     6.74758E+06              0.    -6.15909E+06
           44669    -32.1464E+06     6.54473E+06              0.    -6.06649E+06
           44670    -32.7846E+06     6.31728E+06              0.    -5.95266E+06
           44671    -33.4272E+06     6.06404E+06              0.    -5.81587E+06
           44672    -34.0739E+06     5.78385E+06              0.    -5.65435E+06
           44673    -34.7246E+06     5.47558E+06              0.    -5.46620E+06
           44674    -35.3791E+06     5.13816E+06              0.    -5.24951E+06
           44675    -36.0375E+06     4.77059E+06              0.    -5.00226E+06
           44676    -36.6999E+06     4.37196E+06              0.    -4.72243E+06
           44677    -37.3668E+06     3.94150E+06              0.    -4.40795E+06
           44678    -38.0387E+06     3.47857E+06              0.    -4.05683E+06
           44679    -38.7166E+06     2.98270E+06              0.    -3.66710E+06
           44680    -39.4019E+06     2.45364E+06              0.    -3.23698E+06
           44681    -40.0963E+06     1.89136E+06              0.    -2.76490E+06
           44682    -40.8024E+06     1.29607E+06              0.    -2.24966E+06
           44683    -41.5230E+06     668.241E+03              0.    -1.69060E+06
           44684    -42.2622E+06     8.56023E+03              0.    -1.08775E+06
           44685    -43.0247E+06    -682.093E+03              0.    -442.160E+03
           44686    -43.8165E+06    -1.40278E+06              0.     243.758E+03
           44687    -44.6443E+06    -2.15271E+06              0.     965.834E+03
           44688    -45.5165E+06    -2.93158E+06              0.     1.71755E+06
           44689    -46.4421E+06    -3.74012E+06              0.     2.48945E+06
           44690    -47.4311E+06    -4.58091E+06              0.     3.26831E+06
           44691    -48.4935E+06    -5.45960E+06              0.     4.03644E+06
           44692    -49.6389E+06    -6.38666E+06              0.     4.77091E+06
           44693    -50.8744E+06    -7.37973E+06              0.     5.44302E+06
           44694    -52.2031E+06    -8.46667E+06              0.     6.01845E+06
           44695    -53.6215E+06    -9.68917E+06              0.     6.45824E+06
           44696    -55.1170E+06    -11.1065E+06              0.     6.72136E+06
           44697    -56.6657E+06    -12.7984E+06              0.     6.76908E+06
           44698    -58.2318E+06    -14.8657E+06              0.     6.57106E+06
           44699    -59.7690E+06    -17.4270E+06              0.     6.11259E+06
           44700    -61.2242E+06    -20.6098E+06              0.     5.40087E+06
           44701    -62.5437E+06    -24.5365E+06              0.     4.46827E+06
           44702    -64.5691E+06    -29.7481E+06              0.     4.23893E+06
           44703    -1.81691E+06    -818.127E+03              0.    -173.825E+03
           44704    -1.81129E+06    -765.953E+03              0.    -173.503E+03
           44705    -1.82828E+06    -724.912E+03              0.    -171.645E+03
           44706    -1.84509E+06    -684.696E+03              0.    -169.979E+03
           44707    -1.86175E+06    -645.279E+03              0.    -168.499E+03
           44708    -1.87828E+06    -606.632E+03              0.    -167.200E+03
           44709    -1.89468E+06    -568.728E+03              0.    -166.076E+03
           44710    -1.91097E+06    -531.543E+03              0.    -165.125E+03
           44711    -1.92718E+06     -495.05E+03              0.    -164.341E+03
           44712    -1.94332E+06    -459.226E+03              0.    -163.721E+03
           44713    -1.95940E+06    -424.048E+03              0.    -163.262E+03
           44714    -1.97544E+06    -389.491E+03              0.    -162.959E+03
           44715    -1.99145E+06    -355.535E+03              0.    -162.811E+03
           44716    -2.00746E+06    -322.157E+03              0.    -162.814E+03
           44717    -2.02346E+06    -289.337E+03              0.    -162.966E+03
           44718    -2.03948E+06    -257.054E+03              0.    -163.265E+03
           44719    -2.05554E+06    -225.288E+03              0.    -163.709E+03
           44720    -2.07163E+06    -194.020E+03              0.    -164.296E+03
           44721    -2.08779E+06    -163.231E+03              0.    -165.024E+03
           44722    -2.10402E+06    -132.902E+03              0.    -165.893E+03
           44723    -2.12033E+06    -103.015E+03              0.    -166.902E+03
           44724    -2.13675E+06    -73.5526E+03              0.    -168.049E+03
           44725    -2.15327E+06    -44.4976E+03              0.    -169.335E+03
           44726    -2.16992E+06    -15.8322E+03              0.    -170.758E+03
           44727    -2.18671E+06     12.4598E+03              0.    -172.318E+03
           44728    -2.20365E+06     40.3945E+03              0.    -174.016E+03
           44729    -2.22075E+06     67.9887E+03              0.    -175.851E+03
           44730    -2.23804E+06     95.2575E+03              0.    -177.825E+03
           44731    -2.25551E+06     122.217E+03              0.    -179.937E+03
           44732    -2.27319E+06     148.883E+03              0.    -182.188E+03
           44733    -2.29108E+06     175.270E+03              0.    -184.580E+03
           44734    -2.30921E+06     201.393E+03              0.    -187.113E+03
           44735    -2.32758E+06     227.267E+03              0.    -189.789E+03
           44736    -2.34621E+06     252.908E+03              0.    -192.610E+03
           44737    -2.36511E+06     278.328E+03              0.    -195.576E+03
           44738    -2.38430E+06     303.543E+03              0.    -198.690E+03
           44739    -2.40379E+06     328.568E+03              0.    -201.955E+03
           44740    -2.42359E+06     353.416E+03              0.    -205.371E+03
           44741    -2.44372E+06     378.102E+03              0.    -208.942E+03
           44742    -2.46419E+06     402.639E+03              0.    -212.671E+03
           44743    -2.48503E+06     427.042E+03              0.    -216.559E+03
           44744    -2.50623E+06     451.326E+03              0.    -220.611E+03
           44745    -2.52783E+06     475.503E+03              0.    -224.829E+03
           44746    -2.54984E+06     499.589E+03              0.    -229.217E+03
           44747    -2.57226E+06     523.597E+03              0.    -233.778E+03
           44748    -2.59513E+06     547.541E+03              0.    -238.516E+03
           44749    -2.61845E+06     571.436E+03              0.    -243.435E+03
           44750    -2.64224E+06     595.296E+03              0.    -248.540E+03
           44751    -2.66652E+06     619.134E+03              0.    -253.834E+03
           44752    -2.69131E+06     642.966E+03              0.    -259.323E+03
           44753    -2.71663E+06     666.806E+03              0.    -265.011E+03
           44754    -2.74249E+06     690.669E+03              0.    -270.903E+03
           44755    -2.76892E+06     714.568E+03              0.    -277.005E+03
           44756    -2.79594E+06     738.519E+03              0.    -283.322E+03
           44757    -2.82356E+06     762.538E+03              0.    -289.859E+03
           44758    -2.85181E+06     786.638E+03              0.    -296.624E+03
           44759    -2.88071E+06     810.836E+03              0.    -303.621E+03
           44760    -2.91027E+06     835.146E+03              0.    -310.858E+03
           44761    -2.94054E+06     859.585E+03              0.    -318.341E+03
           44762    -2.97152E+06     884.168E+03              0.    -326.078E+03
           44763    -3.00324E+06     908.912E+03              0.    -334.075E+03
           44764    -3.03572E+06     933.832E+03              0.    -342.339E+03
           44765    -3.06900E+06     958.945E+03              0.    -350.880E+03
           44766    -3.10310E+06     984.268E+03              0.    -359.704E+03
           44767    -3.13804E+06     1.00982E+06              0.    -368.821E+03
           44768    -3.17385E+06     1.03561E+06              0.    -378.238E+03
           44769    -3.21057E+06     1.06167E+06              0.    -387.965E+03
           44770    -3.24821E+06     1.08800E+06              0.    -398.011E+03
           44771    -3.28682E+06     1.11464E+06              0.    -408.386E+03
           44772    -3.32642E+06     1.14159E+06              0.    -419.099E+03
           44773    -3.36704E+06     1.16887E+06              0.    -430.160E+03
           44774    -3.40872E+06     1.19651E+06              0.    -441.581E+03
           44775    -3.45150E+06     1.22452E+06              0.    -453.371E+03
           44776    -3.49540E+06     1.25293E+06              0.    -465.543E+03
           44777    -3.54046E+06     1.28174E+06              0.    -478.107E+03
           44778    -3.58672E+06     1.31099E+06              0.    -491.076E+03
           44779    -3.63422E+06     1.34070E+06              0.    -504.461E+03
           44780    -3.68300E+06     1.37088E+06              0.    -518.276E+03
           44781    -3.73310E+06     1.40156E+06              0.    -532.534E+03
           44782    -3.78456E+06     1.43275E+06              0.    -547.247E+03
           44783    -3.83743E+06     1.46449E+06              0.    -562.429E+03
           44784    -3.89174E+06     1.49679E+06              0.    -578.095E+03
           44785    -3.94755E+06     1.52967E+06              0.    -594.259E+03
           44786    -4.00490E+06     1.56317E+06              0.    -610.936E+03
           44787    -4.06383E+06     1.59730E+06              0.    -628.141E+03
           44788    -4.12441E+06     1.63208E+06              0.    -645.891E+03
           44789    -4.18669E+06     1.66755E+06              0.    -664.200E+03
           44790    -4.25070E+06     1.70373E+06              0.    -683.086E+03
           44791    -4.31652E+06     1.74063E+06              0.    -702.565E+03
           44792    -4.38419E+06     1.77829E+06              0.    -722.655E+03
           44793    -4.45378E+06     1.81674E+06              0.    -743.374E+03
           44794    -4.52534E+06     1.85599E+06              0.    -764.740E+03
           44795    -4.59893E+06     1.89608E+06              0.    -786.771E+03
           44796    -4.67462E+06     1.93703E+06              0.    -809.486E+03
           44797    -4.75248E+06     1.97887E+06              0.    -832.905E+03
           44798    -4.83256E+06     2.02162E+06              0.    -857.048E+03
           44799    -4.91494E+06     2.06532E+06              0.    -881.934E+03
           44800    -4.99969E+06     2.10999E+06              0.    -907.585E+03
           44801    -5.08688E+06     2.15565E+06              0.    -934.021E+03
           44802    -5.17658E+06     2.20234E+06              0.    -961.264E+03
           44803    -5.26887E+06     2.25009E+06              0.    -989.335E+03
           44804    -5.36383E+06     2.29892E+06              0.    -1.01826E+06
           44805    -5.46154E+06     2.34886E+06              0.    -1.04805E+06
           44806    -5.56209E+06     2.39994E+06              0.    -1.07874E+06
           44807    -5.66555E+06     2.45218E+06              0.    -1.11035E+06
           44808    -5.77201E+06     2.50562E+06              0.    -1.14290E+06
           44809    -5.88157E+06     2.56027E+06              0.    -1.17642E+06
           44810    -5.99431E+06     2.61618E+06              0.    -1.21092E+06
           44811    -6.11032E+06     2.67336E+06              0.    -1.24644E+06
           44812    -6.22971E+06     2.73184E+06              0.    -1.28300E+06
           44813    -6.35258E+06     2.79165E+06              0.    -1.32062E+06
           44814    -6.47901E+06     2.85282E+06              0.    -1.35932E+06
           44815    -6.60912E+06     2.91535E+06              0.    -1.39914E+06
           44816    -6.74301E+06     2.97929E+06              0.    -1.44009E+06
           44817    -6.88078E+06     3.04466E+06              0.    -1.48220E+06
           44818    -7.02255E+06     3.11146E+06              0.    -1.52549E+06
           44819    -7.16843E+06     3.17973E+06              0.    -1.56999E+06
           44820    -7.31854E+06     3.24949E+06              0.    -1.61572E+06
           44821    -7.47298E+06     3.32074E+06              0.    -1.66271E+06
           44822    -7.63188E+06     3.39351E+06              0.    -1.71097E+06
           44823    -7.79536E+06     3.46781E+06              0.    -1.76054E+06
           44824    -7.96355E+06     3.54366E+06              0.    -1.81142E+06
           44825    -8.13656E+06     3.62105E+06              0.    -1.86365E+06
           44826    -8.31452E+06     3.70000E+06              0.    -1.91725E+06
           44827    -8.49758E+06     3.78051E+06              0.    -1.97222E+06
           44828    -8.68585E+06     3.86258E+06              0.    -2.02860E+06
           44829    -8.87947E+06     3.94621E+06              0.    -2.08640E+06
           44830    -9.07858E+06     4.03140E+06              0.    -2.14563E+06
           44831    -9.28330E+06     4.11813E+06              0.    -2.20631E+06
           44832    -9.49379E+06     4.20638E+06              0.    -2.26844E+06
           44833    -9.71018E+06     4.29615E+06              0.    -2.33205E+06
           44834    -9.93261E+06     4.38740E+06              0.    -2.39714E+06
           44835    -10.1612E+06     4.48012E+06              0.    -2.46371E+06
           44836    -10.3962E+06     4.57425E+06              0.    -2.53177E+06
           44837    -10.6376E+06     4.66976E+06              0.    -2.60132E+06
           44838    -10.8856E+06     4.76661E+06              0.    -2.67235E+06
           44839    -11.1404E+06     4.86474E+06              0.    -2.74486E+06
           44840    -11.4021E+06     4.96408E+06              0.    -2.81884E+06
           44841    -11.6708E+06     5.06457E+06              0.    -2.89428E+06
           44842    -11.9468E+06     5.16612E+06              0.    -2.97114E+06
           44843    -12.2300E+06     5.26865E+06              0.    -3.04942E+06
           44844    -12.5208E+06     5.37206E+06              0.    -3.12908E+06
           44845    -12.8191E+06     5.47624E+06              0.    -3.21009E+06
           44846    -13.1253E+06     5.58106E+06              0.    -3.29240E+06
           44847    -13.4393E+06     5.68640E+06              0.    -3.37597E+06
           44848    -13.7613E+06      5.7921E+06              0.    -3.46074E+06
           44849    -14.0915E+06     5.89801E+06              0.    -3.54664E+06
           44850    -14.4299E+06     6.00395E+06              0.    -3.63361E+06
           44851    -14.7768E+06     6.10974E+06              0.    -3.72156E+06
           44852    -15.1321E+06     6.21516E+06              0.    -3.81040E+06
           44853    -15.4961E+06     6.31999E+06              0.    -3.90003E+06
           44854    -15.8688E+06     6.42399E+06              0.    -3.99033E+06
           44855    -16.2503E+06     6.52690E+06              0.    -4.08118E+06
           44856    -16.6407E+06     6.62843E+06              0.    -4.17243E+06
           44857    -17.0401E+06     6.72827E+06              0.    -4.26392E+06
           44858    -17.4486E+06     6.82611E+06              0.    -4.35549E+06
           44859    -17.8661E+06     6.92158E+06              0.    -4.44694E+06
           44860    -18.2928E+06     7.01432E+06              0.    -4.53808E+06
           44861    -18.7286E+06     7.10391E+06              0.    -4.62866E+06
           44862    -19.1737E+06     7.18992E+06              0.    -4.71845E+06
           44863    -19.6279E+06     7.27189E+06              0.    -4.80717E+06
           44864    -20.0913E+06     7.34934E+06              0.    -4.89453E+06
           44865    -20.5639E+06     7.42172E+06              0.    -4.98021E+06
           44866    -21.0456E+06     7.48850E+06              0.    -5.06385E+06
           44867    -21.5363E+06     7.54906E+06              0.    -5.14508E+06
           44868    -22.0359E+06     7.60278E+06              0.    -5.22349E+06
           44869    -22.5443E+06     7.64901E+06              0.    -5.29863E+06
           44870    -23.0614E+06     7.68702E+06              0.    -5.37001E+06
           44871    -23.5870E+06     7.71607E+06              0.    -5.43712E+06
           44872    -24.1209E+06     7.73538E+06              0.    -5.49939E+06
           44873    -24.6628E+06     7.74412E+06              0.    -5.55621E+06
           44874    -25.2126E+06     7.74142E+06              0.    -5.60693E+06
           44875    -25.7700E+06     7.72635E+06              0.    -5.65082E+06
           44876    -26.3346E+06     7.69797E+06              0.    -5.68714E+06
           44877    -26.9060E+06     7.65527E+06              0.    -5.71505E+06
           44878    -27.4840E+06     7.59721E+06              0.    -5.73368E+06
           44879    -28.0680E+06     7.52270E+06              0.    -5.74206E+06
           44880    -28.6576E+06     7.43062E+06              0.    -5.73918E+06
           44881    -29.2524E+06     7.31979E+06              0.    -5.72394E+06
           44882    -29.8518E+06     7.18902E+06              0.    -5.69516E+06
           44883    -30.4552E+06     7.03707E+06              0.    -5.65159E+06
           44884    -31.0622E+06     6.86268E+06              0.    -5.59187E+06
           44885    -31.6720E+06     6.66458E+06              0.    -5.51458E+06
           44886    -32.2842E+06     6.44148E+06              0.    -5.41817E+06
           44887    -32.8980E+06     6.19207E+06              0.    -5.30102E+06
           44888    -33.5128E+06     5.91507E+06              0.    -5.16139E+06
           44889    -34.1281E+06     5.60923E+06              0.    -4.99745E+06
           44890    -34.7433E+06     5.27331E+06              0.    -4.80726E+06
           44891    -35.3578E+06     4.90617E+06              0.    -4.58879E+06
           44892    -35.9713E+06     4.50673E+06              0.    -4.33991E+06
           44893    -36.5834E+06     4.07402E+06              0.    -4.05843E+06
           44894    -37.1940E+06     3.60723E+06              0.    -3.74206E+06
           44895    -37.8031E+06     3.10574E+06              0.    -3.38852E+06
           44896    -38.4111E+06     2.56913E+06              0.    -2.99549E+06
           44897    -39.0188E+06     1.99727E+06              0.    -2.56072E+06
           44898    -39.6272E+06     1.39036E+06              0.    -2.08212E+06
           44899    -40.2382E+06     748.943E+03              0.    -1.55778E+06
           44900    -40.8543E+06     74.0226E+03              0.    -986.225E+03
           44901    -41.4787E+06    -632.971E+03              0.    -366.498E+03
           44902    -42.1161E+06    -1.37011E+06              0.     301.496E+03
           44903    -42.7720E+06    -2.13503E+06              0.     1.01668E+06
           44904    -43.4536E+06    -2.92500E+06              0.     1.77634E+06
           44905    -44.1699E+06    -3.73715E+06              0.     2.57552E+06
           44906    -44.9314E+06    -4.56885E+06              0.     3.40626E+06
           44907    -45.7505E+06    -5.41841E+06              0.     4.25664E+06
           44908    -46.6407E+06    -6.28616E+06              0.     5.10962E+06
           44909    -47.6164E+06    -7.17622E+06              0.     5.94186E+06
           44910    -48.6909E+06    -8.09906E+06              0.     6.72244E+06
           44911    -49.8747E+06    -9.07523E+06              0.     7.41222E+06
           44912    -51.1716E+06    -10.1402E+06              0.     7.96397E+06
           44913    -52.5755E+06    -11.3502E+06              0.     8.32452E+06
           44914    -54.0664E+06    -12.7883E+06              0.     8.43966E+06
           44915    -55.6077E+06    -14.5675E+06              0.     8.26220E+06
           44916    -57.1474E+06    -16.8294E+06              0.     7.76278E+06
           44917    -58.6226E+06    -19.7340E+06              0.     6.94077E+06
           44918    -59.9676E+06    -23.4392E+06              0.     5.83126E+06
           44919    -61.9761E+06    -28.5098E+06              0.     5.55436E+06
           44920    -1.82156E+06    -820.228E+03              0.    -156.678E+03
           44921    -1.81591E+06    -767.817E+03              0.    -156.387E+03
           44922    -1.83298E+06    -726.591E+03              0.    -154.712E+03
           44923    -1.84987E+06    -686.195E+03              0.    -153.210E+03
           44924    -1.86660E+06    -646.603E+03              0.    -151.876E+03
           44925     -1.8832E+06    -607.786E+03              0.    -150.705E+03
           44926    -1.89968E+06    -569.717E+03              0.    -149.693E+03
           44927    -1.91605E+06    -532.370E+03              0.    -148.837E+03
           44928    -1.93233E+06     -495.72E+03              0.    -148.132E+03
           44929    -1.94854E+06    -459.742E+03              0.    -147.575E+03
           44930    -1.96470E+06    -424.412E+03              0.    -147.163E+03
           44931    -1.98081E+06    -389.708E+03              0.    -146.893E+03
           44932    -1.99690E+06    -355.606E+03              0.    -146.762E+03
           44933    -2.01298E+06    -322.086E+03              0.    -146.768E+03
           44934    -2.02907E+06    -289.125E+03              0.    -146.909E+03
           44935    -2.04517E+06    -256.703E+03              0.    -147.182E+03
           44936    -2.06130E+06    -224.800E+03              0.    -147.586E+03
           44937    -2.07749E+06    -193.397E+03              0.    -148.119E+03
           44938    -2.09373E+06    -162.473E+03              0.    -148.781E+03
           44939    -2.11004E+06    -132.011E+03              0.    -149.569E+03
           44940    -2.12644E+06    -101.992E+03              0.    -150.484E+03
           44941    -2.14295E+06    -72.3974E+03              0.    -151.524E+03
           44942    -2.15957E+06    -43.2111E+03              0.    -152.688E+03
           44943    -2.17631E+06    -14.4148E+03              0.    -153.977E+03
           44944    -2.19320E+06     14.0081E+03              0.    -155.390E+03
           44945    -2.21024E+06     42.0737E+03              0.    -156.927E+03
           44946    -2.22745E+06     69.7991E+03              0.    -158.589E+03
           44947    -2.24484E+06     97.1996E+03              0.    -160.375E+03
           44948    -2.26243E+06     124.292E+03              0.    -162.286E+03
           44949    -2.28022E+06     151.091E+03              0.    -164.324E+03
           44950    -2.29824E+06     177.612E+03              0.    -166.488E+03
           44951    -2.31649E+06     203.870E+03              0.    -168.781E+03
           44952    -2.33498E+06     229.881E+03              0.    -171.202E+03
           44953    -2.35374E+06     255.660E+03              0.    -173.754E+03
           44954    -2.37278E+06     281.220E+03              0.    -176.437E+03
           44955    -2.39211E+06     306.577E+03              0.    -179.255E+03
           44956    -2.41174E+06     331.746E+03              0.    -182.208E+03
           44957    -2.43170E+06     356.740E+03              0.    -185.299E+03
           44958    -2.45198E+06     381.574E+03              0.    -188.529E+03
           44959    -2.47262E+06     406.263E+03              0.    -191.902E+03
           44960    -2.49362E+06     430.820E+03              0.    -195.419E+03
           44961    -2.51500E+06     455.261E+03              0.    -199.084E+03
           44962    -2.53678E+06     479.599E+03              0.    -202.900E+03
           44963    -2.55897E+06     503.848E+03              0.    -206.869E+03
           44964    -2.58159E+06     528.023E+03              0.    -210.994E+03
           44965    -2.60465E+06     552.137E+03              0.    -215.280E+03
           44966    -2.62818E+06     576.207E+03              0.    -219.730E+03
           44967    -2.65218E+06     600.245E+03              0.    -224.347E+03
           44968    -2.67669E+06     624.267E+03              0.    -229.136E+03
           44969    -2.70171E+06     648.287E+03              0.    -234.100E+03
           44970    -2.72727E+06     672.319E+03              0.    -239.245E+03
           44971    -2.75338E+06     696.378E+03              0.    -244.575E+03
           44972    -2.78006E+06     720.480E+03              0.    -250.094E+03
           44973    -2.80734E+06     744.639E+03              0.    -255.807E+03
           44974    -2.83524E+06     768.871E+03              0.    -261.721E+03
           44975    -2.86377E+06     793.191E+03              0.    -267.839E+03
           44976    -2.89297E+06     817.614E+03              0.    -274.169E+03
           44977    -2.92284E+06     842.155E+03              0.    -280.715E+03
           44978    -2.95342E+06     866.832E+03              0.    -287.484E+03
           44979    -2.98472E+06     891.661E+03              0.    -294.482E+03
           44980    -3.01678E+06     916.656E+03              0.    -301.715E+03
           44981    -3.04962E+06     941.835E+03              0.    -309.191E+03
           44982    -3.08327E+06     967.215E+03              0.    -316.916E+03
           44983    -3.11774E+06     992.813E+03              0.    -324.899E+03
           44984    -3.15307E+06     1.01865E+06              0.    -333.145E+03
           44985    -3.18929E+06     1.04473E+06              0.    -341.664E+03
           44986    -3.22642E+06     1.07109E+06              0.    -350.463E+03
           44987    -3.26450E+06     1.09773E+06              0.    -359.550E+03
           44988    -3.30356E+06     1.12468E+06              0.    -368.935E+03
           44989    -3.34362E+06     1.15196E+06              0.    -378.626E+03
           44990    -3.38473E+06     1.17958E+06              0.    -388.632E+03
           44991    -3.42691E+06     1.20757E+06              0.    -398.963E+03
           44992    -3.47020E+06     1.23594E+06              0.    -409.629E+03
           44993    -3.51464E+06     1.26471E+06              0.    -420.640E+03
           44994    -3.56025E+06     1.29391E+06              0.    -432.006E+03
           44995    -3.60709E+06     1.32355E+06              0.    -443.738E+03
           44996    -3.65518E+06     1.35366E+06              0.    -455.847E+03
           44997    -3.70458E+06     1.38426E+06              0.    -468.344E+03
           44998    -3.75531E+06     1.41536E+06              0.    -481.242E+03
           44999    -3.80743E+06     1.44700E+06              0.    -494.552E+03
           45000    -3.86097E+06     1.47919E+06              0.    -508.287E+03
           45001    -3.91599E+06     1.51196E+06              0.    -522.459E+03
           45002    -3.97253E+06     1.54533E+06              0.    -537.082E+03
           45003    -4.03063E+06     1.57932E+06              0.    -552.169E+03
           45004    -4.09035E+06     1.61396E+06              0.    -567.734E+03
           45005    -4.15173E+06     1.64927E+06              0.    -583.791E+03
           45006    -4.21484E+06     1.68528E+06              0.    -600.354E+03
           45007    -4.27972E+06     1.72201E+06              0.    -617.439E+03
           45008    -4.34643E+06     1.75949E+06              0.    -635.061E+03
           45009    -4.41502E+06     1.79775E+06              0.    -653.236E+03
           45010    -4.48556E+06     1.83680E+06              0.    -671.979E+03
           45011    -4.55811E+06     1.87668E+06              0.    -691.307E+03
           45012    -4.63272E+06     1.91741E+06              0.    -711.237E+03
           45013    -4.70947E+06     1.95902E+06              0.    -731.786E+03
           45014    -4.78841E+06     2.00154E+06              0.    -752.972E+03
           45015    -4.86962E+06     2.04500E+06              0.    -774.812E+03
           45016    -4.95316E+06     2.08941E+06              0.    -797.324E+03
           45017    -5.03911E+06     2.13482E+06              0.    -820.528E+03
           45018    -5.12753E+06     2.18125E+06              0.    -844.442E+03
           45019    -5.21852E+06     2.22872E+06              0.    -869.085E+03
           45020    -5.31213E+06     2.27727E+06              0.    -894.477E+03
           45021    -5.40846E+06     2.32692E+06              0.    -920.638E+03
           45022    -5.50758E+06     2.37770E+06              0.    -947.589E+03
           45023    -5.60958E+06     2.42965E+06              0.    -975.349E+03
           45024    -5.71454E+06     2.48278E+06              0.    -1.00394E+06
           45025    -5.82255E+06     2.53712E+06              0.    -1.03338E+06
           45026    -5.93370E+06     2.59272E+06              0.    -1.06370E+06
           45027    -6.04809E+06     2.64958E+06              0.    -1.09491E+06
           45028    -6.16581E+06     2.70774E+06              0.    -1.12703E+06
           45029    -6.28695E+06     2.76722E+06              0.    -1.16009E+06
           45030    -6.41162E+06     2.82806E+06              0.    -1.19411E+06
           45031    -6.53991E+06     2.89027E+06              0.    -1.22912E+06
           45032    -6.67194E+06     2.95388E+06              0.    -1.26512E+06
           45033    -6.80780E+06     3.01892E+06              0.    -1.30215E+06
           45034    -6.94761E+06     3.08540E+06              0.    -1.34023E+06
           45035    -7.09147E+06     3.15335E+06              0.    -1.37938E+06
           45036    -7.23951E+06     3.22278E+06              0.    -1.41962E+06
           45037    -7.39183E+06     3.29372E+06              0.    -1.46096E+06
           45038    -7.54855E+06     3.36619E+06              0.    -1.50345E+06
           45039    -7.70979E+06     3.44019E+06              0.    -1.54708E+06
           45040    -7.87569E+06     3.51575E+06              0.    -1.59189E+06
           45041    -8.04635E+06     3.59286E+06              0.    -1.63789E+06
           45042    -8.22190E+06     3.67155E+06              0.    -1.68510E+06
           45043    -8.40249E+06     3.75181E+06              0.    -1.73354E+06
           45044    -8.58822E+06     3.83365E+06              0.    -1.78323E+06
           45045    -8.77924E+06     3.91707E+06              0.    -1.83418E+06
           45046    -8.97569E+06     4.00207E+06              0.    -1.88641E+06
           45047    -9.17769E+06     4.08863E+06              0.    -1.93993E+06
           45048    -9.38538E+06     4.17675E+06              0.    -1.99475E+06
           45049    -9.59891E+06     4.26641E+06              0.    -2.05089E+06
           45050    -9.81841E+06     4.35759E+06              0.    -2.10836E+06
           45051    -10.0440E+06     4.45026E+06              0.    -2.16715E+06
           45052    -10.2759E+06     4.54439E+06              0.    -2.22727E+06
           45053    -10.5142E+06     4.63995E+06              0.    -2.28874E+06
           45054    -10.7590E+06     4.73689E+06              0.    -2.35154E+06
           45055    -11.0105E+06     4.83515E+06              0.    -2.41567E+06
           45056    -11.2688E+06     4.93469E+06              0.    -2.48112E+06
           45057    -11.5341E+06     5.03543E+06              0.    -2.54790E+06
           45058    -11.8065E+06     5.13731E+06              0.    -2.61597E+06
           45059    -12.0861E+06     5.24022E+06              0.    -2.68532E+06
           45060    -12.3732E+06     5.34409E+06              0.    -2.75594E+06
           45061    -12.6678E+06     5.44881E+06              0.    -2.82779E+06
           45062    -12.9700E+06     5.55426E+06              0.    -2.90083E+06
           45063    -13.2801E+06     5.66031E+06              0.    -2.97504E+06
           45064    -13.5981E+06     5.76682E+06              0.    -3.05036E+06
           45065    -13.9241E+06     5.87365E+06              0.    -3.12674E+06
           45066    -14.2583E+06     5.98062E+06              0.    -3.20412E+06
           45067    -14.6009E+06     6.08755E+06              0.    -3.28243E+06
           45068    -14.9518E+06     6.19423E+06              0.    -3.36160E+06
           45069    -15.3113E+06     6.30046E+06              0.    -3.44154E+06
           45070    -15.6793E+06     6.40600E+06              0.    -3.52215E+06
           45071    -16.0561E+06     6.51059E+06              0.    -3.60332E+06
           45072    -16.4417E+06     6.61395E+06              0.    -3.68495E+06
           45073    -16.8361E+06     6.71580E+06              0.    -3.76689E+06
           45074    -17.2395E+06     6.81580E+06              0.    -3.84899E+06
           45075    -17.6518E+06     6.91362E+06              0.    -3.93111E+06
           45076    -18.0731E+06     7.00890E+06              0.    -4.01305E+06
           45077    -18.5035E+06     7.10122E+06              0.    -4.09464E+06
           45078    -18.9429E+06     7.19017E+06              0.    -4.17565E+06
           45079    -19.3913E+06     7.27529E+06              0.    -4.25586E+06
           45080    -19.8487E+06     7.35610E+06              0.    -4.33500E+06
           45081    -20.3151E+06     7.43209E+06              0.    -4.41281E+06
           45082    -20.7904E+06     7.50270E+06              0.    -4.48899E+06
           45083    -21.2745E+06     7.56734E+06              0.    -4.56320E+06
           45084    -21.7673E+06     7.62538E+06              0.    -4.63510E+06
           45085    -22.2687E+06     7.67618E+06              0.    -4.70429E+06
           45086    -22.7784E+06     7.71903E+06              0.    -4.77037E+06
           45087    -23.2963E+06     7.75317E+06              0.    -4.83286E+06
           45088    -23.8222E+06     7.77783E+06              0.    -4.89129E+06
           45089    -24.3557E+06     7.79218E+06              0.    -4.94512E+06
           45090    -24.8967E+06     7.79534E+06              0.    -4.99378E+06
           45091    -25.4447E+06     7.78639E+06              0.    -5.03665E+06
           45092    -25.9994E+06     7.76436E+06              0.    -5.07304E+06
           45093    -26.5604E+06     7.72824E+06              0.    -5.10226E+06
           45094    -27.1272E+06     7.67696E+06              0.    -5.12349E+06
           45095    -27.6994E+06     7.60942E+06              0.    -5.13592E+06
           45096    -28.2762E+06     7.52446E+06              0.    -5.13862E+06
           45097    -28.8573E+06     7.42088E+06              0.    -5.13063E+06
           45098    -29.4418E+06     7.29743E+06              0.    -5.11088E+06
           45099    -30.0292E+06     7.15283E+06              0.    -5.07825E+06
           45100    -30.6187E+06     6.98575E+06              0.    -5.03151E+06
           45101    -31.2094E+06     6.79485E+06              0.    -4.96936E+06
           45102    -31.8006E+06     6.57874E+06              0.    -4.89041E+06
           45103    -32.3914E+06     6.33603E+06              0.    -4.79313E+06
           45104    -32.9808E+06     6.06532E+06              0.    -4.67592E+06
           45105    -33.5678E+06     5.76520E+06              0.    -4.53706E+06
           45106    -34.1517E+06     5.43431E+06              0.    -4.37470E+06
           45107    -34.7312E+06     5.07129E+06              0.    -4.18689E+06
           45108    -35.3056E+06     4.67489E+06              0.    -3.97154E+06
           45109    -35.8738E+06     4.24391E+06              0.    -3.72644E+06
           45110     -36.435E+06     3.77729E+06              0.    -3.44929E+06
           45111    -36.9885E+06     3.27413E+06              0.    -3.13762E+06
           45112    -37.5336E+06     2.73373E+06              0.    -2.78892E+06
           45113    -38.0700E+06     2.15565E+06              0.    -2.40057E+06
           45114    -38.5976E+06     1.53980E+06              0.    -1.96992E+06
           45115    -39.1168E+06     886.446E+03              0.    -1.49433E+06
           45116    -39.6284E+06     196.359E+03              0.    -971.256E+03
           45117    -40.1341E+06    -529.123E+03              0.    -398.357E+03
           45118    -40.6362E+06    -1.28802E+06              0.     226.352E+03
           45119    -41.1384E+06    -2.07758E+06              0.     904.255E+03
           45120    -41.6457E+06    -2.89423E+06              0.     1.63582E+06
           45121    -42.1650E+06    -3.73353E+06              0.     2.42020E+06
           45122    -42.7051E+06    -4.59021E+06              0.     3.25453E+06
           45123    -43.2774E+06    -5.45838E+06              0.     4.13319E+06
           45124    -43.8958E+06    -6.33190E+06              0.     5.04666E+06
           45125    -44.5773E+06    -7.20527E+06              0.     5.98004E+06
           45126    -45.3410E+06    -8.07511E+06              0.     6.91134E+06
           45127    -46.2075E+06    -8.94269E+06              0.     7.80940E+06
           45128    -47.1963E+06    -9.81796E+06              0.     8.63191E+06
           45129    -48.3221E+06    -10.7256E+06              0.     9.32413E+06
           45130    -49.5893E+06    -11.7134E+06              0.     9.81966E+06
           45131    -50.9858E+06    -12.8622E+06              0.     10.0449E+06
           45132    -52.4778E+06    -14.2954E+06              0.     9.92898E+06
           45133    -54.0079E+06    -16.1816E+06              0.     9.41935E+06
           45134    -55.5006E+06    -18.7249E+06              0.     8.50044E+06
           45135    -56.8740E+06    -22.1370E+06              0.     7.20815E+06
           45136    -58.8596E+06    -27.0228E+06              0.     6.88540E+06
           45137    -1.82572E+06    -822.112E+03              0.    -139.456E+03
           45138    -1.82005E+06    -769.487E+03              0.    -139.198E+03
           45139    -1.83719E+06    -728.095E+03              0.    -137.706E+03
           45140    -1.85415E+06    -687.539E+03              0.    -136.369E+03
           45141    -1.87095E+06    -647.790E+03              0.    -135.181E+03
           45142    -1.88762E+06    -608.820E+03              0.    -134.139E+03
           45143    -1.90416E+06    -570.603E+03              0.    -133.240E+03
           45144    -1.92060E+06    -533.111E+03              0.    -132.478E+03
           45145    -1.93695E+06    -496.319E+03              0.    -131.852E+03
           45146    -1.95323E+06    -460.202E+03              0.    -131.358E+03
           45147    -1.96945E+06    -424.737E+03              0.    -130.993E+03
           45148    -1.98563E+06    -389.900E+03              0.    -130.755E+03
           45149    -2.00179E+06    -355.668E+03              0.    -130.640E+03
           45150    -2.01794E+06    -322.019E+03              0.    -130.648E+03
           45151    -2.03410E+06    -288.931E+03              0.    -130.776E+03
           45152    -2.05027E+06    -256.385E+03              0.    -131.022E+03
           45153    -2.06648E+06    -224.359E+03              0.    -131.385E+03
           45154    -2.08273E+06    -192.834E+03              0.    -131.864E+03
           45155    -2.09905E+06    -161.789E+03              0.    -132.456E+03
           45156    -2.11544E+06    -131.207E+03              0.    -133.162E+03
           45157    -2.13193E+06    -101.070E+03              0.    -133.980E+03
           45158    -2.14851E+06    -71.3571E+03              0.    -134.910E+03
           45159    -2.16522E+06    -42.0530E+03              0.    -135.951E+03
           45160    -2.18205E+06    -13.1391E+03              0.    -137.103E+03
           45161    -2.19903E+06     15.4013E+03              0.    -138.366E+03
           45162    -2.21616E+06     43.5845E+03              0.    -139.740E+03
           45163    -2.23346E+06     71.4279E+03              0.    -141.225E+03
           45164    -2.25095E+06     98.9467E+03              0.    -142.821E+03
           45165    -2.26864E+06     126.158E+03              0.    -144.528E+03
           45166    -2.28653E+06     153.076E+03              0.    -146.349E+03
           45167    -2.30466E+06     179.718E+03              0.    -148.282E+03
           45168    -2.32302E+06     206.098E+03              0.    -150.329E+03
           45169    -2.34163E+06     232.232E+03              0.    -152.492E+03
           45170    -2.36051E+06     258.135E+03              0.    -154.771E+03
           45171    -2.37967E+06     283.821E+03              0.    -157.167E+03
           45172    -2.39912E+06     309.305E+03              0.    -159.683E+03
           45173    -2.41889E+06     334.603E+03              0.    -162.321E+03
           45174    -2.43897E+06     359.729E+03              0.    -165.080E+03
           45175    -2.45940E+06     384.697E+03              0.    -167.965E+03
           45176    -2.48018E+06     409.521E+03              0.    -170.977E+03
           45177    -2.50134E+06     434.217E+03              0.    -174.118E+03
           45178    -2.52287E+06     458.799E+03              0.    -177.390E+03
           45179    -2.54481E+06     483.280E+03              0.    -180.797E+03
           45180    -2.56717E+06     507.676E+03              0.    -184.341E+03
           45181    -2.58996E+06     532.001E+03              0.    -188.024E+03
           45182    -2.61320E+06     556.269E+03              0.    -191.851E+03
           45183    -2.63692E+06     580.496E+03              0.    -195.824E+03
           45184    -2.66111E+06     604.695E+03              0.    -199.947E+03
           45185    -2.68582E+06     628.881E+03              0.    -204.222E+03
           45186    -2.71105E+06     653.069E+03              0.    -208.655E+03
           45187    -2.73682E+06     677.274E+03              0.    -213.249E+03
           45188    -2.76315E+06     701.511E+03              0.    -218.007E+03
           45189    -2.79007E+06     725.795E+03              0.    -222.935E+03
           45190    -2.81759E+06     750.141E+03              0.    -228.037E+03
           45191    -2.84573E+06     774.564E+03              0.    -233.317E+03
           45192    -2.87452E+06     799.081E+03              0.    -238.780E+03
           45193    -2.90397E+06     823.707E+03              0.    -244.431E+03
           45194    -2.93412E+06     848.457E+03              0.    -250.276E+03
           45195    -2.96499E+06     873.348E+03              0.    -256.320E+03
           45196    -2.99659E+06     898.396E+03              0.    -262.568E+03
           45197    -3.02895E+06     923.618E+03              0.    -269.027E+03
           45198    -3.06211E+06     949.031E+03              0.    -275.702E+03
           45199    -3.09608E+06     974.651E+03              0.    -282.600E+03
           45200    -3.13089E+06     1.00050E+06              0.    -289.728E+03
           45201    -3.16657E+06     1.02658E+06              0.    -297.091E+03
           45202    -3.20316E+06     1.05293E+06              0.    -304.698E+03
           45203    -3.24067E+06     1.07955E+06              0.    -312.555E+03
           45204    -3.27914E+06     1.10648E+06              0.    -320.669E+03
           45205    -3.31860E+06     1.13371E+06              0.    -329.049E+03
           45206    -3.35908E+06     1.16129E+06              0.    -337.702E+03
           45207    -3.40062E+06     1.18921E+06              0.    -346.638E+03
           45208    -3.44325E+06     1.21751E+06              0.    -355.863E+03
           45209    -3.48700E+06     1.24620E+06              0.    -365.387E+03
           45210    -3.53192E+06     1.27531E+06              0.    -375.219E+03
           45211    -3.57803E+06     1.30485E+06              0.    -385.369E+03
           45212    -3.62539E+06     1.33484E+06              0.    -395.845E+03
           45213    -3.67402E+06     1.36531E+06              0.    -406.658E+03
           45214    -3.72396E+06     1.39628E+06              0.    -417.818E+03
           45215    -3.77527E+06     1.42777E+06              0.    -429.336E+03
           45216    -3.82798E+06     1.45981E+06              0.    -441.221E+03
           45217    -3.88213E+06     1.49241E+06              0.    -453.486E+03
           45218    -3.93778E+06     1.52560E+06              0.    -466.142E+03
           45219    -3.99497E+06     1.55940E+06              0.    -479.200E+03
           45220    -4.05375E+06     1.59384E+06              0.    -492.672E+03
           45221    -4.11418E+06     1.62894E+06              0.    -506.571E+03
           45222    -4.17629E+06     1.66472E+06              0.    -520.910E+03
           45223    -4.24014E+06     1.70122E+06              0.    -535.701E+03
           45224    -4.30580E+06     1.73845E+06              0.    -550.958E+03
           45225    -4.37331E+06     1.77645E+06              0.    -566.694E+03
           45226    -4.44273E+06     1.81524E+06              0.    -582.924E+03
           45227    -4.51413E+06     1.85484E+06              0.    -599.661E+03
           45228    -4.58756E+06     1.89528E+06              0.    -616.921E+03
           45229    -4.66309E+06     1.93659E+06              0.    -634.718E+03
           45230    -4.74078E+06     1.97880E+06              0.    -653.067E+03
           45231    -4.82070E+06     2.02193E+06              0.    -671.985E+03
           45232    -4.90292E+06     2.06601E+06              0.    -691.487E+03
           45233    -4.98751E+06     2.11108E+06              0.    -711.590E+03
           45234    -5.07454E+06     2.15715E+06              0.    -732.309E+03
           45235    -5.16408E+06     2.20426E+06              0.    -753.663E+03
           45236    -5.25621E+06     2.25243E+06              0.    -775.667E+03
           45237    -5.35101E+06      2.3017E+06              0.    -798.341E+03
           45238    -5.44857E+06     2.35209E+06              0.    -821.700E+03
           45239    -5.54895E+06     2.40363E+06              0.    -845.764E+03
           45240    -5.65226E+06     2.45635E+06              0.     -870.55E+03
           45241    -5.75857E+06     2.51028E+06              0.    -896.077E+03
           45242    -5.86797E+06     2.56545E+06              0.    -922.365E+03
           45243    -5.98056E+06     2.62188E+06              0.    -949.431E+03
           45244    -6.09643E+06      2.6796E+06              0.    -977.294E+03
           45245    -6.21567E+06     2.73864E+06              0.    -1.00597E+06
           45246    -6.33839E+06     2.79903E+06              0.    -1.03549E+06
           45247    -6.46468E+06     2.86078E+06              0.    -1.06586E+06
           45248    -6.59464E+06     2.92394E+06              0.    -1.09711E+06
           45249    -6.72839E+06     2.98851E+06              0.    -1.12925E+06
           45250    -6.86602E+06     3.05453E+06              0.    -1.16231E+06
           45251    -7.00766E+06     3.12201E+06              0.    -1.19630E+06
           45252    -7.15340E+06     3.19099E+06              0.    -1.23124E+06
           45253    -7.30337E+06     3.26147E+06              0.    -1.26716E+06
           45254    -7.45768E+06     3.33348E+06              0.    -1.30406E+06
           45255    -7.61646E+06     3.40703E+06              0.    -1.34198E+06
           45256    -7.77981E+06     3.48214E+06              0.    -1.38092E+06
           45257    -7.94786E+06     3.55881E+06              0.    -1.42091E+06
           45258    -8.12075E+06     3.63707E+06              0.    -1.46196E+06
           45259    -8.29859E+06     3.71692E+06              0.    -1.50409E+06
           45260    -8.48151E+06     3.79836E+06              0.    -1.54731E+06
           45261    -8.66966E+06     3.88139E+06              0.    -1.59165E+06
           45262    -8.86315E+06     3.96602E+06              0.    -1.63710E+06
           45263    -9.06213E+06     4.05224E+06              0.    -1.68370E+06
           45264    -9.26672E+06     4.14003E+06              0.    -1.73144E+06
           45265    -9.47708E+06     4.22940E+06              0.    -1.78034E+06
           45266    -9.69333E+06     4.32031E+06              0.    -1.83042E+06
           45267    -9.91562E+06     4.41275E+06              0.    -1.88166E+06
           45268    -10.1441E+06     4.50669E+06              0.    -1.93409E+06
           45269    -10.3789E+06     4.60209E+06              0.    -1.98770E+06
           45270    -10.6201E+06     4.69892E+06              0.    -2.04250E+06
           45271    -10.8680E+06     4.79713E+06              0.    -2.09849E+06
           45272    -11.1225E+06     4.89666E+06              0.    -2.15565E+06
           45273    -11.3840E+06     4.99746E+06              0.    -2.21399E+06
           45274    -11.6525E+06     5.09945E+06              0.    -2.27349E+06
           45275    -11.9282E+06     5.20255E+06              0.    -2.33415E+06
           45276    -12.2112E+06     5.30668E+06              0.    -2.39593E+06
           45277    -12.5016E+06     5.41174E+06              0.    -2.45883E+06
           45278    -12.7996E+06     5.51761E+06              0.    -2.52281E+06
           45279    -13.1054E+06     5.62418E+06              0.    -2.58785E+06
           45280    -13.4189E+06     5.73132E+06              0.    -2.65391E+06
           45281    -13.7405E+06     5.83888E+06              0.    -2.72094E+06
           45282    -14.0701E+06     5.94669E+06              0.    -2.78889E+06
           45283    -14.4079E+06     6.05458E+06              0.    -2.85772E+06
           45284    -14.7541E+06     6.16237E+06              0.    -2.92736E+06
           45285    -15.1087E+06     6.26983E+06              0.    -2.99774E+06
           45286    -15.4718E+06     6.37676E+06              0.    -3.06877E+06
           45287    -15.8435E+06     6.48289E+06              0.    -3.14037E+06
           45288    -16.2239E+06     6.58796E+06              0.    -3.21245E+06
           45289    -16.6130E+06     6.69170E+06              0.    -3.28489E+06
           45290    -17.0110E+06     6.79378E+06              0.    -3.35756E+06
           45291    -17.4178E+06     6.89388E+06              0.    -3.43035E+06
           45292    -17.8336E+06     6.99164E+06              0.    -3.50309E+06
           45293    -18.2582E+06     7.08666E+06              0.    -3.57563E+06
           45294    -18.6918E+06     7.17855E+06              0.    -3.64778E+06
           45295    -19.1343E+06     7.26685E+06              0.    -3.71936E+06
           45296    -19.5856E+06     7.35109E+06              0.    -3.79016E+06
           45297    -20.0458E+06     7.43077E+06              0.    -3.85993E+06
           45298    -20.5147E+06     7.50535E+06              0.    -3.92842E+06
           45299    -20.9923E+06     7.57425E+06              0.    -3.99537E+06
           45300    -21.4784E+06     7.63686E+06              0.    -4.06046E+06
           45301    -21.9729E+06     7.69252E+06              0.    -4.12337E+06
           45302    -22.4756E+06     7.74054E+06              0.    -4.18374E+06
           45303    -22.9863E+06     7.78019E+06              0.    -4.24119E+06
           45304    -23.5047E+06     7.81069E+06              0.    -4.29530E+06
           45305    -24.0305E+06     7.83121E+06              0.    -4.34562E+06
           45306    -24.5634E+06     7.84089E+06              0.    -4.39165E+06
           45307    -25.1031E+06     7.83880E+06              0.    -4.43285E+06
           45308    -25.6491E+06     7.82397E+06              0.    -4.46867E+06
           45309    -26.2011E+06     7.79540E+06              0.    -4.49846E+06
           45310    -26.7583E+06     7.75200E+06              0.    -4.52156E+06
           45311    -27.3204E+06     7.69265E+06              0.    -4.53723E+06
           45312    -27.8867E+06     7.61619E+06              0.    -4.54469E+06
           45313    -28.4565E+06     7.52139E+06              0.    -4.54310E+06
           45314    -29.0290E+06     7.40697E+06              0.    -4.53152E+06
           45315    -29.6035E+06     7.27162E+06              0.    -4.50897E+06
           45316    -30.1791E+06     7.11395E+06              0.    -4.47437E+06
           45317    -30.7548E+06     6.93257E+06              0.    -4.42658E+06
           45318    -31.3297E+06     6.72603E+06              0.    -4.36435E+06
           45319    -31.9027E+06     6.49283E+06              0.    -4.28633E+06
           45320    -32.4725E+06     6.23148E+06              0.    -4.19108E+06
           45321    -33.0380E+06     5.94046E+06              0.    -4.07703E+06
           45322    -33.5980E+06     5.61824E+06              0.    -3.94253E+06
           45323    -34.1510E+06     5.26332E+06              0.    -3.78575E+06
           45324    -34.6956E+06     4.87423E+06              0.    -3.60476E+06
           45325    -35.2305E+06     4.44955E+06              0.    -3.39748E+06
           45326    -35.7541E+06     3.98795E+06              0.    -3.16168E+06
           45327    -36.2651E+06     3.48823E+06              0.    -2.89499E+06
           45328    -36.7619E+06     2.94935E+06              0.    -2.59486E+06
           45329    -37.2433E+06     2.37047E+06              0.    -2.25861E+06
           45330    -37.7081E+06     1.75106E+06              0.    -1.88340E+06
           45331    -38.1551E+06     1.09092E+06              0.    -1.46624E+06
           45332    -38.5839E+06     390.312E+03              0.    -1.00408E+06
           45333    -38.9940E+06    -349.974E+03              0.    -493.761E+03
           45334    -39.3859E+06    -1.12844E+06              0.     67.8277E+03
           45335    -39.7608E+06    -1.94281E+06              0.     683.689E+03
           45336    -40.1208E+06    -2.78978E+06              0.     1.35652E+06
           45337    -40.4697E+06    -3.66491E+06              0.     2.08845E+06
           45338    -40.8131E+06    -4.56243E+06              0.     2.88071E+06
           45339    -41.1589E+06    -5.47509E+06              0.     3.73301E+06
           45340    -41.5181E+06    -6.39405E+06              0.     4.64281E+06
           45341    -41.9052E+06    -7.30902E+06              0.     5.60410E+06
           45342    -42.3393E+06    -8.20859E+06              0.     6.60583E+06
           45343    -42.8437E+06    -9.08130E+06              0.     7.62967E+06
           45344    -43.4460E+06    -9.91757E+06              0.     8.64707E+06
           45345    -44.1766E+06    -10.7135E+06              0.     9.61583E+06
           45346    -45.0645E+06    -11.4775E+06              0.     10.4765E+06
           45347    -46.1304E+06    -12.2407E+06              0.     11.1501E+06
           45348    -47.3772E+06    -13.0723E+06              0.     11.5406E+06
           45349    -48.7795E+06    -14.0982E+06              0.     11.5445E+06
           45350    -50.2777E+06    -15.5154E+06              0.     11.0731E+06
           45351    -51.7814E+06    -17.5874E+06              0.     10.0824E+06
           45352    -53.1857E+06    -20.6082E+06              0.     8.60336E+06
           45353    -55.1425E+06    -25.2541E+06              0.     8.23800E+06
           45354    -1.82940E+06    -823.778E+03              0.    -122.169E+03
           45355    -1.82371E+06    -770.964E+03              0.    -121.943E+03
           45356    -1.84091E+06    -729.425E+03              0.    -120.635E+03
           45357    -1.85793E+06    -688.725E+03              0.    -119.463E+03
           45358    -1.87480E+06    -648.838E+03              0.    -118.423E+03
           45359    -1.89152E+06    -609.733E+03              0.    -117.511E+03
           45360    -1.90812E+06    -571.384E+03              0.    -116.723E+03
           45361    -1.92462E+06    -533.764E+03              0.    -116.057E+03
           45362    -1.94103E+06    -496.847E+03              0.    -115.509E+03
           45363    -1.95737E+06    -460.608E+03              0.    -115.078E+03
           45364    -1.97365E+06    -425.023E+03              0.    -114.759E+03
           45365    -1.98990E+06    -390.067E+03              0.    -114.552E+03
           45366    -2.00611E+06    -355.720E+03              0.    -114.454E+03
           45367    -2.02233E+06    -321.957E+03              0.    -114.462E+03
           45368    -2.03854E+06    -288.758E+03              0.    -114.577E+03
           45369    -2.05478E+06    -256.101E+03              0.    -114.795E+03
           45370    -2.07105E+06    -223.966E+03              0.    -115.115E+03
           45371    -2.08737E+06    -192.333E+03              0.    -115.537E+03
           45372    -2.10376E+06    -161.182E+03              0.    -116.059E+03
           45373    -2.12022E+06    -130.494E+03              0.    -116.680E+03
           45374    -2.13678E+06    -100.251E+03              0.    -117.400E+03
           45375    -2.15343E+06    -70.4340E+03              0.    -118.219E+03
           45376    -2.17021E+06    -41.0256E+03              0.    -119.134E+03
           45377    -2.18712E+06    -12.0076E+03              0.    -120.147E+03
           45378    -2.20418E+06     16.6369E+03              0.    -121.258E+03
           45379    -2.22139E+06     44.9242E+03              0.    -122.466E+03
           45380    -2.23878E+06     72.8720E+03              0.    -123.771E+03
           45381    -2.25635E+06     100.496E+03              0.    -125.173E+03
           45382    -2.27413E+06     127.812E+03              0.    -126.674E+03
           45383    -2.29212E+06     154.836E+03              0.    -128.274E+03
           45384    -2.31033E+06     181.585E+03              0.    -129.973E+03
           45385    -2.32879E+06     208.073E+03              0.    -131.772E+03
           45386    -2.34751E+06     234.315E+03              0.    -133.672E+03
           45387    -2.36649E+06     260.328E+03              0.    -135.674E+03
           45388    -2.38576E+06     286.126E+03              0.    -137.780E+03
           45389    -2.40532E+06     311.723E+03              0.    -139.991E+03
           45390    -2.42520E+06     337.136E+03              0.    -142.308E+03
           45391    -2.44541E+06     362.377E+03              0.    -144.732E+03
           45392    -2.46597E+06     387.464E+03              0.    -147.266E+03
           45393    -2.48688E+06     412.408E+03              0.    -149.912E+03
           45394    -2.50816E+06     437.227E+03              0.    -152.671E+03
           45395    -2.52984E+06     461.933E+03              0.    -155.546E+03
           45396    -2.55192E+06     486.542E+03              0.    -158.539E+03
           45397    -2.57442E+06     511.068E+03              0.    -161.652E+03
           45398    -2.59737E+06     535.526E+03              0.    -164.888E+03
           45399    -2.62077E+06     559.931E+03              0.    -168.250E+03
           45400    -2.64465E+06     584.296E+03              0.    -171.740E+03
           45401    -2.66902E+06     608.638E+03              0.    -175.361E+03
           45402    -2.69390E+06     632.970E+03              0.    -179.117E+03
           45403    -2.71931E+06     657.307E+03              0.    -183.011E+03
           45404    -2.74527E+06     681.665E+03              0.    -187.047E+03
           45405    -2.77180E+06     706.059E+03              0.    -191.227E+03
           45406    -2.79892E+06     730.504E+03              0.    -195.556E+03
           45407    -2.82665E+06     755.016E+03              0.    -200.037E+03
           45408    -2.85501E+06     779.609E+03              0.    -204.675E+03
           45409    -2.88403E+06     804.301E+03              0.    -209.474E+03
           45410    -2.91372E+06     829.106E+03              0.    -214.439E+03
           45411    -2.94411E+06     854.040E+03              0.    -219.574E+03
           45412    -2.97523E+06     879.121E+03              0.    -224.883E+03
           45413    -3.00709E+06     904.364E+03              0.    -230.372E+03
           45414    -3.03973E+06     929.787E+03              0.    -236.046E+03
           45415    -3.07316E+06     955.406E+03              0.    -241.910E+03
           45416    -3.10742E+06     981.239E+03              0.    -247.970E+03
           45417    -3.14254E+06     1.00730E+06              0.    -254.231E+03
           45418    -3.17853E+06     1.03361E+06              0.    -260.700E+03
           45419    -3.21544E+06     1.06019E+06              0.    -267.382E+03
           45420    -3.25328E+06     1.08706E+06              0.    -274.284E+03
           45421    -3.29210E+06     1.11423E+06              0.    -281.413E+03
           45422    -3.33192E+06     1.14172E+06              0.    -288.775E+03
           45423    -3.37277E+06     1.16955E+06              0.    -296.377E+03
           45424    -3.41469E+06     1.19774E+06              0.    -304.227E+03
           45425    -3.45772E+06     1.22632E+06              0.    -312.331E+03
           45426    -3.50189E+06     1.25530E+06              0.    -320.699E+03
           45427    -3.54723E+06     1.28470E+06              0.    -329.336E+03
           45428    -3.59378E+06     1.31454E+06              0.    -338.253E+03
           45429    -3.64159E+06     1.34485E+06              0.    -347.457E+03
           45430    -3.69070E+06     1.37564E+06              0.    -356.957E+03
           45431    -3.74113E+06     1.40694E+06              0.    -366.761E+03
           45432    -3.79294E+06     1.43877E+06              0.    -376.880E+03
           45433    -3.84618E+06     1.47116E+06              0.    -387.322E+03
           45434    -3.90088E+06     1.50412E+06              0.    -398.097E+03
           45435    -3.95709E+06     1.53768E+06              0.    -409.216E+03
           45436    -4.01486E+06     1.57187E+06              0.    -420.688E+03
           45437    -4.07424E+06     1.60670E+06              0.    -432.524E+03
           45438    -4.13528E+06     1.64221E+06              0.    -444.736E+03
           45439    -4.19804E+06     1.67842E+06              0.    -457.333E+03
           45440    -4.26256E+06     1.71535E+06              0.    -470.328E+03
           45441    -4.32890E+06     1.75302E+06              0.    -483.732E+03
           45442    -4.39712E+06     1.79148E+06              0.    -497.557E+03
           45443    -4.46728E+06     1.83074E+06              0.    -511.815E+03
           45444    -4.53944E+06     1.87082E+06              0.    -526.520E+03
           45445    -4.61365E+06     1.91176E+06              0.    -541.683E+03
           45446    -4.68999E+06     1.95359E+06              0.    -557.318E+03
           45447    -4.76853E+06     1.99632E+06              0.    -573.439E+03
           45448    -4.84931E+06     2.03999E+06              0.    -590.059E+03
           45449    -4.93243E+06     2.08464E+06              0.    -607.192E+03
           45450    -5.01794E+06     2.13027E+06              0.    -624.852E+03
           45451    -5.10592E+06     2.17693E+06              0.    -643.055E+03
           45452    -5.19645E+06     2.22465E+06              0.    -661.814E+03
           45453    -5.28960E+06     2.27344E+06              0.    -681.145E+03
           45454    -5.38546E+06     2.32335E+06              0.    -701.063E+03
           45455    -5.48410E+06     2.37439E+06              0.    -721.584E+03
           45456    -5.58561E+06     2.42661E+06              0.    -742.723E+03
           45457    -5.69007E+06     2.48002E+06              0.    -764.496E+03
           45458    -5.79758E+06     2.53466E+06              0.    -786.921E+03
           45459    -5.90821E+06     2.59055E+06              0.    -810.012E+03
           45460    -6.02207E+06     2.64772E+06              0.    -833.787E+03
           45461    -6.13925E+06     2.70620E+06              0.    -858.262E+03
           45462    -6.25985E+06     2.76602E+06              0.    -883.454E+03
           45463    -6.38395E+06     2.82720E+06              0.    -909.381E+03
           45464    -6.51168E+06     2.88977E+06              0.    -936.058E+03
           45465    -6.64313E+06     2.95376E+06              0.    -963.504E+03
           45466    -6.77840E+06     3.01919E+06              0.    -991.735E+03
           45467    -6.91760E+06     3.08608E+06              0.    -1.02077E+06
           45468    -7.06085E+06     3.15445E+06              0.    -1.05062E+06
           45469    -7.20826E+06     3.22433E+06              0.    -1.08131E+06
           45470    -7.35994E+06     3.29574E+06              0.    -1.11285E+06
           45471    -7.51602E+06     3.36869E+06              0.    -1.14526E+06
           45472    -7.67660E+06      3.4432E+06              0.    -1.17855E+06
           45473    -7.84181E+06     3.51928E+06              0.    -1.21275E+06
           45474    -8.01179E+06     3.59696E+06              0.    -1.24786E+06
           45475    -8.18664E+06     3.67622E+06              0.    -1.28390E+06
           45476     -8.3665E+06     3.75710E+06              0.    -1.32089E+06
           45477    -8.55150E+06     3.83958E+06              0.    -1.35884E+06
           45478    -8.74177E+06     3.92366E+06              0.    -1.39776E+06
           45479    -8.93745E+06     4.00936E+06              0.    -1.43766E+06
           45480    -9.13867E+06     4.09665E+06              0.    -1.47856E+06
           45481    -9.34556E+06     4.18554E+06              0.    -1.52047E+06
           45482    -9.55826E+06     4.27600E+06              0.    -1.56339E+06
           45483    -9.77692E+06     4.36802E+06              0.    -1.60733E+06
           45484    -10.0017E+06     4.46157E+06              0.    -1.65230E+06
           45485    -10.2327E+06     4.55663E+06              0.    -1.69831E+06
           45486    -10.4700E+06     4.65315E+06              0.    -1.74535E+06
           45487    -10.7139E+06     4.75110E+06              0.    -1.79342E+06
           45488    -10.9644E+06     4.85043E+06              0.    -1.84253E+06
           45489    -11.2217E+06     4.95107E+06              0.    -1.89267E+06
           45490    -11.4860E+06     5.05298E+06              0.    -1.94384E+06
           45491    -11.7574E+06     5.15606E+06              0.    -1.99602E+06
           45492    -12.0359E+06     5.26024E+06              0.    -2.04920E+06
           45493    -12.3218E+06     5.36544E+06              0.    -2.10337E+06
           45494    -12.6153E+06     5.47153E+06              0.    -2.15850E+06
           45495    -12.9163E+06     5.57842E+06              0.    -2.21457E+06
           45496    -13.2251E+06     5.68598E+06              0.    -2.27156E+06
           45497    -13.5417E+06     5.79406E+06              0.    -2.32943E+06
           45498    -13.8664E+06     5.90252E+06              0.    -2.38814E+06
           45499    -14.1992E+06     6.01119E+06              0.    -2.44765E+06
           45500    -14.5402E+06     6.11988E+06              0.    -2.50791E+06
           45501    -14.8895E+06     6.22840E+06              0.    -2.56886E+06
           45502    -15.2473E+06     6.33653E+06              0.    -2.63044E+06
           45503    -15.6136E+06     6.44404E+06              0.    -2.69257E+06
           45504    -15.9884E+06     6.55067E+06              0.    -2.75518E+06
           45505    -16.3720E+06     6.65615E+06              0.    -2.81818E+06
           45506    -16.7643E+06     6.76018E+06              0.    -2.88146E+06
           45507    -17.1653E+06     6.86244E+06              0.    -2.94492E+06
           45508    -17.5752E+06     6.96258E+06              0.    -3.00845E+06
           45509    -17.9939E+06     7.06023E+06              0.    -3.07189E+06
           45510    -18.4214E+06     7.15499E+06              0.    -3.13512E+06
           45511    -18.8578E+06     7.24644E+06              0.    -3.19797E+06
           45512    -19.3029E+06     7.33410E+06              0.    -3.26026E+06
           45513    -19.7567E+06     7.41751E+06              0.    -3.32180E+06
           45514    -20.2193E+06     7.49611E+06              0.    -3.38238E+06
           45515    -20.6903E+06     7.56937E+06              0.    -3.44178E+06
           45516    -21.1698E+06     7.63666E+06              0.    -3.49974E+06
           45517    -21.6576E+06     7.69737E+06              0.    -3.55600E+06
           45518    -22.1534E+06     7.75081E+06              0.    -3.61025E+06
           45519    -22.6571E+06     7.79626E+06              0.    -3.66217E+06
           45520    -23.1684E+06     7.83296E+06              0.    -3.71143E+06
           45521    -23.6870E+06     7.86009E+06              0.    -3.75763E+06
           45522    -24.2126E+06     7.87679E+06              0.    -3.80036E+06
           45523    -24.7447E+06     7.88215E+06              0.    -3.83918E+06
           45524    -25.2830E+06     7.87522E+06              0.    -3.87361E+06
           45525    -25.8269E+06     7.85498E+06              0.    -3.90312E+06
           45526    -26.3760E+06     7.82037E+06              0.    -3.92715E+06
           45527    -26.9296E+06     7.77026E+06              0.    -3.94507E+06
           45528    -27.4870E+06     7.70347E+06              0.    -3.95623E+06
           45529    -28.0476E+06     7.61878E+06              0.    -3.95990E+06
           45530    -28.6105E+06     7.51489E+06              0.    -3.95530E+06
           45531    -29.1749E+06     7.39047E+06              0.    -3.94160E+06
           45532    -29.7397E+06     7.24411E+06              0.    -3.91786E+06
           45533    -30.3040E+06     7.07436E+06              0.    -3.88311E+06
           45534    -30.8667E+06     6.87972E+06              0.    -3.83628E+06
           45535    -31.4265E+06     6.65865E+06              0.    -3.77620E+06
           45536    -31.9820E+06     6.40956E+06              0.    -3.70162E+06
           45537    -32.5320E+06     6.13084E+06              0.    -3.61120E+06
           45538    -33.0748E+06     5.82085E+06              0.    -3.50344E+06
           45539    -33.6088E+06     5.47793E+06              0.    -3.37677E+06
           45540    -34.1324E+06     5.10046E+06              0.    -3.22947E+06
           45541    -34.6437E+06     4.68679E+06              0.    -3.05966E+06
           45542    -35.1407E+06     4.23537E+06              0.    -2.86534E+06
           45543    -35.6216E+06     3.74470E+06              0.    -2.64432E+06
           45544    -36.0841E+06     3.21339E+06              0.    -2.39423E+06
           45545    -36.5262E+06     2.64022E+06              0.    -2.11253E+06
           45546    -36.9458E+06     2.02419E+06              0.    -1.79647E+06
           45547    -37.3406E+06     1.36454E+06              0.    -1.44309E+06
           45548    -37.7088E+06     660.923E+03              0.    -1.04922E+06
           45549    -38.0483E+06    -86.5645E+03              0.    -611.471E+03
           45550    -38.3576E+06    -877.252E+03              0.    -126.254E+03
           45551    -38.6355E+06    -1.70970E+06              0.     410.185E+03
           45552    -38.8816E+06    -2.58158E+06              0.     1.00173E+06
           45553    -39.0961E+06    -3.48939E+06              0.     1.65226E+06
           45554    -39.2808E+06    -4.42823E+06              0.     2.36554E+06
           45555    -39.4390E+06    -5.39151E+06              0.     3.14489E+06
           45556    -39.5766E+06    -6.37057E+06              0.     3.99282E+06
           45557    -39.7027E+06    -7.35436E+06              0.     4.91033E+06
           45558    -39.8306E+06    -8.32910E+06              0.     5.89591E+06
           45559    -39.9792E+06    -9.27814E+06              0.     6.94391E+06
           45560    -40.1741E+06    -10.1822E+06              0.     8.04222E+06
           45561    -40.4485E+06    -11.0202E+06              0.     9.16866E+06
           45562    -40.8435E+06    -11.7722E+06              0.     10.2862E+06
           45563    -41.4051E+06    -12.4249E+06              0.     11.3362E+06
           45564    -42.1775E+06    -12.9825E+06              0.     12.2322E+06
           45565    -43.1892E+06    -13.4872E+06              0.     12.8553E+06
           45566    -44.4349E+06    -14.0500E+06              0.     13.0610E+06
           45567    -45.8594E+06    -14.8874E+06              0.     12.7043E+06
           45568    -47.3570E+06    -16.3383E+06              0.     11.6887E+06
           45569    -48.7920E+06    -18.8257E+06              0.     10.0246E+06
           45570    -50.7131E+06    -23.1556E+06              0.     9.62446E+06
           45571    -1.83260E+06    -825.224E+03              0.    -104.824E+03
           45572    -1.82689E+06    -772.246E+03              0.    -104.630E+03
           45573    -1.84414E+06    -730.579E+03              0.    -103.508E+03
           45574    -1.86122E+06    -689.755E+03              0.    -102.502E+03
           45575    -1.87813E+06    -649.747E+03              0.    -101.610E+03
           45576    -1.89491E+06    -610.525E+03              0.    -100.827E+03
           45577    -1.91156E+06    -572.062E+03              0.    -100.151E+03
           45578    -1.92811E+06    -534.330E+03              0.    -99.5804E+03
           45579    -1.94457E+06    -497.304E+03              0.    -99.1112E+03
           45580    -1.96096E+06    -460.958E+03              0.    -98.7416E+03
           45581    -1.97730E+06    -425.269E+03              0.    -98.4694E+03
           45582    -1.99360E+06    -390.211E+03              0.    -98.2928E+03
           45583    -2.00987E+06    -355.763E+03              0.    -98.2097E+03
           45584    -2.02613E+06    -321.902E+03              0.    -98.2188E+03
           45585    -2.04240E+06    -288.605E+03              0.    -98.3184E+03
           45586    -2.05870E+06    -255.853E+03              0.    -98.5072E+03
           45587    -2.07503E+06    -223.623E+03              0.    -98.7841E+03
           45588    -2.09140E+06    -191.896E+03              0.    -99.1480E+03
           45589    -2.10785E+06    -160.653E+03              0.    -99.5981E+03
           45590    -2.12437E+06    -129.873E+03              0.    -100.134E+03
           45591    -2.14099E+06    -99.5382E+03              0.    -100.754E+03
           45592    -2.15771E+06    -69.6300E+03              0.    -101.458E+03
           45593    -2.17455E+06    -40.1309E+03              0.    -102.247E+03
           45594    -2.19153E+06    -11.0224E+03              0.    -103.119E+03
           45595    -2.20865E+06     17.7125E+03              0.    -104.075E+03
           45596    -2.22594E+06     46.0904E+03              0.    -105.114E+03
           45597    -2.24340E+06     74.1288E+03              0.    -106.237E+03
           45598    -2.26105E+06     101.843E+03              0.    -107.444E+03
           45599    -2.27890E+06     129.251E+03              0.    -108.736E+03
           45600    -2.29697E+06     156.368E+03              0.    -110.112E+03
           45601    -2.31526E+06     183.209E+03              0.    -111.574E+03
           45602    -2.33381E+06     209.791E+03              0.    -113.121E+03
           45603    -2.35261E+06     236.128E+03              0.    -114.756E+03
           45604    -2.37169E+06     262.236E+03              0.    -116.478E+03
           45605    -2.39105E+06     288.131E+03              0.    -118.290E+03
           45606    -2.41071E+06     313.826E+03              0.    -120.191E+03
           45607    -2.43069E+06     339.338E+03              0.    -122.184E+03
           45608    -2.45101E+06     364.682E+03              0.    -124.270E+03
           45609    -2.47167E+06     389.870E+03              0.    -126.450E+03
           45610    -2.49269E+06      414.92E+03              0.    -128.725E+03
           45611    -2.51409E+06     439.845E+03              0.    -131.098E+03
           45612    -2.53589E+06     464.660E+03              0.    -133.571E+03
           45613    -2.55809E+06     489.380E+03              0.    -136.145E+03
           45614    -2.58073E+06     514.019E+03              0.    -138.823E+03
           45615    -2.60381E+06     538.593E+03              0.    -141.606E+03
           45616    -2.62735E+06     563.115E+03              0.    -144.497E+03
           45617    -2.65137E+06     587.602E+03              0.    -147.499E+03
           45618    -2.67589E+06     612.067E+03              0.    -150.614E+03
           45619    -2.70092E+06     636.526E+03              0.    -153.844E+03
           45620    -2.72649E+06     660.993E+03              0.    -157.193E+03
           45621    -2.75262E+06     685.485E+03              0.    -160.664E+03
           45622    -2.77932E+06     710.016E+03              0.    -164.259E+03
           45623    -2.80662E+06     734.601E+03              0.    -167.982E+03
           45624    -2.83453E+06     759.256E+03              0.    -171.837E+03
           45625    -2.86308E+06     783.998E+03              0.    -175.826E+03
           45626    -2.89230E+06     808.841E+03              0.    -179.953E+03
           45627    -2.92219E+06     833.802E+03              0.    -184.223E+03
           45628    -2.95280E+06     858.897E+03              0.    -188.639E+03
           45629    -2.98413E+06     884.143E+03              0.    -193.206E+03
           45630    -3.01622E+06     909.556E+03              0.    -197.927E+03
           45631    -3.04909E+06     935.153E+03              0.    -202.807E+03
           45632    -3.08277E+06     960.952E+03              0.    -207.850E+03
           45633    -3.11728E+06     986.970E+03              0.    -213.062E+03
           45634    -3.15266E+06     1.01322E+06              0.    -218.448E+03
           45635    -3.18892E+06     1.03973E+06              0.    -224.012E+03
           45636    -3.22611E+06     1.06651E+06              0.    -229.759E+03
           45637    -3.26425E+06     1.09359E+06              0.    -235.696E+03
           45638    -3.30336E+06     1.12097E+06              0.    -241.827E+03
           45639    -3.34349E+06     1.14868E+06              0.    -248.159E+03
           45640    -3.38467E+06     1.17674E+06              0.    -254.698E+03
           45641    -3.42693E+06     1.20517E+06              0.    -261.450E+03
           45642    -3.47030E+06     1.23398E+06              0.    -268.421E+03
           45643    -3.51483E+06     1.26321E+06              0.    -275.618E+03
           45644    -3.56054E+06     1.29286E+06              0.    -283.048E+03
           45645    -3.60748E+06     1.32297E+06              0.    -290.717E+03
           45646    -3.65569E+06     1.35355E+06              0.    -298.634E+03
           45647    -3.70520E+06     1.38462E+06              0.    -306.805E+03
           45648    -3.75606E+06     1.41621E+06              0.    -315.238E+03
           45649    -3.80831E+06     1.44834E+06              0.    -323.942E+03
           45650    -3.86200E+06     1.48103E+06              0.    -332.924E+03
           45651    -3.91717E+06     1.51431E+06              0.    -342.192E+03
           45652    -3.97387E+06     1.54820E+06              0.    -351.756E+03
           45653    -4.03215E+06     1.58272E+06              0.    -361.624E+03
           45654    -4.09205E+06     1.61790E+06              0.    -371.805E+03
           45655    -4.15364E+06     1.65376E+06              0.    -382.308E+03
           45656    -4.21695E+06     1.69033E+06              0.    -393.144E+03
           45657    -4.28205E+06     1.72763E+06              0.    -404.321E+03
           45658    -4.34899E+06      1.7657E+06              0.    -415.851E+03
           45659    -4.41783E+06     1.80455E+06              0.    -427.743E+03
           45660    -4.48863E+06     1.84422E+06              0.    -440.007E+03
           45661    -4.56144E+06     1.88473E+06              0.    -452.655E+03
           45662    -4.63635E+06     1.92610E+06              0.    -465.698E+03
           45663    -4.71339E+06     1.96837E+06              0.    -479.146E+03
           45664    -4.79265E+06     2.01156E+06              0.    -493.012E+03
           45665    -4.87419E+06     2.05571E+06              0.    -507.308E+03
           45666    -4.95809E+06     2.10084E+06              0.    -522.044E+03
           45667    -5.04440E+06     2.14697E+06              0.    -537.235E+03
           45668    -5.13322E+06     2.19415E+06              0.    -552.891E+03
           45669    -5.22461E+06     2.24239E+06              0.    -569.026E+03
           45670    -5.31865E+06     2.29172E+06              0.    -585.652E+03
           45671    -5.41542E+06     2.34218E+06              0.    -602.784E+03
           45672    -5.51500E+06     2.39380E+06              0.    -620.433E+03
           45673    -5.61749E+06     2.44659E+06              0.    -638.614E+03
           45674    -5.72296E+06     2.50060E+06              0.    -657.341E+03
           45675    -5.83150E+06     2.55586E+06              0.    -676.627E+03
           45676    -5.94321E+06     2.61238E+06              0.    -696.487E+03
           45677    -6.05817E+06     2.67019E+06              0.    -716.934E+03
           45678    -6.17649E+06     2.72934E+06              0.    -737.983E+03
           45679    -6.29826E+06     2.78983E+06              0.    -759.649E+03
           45680    -6.42358E+06     2.85171E+06              0.    -781.945E+03
           45681    -6.55256E+06     2.91499E+06              0.    -804.887E+03
           45682    -6.68529E+06     2.97970E+06              0.    -828.489E+03
           45683    -6.82189E+06     3.04587E+06              0.    -852.765E+03
           45684    -6.96246E+06     3.11351E+06              0.    -877.731E+03
           45685    -7.10711E+06     3.18266E+06              0.    -903.400E+03
           45686    -7.25597E+06     3.25333E+06              0.    -929.788E+03
           45687    -7.40914E+06     3.32554E+06              0.    -956.908E+03
           45688    -7.56674E+06     3.39931E+06              0.    -984.774E+03
           45689    -7.72890E+06     3.47465E+06              0.    -1.01340E+06
           45690    -7.89573E+06     3.55159E+06              0.    -1.04280E+06
           45691    -8.06737E+06     3.63012E+06              0.    -1.07299E+06
           45692    -8.24393E+06     3.71026E+06              0.    -1.10397E+06
           45693    -8.42554E+06     3.79203E+06              0.    -1.13577E+06
           45694    -8.61235E+06     3.87541E+06              0.    -1.16839E+06
           45695    -8.80447E+06     3.96041E+06              0.    -1.20185E+06
           45696    -9.00204E+06     4.04703E+06              0.    -1.23615E+06
           45697    -9.20520E+06     4.13526E+06              0.    -1.27130E+06
           45698    -9.41409E+06     4.22509E+06              0.    -1.30732E+06
           45699    -9.62883E+06     4.31651E+06              0.    -1.34420E+06
           45700    -9.84958E+06     4.40949E+06              0.    -1.38196E+06
           45701    -10.0765E+06     4.50400E+06              0.    -1.42061E+06
           45702    -10.3096E+06     4.60003E+06              0.    -1.46014E+06
           45703    -10.5492E+06     4.69752E+06              0.    -1.50055E+06
           45704    -10.7954E+06     4.79644E+06              0.    -1.54185E+06
           45705    -11.0482E+06     4.89673E+06              0.    -1.58404E+06
           45706    -11.3079E+06     4.99834E+06              0.    -1.62711E+06
           45707    -11.5746E+06     5.10119E+06              0.    -1.67105E+06
           45708    -11.8484E+06     5.20522E+06              0.    -1.71586E+06
           45709    -12.1295E+06     5.31034E+06              0.    -1.76152E+06
           45710    -12.4180E+06     5.41645E+06              0.    -1.80803E+06
           45711    -12.7140E+06     5.52344E+06              0.    -1.85536E+06
           45712    -13.0176E+06     5.63120E+06              0.    -1.90349E+06
           45713    -13.3290E+06     5.73960E+06              0.    -1.95239E+06
           45714    -13.6484E+06     5.84849E+06              0.    -2.00205E+06
           45715    -13.9757E+06     5.95772E+06              0.    -2.05241E+06
           45716    -14.3112E+06     6.06712E+06              0.    -2.10345E+06
           45717    -14.6550E+06     6.17649E+06              0.    -2.15513E+06
           45718    -15.0070E+06     6.28564E+06              0.    -2.20738E+06
           45719    -15.3676E+06     6.39433E+06              0.    -2.26015E+06
           45720    -15.7366E+06     6.50233E+06              0.    -2.31339E+06
           45721    -16.1142E+06     6.60938E+06              0.    -2.36702E+06
           45722    -16.5005E+06     6.71518E+06              0.    -2.42096E+06
           45723    -16.8954E+06     6.81944E+06              0.    -2.47513E+06
           45724    -17.2991E+06     6.92182E+06              0.    -2.52942E+06
           45725    -17.7116E+06     7.02196E+06              0.    -2.58374E+06
           45726    -18.1328E+06     7.11949E+06              0.    -2.63797E+06
           45727    -18.5628E+06     7.21398E+06              0.    -2.69198E+06
           45728    -19.0014E+06       7.305E+06              0.    -2.74562E+06
           45729    -19.4488E+06     7.39207E+06              0.    -2.79875E+06
           45730    -19.9048E+06     7.47469E+06              0.    -2.85119E+06
           45731    -20.3692E+06     7.55231E+06              0.    -2.90277E+06
           45732    -20.8421E+06     7.62435E+06              0.    -2.95327E+06
           45733    -21.3231E+06     7.69019E+06              0.    -3.00248E+06
           45734    -21.8122E+06     7.74918E+06              0.    -3.05017E+06
           45735    -22.3091E+06     7.80061E+06              0.    -3.09606E+06
           45736    -22.8136E+06     7.84373E+06              0.    -3.13988E+06
           45737    -23.3253E+06     7.87776E+06              0.    -3.18132E+06
           45738    -23.8439E+06     7.90184E+06              0.    -3.22004E+06
           45739    -24.3690E+06     7.91510E+06              0.    -3.25569E+06
           45740    -24.9003E+06     7.91658E+06              0.    -3.28786E+06
           45741    -25.4371E+06     7.90529E+06              0.    -3.31613E+06
           45742    -25.9789E+06     7.88018E+06              0.    -3.34003E+06
           45743    -26.5253E+06     7.84012E+06              0.    -3.35906E+06
           45744    -27.0753E+06     7.78397E+06              0.    -3.37268E+06
           45745    -27.6284E+06     7.71048E+06              0.    -3.38029E+06
           45746    -28.1836E+06     7.61838E+06              0.    -3.38124E+06
           45747    -28.7401E+06     7.50630E+06              0.    -3.37485E+06
           45748    -29.2968E+06     7.37285E+06              0.    -3.36036E+06
           45749    -29.8527E+06     7.21655E+06              0.    -3.33695E+06
           45750    -30.4066E+06     7.03587E+06              0.    -3.30372E+06
           45751    -30.9571E+06     6.82923E+06              0.    -3.25972E+06
           45752    -31.5029E+06     6.59500E+06              0.    -3.20390E+06
           45753    -32.0424E+06     6.33149E+06              0.    -3.13511E+06
           45754    -32.5739E+06     6.03698E+06              0.    -3.05213E+06
           45755    -33.0957E+06     5.70971E+06              0.    -2.95360E+06
           45756    -33.6057E+06     5.34790E+06              0.    -2.83808E+06
           45757    -34.1020E+06     4.94976E+06              0.    -2.70395E+06
           45758    -34.5823E+06     4.51354E+06              0.    -2.54949E+06
           45759    -35.0441E+06     4.03748E+06              0.    -2.37281E+06
           45760    -35.4850E+06     3.51991E+06              0.    -2.17184E+06
           45761    -35.9023E+06     2.95925E+06              0.    -1.94432E+06
           45762    -36.2930E+06     2.35406E+06              0.    -1.68780E+06
           45763    -36.6543E+06     1.70311E+06              0.    -1.39957E+06
           45764    -36.9831E+06     1.00542E+06              0.    -1.07670E+06
           45765    -37.2761E+06     260.355E+03              0.    -715.963E+03
           45766    -37.5303E+06    -532.236E+03              0.    -313.845E+03
           45767    -37.7426E+06    -1.37195E+06              0.     133.492E+03
           45768    -37.9099E+06    -2.25759E+06              0.     630.211E+03
           45769    -38.0298E+06    -3.18703E+06              0.     1.18082E+06
           45770    -38.1003E+06    -4.15692E+06              0.     1.79014E+06
           45771    -38.1202E+06    -5.16232E+06              0.     2.46324E+06
           45772    -38.0901E+06    -6.19642E+06              0.     3.20537E+06
           45773    -38.0122E+06    -7.24988E+06              0.     4.02163E+06
           45774    -37.8919E+06    -8.31040E+06              0.     4.91667E+06
           45775    -37.7391E+06    -9.36188E+06              0.     5.89385E+06
           45776    -37.5694E+06    -10.3838E+06              0.     6.95405E+06
           45777    -37.4067E+06    -11.3503E+06              0.     8.09355E+06
           45778    -37.2861E+06    -12.2301E+06              0.     9.30046E+06
           45779    -37.2557E+06    -12.9869E+06              0.     10.5492E+06
           45780    -37.3787E+06    -13.5828E+06              0.     11.7914E+06
           45781    -37.7284E+06    -13.9859E+06              0.     12.9438E+06
           45782    -38.3733E+06    -14.1904E+06              0.     13.8735E+06
           45783    -39.3489E+06    -14.2597E+06              0.     14.3906E+06
           45784    -40.6213E+06    -14.3971E+06              0.     14.2690E+06
           45785    -42.0724E+06    -15.0212E+06              0.     13.3152E+06
           45786    -43.5253E+06    -16.7556E+06              0.     11.4829E+06
           45787    -45.3964E+06    -20.6522E+06              0.     11.0641E+06
           45788    -1.83531E+06    -826.449E+03              0.    -87.4297E+03
           45789    -1.82959E+06    -773.332E+03              0.    -87.2676E+03
           45790    -1.84688E+06    -731.556E+03              0.    -86.3314E+03
           45791    -1.86400E+06    -690.628E+03              0.    -85.4924E+03
           45792    -1.88096E+06    -650.517E+03              0.    -84.7480E+03
           45793    -1.89778E+06    -611.196E+03              0.    -84.0954E+03
           45794    -1.91448E+06    -572.635E+03              0.    -83.5323E+03
           45795    -1.93107E+06    -534.809E+03              0.    -83.0563E+03
           45796    -1.94758E+06    -497.690E+03              0.    -82.6655E+03
           45797    -1.96401E+06    -461.254E+03              0.    -82.3578E+03
           45798    -1.98039E+06    -425.476E+03              0.    -82.1315E+03
           45799    -1.99673E+06    -390.332E+03              0.    -81.9850E+03
           45800    -2.01305E+06    -355.799E+03              0.    -81.9167E+03
           45801    -2.02936E+06    -321.854E+03              0.    -81.9253E+03
           45802    -2.04568E+06    -288.475E+03              0.    -82.0095E+03
           45803    -2.06202E+06    -255.641E+03              0.    -82.1682E+03
           45804    -2.07839E+06    -223.331E+03              0.    -82.4005E+03
           45805    -2.09482E+06    -191.525E+03              0.    -82.7055E+03
           45806    -2.11131E+06    -160.202E+03              0.    -83.0824E+03
           45807    -2.12789E+06    -129.344E+03              0.    -83.5307E+03
           45808    -2.14456E+06    -98.9322E+03              0.    -84.0497E+03
           45809    -2.16133E+06    -68.9468E+03              0.    -84.6392E+03
           45810    -2.17823E+06    -39.3708E+03              0.    -85.2988E+03
           45811    -2.19526E+06    -10.1855E+03              0.    -86.0283E+03
           45812    -2.21244E+06     18.6261E+03              0.    -86.8275E+03
           45813    -2.22979E+06     47.0808E+03              0.    -87.6966E+03
           45814    -2.24731E+06     75.1962E+03              0.    -88.6357E+03
           45815    -2.26502E+06     102.988E+03              0.    -89.6449E+03
           45816    -2.28294E+06     130.474E+03              0.    -90.7245E+03
           45817    -2.30108E+06     157.668E+03              0.    -91.8750E+03
           45818    -2.31945E+06     184.588E+03              0.    -93.0969E+03
           45819    -2.33806E+06     211.249E+03              0.    -94.3906E+03
           45820    -2.35694E+06     237.667E+03              0.    -95.7570E+03
           45821    -2.37609E+06     263.856E+03              0.    -97.1968E+03
           45822    -2.39553E+06     289.833E+03              0.    -98.7109E+03
           45823    -2.41528E+06     315.612E+03              0.    -100.300E+03
           45824    -2.43535E+06     341.208E+03              0.    -101.966E+03
           45825    -2.45575E+06     366.637E+03              0.    -103.709E+03
           45826    -2.47650E+06     391.914E+03              0.    -105.531E+03
           45827    -2.49762E+06     417.052E+03              0.    -107.433E+03
           45828    -2.51912E+06     442.067E+03              0.    -109.416E+03
           45829    -2.54102E+06     466.975E+03              0.    -111.483E+03
           45830    -2.56333E+06     491.789E+03              0.    -113.634E+03
           45831    -2.58607E+06     516.524E+03              0.    -115.872E+03
           45832    -2.60927E+06     541.196E+03              0.    -118.198E+03
           45833    -2.63292E+06     565.819E+03              0.    -120.614E+03
           45834    -2.65707E+06     590.408E+03              0.    -123.123E+03
           45835    -2.68171E+06     614.978E+03              0.    -125.726E+03
           45836    -2.70688E+06     639.545E+03              0.    -128.426E+03
           45837    -2.73258E+06     664.122E+03              0.    -131.225E+03
           45838    -2.75885E+06     688.727E+03              0.    -134.125E+03
           45839    -2.78570E+06     713.374E+03              0.    -137.130E+03
           45840    -2.81314E+06     738.078E+03              0.    -140.242E+03
           45841    -2.84121E+06     762.856E+03              0.    -143.463E+03
           45842    -2.86993E+06     787.723E+03              0.    -146.797E+03
           45843    -2.89931E+06     812.695E+03              0.    -150.246E+03
           45844    -2.92938E+06     837.789E+03              0.    -153.815E+03
           45845    -2.96016E+06      863.02E+03              0.    -157.506E+03
           45846    -2.99168E+06     888.406E+03              0.    -161.322E+03
           45847    -3.02396E+06     913.963E+03              0.    -165.268E+03
           45848    -3.05703E+06     939.709E+03              0.    -169.346E+03
           45849    -3.09092E+06     965.660E+03              0.    -173.561E+03
           45850    -3.12565E+06     991.835E+03              0.    -177.917E+03
           45851    -3.16125E+06     1.01825E+06              0.    -182.418E+03
           45852    -3.19774E+06     1.04492E+06              0.    -187.068E+03
           45853    -3.23517E+06     1.07188E+06              0.    -191.872E+03
           45854    -3.27355E+06     1.09913E+06              0.    -196.834E+03
           45855    -3.31292E+06     1.12669E+06              0.    -201.958E+03
           45856    -3.35332E+06     1.15459E+06              0.    -207.250E+03
           45857    -3.39477E+06     1.18284E+06              0.    -212.715E+03
           45858    -3.43731E+06     1.21147E+06              0.    -218.358E+03
           45859    -3.48098E+06     1.24049E+06              0.    -224.185E+03
           45860    -3.52581E+06     1.26993E+06              0.    -230.200E+03
           45861    -3.57183E+06     1.29980E+06              0.    -236.409E+03
           45862    -3.61910E+06     1.33013E+06              0.    -242.820E+03
           45863    -3.66764E+06     1.36094E+06              0.    -249.436E+03
           45864    -3.71751E+06     1.39225E+06              0.    -256.266E+03
           45865    -3.76873E+06     1.42408E+06              0.    -263.314E+03
           45866    -3.82136E+06     1.45646E+06              0.    -270.589E+03
           45867    -3.87543E+06     1.48941E+06              0.    -278.096E+03
           45868    -3.93100E+06     1.52296E+06              0.    -285.842E+03
           45869    -3.98812E+06     1.55712E+06              0.    -293.836E+03
           45870    -4.04682E+06     1.59193E+06              0.    -302.083E+03
           45871    -4.10717E+06     1.62740E+06              0.    -310.593E+03
           45872    -4.16921E+06     1.66356E+06              0.    -319.372E+03
           45873    -4.23300E+06     1.70044E+06              0.    -328.428E+03
           45874    -4.29859E+06     1.73807E+06              0.    -337.770E+03
           45875    -4.36604E+06     1.77646E+06              0.    -347.407E+03
           45876    -4.43540E+06     1.81565E+06              0.    -357.346E+03
           45877    -4.50674E+06     1.85566E+06              0.    -367.597E+03
           45878    -4.58012E+06     1.89653E+06              0.    -378.168E+03
           45879    -4.65560E+06     1.93827E+06              0.    -389.069E+03
           45880    -4.73325E+06     1.98092E+06              0.    -400.309E+03
           45881    -4.81313E+06     2.02450E+06              0.    -411.898E+03
           45882    -4.89531E+06     2.06905E+06              0.    -423.846E+03
           45883    -4.97987E+06     2.11459E+06              0.    -436.163E+03
           45884    -5.06687E+06     2.16115E+06              0.    -448.858E+03
           45885    -5.15639E+06     2.20876E+06              0.    -461.944E+03
           45886    -5.24850E+06     2.25744E+06              0.    -475.429E+03
           45887    -5.34330E+06     2.30724E+06              0.    -489.324E+03
           45888    -5.44084E+06     2.35817E+06              0.    -503.642E+03
           45889    -5.54123E+06     2.41027E+06              0.    -518.393E+03
           45890    -5.64454E+06     2.46356E+06              0.    -533.588E+03
           45891    -5.75087E+06     2.51808E+06              0.    -549.238E+03
           45892    -5.86029E+06     2.57385E+06              0.    -565.356E+03
           45893    -5.97291E+06     2.63090E+06              0.    -581.953E+03
           45894    -6.08881E+06     2.68927E+06              0.    -599.041E+03
           45895    -6.20810E+06     2.74897E+06              0.    -616.631E+03
           45896    -6.33087E+06     2.81004E+06              0.    -634.737E+03
           45897    -6.45721E+06     2.87251E+06              0.    -653.369E+03
           45898    -6.58725E+06     2.93639E+06              0.    -672.541E+03
           45899    -6.72107E+06     3.00171E+06              0.    -692.263E+03
           45900    -6.85879E+06     3.06851E+06              0.    -712.549E+03
           45901    -7.00052E+06     3.13680E+06              0.    -733.411E+03
           45902    -7.14637E+06     3.20660E+06              0.     -754.86E+03
           45903    -7.29645E+06     3.27794E+06              0.    -776.909E+03
           45904    -7.45088E+06     3.35083E+06              0.    -799.568E+03
           45905    -7.60979E+06     3.42529E+06              0.    -822.851E+03
           45906    -7.77328E+06     3.50134E+06              0.    -846.769E+03
           45907    -7.94148E+06     3.57899E+06              0.    -871.332E+03
           45908    -8.11453E+06     3.65826E+06              0.    -896.551E+03
           45909    -8.29254E+06     3.73915E+06              0.    -922.438E+03
           45910    -8.47565E+06     3.82166E+06              0.    -949.001E+03
           45911    -8.66398E+06     3.90581E+06              0.    -976.252E+03
           45912    -8.85767E+06     3.99159E+06              0.    -1.00420E+06
           45913    -9.05685E+06     4.07899E+06              0.    -1.03285E+06
           45914    -9.26165E+06     4.16801E+06              0.    -1.06221E+06
           45915    -9.47223E+06     4.25864E+06              0.    -1.09229E+06
           45916    -9.68870E+06     4.35086E+06              0.    -1.12310E+06
           45917    -9.91122E+06     4.44465E+06              0.    -1.15464E+06
           45918    -10.1399E+06     4.53999E+06              0.    -1.18691E+06
           45919    -10.3749E+06     4.63683E+06              0.    -1.21991E+06
           45920    -10.6164E+06     4.73514E+06              0.    -1.25366E+06
           45921    -10.8645E+06     4.83488E+06              0.    -1.28814E+06
           45922    -11.1193E+06     4.93599E+06              0.    -1.32336E+06
           45923    -11.3810E+06     5.03841E+06              0.    -1.35932E+06
           45924    -11.6498E+06     5.14207E+06              0.    -1.39600E+06
           45925    -11.9257E+06     5.24689E+06              0.    -1.43340E+06
           45926    -12.2088E+06     5.35280E+06              0.    -1.47151E+06
           45927    -12.4995E+06     5.45967E+06              0.    -1.51031E+06
           45928    -12.7976E+06     5.56742E+06              0.    -1.54980E+06
           45929    -13.1035E+06     5.67591E+06              0.    -1.58996E+06
           45930    -13.4171E+06     5.78502E+06              0.    -1.63075E+06
           45931    -13.7387E+06     5.89459E+06              0.    -1.67217E+06
           45932    -14.0684E+06     6.00447E+06              0.    -1.71417E+06
           45933    -14.4062E+06     6.11448E+06              0.    -1.75672E+06
           45934    -14.7522E+06     6.22441E+06              0.    -1.79980E+06
           45935    -15.1066E+06     6.33408E+06              0.    -1.84335E+06
           45936    -15.4694E+06     6.44323E+06              0.    -1.88732E+06
           45937    -15.8408E+06     6.55164E+06              0.    -1.93167E+06
           45938    -16.2207E+06     6.65901E+06              0.    -1.97633E+06
           45939    -16.6092E+06     6.76508E+06              0.    -2.02124E+06
           45940    -17.0064E+06     6.86951E+06              0.    -2.06632E+06
           45941    -17.4123E+06     6.97197E+06              0.    -2.11150E+06
           45942    -17.8269E+06     7.07209E+06              0.    -2.15667E+06
           45943    -18.2503E+06     7.16948E+06              0.    -2.20175E+06
           45944    -18.6823E+06     7.26372E+06              0.    -2.24662E+06
           45945    -19.1229E+06     7.35435E+06              0.    -2.29116E+06
           45946    -19.5721E+06     7.44088E+06              0.    -2.33524E+06
           45947    -20.0298E+06     7.52280E+06              0.    -2.37872E+06
           45948    -20.4959E+06     7.59954E+06              0.    -2.42144E+06
           45949    -20.9702E+06     7.67050E+06              0.    -2.46323E+06
           45950    -21.4525E+06     7.73506E+06              0.    -2.50390E+06
           45951    -21.9426E+06     7.79253E+06              0.    -2.54325E+06
           45952    -22.4403E+06     7.84219E+06              0.    -2.58106E+06
           45953    -22.9453E+06     7.88327E+06              0.    -2.61708E+06
           45954    -23.4572E+06     7.91496E+06              0.    -2.65105E+06
           45955    -23.9757E+06     7.93639E+06              0.    -2.68269E+06
           45956    -24.5004E+06     7.94663E+06              0.    -2.71168E+06
           45957    -25.0307E+06     7.94471E+06              0.    -2.73769E+06
           45958    -25.5661E+06     7.92961E+06              0.    -2.76035E+06
           45959    -26.1061E+06     7.90024E+06              0.    -2.77926E+06
           45960    -26.6498E+06     7.85544E+06              0.    -2.79400E+06
           45961    -27.1966E+06     7.79400E+06              0.    -2.80408E+06
           45962    -27.7457E+06     7.71466E+06              0.    -2.80901E+06
           45963    -28.2961E+06     7.61606E+06              0.    -2.80822E+06
           45964    -28.8468E+06     7.49682E+06              0.    -2.80113E+06
           45965    -29.3967E+06     7.35546E+06              0.    -2.78706E+06
           45966    -29.9445E+06     7.19045E+06              0.    -2.76532E+06
           45967    -30.4890E+06     7.00019E+06              0.    -2.73514E+06
           45968    -31.0287E+06     6.78302E+06              0.    -2.69567E+06
           45969    -31.5620E+06     6.53721E+06              0.    -2.64600E+06
           45970    -32.0871E+06     6.26101E+06              0.    -2.58514E+06
           45971    -32.6021E+06     5.95257E+06              0.      -2.512E+06
           45972    -33.1051E+06     5.61003E+06              0.    -2.42540E+06
           45973    -33.5937E+06     5.23149E+06              0.    -2.32403E+06
           45974    -34.0655E+06     4.81504E+06              0.    -2.20650E+06
           45975    -34.5180E+06     4.35874E+06              0.    -2.07123E+06
           45976    -34.9482E+06     3.86069E+06              0.    -1.91654E+06
           45977    -35.3531E+06     3.31904E+06              0.    -1.74056E+06
           45978    -35.7294E+06     2.73200E+06              0.    -1.54121E+06
           45979    -36.0736E+06     2.09791E+06              0.    -1.31624E+06
           45980    -36.3820E+06     1.41528E+06              0.    -1.06313E+06
           45981    -36.6504E+06     682.839E+03              0.    -779.093E+03
           45982    -36.8746E+06    -100.327E+03              0.    -461.046E+03
           45983    -37.0501E+06    -934.721E+03              0.    -105.554E+03
           45984    -37.1723E+06    -1.82031E+06              0.     291.214E+03
           45985    -37.2363E+06    -2.75629E+06              0.     733.528E+03
           45986    -37.2374E+06    -3.74097E+06              0.     1.22617E+06
           45987    -37.1708E+06    -4.77140E+06              0.     1.77446E+06
           45988    -37.0323E+06    -5.84306E+06              0.     2.38432E+06
           45989    -36.8183E+06    -6.94944E+06              0.     3.06235E+06
           45990    -36.5266E+06    -8.08134E+06              0.     3.81571E+06
           45991    -36.1572E+06    -9.22625E+06              0.     4.65210E+06
           45992    -35.7134E+06    -10.3672E+06              0.     5.57942E+06
           45993    -35.2041E+06    -11.4817E+06              0.     6.60509E+06
           45994    -34.6463E+06    -12.5399E+06              0.     7.73475E+06
           45995    -34.0694E+06    -13.5031E+06              0.     8.96957E+06
           45996    -33.5206E+06    -14.3219E+06              0.     10.3014E+06
           45997    -33.0718E+06    -14.9351E+06              0.     11.7033E+06
           45998    -32.8242E+06    -15.2721E+06              0.     13.1136E+06
           45999    -32.9028E+06    -15.2642E+06              0.     14.4088E+06
           46000    -33.4147E+06    -14.8754E+06              0.     15.3699E+06
           46001    -34.3873E+06    -14.2197E+06              0.     15.6669E+06
           46002    -35.7024E+06    -13.7425E+06              0.     14.9392E+06
           46003    -37.1313E+06    -14.3637E+06              0.     12.9922E+06
           46004    -38.9265E+06    -17.6299E+06              0.     12.5919E+06
           46005    -1.83753E+06    -827.453E+03              0.    -69.9938E+03
           46006    -1.83179E+06    -774.222E+03              0.     -69.864E+03
           46007    -1.84913E+06    -732.357E+03              0.    -69.1143E+03
           46008    -1.86628E+06    -691.342E+03              0.    -68.4426E+03
           46009    -1.88328E+06    -651.147E+03              0.    -67.8466E+03
           46010    -1.90013E+06    -611.745E+03              0.    -67.3242E+03
           46011    -1.91687E+06    -573.104E+03              0.    -66.8736E+03
           46012    -1.93350E+06    -535.201E+03              0.    -66.4928E+03
           46013    -1.95004E+06    -498.006E+03              0.    -66.1802E+03
           46014    -1.96651E+06    -461.496E+03              0.    -65.9343E+03
           46015    -1.98292E+06    -425.646E+03              0.    -65.7536E+03
           46016     -1.9993E+06    -390.430E+03              0.    -65.6369E+03
           46017    -2.01565E+06    -355.828E+03              0.    -65.5828E+03
           46018    -2.03200E+06    -321.814E+03              0.    -65.5903E+03
           46019    -2.04836E+06    -288.367E+03              0.    -65.6585E+03
           46020    -2.06474E+06    -255.467E+03              0.    -65.7864E+03
           46021    -2.08115E+06    -223.090E+03              0.    -65.9732E+03
           46022    -2.09762E+06    -191.219E+03              0.    -66.2183E+03
           46023    -2.11415E+06    -159.832E+03              0.    -66.5211E+03
           46024    -2.13077E+06    -128.910E+03              0.    -66.8810E+03
           46025    -2.14748E+06    -98.4346E+03              0.    -67.2977E+03
           46026    -2.16430E+06    -68.3859E+03              0.    -67.7708E+03
           46027    -2.18124E+06    -38.7468E+03              0.    -68.3001E+03
           46028    -2.19832E+06    -9.49852E+03              0.    -68.8854E+03
           46029    -2.21555E+06     19.3760E+03              0.    -69.5267E+03
           46030    -2.23294E+06     47.8936E+03              0.    -70.2239E+03
           46031    -2.25052E+06     76.0721E+03              0.    -70.9772E+03
           46032    -2.26828E+06     103.927E+03              0.    -71.7868E+03
           46033    -2.28625E+06     131.477E+03              0.    -72.6528E+03
           46034    -2.30445E+06     158.735E+03              0.    -73.5755E+03
           46035    -2.32287E+06     185.720E+03              0.    -74.5555E+03
           46036    -2.34155E+06     212.446E+03              0.    -75.5932E+03
           46037    -2.36049E+06     238.929E+03              0.    -76.6890E+03
           46038    -2.37970E+06     265.185E+03              0.    -77.8437E+03
           46039    -2.39921E+06     291.229E+03              0.    -79.0580E+03
           46040    -2.41903E+06     317.077E+03              0.    -80.3325E+03
           46041    -2.43916E+06     342.743E+03              0.    -81.6683E+03
           46042    -2.45964E+06     368.242E+03              0.    -83.0662E+03
           46043    -2.48047E+06     393.590E+03              0.    -84.5272E+03
           46044    -2.50166E+06     418.801E+03              0.    -86.0524E+03
           46045    -2.52324E+06     443.891E+03              0.    -87.6429E+03
           46046    -2.54522E+06     468.874E+03              0.    -89.3001E+03
           46047    -2.56762E+06     493.765E+03              0.    -91.0253E+03
           46048    -2.59046E+06     518.579E+03              0.    -92.8197E+03
           46049    -2.61374E+06     543.331E+03              0.    -94.6850E+03
           46050    -2.63749E+06     568.036E+03              0.    -96.6226E+03
           46051    -2.66174E+06     592.710E+03              0.    -98.6342E+03
           46052    -2.68649E+06     617.366E+03              0.    -100.722E+03
           46053    -2.71176E+06     642.021E+03              0.    -102.887E+03
           46054    -2.73757E+06     666.689E+03              0.    -105.131E+03
           46055    -2.76396E+06     691.386E+03              0.    -107.457E+03
           46056    -2.79092E+06     716.129E+03              0.    -109.866E+03
           46057    -2.81849E+06     740.930E+03              0.    -112.361E+03
           46058    -2.84669E+06     765.809E+03              0.    -114.945E+03
           46059    -2.87554E+06     790.778E+03              0.    -117.618E+03
           46060    -2.90506E+06     815.856E+03              0.    -120.384E+03
           46061    -2.93527E+06     841.059E+03              0.    -123.246E+03
           46062    -2.96620E+06     866.402E+03              0.    -126.205E+03
           46063    -2.99787E+06     891.903E+03              0.    -129.266E+03
           46064    -3.03031E+06     917.578E+03              0.    -132.430E+03
           46065    -3.06355E+06     943.446E+03              0.    -135.700E+03
           46066    -3.09760E+06     969.522E+03              0.    -139.080E+03
           46067    -3.13251E+06     995.825E+03              0.    -142.573E+03
           46068    -3.16829E+06     1.02237E+06              0.    -146.183E+03
           46069    -3.20497E+06     1.04919E+06              0.    -149.912E+03
           46070    -3.24259E+06     1.07628E+06              0.    -153.764E+03
           46071    -3.28118E+06     1.10367E+06              0.    -157.743E+03
           46072    -3.32076E+06     1.13138E+06              0.    -161.852E+03
           46073    -3.36137E+06     1.15944E+06              0.    -166.096E+03
           46074    -3.40305E+06     1.18785E+06              0.    -170.478E+03
           46075    -3.44582E+06     1.21664E+06              0.    -175.004E+03
           46076    -3.48973E+06     1.24583E+06              0.    -179.676E+03
           46077    -3.53481E+06     1.27544E+06              0.    -184.500E+03
           46078    -3.58110E+06     1.30549E+06              0.    -189.479E+03
           46079    -3.62863E+06     1.33600E+06              0.    -194.620E+03
           46080    -3.67745E+06     1.36700E+06              0.    -199.926E+03
           46081    -3.72760E+06     1.39850E+06              0.    -205.403E+03
           46082    -3.77912E+06     1.43054E+06              0.    -211.055E+03
           46083    -3.83205E+06     1.46313E+06              0.    -216.889E+03
           46084    -3.88645E+06     1.49629E+06              0.    -222.909E+03
           46085    -3.94235E+06     1.53006E+06              0.    -229.121E+03
           46086     -3.9998E+06     1.56444E+06              0.    -235.532E+03
           46087    -4.05886E+06     1.59948E+06              0.    -242.146E+03
           46088    -4.11957E+06     1.63519E+06              0.    -248.970E+03
           46089    -4.18199E+06     1.67160E+06              0.    -256.010E+03
           46090    -4.24616E+06     1.70874E+06              0.    -263.273E+03
           46091    -4.31216E+06     1.74662E+06              0.    -270.765E+03
           46092    -4.38002E+06     1.78529E+06              0.    -278.492E+03
           46093    -4.44982E+06     1.82476E+06              0.    -286.463E+03
           46094    -4.52160E+06     1.86505E+06              0.    -294.683E+03
           46095    -4.59544E+06     1.90621E+06              0.    -303.161E+03
           46096    -4.67140E+06     1.94826E+06              0.    -311.903E+03
           46097    -4.74954E+06     1.99122E+06              0.    -320.917E+03
           46098    -4.82992E+06     2.03512E+06              0.    -330.210E+03
           46099    -4.91263E+06     2.08000E+06              0.    -339.792E+03
           46100    -4.99773E+06     2.12587E+06              0.    -349.669E+03
           46101    -5.08529E+06     2.17278E+06              0.    -359.850E+03
           46102    -5.17539E+06     2.22074E+06              0.    -370.343E+03
           46103    -5.26810E+06     2.26979E+06              0.    -381.156E+03
           46104    -5.36351E+06     2.31996E+06              0.    -392.300E+03
           46105    -5.46170E+06     2.37128E+06              0.    -403.781E+03
           46106    -5.56274E+06     2.42378E+06              0.    -415.609E+03
           46107    -5.66673E+06     2.47748E+06              0.    -427.794E+03
           46108    -5.77376E+06     2.53241E+06              0.    -440.344E+03
           46109    -5.88391E+06     2.58861E+06              0.    -453.269E+03
           46110    -5.99727E+06     2.64610E+06              0.    -466.577E+03
           46111    -6.11394E+06     2.70492E+06              0.    -480.279E+03
           46112    -6.23402E+06     2.76508E+06              0.    -494.384E+03
           46113    -6.35761E+06     2.82662E+06              0.    -508.902E+03
           46114    -6.48480E+06     2.88957E+06              0.    -523.842E+03
           46115    -6.61570E+06     2.95394E+06              0.    -539.214E+03
           46116    -6.75042E+06     3.01977E+06              0.    -555.028E+03
           46117    -6.88906E+06     3.08708E+06              0.    -571.293E+03
           46118    -7.03174E+06     3.15589E+06              0.    -588.019E+03
           46119    -7.17856E+06     3.22623E+06              0.    -605.216E+03
           46120    -7.32965E+06     3.29812E+06              0.    -622.894E+03
           46121    -7.48512E+06     3.37157E+06              0.    -641.061E+03
           46122    -7.64509E+06     3.44660E+06              0.    -659.727E+03
           46123    -7.80967E+06     3.52323E+06              0.    -678.902E+03
           46124    -7.97900E+06     3.60147E+06              0.    -698.594E+03
           46125    -8.15321E+06     3.68134E+06              0.    -718.811E+03
           46126    -8.33240E+06     3.76283E+06              0.    -739.563E+03
           46127    -8.51673E+06     3.84597E+06              0.    -760.857E+03
           46128    -8.70631E+06     3.93074E+06              0.    -782.701E+03
           46129    -8.90129E+06     4.01715E+06              0.    -805.101E+03
           46130    -9.10178E+06     4.10519E+06              0.    -828.066E+03
           46131    -9.30794E+06     4.19486E+06              0.    -851.601E+03
           46132    -9.51990E+06     4.28615E+06              0.    -875.710E+03
           46133    -9.73779E+06     4.37903E+06              0.    -900.400E+03
           46134    -9.96176E+06     4.47348E+06              0.    -925.674E+03
           46135    -10.1919E+06     4.56948E+06              0.    -951.535E+03
           46136    -10.4285E+06     4.66699E+06              0.    -977.985E+03
           46137    -10.6715E+06     4.76598E+06              0.    -1.00503E+06
           46138    -10.9212E+06     4.86638E+06              0.    -1.03265E+06
           46139    -11.1776E+06     4.96816E+06              0.    -1.06087E+06
           46140    -11.4410E+06     5.07124E+06              0.    -1.08968E+06
           46141    -11.7114E+06     5.17556E+06              0.    -1.11906E+06
           46142    -11.9890E+06     5.28104E+06              0.    -1.14902E+06
           46143    -12.2739E+06     5.38758E+06              0.    -1.17954E+06
           46144    -12.5662E+06     5.49509E+06              0.    -1.21062E+06
           46145    -12.8662E+06     5.60345E+06              0.    -1.24225E+06
           46146    -13.1739E+06     5.71253E+06              0.    -1.27440E+06
           46147    -13.4893E+06     5.82222E+06              0.    -1.30706E+06
           46148    -13.8128E+06     5.93234E+06              0.    -1.34021E+06
           46149    -14.1443E+06     6.04274E+06              0.    -1.37383E+06
           46150    -14.4839E+06     6.15324E+06              0.    -1.40789E+06
           46151    -14.8319E+06     6.26363E+06              0.    -1.44236E+06
           46152    -15.1881E+06     6.37371E+06              0.    -1.47720E+06
           46153    -15.5528E+06     6.48324E+06              0.    -1.51238E+06
           46154    -15.9261E+06     6.59196E+06              0.    -1.54785E+06
           46155    -16.3078E+06     6.69960E+06              0.    -1.58356E+06
           46156    -16.6982E+06     6.80586E+06              0.    -1.61945E+06
           46157    -17.0973E+06     6.91042E+06              0.    -1.65548E+06
           46158    -17.5050E+06     7.01294E+06              0.    -1.69157E+06
           46159    -17.9213E+06     7.11303E+06              0.    -1.72765E+06
           46160    -18.3464E+06     7.21029E+06              0.    -1.76363E+06
           46161    -18.7800E+06     7.30430E+06              0.    -1.79943E+06
           46162    -19.2222E+06     7.39459E+06              0.    -1.83496E+06
           46163    -19.6729E+06     7.48065E+06              0.    -1.87010E+06
           46164    -20.1320E+06     7.56197E+06              0.    -1.90473E+06
           46165    -20.5993E+06     7.63795E+06              0.    -1.93874E+06
           46166    -21.0747E+06     7.70801E+06              0.    -1.97197E+06
           46167     -21.558E+06     7.77148E+06              0.    -2.00428E+06
           46168    -22.0489E+06     7.82767E+06              0.    -2.03551E+06
           46169    -22.5472E+06     7.87584E+06              0.    -2.06546E+06
           46170    -23.0526E+06     7.91520E+06              0.    -2.09394E+06
           46171    -23.5647E+06     7.94492E+06              0.    -2.12075E+06
           46172    -24.0830E+06     7.96410E+06              0.    -2.14564E+06
           46173    -24.6072E+06     7.97181E+06              0.    -2.16836E+06
           46174    -25.1366E+06     7.96704E+06              0.    -2.18863E+06
           46175    -25.6708E+06     7.94874E+06              0.    -2.20616E+06
           46176    -26.2090E+06     7.91578E+06              0.    -2.22062E+06
           46177    -26.7505E+06     7.86699E+06              0.    -2.23165E+06
           46178    -27.2945E+06     7.80111E+06              0.    -2.23888E+06
           46179    -27.8401E+06     7.71684E+06              0.    -2.24187E+06
           46180    -28.3863E+06     7.61279E+06              0.    -2.24019E+06
           46181    -28.9320E+06     7.48752E+06              0.    -2.23332E+06
           46182    -29.4761E+06     7.33950E+06              0.    -2.22074E+06
           46183    -30.0170E+06     7.16715E+06              0.    -2.20186E+06
           46184    -30.5535E+06     6.96881E+06              0.    -2.17604E+06
           46185    -31.0839E+06     6.74275E+06              0.    -2.14258E+06
           46186    -31.6064E+06     6.48717E+06              0.    -2.10074E+06
           46187    -32.1192E+06     6.20023E+06              0.    -2.04966E+06
           46188    -32.6202E+06     5.87999E+06              0.    -1.98847E+06
           46189    -33.1070E+06     5.52451E+06              0.    -1.91615E+06
           46190    -33.5772E+06     5.13176E+06              0.    -1.83162E+06
           46191    -34.0280E+06     4.69970E+06              0.    -1.73369E+06
           46192    -34.4565E+06     4.22627E+06              0.    -1.62105E+06
           46193    -34.8595E+06     3.70942E+06              0.    -1.49223E+06
           46194    -35.2334E+06     3.14710E+06              0.    -1.34565E+06
           46195    -35.5744E+06     2.53736E+06              0.    -1.17953E+06
           46196    -35.8783E+06     1.87828E+06              0.    -991.879E+03
           46197    -36.1407E+06     1.16815E+06              0.    -780.511E+03
           46198    -36.3565E+06     405.402E+03              0.    -542.955E+03
           46199    -36.5205E+06    -411.204E+03              0.    -276.444E+03
           46200    -36.6268E+06    -1.28254E+06              0.     22.1442E+03
           46201    -36.6694E+06    -2.20900E+06              0.     356.352E+03
           46202    -36.6415E+06    -3.19027E+06              0.     730.206E+03
           46203    -36.5361E+06    -4.22521E+06              0.     1.14832E+06
           46204    -36.3456E+06    -5.31151E+06              0.     1.61599E+06
           46205    -36.0622E+06    -6.44533E+06              0.     2.13934E+06
           46206    -35.6782E+06    -7.62095E+06              0.     2.72545E+06
           46207    -35.1857E+06    -8.82997E+06              0.     3.38257E+06
           46208    -34.5779E+06    -10.0607E+06              0.     4.12026E+06
           46209    -33.8497E+06    -11.2966E+06              0.     4.94957E+06
           46210    -32.9990E+06    -12.5154E+06              0.     5.88305E+06
           46211    -32.0301E+06    -13.6864E+06              0.     6.93455E+06
           46212    -30.9573E+06    -14.7676E+06              0.     8.11817E+06
           46213    -29.8128E+06    -15.7023E+06              0.      9.4457E+06
           46214    -28.6583E+06    -16.4140E+06              0.     10.9203E+06
           46215    -27.6019E+06    -16.8010E+06              0.     12.5219E+06
           46216    -26.8172E+06    -16.7333E+06              0.     14.1772E+06
           46217    -26.5425E+06    -16.0619E+06              0.     15.6932E+06
           46218    -26.9265E+06    -14.6421E+06              0.     16.6706E+06
           46219    -27.9137E+06    -12.7569E+06              0.     16.4692E+06
           46220    -29.1970E+06    -11.6456E+06              0.     14.5694E+06
           46221    -30.8320E+06    -13.8866E+06              0.     14.2775E+06
           46222    -1.83926E+06    -828.234E+03              0.    -52.5244E+03
           46223    -1.83351E+06    -774.914E+03              0.    -52.4270E+03
           46224    -1.85087E+06    -732.980E+03              0.    -51.8644E+03
           46225    -1.86806E+06    -691.898E+03              0.    -51.3602E+03
           46226    -1.88508E+06    -651.638E+03              0.    -50.9130E+03
           46227    -1.90197E+06    -612.172E+03              0.    -50.5211E+03
           46228    -1.91873E+06    -573.470E+03              0.    -50.1830E+03
           46229    -1.93538E+06    -535.505E+03              0.    -49.8974E+03
           46230    -1.95195E+06    -498.252E+03              0.    -49.6630E+03
           46231    -1.96845E+06    -461.684E+03              0.    -49.4787E+03
           46232    -1.98489E+06    -425.777E+03              0.    -49.3434E+03
           46233    -2.00130E+06    -390.507E+03              0.    -49.2561E+03
           46234    -2.01768E+06    -355.849E+03              0.    -49.2159E+03
           46235    -2.03406E+06    -321.782E+03              0.    -49.2219E+03
           46236    -2.05045E+06    -288.282E+03              0.    -49.2735E+03
           46237    -2.06685E+06    -255.330E+03              0.    -49.3699E+03
           46238    -2.08330E+06    -222.903E+03              0.    -49.5106E+03
           46239    -2.09980E+06    -190.981E+03              0.    -49.6951E+03
           46240    -2.11637E+06    -159.543E+03              0.    -49.9229E+03
           46241    -2.13301E+06    -128.572E+03              0.    -50.1936E+03
           46242    -2.14976E+06    -98.0464E+03              0.    -50.5070E+03
           46243    -2.16661E+06    -67.9483E+03              0.    -50.8627E+03
           46244    -2.18359E+06    -38.2601E+03              0.    -51.2606E+03
           46245    -2.20070E+06    -8.96283E+03              0.    -51.7006E+03
           46246    -2.21797E+06     19.9607E+03              0.    -52.1827E+03
           46247    -2.23540E+06     48.5274E+03              0.    -52.7068E+03
           46248    -2.25301E+06     76.7551E+03              0.    -53.2730E+03
           46249    -2.27082E+06     104.660E+03              0.    -53.8814E+03
           46250    -2.28883E+06     132.258E+03              0.    -54.5322E+03
           46251    -2.30707E+06     159.567E+03              0.    -55.2257E+03
           46252    -2.32554E+06     186.602E+03              0.    -55.9621E+03
           46253    -2.34426E+06     213.379E+03              0.    -56.7419E+03
           46254    -2.36325E+06     239.913E+03              0.    -57.5654E+03
           46255    -2.38251E+06     266.221E+03              0.    -58.4331E+03
           46256    -2.40207E+06     292.318E+03              0.    -59.3455E+03
           46257    -2.42194E+06     318.218E+03              0.    -60.3033E+03
           46258    -2.44213E+06     343.938E+03              0.    -61.3070E+03
           46259    -2.46267E+06     369.492E+03              0.    -62.3574E+03
           46260    -2.48355E+06     394.896E+03              0.    -63.4552E+03
           46261    -2.50481E+06     420.164E+03              0.    -64.6012E+03
           46262    -2.52645E+06     445.312E+03              0.    -65.7963E+03
           46263    -2.54850E+06     470.354E+03              0.    -67.0415E+03
           46264    -2.57097E+06     495.305E+03              0.    -68.3378E+03
           46265    -2.59387E+06     520.180E+03              0.    -69.6861E+03
           46266    -2.61723E+06     544.995E+03              0.    -71.0876E+03
           46267    -2.64106E+06     569.765E+03              0.    -72.5435E+03
           46268    -2.66538E+06     594.504E+03              0.    -74.0550E+03
           46269    -2.69020E+06     619.227E+03              0.    -75.6234E+03
           46270    -2.71556E+06     643.951E+03              0.    -77.2501E+03
           46271    -2.74146E+06     668.690E+03              0.    -78.9365E+03
           46272    -2.76794E+06     693.459E+03              0.    -80.6841E+03
           46273    -2.79499E+06     718.276E+03              0.    -82.4944E+03
           46274    -2.82266E+06     743.154E+03              0.    -84.3692E+03
           46275    -2.85096E+06     768.110E+03              0.    -86.3101E+03
           46276    -2.87991E+06      793.16E+03              0.    -88.3188E+03
           46277    -2.90953E+06     818.320E+03              0.    -90.3973E+03
           46278    -2.93986E+06     843.607E+03              0.    -92.5474E+03
           46279    -2.97090E+06     869.038E+03              0.    -94.7712E+03
           46280    -3.00270E+06     894.628E+03              0.    -97.0706E+03
           46281    -3.03526E+06     920.396E+03              0.    -99.4480E+03
           46282    -3.06862E+06     946.358E+03              0.    -101.905E+03
           46283    -3.10281E+06     972.532E+03              0.    -104.445E+03
           46284    -3.13785E+06     998.936E+03              0.    -107.070E+03
           46285    -3.17377E+06     1.02559E+06              0.    -109.782E+03
           46286    -3.21061E+06     1.05251E+06              0.    -112.584E+03
           46287    -3.24838E+06     1.07971E+06              0.    -115.478E+03
           46288    -3.28712E+06     1.10721E+06              0.    -118.468E+03
           46289    -3.32687E+06     1.13504E+06              0.    -121.556E+03
           46290    -3.36765E+06     1.16322E+06              0.    -124.745E+03
           46291    -3.40950E+06     1.19175E+06              0.    -128.038E+03
           46292    -3.45246E+06     1.22067E+06              0.    -131.438E+03
           46293    -3.49655E+06     1.24999E+06              0.    -134.949E+03
           46294    -3.54182E+06     1.27973E+06              0.    -138.573E+03
           46295    -3.58831E+06     1.30992E+06              0.    -142.315E+03
           46296    -3.63605E+06     1.34058E+06              0.    -146.178E+03
           46297    -3.68509E+06     1.37172E+06              0.    -150.165E+03
           46298    -3.73546E+06     1.40338E+06              0.    -154.280E+03
           46299    -3.78721E+06     1.43557E+06              0.    -158.527E+03
           46300    -3.84039E+06     1.46832E+06              0.    -162.911E+03
           46301    -3.89503E+06     1.50165E+06              0.    -167.434E+03
           46302    -3.95118E+06     1.53559E+06              0.    -172.102E+03
           46303    -4.00890E+06     1.57015E+06              0.    -176.919E+03
           46304    -4.06824E+06     1.60537E+06              0.    -181.889E+03
           46305    -4.12923E+06     1.64127E+06              0.    -187.017E+03
           46306    -4.19194E+06     1.67787E+06              0.    -192.307E+03
           46307    -4.25642E+06     1.71520E+06              0.    -197.764E+03
           46308    -4.32273E+06     1.75329E+06              0.    -203.393E+03
           46309    -4.39092E+06     1.79217E+06              0.    -209.200E+03
           46310    -4.46105E+06     1.83185E+06              0.    -215.189E+03
           46311    -4.53318E+06     1.87237E+06              0.    -221.366E+03
           46312    -4.60738E+06     1.91376E+06              0.    -227.736E+03
           46313    -4.68371E+06     1.95604E+06              0.    -234.305E+03
           46314    -4.76223E+06     1.99924E+06              0.    -241.078E+03
           46315    -4.84301E+06     2.04339E+06              0.    -248.061E+03
           46316    -4.92613E+06     2.08853E+06              0.    -255.261E+03
           46317    -5.01165E+06     2.13466E+06              0.    -262.683E+03
           46318    -5.09965E+06     2.18184E+06              0.    -270.332E+03
           46319    -5.19020E+06     2.23008E+06              0.    -278.217E+03
           46320    -5.28338E+06     2.27942E+06              0.    -286.342E+03
           46321    -5.37927E+06     2.32988E+06              0.    -294.715E+03
           46322    -5.47795E+06     2.38150E+06              0.    -303.342E+03
           46323    -5.57951E+06     2.43431E+06              0.    -312.230E+03
           46324    -5.68403E+06     2.48832E+06              0.    -321.385E+03
           46325    -5.79160E+06     2.54358E+06              0.    -330.814E+03
           46326    -5.90231E+06     2.60012E+06              0.    -340.525E+03
           46327    -6.01625E+06     2.65795E+06              0.    -350.525E+03
           46328    -6.13353E+06     2.71711E+06              0.     -360.82E+03
           46329    -6.25422E+06     2.77764E+06              0.    -371.418E+03
           46330    -6.37845E+06     2.83954E+06              0.    -382.325E+03
           46331    -6.50629E+06     2.90286E+06              0.    -393.550E+03
           46332    -6.63787E+06     2.96762E+06              0.    -405.100E+03
           46333    -6.77329E+06     3.03384E+06              0.    -416.981E+03
           46334    -6.91265E+06     3.10156E+06              0.    -429.201E+03
           46335    -7.05607E+06     3.17078E+06              0.    -441.767E+03
           46336    -7.20365E+06     3.24153E+06              0.    -454.687E+03
           46337    -7.35552E+06     3.31385E+06              0.    -467.968E+03
           46338    -7.51180E+06     3.38773E+06              0.    -481.616E+03
           46339    -7.67260E+06     3.46321E+06              0.    -495.640E+03
           46340    -7.83803E+06     3.54029E+06              0.    -510.044E+03
           46341    -8.00824E+06     3.61899E+06              0.    -524.837E+03
           46342    -8.18334E+06     3.69932E+06              0.    -540.025E+03
           46343    -8.36347E+06     3.78129E+06              0.    -555.613E+03
           46344    -8.54874E+06     3.86490E+06              0.    -571.609E+03
           46345     -8.7393E+06     3.95016E+06              0.    -588.017E+03
           46346    -8.93527E+06     4.03706E+06              0.    -604.843E+03
           46347    -9.13680E+06     4.12561E+06              0.    -622.092E+03
           46348    -9.34401E+06     4.21578E+06              0.    -639.769E+03
           46349    -9.55704E+06     4.30758E+06              0.    -657.877E+03
           46350    -9.77603E+06     4.40097E+06              0.    -676.421E+03
           46351    -10.0011E+06     4.49594E+06              0.    -695.402E+03
           46352    -10.2325E+06     4.59246E+06              0.    -714.823E+03
           46353    -10.4702E+06     4.69049E+06              0.    -734.686E+03
           46354    -10.7144E+06     4.78999E+06              0.    -754.992E+03
           46355    -10.9653E+06     4.89092E+06              0.    -775.739E+03
           46356    -11.2230E+06     4.99321E+06              0.    -796.927E+03
           46357    -11.4876E+06     5.09681E+06              0.    -818.553E+03
           46358    -11.7593E+06     5.20164E+06              0.    -840.614E+03
           46359    -12.0383E+06     5.30762E+06              0.    -863.105E+03
           46360    -12.3245E+06     5.41466E+06              0.    -886.019E+03
           46361    -12.6182E+06     5.52265E+06              0.    -909.349E+03
           46362    -12.9196E+06     5.63149E+06              0.    -933.086E+03
           46363    -13.2286E+06     5.74104E+06              0.    -957.216E+03
           46364    -13.5456E+06     5.85117E+06              0.    -981.728E+03
           46365    -13.8704E+06     5.96171E+06              0.    -1.00661E+06
           46366    -14.2034E+06     6.07252E+06              0.    -1.03183E+06
           46367    -14.5445E+06     6.18339E+06              0.    -1.05738E+06
           46368    -14.8939E+06     6.29414E+06              0.    -1.08324E+06
           46369    -15.2516E+06     6.40454E+06              0.    -1.10937E+06
           46370    -15.6178E+06     6.51434E+06              0.    -1.13575E+06
           46371    -15.9924E+06     6.62331E+06              0.    -1.16234E+06
           46372    -16.3756E+06     6.73115E+06              0.    -1.18911E+06
           46373    -16.7675E+06     6.83756E+06              0.    -1.21602E+06
           46374    -17.1679E+06     6.94221E+06              0.    -1.24302E+06
           46375    -17.5770E+06     7.04476E+06              0.    -1.27005E+06
           46376    -17.9947E+06     7.14481E+06              0.    -1.29707E+06
           46377    -18.4211E+06     7.24197E+06              0.    -1.32402E+06
           46378    -18.8560E+06     7.33579E+06              0.    -1.35081E+06
           46379    -19.2994E+06     7.42579E+06              0.    -1.37739E+06
           46380    -19.7512E+06     7.51148E+06              0.    -1.40367E+06
           46381    -20.2114E+06     7.59231E+06              0.    -1.42956E+06
           46382    -20.6796E+06     7.66769E+06              0.    -1.45496E+06
           46383    -21.1559E+06     7.73702E+06              0.    -1.47977E+06
           46384    -21.6399E+06     7.79962E+06              0.    -1.50387E+06
           46385    -22.1314E+06     7.85478E+06              0.    -1.52713E+06
           46386    -22.6302E+06     7.90176E+06              0.    -1.54942E+06
           46387    -23.1358E+06     7.93976E+06              0.    -1.57059E+06
           46388    -23.6479E+06     7.96791E+06              0.    -1.59047E+06
           46389    -24.1661E+06     7.98531E+06              0.    -1.60889E+06
           46390    -24.6898E+06     7.99101E+06              0.    -1.62565E+06
           46391    -25.2185E+06     7.98397E+06              0.    -1.64054E+06
           46392    -25.7516E+06     7.96312E+06              0.    -1.65333E+06
           46393    -26.2884E+06     7.92732E+06              0.    -1.66378E+06
           46394    -26.8280E+06     7.87535E+06              0.    -1.67161E+06
           46395    -27.3698E+06     7.80595E+06              0.    -1.67653E+06
           46396    -27.9126E+06     7.71776E+06              0.    -1.67821E+06
           46397    -28.4554E+06     7.60938E+06              0.    -1.67632E+06
           46398    -28.9971E+06     7.47931E+06              0.    -1.67047E+06
           46399    -29.5363E+06     7.32599E+06              0.    -1.66024E+06
           46400    -30.0717E+06     7.14780E+06              0.    -1.64520E+06
           46401    -30.6017E+06     6.94302E+06              0.    -1.62483E+06
           46402    -31.1246E+06     6.70987E+06              0.    -1.59862E+06
           46403    -31.6385E+06     6.44649E+06              0.    -1.56598E+06
           46404    -32.1414E+06     6.15097E+06              0.    -1.52626E+06
           46405    -32.6310E+06     5.82130E+06              0.    -1.47876E+06
           46406    -33.1048E+06     5.45545E+06              0.    -1.42270E+06
           46407    -33.5601E+06     5.05130E+06              0.    -1.35725E+06
           46408    -33.9940E+06     4.60672E+06              0.    -1.28147E+06
           46409    -34.4032E+06     4.11951E+06              0.    -1.19433E+06
           46410    -34.7841E+06     3.58750E+06              0.    -1.09468E+06
           46411    -35.1328E+06     3.00848E+06              0.    -981.254E+03
           46412    -35.4451E+06     2.38033E+06              0.    -852.646E+03
           46413    -35.7162E+06     1.70095E+06              0.    -707.272E+03
           46414     -35.941E+06     968.379E+03              0.    -543.361E+03
           46415    -36.1138E+06     180.806E+03              0.    -358.910E+03
           46416    -36.2283E+06    -663.328E+03              0.    -151.653E+03
           46417    -36.2776E+06    -1.56525E+06              0.     80.9929E+03
           46418    -36.2543E+06    -2.52577E+06              0.     341.997E+03
           46419    -36.1499E+06    -3.54508E+06              0.     634.782E+03
           46420    -35.9552E+06    -4.62263E+06              0.     963.337E+03
           46421    -35.6601E+06    -5.75680E+06              0.     1.33234E+06
           46422    -35.2534E+06    -6.94464E+06              0.     1.74732E+06
           46423    -34.7230E+06    -8.18142E+06              0.     2.21490E+06
           46424    -34.0555E+06    -9.45996E+06              0.     2.74305E+06
           46425    -33.2366E+06    -10.7700E+06              0.     3.34149E+06
           46426    -32.2513E+06    -12.0967E+06              0.     4.02215E+06
           46427    -31.0847E+06    -13.4195E+06              0.     4.79980E+06
           46428    -29.7229E+06    -14.7095E+06              0.     5.69282E+06
           46429    -28.1568E+06    -15.9260E+06              0.     6.72396E+06
           46430    -26.3871E+06    -17.0120E+06              0.     7.92090E+06
           46431    -24.4366E+06    -17.8861E+06              0.     9.31538E+06
           46432    -22.3733E+06    -18.4323E+06              0.     10.9381E+06
           46433    -20.3565E+06    -18.4851E+06              0.     12.7994E+06
           46434    -18.7091E+06    -17.8088E+06              0.     14.8359E+06
           46435    -17.9886E+06    -16.0821E+06              0.     16.7243E+06
           46436    -18.2103E+06    -12.6596E+06              0.     17.6305E+06
           46437    -18.9879E+06    -8.71828E+06              0.     16.1602E+06
           46438    -20.2534E+06    -9.05671E+06              0.     16.2698E+06
           46439    -1.84049E+06    -828.793E+03              0.    -35.0301E+03
           46440    -1.83474E+06    -775.409E+03              0.    -34.9652E+03
           46441    -1.85212E+06    -733.426E+03              0.    -34.5898E+03
           46442    -1.86933E+06    -692.295E+03              0.    -34.2536E+03
           46443    -1.88637E+06    -651.989E+03              0.    -33.9553E+03
           46444    -1.90328E+06    -612.477E+03              0.    -33.6940E+03
           46445    -1.92006E+06    -573.730E+03              0.    -33.4685E+03
           46446    -1.93673E+06    -535.723E+03              0.    -33.2781E+03
           46447    -1.95332E+06    -498.428E+03              0.    -33.1219E+03
           46448    -1.96984E+06    -461.818E+03              0.    -32.9991E+03
           46449    -1.98630E+06    -425.871E+03              0.    -32.9090E+03
           46450    -2.00273E+06    -390.561E+03              0.    -32.8509E+03
           46451    -2.01913E+06    -355.864E+03              0.    -32.8243E+03
           46452    -2.03553E+06    -321.759E+03              0.    -32.8285E+03
           46453    -2.05194E+06    -288.222E+03              0.    -32.8631E+03
           46454    -2.06837E+06    -255.232E+03              0.    -32.9276E+03
           46455    -2.08484E+06    -222.768E+03              0.    -33.0217E+03
           46456    -2.10136E+06    -190.810E+03              0.    -33.1450E+03
           46457    -2.11795E+06    -159.337E+03              0.    -33.2972E+03
           46458    -2.13462E+06    -128.329E+03              0.    -33.4781E+03
           46459    -2.15138E+06    -97.7684E+03              0.    -33.6874E+03
           46460    -2.16826E+06    -67.6352E+03              0.    -33.9249E+03
           46461    -2.18527E+06    -37.9118E+03              0.    -34.1907E+03
           46462    -2.20241E+06    -8.57944E+03              0.    -34.4845E+03
           46463    -2.21970E+06     20.3791E+03              0.    -34.8064E+03
           46464    -2.23716E+06     48.9809E+03              0.    -35.1563E+03
           46465    -2.25480E+06     77.2438E+03              0.    -35.5344E+03
           46466    -2.27264E+06     105.184E+03              0.    -35.9406E+03
           46467    -2.29068E+06     132.818E+03              0.    -36.3751E+03
           46468    -2.30895E+06     160.162E+03              0.    -36.8381E+03
           46469    -2.32745E+06     187.233E+03              0.    -37.3297E+03
           46470    -2.34620E+06     214.046E+03              0.    -37.8503E+03
           46471    -2.36522E+06     240.618E+03              0.    -38.4001E+03
           46472    -2.38453E+06     266.962E+03              0.    -38.9793E+03
           46473    -2.40412E+06     293.097E+03              0.    -39.5885E+03
           46474    -2.42403E+06     319.035E+03              0.    -40.2278E+03
           46475    -2.44426E+06     344.794E+03              0.    -40.8979E+03
           46476    -2.46483E+06     370.387E+03              0.    -41.5991E+03
           46477    -2.48576E+06     395.831E+03              0.    -42.3319E+03
           46478    -2.50706E+06     421.139E+03              0.    -43.0969E+03
           46479    -2.52875E+06     446.328E+03              0.    -43.8948E+03
           46480    -2.55084E+06     471.412E+03              0.    -44.7260E+03
           46481    -2.57336E+06     496.407E+03              0.    -45.5913E+03
           46482    -2.59631E+06     521.326E+03              0.    -46.4913E+03
           46483    -2.61972E+06     546.186E+03              0.    -47.4269E+03
           46484    -2.64360E+06     571.001E+03              0.    -48.3988E+03
           46485    -2.66798E+06     595.787E+03              0.    -49.4078E+03
           46486    -2.69286E+06     620.559E+03              0.    -50.4547E+03
           46487    -2.71828E+06     645.332E+03              0.    -51.5406E+03
           46488    -2.74425E+06     670.121E+03              0.    -52.6663E+03
           46489    -2.77078E+06     694.942E+03              0.    -53.8329E+03
           46490    -2.79791E+06     719.812E+03              0.    -55.0414E+03
           46491    -2.82564E+06     744.744E+03              0.    -56.2929E+03
           46492    -2.85401E+06     769.756E+03              0.    -57.5885E+03
           46493    -2.88303E+06     794.864E+03              0.    -58.9294E+03
           46494    -2.91274E+06     820.083E+03              0.    -60.3169E+03
           46495    -2.94314E+06     845.431E+03              0.    -61.7522E+03
           46496    -2.97427E+06     870.924E+03              0.    -63.2366E+03
           46497    -3.00615E+06     896.578E+03              0.    -64.7716E+03
           46498    -3.03880E+06     922.412E+03              0.    -66.3586E+03
           46499    -3.07225E+06     948.442E+03              0.    -67.9990E+03
           46500    -3.10654E+06     974.686E+03              0.    -69.6945E+03
           46501    -3.14167E+06     1.00116E+06              0.    -71.4466E+03
           46502    -3.17770E+06     1.02789E+06              0.    -73.2570E+03
           46503    -3.21464E+06     1.05488E+06              0.    -75.1273E+03
           46504    -3.25252E+06     1.08216E+06              0.    -77.0595E+03
           46505    -3.29137E+06     1.10975E+06              0.    -79.0553E+03
           46506    -3.33124E+06     1.13766E+06              0.    -81.1165E+03
           46507    -3.37214E+06     1.16592E+06              0.    -83.2453E+03
           46508    -3.41412E+06     1.19454E+06              0.    -85.4435E+03
           46509    -3.45720E+06     1.22355E+06              0.    -87.7134E+03
           46510    -3.50143E+06     1.25296E+06              0.     -90.057E+03
           46511    -3.54684E+06     1.28280E+06              0.    -92.4766E+03
           46512    -3.59347E+06     1.31309E+06              0.    -94.9745E+03
           46513    -3.64137E+06     1.34385E+06              0.    -97.5530E+03
           46514    -3.69056E+06     1.37510E+06              0.    -100.215E+03
           46515    -3.74109E+06     1.40687E+06              0.    -102.962E+03
           46516    -3.79300E+06     1.43917E+06              0.    -105.797E+03
           46517    -3.84635E+06     1.47204E+06              0.    -108.723E+03
           46518    -3.90117E+06     1.50549E+06              0.    -111.743E+03
           46519    -3.95751E+06     1.53954E+06              0.    -114.859E+03
           46520    -4.01542E+06     1.57424E+06              0.    -118.075E+03
           46521    -4.07494E+06     1.60958E+06              0.    -121.393E+03
           46522    -4.13614E+06     1.64562E+06              0.    -124.816E+03
           46523    -4.19906E+06     1.68236E+06              0.    -128.347E+03
           46524    -4.26376E+06     1.71983E+06              0.    -131.990E+03
           46525    -4.33029E+06     1.75807E+06              0.    -135.748E+03
           46526    -4.39871E+06     1.79709E+06              0.    -139.624E+03
           46527    -4.46908E+06     1.83693E+06              0.    -143.623E+03
           46528    -4.54147E+06     1.87761E+06              0.    -147.746E+03
           46529    -4.61592E+06     1.91916E+06              0.    -151.998E+03
           46530    -4.69251E+06     1.96161E+06              0.    -156.383E+03
           46531    -4.77131E+06     2.00498E+06              0.    -160.905E+03
           46532    -4.85238E+06     2.04931E+06              0.    -165.567E+03
           46533    -4.93579E+06     2.09463E+06              0.    -170.373E+03
           46534    -5.02161E+06     2.14096E+06              0.    -175.327E+03
           46535    -5.10992E+06     2.18832E+06              0.    -180.434E+03
           46536    -5.20079E+06     2.23677E+06              0.    -185.697E+03
           46537    -5.29430E+06     2.28631E+06              0.    -191.121E+03
           46538    -5.39054E+06     2.33698E+06              0.    -196.710E+03
           46539    -5.48958E+06     2.38882E+06              0.    -202.469E+03
           46540    -5.59150E+06     2.44184E+06              0.    -208.402E+03
           46541    -5.69640E+06     2.49608E+06              0.    -214.513E+03
           46542    -5.80436E+06     2.55157E+06              0.    -220.808E+03
           46543    -5.91548E+06     2.60835E+06              0.    -227.290E+03
           46544    -6.02984E+06     2.66642E+06              0.    -233.965E+03
           46545    -6.14754E+06     2.72584E+06              0.    -240.838E+03
           46546    -6.26868E+06     2.78662E+06              0.    -247.912E+03
           46547    -6.39335E+06     2.84879E+06              0.    -255.193E+03
           46548    -6.52167E+06     2.91237E+06              0.    -262.686E+03
           46549    -6.65373E+06     2.97741E+06              0.    -270.395E+03
           46550    -6.78965E+06     3.04391E+06              0.    -278.326E+03
           46551    -6.92952E+06     3.11191E+06              0.    -286.482E+03
           46552    -7.07347E+06     3.18142E+06              0.    -294.870E+03
           46553    -7.22160E+06     3.25248E+06              0.    -303.494E+03
           46554    -7.37403E+06     3.32510E+06              0.    -312.359E+03
           46555    -7.53088E+06     3.39929E+06              0.    -321.469E+03
           46556    -7.69227E+06     3.47508E+06              0.    -330.828E+03
           46557    -7.85832E+06     3.55249E+06              0.    -340.443E+03
           46558    -8.02916E+06     3.63152E+06              0.    -350.316E+03
           46559    -8.20490E+06     3.71218E+06              0.    -360.453E+03
           46560    -8.38569E+06     3.79449E+06              0.    -370.857E+03
           46561    -8.57164E+06     3.87844E+06              0.    -381.533E+03
           46562    -8.76290E+06     3.96405E+06              0.    -392.483E+03
           46563    -8.95958E+06     4.05131E+06              0.    -403.713E+03
           46564    -9.16184E+06     4.14021E+06              0.    -415.225E+03
           46565    -9.36980E+06     4.23074E+06              0.    -427.022E+03
           46566    -9.58361E+06     4.32290E+06              0.    -439.106E+03
           46567    -9.80339E+06     4.41666E+06              0.    -451.481E+03
           46568    -10.0293E+06     4.51200E+06              0.    -464.147E+03
           46569    -10.2614E+06     4.60889E+06              0.    -477.107E+03
           46570    -10.5000E+06     4.70729E+06              0.    -490.361E+03
           46571    -10.7451E+06     4.80716E+06              0.     -503.91E+03
           46572    -10.9969E+06     4.90846E+06              0.    -517.753E+03
           46573    -11.2555E+06     5.01113E+06              0.    -531.890E+03
           46574    -11.5210E+06     5.11509E+06              0.    -546.319E+03
           46575    -11.7936E+06     5.22029E+06              0.    -561.037E+03
           46576    -12.0735E+06     5.32663E+06              0.    -576.042E+03
           46577    -12.3607E+06     5.43402E+06              0.    -591.328E+03
           46578    -12.6554E+06     5.54236E+06              0.    -606.891E+03
           46579    -12.9578E+06     5.65153E+06              0.    -622.723E+03
           46580    -13.2678E+06     5.76141E+06              0.    -638.818E+03
           46581    -13.5857E+06     5.87185E+06              0.    -655.167E+03
           46582    -13.9116E+06     5.98271E+06              0.    -671.758E+03
           46583    -14.2456E+06     6.09380E+06              0.    -688.579E+03
           46584    -14.5877E+06     6.20494E+06              0.    -705.617E+03
           46585    -14.9382E+06     6.31593E+06              0.    -722.856E+03
           46586    -15.2969E+06     6.42655E+06              0.    -740.278E+03
           46587    -15.6642E+06     6.53656E+06              0.    -757.862E+03
           46588    -16.0399E+06     6.64569E+06              0.    -775.588E+03
           46589    -16.4241E+06     6.75367E+06              0.    -793.429E+03
           46590    -16.8169E+06     6.86018E+06              0.    -811.359E+03
           46591    -17.2184E+06     6.96490E+06              0.    -829.345E+03
           46592    -17.6285E+06     7.06746E+06              0.    -847.355E+03
           46593    -18.0472E+06     7.16749E+06              0.     -865.35E+03
           46594    -18.4744E+06     7.26456E+06              0.    -883.290E+03
           46595    -18.9102E+06     7.35823E+06              0.    -901.128E+03
           46596    -19.3545E+06     7.44803E+06              0.    -918.816E+03
           46597    -19.8071E+06     7.53344E+06              0.    -936.298E+03
           46598    -20.2680E+06     7.61391E+06              0.    -953.514E+03
           46599    -20.7370E+06     7.68886E+06              0.    -970.400E+03
           46600    -21.2138E+06     7.75765E+06              0.    -986.882E+03
           46601    -21.6983E+06     7.81961E+06              0.    -1.00288E+06
           46602    -22.1903E+06     7.87404E+06              0.    -1.01832E+06
           46603    -22.6893E+06     7.92015E+06              0.    -1.03310E+06
           46604    -23.1950E+06     7.95715E+06              0.    -1.04712E+06
           46605    -23.7072E+06     7.98416E+06              0.    -1.06026E+06
           46606    -24.2252E+06     8.00027E+06              0.    -1.07242E+06
           46607    -24.7485E+06     8.00450E+06              0.    -1.08346E+06
           46608    -25.2767E+06     7.99582E+06              0.    -1.09323E+06
           46609    -25.8090E+06     7.97312E+06              0.    -1.10159E+06
           46610    -26.3447E+06     7.93526E+06              0.    -1.10836E+06
           46611    -26.8830E+06     7.88099E+06              0.    -1.11337E+06
           46612    -27.4230E+06     7.80902E+06              0.    -1.11640E+06
           46613    -27.9637E+06     7.71799E+06              0.    -1.11726E+06
           46614    -28.5041E+06     7.60646E+06              0.    -1.11569E+06
           46615    -29.0428E+06     7.47290E+06              0.    -1.11145E+06
           46616    -29.5785E+06     7.31574E+06              0.    -1.10426E+06
           46617    -30.1099E+06     7.13330E+06              0.    -1.09380E+06
           46618    -30.6351E+06     6.92384E+06              0.    -1.07974E+06
           46619    -31.1525E+06     6.68553E+06              0.    -1.06173E+06
           46620    -31.6601E+06     6.41647E+06              0.    -1.03936E+06
           46621    -32.1557E+06     6.11470E+06              0.    -1.01219E+06
           46622    -32.6369E+06     5.77816E+06              0.    -979.743E+03
           46623    -33.1012E+06     5.40474E+06              0.    -941.496E+03
           46624    -33.5456E+06     4.99226E+06              0.    -896.866E+03
           46625    -33.9670E+06     4.53851E+06              0.    -845.211E+03
           46626    -34.3620E+06     4.04120E+06              0.    -785.820E+03
           46627    -34.7266E+06     3.49806E+06              0.    -717.906E+03
           46628    -35.0568E+06     2.90677E+06              0.    -640.590E+03
           46629    -35.3479E+06     2.26506E+06              0.    -552.891E+03
           46630    -35.5948E+06     1.57068E+06              0.    -453.705E+03
           46631    -35.7918E+06     821.497E+03              0.    -341.789E+03
           46632    -35.9326E+06     15.4781E+03              0.    -215.733E+03
           46633    -36.0102E+06    -849.181E+03              0.    -73.9260E+03
           46634    -36.0171E+06    -1.77400E+06              0.     85.4775E+03
           46635    -35.9443E+06    -2.76016E+06              0.     264.618E+03
           46636    -35.7823E+06    -3.80827E+06              0.     465.988E+03
           46637    -35.5202E+06    -4.91830E+06              0.     692.526E+03
           46638    -35.1456E+06    -6.08930E+06              0.     947.726E+03
           46639    -34.6446E+06    -7.31909E+06              0.     1.23579E+06
           46640    -34.0011E+06    -8.60396E+06              0.     1.56183E+06
           46641    -33.1971E+06    -9.93799E+06              0.     1.93219E+06
           46642    -32.2114E+06    -11.3125E+06              0.     2.35477E+06
           46643    -31.0198E+06    -12.7148E+06              0.     2.83970E+06
           46644    -29.5943E+06    -14.1268E+06              0.     3.40006E+06
           46645    -27.9023E+06    -15.5229E+06              0.     4.05319E+06
           46646    -25.9067E+06    -16.8665E+06              0.     4.82242E+06
           46647    -23.5668E+06    -18.1050E+06              0.     5.73979E+06
           46648    -20.8417E+06    -19.1613E+06              0.     6.85001E+06
           46649    -17.7032E+06    -19.9206E+06              0.     8.21558E+06
           46650    -14.1727E+06    -20.2098E+06              0.     9.92229E+06
           46651    -10.4271E+06    -19.7638E+06              0.     12.0682E+06
           46652    -7.11319E+06    -18.1969E+06              0.     14.7085E+06
           46653    -6.00768E+06    -14.9101E+06              0.     17.2108E+06
           46654    -5.41393E+06    -6.65608E+06              0.     17.6406E+06
           46655    -5.01483E+06    -2.21146E+06              0.     18.9248E+06
           46656    -1.84123E+06    -829.128E+03              0.    -17.5193E+03
           46657    -1.83548E+06    -775.706E+03              0.    -17.4868E+03
           46658    -1.85287E+06    -733.693E+03              0.    -17.2991E+03
           46659    -1.87009E+06    -692.534E+03              0.    -17.1309E+03
           46660    -1.88715E+06    -652.199E+03              0.    -16.9818E+03
           46661    -1.90406E+06    -612.660E+03              0.    -16.8511E+03
           46662    -1.92085E+06    -573.887E+03              0.    -16.7383E+03
           46663    -1.93754E+06    -535.854E+03              0.    -16.6431E+03
           46664    -1.95414E+06    -498.533E+03              0.    -16.5650E+03
           46665    -1.97067E+06    -461.899E+03              0.    -16.5036E+03
           46666    -1.98715E+06    -425.927E+03              0.    -16.4586E+03
           46667    -2.00359E+06    -390.593E+03              0.    -16.4296E+03
           46668    -2.02001E+06    -355.873E+03              0.    -16.4163E+03
           46669    -2.03641E+06    -321.745E+03              0.    -16.4185E+03
           46670    -2.05283E+06    -288.185E+03              0.    -16.4359E+03
           46671    -2.06928E+06    -255.173E+03              0.    -16.4682E+03
           46672    -2.08576E+06    -222.687E+03              0.    -16.5153E+03
           46673    -2.10229E+06    -190.707E+03              0.    -16.5771E+03
           46674    -2.11889E+06    -159.212E+03              0.    -16.6533E+03
           46675    -2.13558E+06    -128.183E+03              0.    -16.7438E+03
           46676    -2.15236E+06    -97.6014E+03              0.    -16.8486E+03
           46677    -2.16925E+06    -67.4470E+03              0.    -16.9675E+03
           46678    -2.18627E+06    -37.7025E+03              0.    -17.1005E+03
           46679    -2.20343E+06    -8.34910E+03              0.    -17.2476E+03
           46680    -2.22074E+06     20.6305E+03              0.    -17.4087E+03
           46681    -2.23822E+06     49.2534E+03              0.    -17.5838E+03
           46682    -2.25587E+06     77.5373E+03              0.    -17.7730E+03
           46683    -2.27372E+06     105.498E+03              0.    -17.9763E+03
           46684    -2.29179E+06     133.154E+03              0.    -18.1937E+03
           46685    -2.31007E+06     160.520E+03              0.    -18.4254E+03
           46686    -2.32859E+06     187.612E+03              0.    -18.6715E+03
           46687    -2.34737E+06     214.447E+03              0.    -18.9320E+03
           46688    -2.36641E+06     241.040E+03              0.    -19.2071E+03
           46689    -2.38573E+06     267.408E+03              0.    -19.4969E+03
           46690    -2.40535E+06     293.564E+03              0.    -19.8017E+03
           46691    -2.42528E+06     319.526E+03              0.    -20.1217E+03
           46692    -2.44553E+06     345.308E+03              0.    -20.4570E+03
           46693    -2.46613E+06     370.925E+03              0.    -20.8079E+03
           46694    -2.48708E+06     396.392E+03              0.    -21.1746E+03
           46695    -2.50841E+06     421.725E+03              0.    -21.5574E+03
           46696    -2.53013E+06     446.939E+03              0.    -21.9566E+03
           46697    -2.55225E+06     472.048E+03              0.    -22.3726E+03
           46698    -2.57479E+06     497.068E+03              0.    -22.8056E+03
           46699    -2.59777E+06     522.014E+03              0.    -23.2559E+03
           46700    -2.62121E+06     546.901E+03              0.    -23.7241E+03
           46701    -2.64513E+06     571.744E+03              0.    -24.2104E+03
           46702    -2.66954E+06     596.558E+03              0.    -24.7153E+03
           46703    -2.69446E+06     621.359E+03              0.    -25.2392E+03
           46704    -2.71991E+06     646.161E+03              0.    -25.7826E+03
           46705    -2.74592E+06     670.981E+03              0.    -26.3459E+03
           46706    -2.77249E+06     695.833E+03              0.    -26.9296E+03
           46707    -2.79965E+06     720.734E+03              0.    -27.5343E+03
           46708    -2.82743E+06     745.699E+03              0.    -28.1606E+03
           46709    -2.85584E+06     770.745E+03              0.    -28.8089E+03
           46710    -2.88491E+06     795.887E+03              0.    -29.4799E+03
           46711    -2.91466E+06     821.142E+03              0.    -30.1741E+03
           46712    -2.94511E+06     846.526E+03              0.    -30.8924E+03
           46713    -2.97629E+06     872.056E+03              0.    -31.6352E+03
           46714    -3.00822E+06     897.749E+03              0.    -32.4033E+03
           46715    -3.04092E+06     923.623E+03              0.    -33.1974E+03
           46716    -3.07443E+06     949.693E+03              0.    -34.0183E+03
           46717    -3.10877E+06     975.979E+03              0.    -34.8667E+03
           46718    -3.14397E+06     1.00250E+06              0.    -35.7434E+03
           46719    -3.18005E+06     1.02927E+06              0.    -36.6493E+03
           46720    -3.21705E+06     1.05631E+06              0.    -37.5852E+03
           46721    -3.25500E+06     1.08364E+06              0.    -38.5521E+03
           46722    -3.29393E+06     1.11127E+06              0.    -39.5508E+03
           46723    -3.33386E+06     1.13923E+06              0.    -40.5822E+03
           46724    -3.37483E+06     1.16754E+06              0.    -41.6475E+03
           46725    -3.41689E+06     1.19622E+06              0.    -42.7475E+03
           46726    -3.46005E+06     1.22528E+06              0.    -43.8833E+03
           46727    -3.50436E+06     1.25475E+06              0.    -45.0560E+03
           46728    -3.54986E+06     1.28465E+06              0.    -46.2668E+03
           46729    -3.59658E+06     1.31500E+06              0.    -47.5167E+03
           46730    -3.64456E+06     1.34582E+06              0.    -48.8070E+03
           46731    -3.69384E+06     1.37713E+06              0.    -50.1389E+03
           46732    -3.74447E+06     1.40896E+06              0.    -51.5136E+03
           46733    -3.79648E+06     1.44134E+06              0.    -52.9324E+03
           46734    -3.84993E+06     1.47427E+06              0.    -54.3967E+03
           46735    -3.90486E+06     1.50779E+06              0.    -55.9078E+03
           46736    -3.96130E+06     1.54192E+06              0.    -57.4672E+03
           46737    -4.01933E+06     1.57669E+06              0.    -59.0762E+03
           46738    -4.07897E+06     1.61211E+06              0.    -60.7364E+03
           46739    -4.14029E+06     1.64823E+06              0.    -62.4493E+03
           46740    -4.20334E+06     1.68505E+06              0.    -64.2165E+03
           46741    -4.26817E+06     1.72261E+06              0.    -66.0395E+03
           46742    -4.33483E+06     1.76093E+06              0.    -67.9200E+03
           46743    -4.40340E+06     1.80005E+06              0.    -69.8598E+03
           46744    -4.47391E+06     1.83998E+06              0.    -71.8604E+03
           46745    -4.54644E+06     1.88076E+06              0.    -73.9238E+03
           46746    -4.62105E+06     1.92240E+06              0.    -76.0517E+03
           46747    -4.69780E+06     1.96495E+06              0.    -78.2460E+03
           46748    -4.77676E+06     2.00843E+06              0.    -80.5086E+03
           46749    -4.85800E+06     2.05287E+06              0.    -82.8413E+03
           46750    -4.94158E+06     2.09829E+06              0.    -85.2463E+03
           46751    -5.02759E+06     2.14473E+06              0.    -87.7254E+03
           46752    -5.11609E+06     2.19222E+06              0.    -90.2808E+03
           46753    -5.20715E+06     2.24078E+06              0.    -92.9145E+03
           46754    -5.30087E+06     2.29045E+06              0.    -95.6287E+03
           46755    -5.39731E+06     2.34124E+06              0.    -98.4255E+03
           46756    -5.49656E+06     2.39321E+06              0.    -101.307E+03
           46757    -5.59870E+06     2.44636E+06              0.    -104.276E+03
           46758    -5.70383E+06     2.50074E+06              0.    -107.334E+03
           46759    -5.81203E+06     2.55638E+06              0.    -110.484E+03
           46760    -5.92338E+06     2.61329E+06              0.    -113.728E+03
           46761    -6.03799E+06     2.67151E+06              0.    -117.068E+03
           46762    -6.15595E+06     2.73108E+06              0.    -120.506E+03
           46763    -6.27735E+06     2.79201E+06              0.    -124.046E+03
           46764    -6.40231E+06     2.85434E+06              0.    -127.690E+03
           46765    -6.53091E+06     2.91809E+06              0.    -131.439E+03
           46766    -6.66326E+06     2.98329E+06              0.    -135.296E+03
           46767    -6.79947E+06     3.04996E+06              0.    -139.265E+03
           46768    -6.93966E+06     3.11813E+06              0.    -143.346E+03
           46769    -7.08392E+06     3.18782E+06              0.    -147.543E+03
           46770    -7.23238E+06     3.25905E+06              0.    -151.858E+03
           46771    -7.38515E+06     3.33185E+06              0.    -156.294E+03
           46772    -7.54234E+06     3.40624E+06              0.    -160.852E+03
           46773    -7.70409E+06     3.48222E+06              0.    -165.535E+03
           46774    -7.87051E+06     3.55981E+06              0.    -170.346E+03
           46775    -8.04172E+06     3.63904E+06              0.    -175.286E+03
           46776    -8.21785E+06     3.71990E+06              0.    -180.358E+03
           46777    -8.39903E+06     3.80241E+06              0.    -185.564E+03
           46778    -8.58539E+06     3.88658E+06              0.    -190.905E+03
           46779    -8.77706E+06     3.97239E+06              0.    -196.384E+03
           46780    -8.97418E+06     4.05986E+06              0.    -202.002E+03
           46781    -9.17688E+06     4.14898E+06              0.    -207.762E+03
           46782    -9.38529E+06     4.23973E+06              0.    -213.664E+03
           46783    -9.59956E+06     4.33210E+06              0.     -219.71E+03
           46784    -9.81981E+06     4.42608E+06              0.    -225.901E+03
           46785    -10.0462E+06     4.52164E+06              0.    -232.238E+03
           46786    -10.2789E+06     4.61875E+06              0.    -238.722E+03
           46787    -10.5179E+06     4.71738E+06              0.    -245.352E+03
           46788    -10.7635E+06     4.81748E+06              0.    -252.130E+03
           46789    -11.0158E+06     4.91900E+06              0.    -259.056E+03
           46790    -11.2750E+06     5.02188E+06              0.    -266.127E+03
           46791    -11.5410E+06     5.12607E+06              0.    -273.345E+03
           46792    -11.8142E+06     5.23148E+06              0.    -280.708E+03
           46793    -12.0947E+06     5.33804E+06              0.    -288.213E+03
           46794    -12.3825E+06     5.44564E+06              0.    -295.859E+03
           46795    -12.6778E+06     5.55419E+06              0.    -303.643E+03
           46796    -12.9807E+06     5.66356E+06              0.    -311.562E+03
           46797    -13.2913E+06     5.77364E+06              0.    -319.612E+03
           46798    -13.6099E+06     5.88427E+06              0.    -327.789E+03
           46799    -13.9364E+06     5.99530E+06              0.    -336.086E+03
           46800    -14.2710E+06     6.10656E+06              0.    -344.498E+03
           46801    -14.6137E+06     6.21787E+06              0.    -353.018E+03
           46802    -14.9648E+06     6.32901E+06              0.    -361.638E+03
           46803    -15.3242E+06     6.43976E+06              0.    -370.349E+03
           46804    -15.6920E+06     6.54989E+06              0.    -379.141E+03
           46805    -16.0683E+06     6.65912E+06              0.    -388.003E+03
           46806    -16.4532E+06     6.76718E+06              0.    -396.921E+03
           46807    -16.8466E+06     6.87375E+06              0.    -405.883E+03
           46808    -17.2487E+06     6.97850E+06              0.    -414.873E+03
           46809    -17.6593E+06     7.08107E+06              0.    -423.874E+03
           46810    -18.0786E+06     7.18108E+06              0.    -432.866E+03
           46811    -18.5064E+06     7.27810E+06              0.    -441.829E+03
           46812    -18.9428E+06     7.37169E+06              0.    -450.740E+03
           46813    -19.3875E+06     7.46136E+06              0.    -459.575E+03
           46814    -19.8407E+06     7.54659E+06              0.    -468.305E+03
           46815    -20.3020E+06     7.62685E+06              0.    -476.900E+03
           46816    -20.7713E+06     7.70153E+06              0.    -485.328E+03
           46817    -21.2485E+06     7.76999E+06              0.    -493.552E+03
           46818    -21.7333E+06     7.83157E+06              0.    -501.534E+03
           46819    -22.2255E+06     7.88554E+06              0.    -509.229E+03
           46820    -22.7247E+06     7.93113E+06              0.    -516.593E+03
           46821    -23.2305E+06     7.96753E+06              0.    -523.573E+03
           46822    -23.7427E+06     7.99385E+06              0.    -530.115E+03
           46823    -24.2605E+06     8.00918E+06              0.    -536.157E+03
           46824    -24.7837E+06     8.01252E+06              0.    -541.635E+03
           46825    -25.3115E+06     8.00284E+06              0.    -546.476E+03
           46826    -25.8433E+06     7.97902E+06              0.    -550.603E+03
           46827    -26.3784E+06      7.9399E+06              0.    -553.931E+03
           46828    -26.9158E+06     7.88423E+06              0.    -556.369E+03
           46829    -27.4548E+06     7.81071E+06              0.    -557.814E+03
           46830    -27.9942E+06     7.71796E+06              0.    -558.160E+03
           46831    -28.5330E+06     7.60452E+06              0.    -557.286E+03
           46832    -29.0699E+06     7.46885E+06              0.    -555.062E+03
           46833    -29.6036E+06     7.30935E+06              0.    -551.348E+03
           46834    -30.1324E+06     7.12433E+06              0.    -545.989E+03
           46835    -30.6547E+06     6.91202E+06              0.    -538.816E+03
           46836    -31.1688E+06     6.67058E+06              0.    -529.645E+03
           46837    -31.6725E+06     6.39807E+06              0.    -518.274E+03
           46838    -32.1636E+06     6.09250E+06              0.    -504.482E+03
           46839    -32.6398E+06     5.75177E+06              0.    -488.024E+03
           46840    -33.0982E+06     5.37374E+06              0.    -468.634E+03
           46841    -33.5359E+06     4.95620E+06              0.    -446.016E+03
           46842    -33.9497E+06     4.49685E+06              0.    -419.843E+03
           46843    -34.3360E+06     3.99339E+06              0.    -389.754E+03
           46844    -34.6907E+06     3.44344E+06              0.    -355.346E+03
           46845    -35.0096E+06     2.84464E+06              0.    -316.170E+03
           46846    -35.2876E+06     2.19463E+06              0.    -271.721E+03
           46847    -35.5196E+06     1.49105E+06              0.    -221.435E+03
           46848    -35.6995E+06     731.649E+03              0.    -164.668E+03
           46849    -35.8206E+06    -85.7329E+03              0.    -100.693E+03
           46850    -35.8756E+06    -963.067E+03              0.    -28.6726E+03
           46851    -35.8561E+06    -1.90207E+06              0.     52.3547E+03
           46852    -35.7528E+06    -2.90416E+06              0.     143.511E+03
           46853    -35.5551E+06    -3.97023E+06              0.     246.108E+03
           46854    -35.2509E+06    -5.10064E+06              0.     361.707E+03
           46855    -34.8266E+06    -6.29485E+06              0.     492.175E+03
           46856    -34.2661E+06    -7.55127E+06              0.     639.780E+03
           46857    -33.5512E+06    -8.86691E+06              0.     807.317E+03
           46858    -32.6602E+06    -10.2368E+06              0.     998.282E+03
           46859    -31.5673E+06    -11.6535E+06              0.     1.21713E+06
           46860    -30.2416E+06    -13.1060E+06              0.     1.46967E+06
           46861    -28.6453E+06    -14.5784E+06              0.     1.76358E+06
           46862    -26.7313E+06    -16.0481E+06              0.     2.10937E+06
           46863    -24.4398E+06    -17.4827E+06              0.     2.52180E+06
           46864    -21.6928E+06    -18.8347E+06              0.     3.02227E+06
           46865    -18.3866E+06    -20.0339E+06              0.     3.64306E+06
           46866    -14.3792E+06    -20.9724E+06              0.     4.43513E+06
           46867    -9.47268E+06    -21.4769E+06              0.     5.48270E+06
           46868    -3.40945E+06    -21.2616E+06              0.     6.93542E+06
           46869     4.07602E+06    -19.8117E+06              0.     9.04937E+06
           46870     11.9909E+06    -16.6190E+06              0.     12.3705E+06
           46871     13.4624E+06    -10.9757E+06              0.     14.7010E+06
           46872     19.1622E+06     8.46213E+06              0.     23.4236E+06
           46873    -1.84148E+06    -829.240E+03              0.     366.211E-06
           46874    -1.83572E+06    -775.805E+03              0.        -67.9354
           46875    -1.85312E+06    -733.782E+03              0.        -138.877
           46876    -1.87034E+06    -692.613E+03              0.        -212.760
           46877    -1.88740E+06    -652.269E+03              0.        -289.522
           46878    -1.90432E+06    -612.721E+03              0.        -369.112
           46879    -1.92112E+06    -573.939E+03              0.        -451.484
           46880    -1.93781E+06    -535.897E+03              0.        -536.597
           46881    -1.95442E+06    -498.568E+03              0.        -624.418
           46882    -1.97095E+06    -461.926E+03              0.        -714.921
           46883    -1.98743E+06    -425.946E+03              0.        -808.084
           46884    -2.00387E+06    -390.604E+03              0.        -903.889
           46885    -2.02030E+06    -355.877E+03              0.    -1.00233E+03
           46886    -2.03671E+06    -321.740E+03              0.    -1.10340E+03
           46887    -2.05313E+06    -288.173E+03              0.    -1.20709E+03
           46888    -2.06958E+06    -255.154E+03              0.    -1.31342E+03
           46889    -2.08606E+06    -222.660E+03              0.    -1.42240E+03
           46890    -2.10260E+06    -190.673E+03              0.    -1.53404E+03
           46891    -2.11921E+06    -159.171E+03              0.    -1.64836E+03
           46892    -2.13590E+06    -128.135E+03              0.    -1.76538E+03
           46893    -2.15269E+06    -97.5457E+03              0.    -1.88515E+03
           46894    -2.16959E+06    -67.3842E+03              0.    -2.00768E+03
           46895    -2.18661E+06    -37.6327E+03              0.    -2.13303E+03
           46896    -2.20377E+06    -8.27228E+03              0.    -2.26123E+03
           46897    -2.22108E+06     20.7144E+03              0.    -2.39234E+03
           46898    -2.23857E+06     49.3442E+03              0.    -2.52640E+03
           46899    -2.25623E+06     77.6352E+03              0.    -2.66348E+03
           46900    -2.27409E+06     105.603E+03              0.    -2.80365E+03
           46901    -2.29216E+06     133.266E+03              0.    -2.94695E+03
           46902    -2.31045E+06     160.639E+03              0.    -3.09348E+03
           46903    -2.32898E+06     187.739E+03              0.    -3.24330E+03
           46904    -2.34776E+06     214.581E+03              0.    -3.39650E+03
           46905    -2.36680E+06     241.182E+03              0.    -3.55317E+03
           46906    -2.38613E+06     267.556E+03              0.    -3.71339E+03
           46907    -2.40576E+06     293.720E+03              0.    -3.87726E+03
           46908    -2.42570E+06     319.689E+03              0.    -4.04488E+03
           46909    -2.44596E+06     345.479E+03              0.    -4.21637E+03
           46910    -2.46656E+06     371.104E+03              0.    -4.39182E+03
           46911    -2.48753E+06     396.579E+03              0.    -4.57137E+03
           46912    -2.50886E+06     421.921E+03              0.    -4.75513E+03
           46913    -2.53058E+06     447.142E+03              0.    -4.94322E+03
           46914    -2.55272E+06     472.260E+03              0.    -5.13579E+03
           46915    -2.57527E+06     497.289E+03              0.    -5.33297E+03
           46916    -2.59826E+06     522.244E+03              0.    -5.53491E+03
           46917    -2.62171E+06     547.140E+03              0.    -5.74176E+03
           46918    -2.64564E+06     571.992E+03              0.    -5.95367E+03
           46919    -2.67006E+06     596.815E+03              0.    -6.17082E+03
           46920    -2.69499E+06     621.625E+03              0.    -6.39337E+03
           46921    -2.72046E+06     646.438E+03              0.    -6.62149E+03
           46922    -2.74647E+06     671.267E+03              0.    -6.85538E+03
           46923    -2.77306E+06     696.130E+03              0.    -7.09522E+03
           46924    -2.80024E+06     721.042E+03              0.    -7.34122E+03
           46925    -2.82803E+06     746.018E+03              0.    -7.59357E+03
           46926    -2.85646E+06     771.075E+03              0.    -7.85250E+03
           46927    -2.88554E+06     796.228E+03              0.    -8.11822E+03
           46928    -2.91530E+06     821.495E+03              0.    -8.39096E+03
           46929    -2.94577E+06     846.892E+03              0.    -8.67097E+03
           46930    -2.97696E+06     872.434E+03              0.    -8.95848E+03
           46931    -3.00891E+06      898.14E+03              0.    -9.25376E+03
           46932    -3.04163E+06     924.026E+03              0.    -9.55707E+03
           46933    -3.07516E+06     950.111E+03              0.    -9.86868E+03
           46934    -3.10952E+06     976.410E+03              0.    -10.1889E+03
           46935    -3.14474E+06     1.00294E+06              0.    -10.5180E+03
           46936    -3.18084E+06     1.02973E+06              0.    -10.8562E+03
           46937    -3.21786E+06     1.05678E+06              0.    -11.2040E+03
           46938    -3.25583E+06     1.08413E+06              0.    -11.5616E+03
           46939    -3.29478E+06     1.11178E+06              0.    -11.9293E+03
           46940    -3.33473E+06     1.13976E+06              0.    -12.3076E+03
           46941    -3.37573E+06     1.16808E+06              0.    -12.6967E+03
           46942    -3.41781E+06     1.19678E+06              0.    -13.0971E+03
           46943    -3.46100E+06     1.22586E+06              0.    -13.5091E+03
           46944    -3.50534E+06     1.25535E+06              0.    -13.9331E+03
           46945    -3.55086E+06     1.28526E+06              0.    -14.3696E+03
           46946    -3.59761E+06     1.31563E+06              0.    -14.8189E+03
           46947    -3.64562E+06     1.34647E+06              0.    -15.2815E+03
           46948    -3.69493E+06     1.37781E+06              0.    -15.7579E+03
           46949    -3.74559E+06     1.40966E+06              0.    -16.2485E+03
           46950    -3.79764E+06     1.44206E+06              0.    -16.7538E+03
           46951    -3.85112E+06     1.47501E+06              0.    -17.2743E+03
           46952    -3.90608E+06     1.50856E+06              0.    -17.8105E+03
           46953    -3.96257E+06     1.54271E+06              0.    -18.3630E+03
           46954    -4.02063E+06     1.57751E+06              0.    -18.9322E+03
           46955    -4.08032E+06     1.61296E+06              0.    -19.5188E+03
           46956    -4.14168E+06     1.64910E+06              0.    -20.1233E+03
           46957    -4.20477E+06     1.68595E+06              0.    -20.7464E+03
           46958    -4.26964E+06     1.72354E+06              0.    -21.3886E+03
           46959    -4.33635E+06     1.76189E+06              0.    -22.0506E+03
           46960    -4.40496E+06     1.80103E+06              0.    -22.7331E+03
           46961    -4.47552E+06     1.84100E+06              0.    -23.4367E+03
           46962    -4.54810E+06     1.88180E+06              0.    -24.1621E+03
           46963    -4.62276E+06     1.92349E+06              0.    -24.9100E+03
           46964    -4.69956E+06     1.96607E+06              0.    -25.6812E+03
           46965    -4.77858E+06     2.00958E+06              0.    -26.4764E+03
           46966    -4.85987E+06     2.05406E+06              0.    -27.2965E+03
           46967    -4.94352E+06     2.09952E+06              0.    -28.1421E+03
           46968    -5.02958E+06     2.14600E+06              0.    -29.0142E+03
           46969    -5.11814E+06     2.19352E+06              0.    -29.9135E+03
           46970    -5.20927E+06     2.24212E+06              0.    -30.8410E+03
           46971    -5.30306E+06     2.29182E+06              0.    -31.7975E+03
           46972    -5.39957E+06     2.34267E+06              0.    -32.7840E+03
           46973    -5.49889E+06     2.39467E+06              0.    -33.8013E+03
           46974    -5.60111E+06     2.44787E+06              0.    -34.8505E+03
           46975    -5.70631E+06     2.50230E+06              0.    -35.9326E+03
           46976    -5.81458E+06     2.55798E+06              0.    -37.0485E+03
           46977    -5.92602E+06     2.61494E+06              0.    -38.1993E+03
           46978    -6.04071E+06     2.67321E+06              0.    -39.3860E+03
           46979    -6.15876E+06     2.73283E+06              0.    -40.6097E+03
           46980    -6.28025E+06     2.79381E+06              0.    -41.8716E+03
           46981    -6.40529E+06     2.85619E+06              0.    -43.1727E+03
           46982    -6.53399E+06     2.91999E+06              0.    -44.5142E+03
           46983    -6.66644E+06     2.98525E+06              0.    -45.8974E+03
           46984    -6.80275E+06     3.05197E+06              0.    -47.3233E+03
           46985    -6.94304E+06     3.12020E+06              0.    -48.7932E+03
           46986    -7.08741E+06     3.18995E+06              0.    -50.3084E+03
           46987    -7.23597E+06     3.26125E+06              0.    -51.8701E+03
           46988    -7.38885E+06     3.33411E+06              0.    -53.4796E+03
           46989    -7.54617E+06     3.40855E+06              0.    -55.1382E+03
           46990    -7.70803E+06     3.48460E+06              0.    -56.8472E+03
           46991    -7.87457E+06     3.56226E+06              0.    -58.6080E+03
           46992    -8.04590E+06     3.64155E+06              0.    -60.4219E+03
           46993    -8.22217E+06     3.72248E+06              0.    -62.2903E+03
           46994    -8.40348E+06     3.80506E+06              0.    -64.2145E+03
           46995    -8.58998E+06     3.88929E+06              0.    -66.1960E+03
           46996    -8.78179E+06     3.97518E+06              0.    -68.2361E+03
           46997    -8.97905E+06     4.06271E+06              0.    -70.3362E+03
           46998    -9.18189E+06     4.15190E+06              0.    -72.4977E+03
           46999    -9.39046E+06     4.24272E+06              0.    -74.7220E+03
           47000    -9.60488E+06     4.33517E+06              0.    -77.0105E+03
           47001    -9.82529E+06     4.42923E+06              0.    -79.3645E+03
           47002    -10.0518E+06     4.52486E+06              0.    -81.7855E+03
           47003    -10.2847E+06     4.62204E+06              0.    -84.2746E+03
           47004    -10.5239E+06     4.72074E+06              0.    -86.8334E+03
           47005    -10.7697E+06     4.82091E+06              0.    -89.4629E+03
           47006    -11.0222E+06     4.92251E+06              0.    -92.1645E+03
           47007    -11.2815E+06     5.02547E+06              0.    -94.9394E+03
           47008    -11.5477E+06     5.12973E+06              0.    -97.7886E+03
           47009    -11.8211E+06     5.23521E+06              0.    -100.713E+03
           47010    -12.1017E+06     5.34184E+06              0.    -103.714E+03
           47011    -12.3897E+06     5.44951E+06              0.    -106.793E+03
           47012    -12.6852E+06     5.55813E+06              0.    -109.949E+03
           47013    -12.9883E+06     5.66758E+06              0.    -113.185E+03
           47014    -13.2992E+06     5.77772E+06              0.    -116.500E+03
           47015    -13.6179E+06     5.88841E+06              0.    -119.894E+03
           47016    -13.9446E+06     5.99950E+06              0.    -123.369E+03
           47017    -14.2794E+06     6.11082E+06              0.    -126.924E+03
           47018    -14.6224E+06     6.22218E+06              0.    -130.559E+03
           47019    -14.9736E+06     6.33337E+06              0.    -134.274E+03
           47020    -15.3332E+06     6.44417E+06              0.    -138.069E+03
           47021    -15.7013E+06     6.55433E+06              0.    -141.941E+03
           47022    -16.0778E+06     6.66360E+06              0.    -145.892E+03
           47023    -16.4629E+06     6.77168E+06              0.    -149.918E+03
           47024    -16.8565E+06     6.87828E+06              0.    -154.018E+03
           47025    -17.2588E+06     6.98304E+06              0.    -158.190E+03
           47026    -17.6696E+06     7.08561E+06              0.    -162.431E+03
           47027    -18.0891E+06     7.18561E+06              0.    -166.739E+03
           47028    -18.5171E+06     7.28261E+06              0.    -171.109E+03
           47029    -18.9536E+06     7.37617E+06              0.    -175.537E+03
           47030    -19.3986E+06     7.46579E+06              0.    -180.019E+03
           47031    -19.8518E+06     7.55098E+06              0.    -184.548E+03
           47032    -20.3133E+06     7.63116E+06              0.    -189.119E+03
           47033    -20.7828E+06     7.70574E+06              0.    -193.724E+03
           47034    -21.2601E+06     7.77410E+06              0.    -198.355E+03
           47035    -21.7450E+06     7.83555E+06              0.    -203.003E+03
           47036    -22.2372E+06     7.88937E+06              0.    -207.657E+03
           47037    -22.7365E+06     7.93478E+06              0.    -212.306E+03
           47038    -23.2424E+06     7.97098E+06              0.    -216.936E+03
           47039    -23.7545E+06     7.99707E+06              0.    -221.534E+03
           47040    -24.2723E+06     8.01213E+06              0.    -226.083E+03
           47041    -24.7954E+06     8.01518E+06              0.    -230.565E+03
           47042    -25.3231E+06     8.00516E+06              0.    -234.959E+03
           47043    -25.8547E+06     7.98097E+06              0.    -239.244E+03
           47044    -26.3895E+06     7.94143E+06              0.    -243.394E+03
           47045    -26.9267E+06     7.88529E+06              0.    -247.383E+03
           47046    -27.4653E+06     7.81125E+06              0.    -251.178E+03
           47047    -28.0044E+06     7.71792E+06              0.    -254.746E+03
           47048    -28.5426E+06     7.60384E+06              0.    -258.049E+03
           47049    -29.0789E+06     7.46746E+06              0.    -261.045E+03
           47050    -29.6118E+06     7.30718E+06              0.    -263.686E+03
           47051    -30.1398E+06     7.12129E+06              0.    -265.921E+03
           47052    -30.6612E+06     6.90803E+06              0.    -267.691E+03
           47053    -31.1741E+06     6.66554E+06              0.    -268.932E+03
           47054    -31.6765E+06     6.39187E+06              0.    -269.570E+03
           47055    -32.1662E+06     6.08502E+06              0.    -269.525E+03
           47056    -32.6406E+06     5.74289E+06              0.    -268.706E+03
           47057    -33.0971E+06     5.36332E+06              0.    -267.011E+03
           47058    -33.5326E+06     4.94407E+06              0.    -264.325E+03
           47059    -33.9438E+06     4.48284E+06              0.    -260.520E+03
           47060    -34.3271E+06     3.97731E+06              0.    -255.449E+03
           47061    -34.6785E+06     3.42508E+06              0.    -248.946E+03
           47062    -34.9935E+06     2.82375E+06              0.    -240.823E+03
           47063    -35.2672E+06     2.17094E+06              0.    -230.864E+03
           47064    -35.4942E+06     1.46425E+06              0.    -218.822E+03
           47065    -35.6683E+06     701.409E+03              0.    -204.411E+03
           47066    -35.7828E+06    -119.811E+03              0.    -187.300E+03
           47067    -35.8301E+06    -1.00143E+06              0.    -167.102E+03
           47068    -35.8017E+06    -1.94524E+06              0.    -143.362E+03
           47069    -35.6880E+06    -2.95273E+06              0.    -115.543E+03
           47070    -35.4782E+06    -4.02492E+06              0.    -82.9998E+03
           47071    -35.1597E+06    -5.16226E+06              0.    -44.9576E+03
           47072    -34.7184E+06    -6.36440E+06              0.        -470.188
           47073    -34.1377E+06    -7.62995E+06              0.     51.6295E+03
           47074    -33.3984E+06    -8.95619E+06              0.     112.803E+03
           47075    -32.4774E+06    -10.3385E+06              0.     184.904E+03
           47076    -31.3475E+06    -11.7699E+06              0.     270.331E+03
           47077    -29.9753E+06    -13.2400E+06              0.     372.244E+03
           47078    -28.3193E+06    -14.7337E+06              0.     494.907E+03
           47079    -26.3268E+06    -16.2299E+06              0.     644.228E+03
           47080    -23.9293E+06    -17.6974E+06              0.     828.645E+03
           47081    -21.0338E+06    -19.0915E+06              0.     1.06069E+06
           47082    -17.5097E+06    -20.3448E+06              0.     1.35982E+06
           47083    -13.1619E+06    -21.3521E+06              0.     1.75800E+06
           47084    -7.67825E+06    -21.9397E+06              0.     2.31210E+06
           47085    -490.488E+03    -21.7821E+06              0.     3.13255E+06
           47086     9.55253E+06    -20.2175E+06              0.     4.47698E+06
           47087     26.1231E+06    -15.0742E+06              0.     7.01597E+06
           47088     55.7034E+06    -2.29145E+06              0.     13.6444E+06
           47089     89.6478E+06     38.4085E+06              0.     33.5157E+06


  Minimum           -86.9479E+06    -41.0085E+06              0.    -33.1110E+06
         At Node           16709             217           47089           10404

  Maximum            89.6478E+06     38.9643E+06              0.     34.3639E+06
         At Node           47089           30597           47089             217

           Total     7.09070E+09    -892.563E+06              0.    -111.622E+09


