********************************************************************************
Field Output Report, written Sun Jan 13 16:02:45 2019

Source 1
---------

   ODB: C:/AbaqusTemp/Job-flatsheet_umat_local_dir_NO.odb
   Step: Step-1
   Frame: Increment      1: Step Time =    1.000

Loc 1 : Centroidal values at shell < MATERIAL-2 > < 5 section points > from source 1 : SNEG, (fraction = -1.0)
Loc 2 : Centroidal values at shell < MATERIAL-2 > < 5 section points > from source 1 : SPOS, (fraction = 1.0)

Output sorted by column "Element Label".

Field Output reported at element centroid for part: PART-1-1

    Element Label            S.S11            S.S11            S.S22            S.S22            S.S33            S.S33            S.S12            S.S12
                            @Loc 1           @Loc 2           @Loc 1           @Loc 2           @Loc 1           @Loc 2           @Loc 1           @Loc 2
----------------------------------------------------------------------------------------------------------------------------------------------------------
                1   -57.471332E+06   -57.471332E+06   114.942664E+06   114.942664E+06               0.               0.      689.656E+06      689.656E+06
                2   -57.471332E+06   -57.471332E+06   114.942664E+06   114.942664E+06               0.               0.      689.656E+06      689.656E+06
                3   -57.471332E+06   -57.471332E+06   114.942664E+06   114.942664E+06               0.               0.      689.656E+06      689.656E+06
                4   -57.471332E+06   -57.471332E+06   114.942664E+06   114.942664E+06               0.               0.      689.656E+06      689.656E+06
                5   -57.471332E+06   -57.471332E+06   114.942664E+06   114.942664E+06               0.               0.      689.656E+06      689.656E+06
                6   -57.471332E+06   -57.471332E+06   114.942664E+06   114.942664E+06               0.               0.      689.656E+06      689.656E+06
                7   -57.471332E+06   -57.471332E+06   114.942664E+06   114.942664E+06               0.               0.      689.656E+06      689.656E+06
                8   -57.471332E+06   -57.471332E+06   114.942664E+06   114.942664E+06               0.               0.      689.656E+06      689.656E+06
                9   -57.471332E+06   -57.471332E+06   114.942664E+06   114.942664E+06               0.               0.      689.656E+06      689.656E+06
               10   -57.471332E+06   -57.471332E+06   114.942664E+06   114.942664E+06               0.               0.      689.656E+06      689.656E+06
               11   -57.471332E+06   -57.471332E+06   114.942664E+06   114.942664E+06               0.               0.      689.656E+06      689.656E+06
               12   -57.471332E+06   -57.471332E+06   114.942664E+06   114.942664E+06               0.               0.      689.656E+06      689.656E+06
               13   -57.471332E+06   -57.471332E+06   114.942664E+06   114.942664E+06               0.               0.      689.656E+06      689.656E+06
               14   -57.471332E+06   -57.471332E+06   114.942664E+06   114.942664E+06               0.               0.      689.656E+06      689.656E+06
               15   -57.471332E+06   -57.471332E+06   114.942664E+06   114.942664E+06               0.               0.      689.656E+06      689.656E+06
               16   -57.471332E+06   -57.471332E+06   114.942664E+06   114.942664E+06               0.               0.      689.656E+06      689.656E+06
               17   -57.471332E+06   -57.471332E+06   114.942664E+06   114.942664E+06               0.               0.      689.656E+06      689.656E+06
               18   -57.471332E+06   -57.471332E+06   114.942664E+06   114.942664E+06               0.               0.      689.656E+06      689.656E+06
               19   -57.471332E+06   -57.471332E+06   114.942664E+06   114.942664E+06               0.               0.      689.656E+06      689.656E+06
               20   -57.471332E+06   -57.471332E+06   114.942664E+06   114.942664E+06               0.               0.      689.656E+06      689.656E+06
               21   -57.471332E+06   -57.471332E+06   114.942664E+06   114.942664E+06               0.               0.      689.656E+06      689.656E+06
               22   -57.471332E+06   -57.471332E+06   114.942664E+06   114.942664E+06               0.               0.      689.656E+06      689.656E+06
               23   -57.471332E+06   -57.471332E+06   114.942664E+06   114.942664E+06               0.               0.      689.656E+06      689.656E+06
               24   -57.471332E+06   -57.471332E+06   114.942664E+06   114.942664E+06               0.               0.      689.656E+06      689.656E+06
               25   -57.471332E+06   -57.471332E+06   114.942664E+06   114.942664E+06               0.               0.      689.656E+06      689.656E+06
               26   -57.471332E+06   -57.471332E+06   114.942664E+06   114.942664E+06               0.               0.      689.656E+06      689.656E+06
               27   -57.471332E+06   -57.471332E+06   114.942664E+06   114.942664E+06               0.               0.      689.656E+06      689.656E+06
               28   -57.471332E+06   -57.471332E+06   114.942664E+06   114.942664E+06               0.               0.      689.656E+06      689.656E+06
               29   -57.471332E+06   -57.471332E+06   114.942664E+06   114.942664E+06               0.               0.      689.656E+06      689.656E+06
               30   -57.471332E+06   -57.471332E+06   114.942664E+06   114.942664E+06               0.               0.      689.656E+06      689.656E+06
               31   -57.471332E+06   -57.471332E+06   114.942664E+06   114.942664E+06               0.               0.      689.656E+06      689.656E+06
               32   -57.471332E+06   -57.471332E+06   114.942664E+06   114.942664E+06               0.               0.      689.656E+06      689.656E+06
               33   -57.471332E+06   -57.471332E+06   114.942664E+06   114.942664E+06               0.               0.      689.656E+06      689.656E+06
               34   -57.471332E+06   -57.471332E+06   114.942664E+06   114.942664E+06               0.               0.      689.656E+06      689.656E+06
               35   -57.471332E+06   -57.471332E+06   114.942664E+06   114.942664E+06               0.               0.      689.656E+06      689.656E+06
               36   -57.471332E+06   -57.471332E+06   114.942664E+06   114.942664E+06               0.               0.      689.656E+06      689.656E+06
               37   -57.471332E+06   -57.471332E+06   114.942664E+06   114.942664E+06               0.               0.      689.656E+06      689.656E+06
               38   -57.471332E+06   -57.471332E+06   114.942664E+06   114.942664E+06               0.               0.      689.656E+06      689.656E+06
               39   -57.471332E+06   -57.471332E+06   114.942664E+06   114.942664E+06               0.               0.      689.656E+06      689.656E+06
               40   -57.471332E+06   -57.471332E+06   114.942664E+06   114.942664E+06               0.               0.      689.656E+06      689.656E+06
               41   -57.471332E+06   -57.471332E+06   114.942664E+06   114.942664E+06               0.               0.      689.656E+06      689.656E+06
               42   -57.471332E+06   -57.471332E+06   114.942664E+06   114.942664E+06               0.               0.      689.656E+06      689.656E+06
               43   -57.471332E+06   -57.471332E+06   114.942664E+06   114.942664E+06               0.               0.      689.656E+06      689.656E+06
               44   -57.471332E+06   -57.471332E+06   114.942664E+06   114.942664E+06               0.               0.      689.656E+06      689.656E+06
               45   -57.471332E+06   -57.471332E+06   114.942664E+06   114.942664E+06               0.               0.      689.656E+06      689.656E+06
               46   -57.471332E+06   -57.471332E+06   114.942664E+06   114.942664E+06               0.               0.      689.656E+06      689.656E+06
               47   -57.471332E+06   -57.471332E+06   114.942664E+06   114.942664E+06               0.               0.      689.656E+06      689.656E+06
               48   -57.471332E+06   -57.471332E+06   114.942664E+06   114.942664E+06               0.               0.      689.656E+06      689.656E+06
               49   -57.471332E+06   -57.471332E+06   114.942664E+06   114.942664E+06               0.               0.      689.656E+06      689.656E+06
               50   -57.471332E+06   -57.471332E+06   114.942664E+06   114.942664E+06               0.               0.      689.656E+06      689.656E+06
               51   -57.471332E+06   -57.471332E+06   114.942664E+06   114.942664E+06               0.               0.      689.656E+06      689.656E+06
               52   -57.471332E+06   -57.471332E+06   114.942664E+06   114.942664E+06               0.               0.      689.656E+06      689.656E+06
               53   -57.471332E+06   -57.471332E+06   114.942664E+06   114.942664E+06               0.               0.      689.656E+06      689.656E+06
               54   -57.471332E+06   -57.471332E+06   114.942664E+06   114.942664E+06               0.               0.      689.656E+06      689.656E+06
               55   -57.471332E+06   -57.471332E+06   114.942664E+06   114.942664E+06               0.               0.      689.656E+06      689.656E+06
               56   -57.471332E+06   -57.471332E+06   114.942664E+06   114.942664E+06               0.               0.      689.656E+06      689.656E+06
               57   -57.471332E+06   -57.471332E+06   114.942664E+06   114.942664E+06               0.               0.      689.656E+06      689.656E+06
               58   -57.471332E+06   -57.471332E+06   114.942664E+06   114.942664E+06               0.               0.      689.656E+06      689.656E+06
               59   -57.471332E+06   -57.471332E+06   114.942664E+06   114.942664E+06               0.               0.      689.656E+06      689.656E+06
               60   -57.471332E+06   -57.471332E+06   114.942664E+06   114.942664E+06               0.               0.      689.656E+06      689.656E+06
               61   -57.471332E+06   -57.471332E+06   114.942664E+06   114.942664E+06               0.               0.      689.656E+06      689.656E+06
               62   -57.471332E+06   -57.471332E+06   114.942664E+06   114.942664E+06               0.               0.      689.656E+06      689.656E+06
               63   -57.471332E+06   -57.471332E+06   114.942664E+06   114.942664E+06               0.               0.      689.656E+06      689.656E+06
               64   -57.471332E+06   -57.471332E+06   114.942664E+06   114.942664E+06               0.               0.      689.656E+06      689.656E+06
               65   -57.471332E+06   -57.471332E+06   114.942664E+06   114.942664E+06               0.               0.      689.656E+06      689.656E+06
               66   -57.471332E+06   -57.471332E+06   114.942664E+06   114.942664E+06               0.               0.      689.656E+06      689.656E+06
               67   -57.471332E+06   -57.471332E+06   114.942664E+06   114.942664E+06               0.               0.      689.656E+06      689.656E+06
               68   -57.471332E+06   -57.471332E+06   114.942664E+06   114.942664E+06               0.               0.      689.656E+06      689.656E+06
               69   -57.471332E+06   -57.471332E+06   114.942664E+06   114.942664E+06               0.               0.      689.656E+06      689.656E+06
               70   -57.471332E+06   -57.471332E+06   114.942664E+06   114.942664E+06               0.               0.      689.656E+06      689.656E+06
               71   -57.471332E+06   -57.471332E+06   114.942664E+06   114.942664E+06               0.               0.      689.656E+06      689.656E+06
               72   -57.471332E+06   -57.471332E+06   114.942664E+06   114.942664E+06               0.               0.      689.656E+06      689.656E+06
               73   -57.471332E+06   -57.471332E+06   114.942664E+06   114.942664E+06               0.               0.      689.656E+06      689.656E+06
               74   -57.471332E+06   -57.471332E+06   114.942664E+06   114.942664E+06               0.               0.      689.656E+06      689.656E+06
               75   -57.471332E+06   -57.471332E+06   114.942664E+06   114.942664E+06               0.               0.      689.656E+06      689.656E+06
               76   -57.471332E+06   -57.471332E+06   114.942664E+06   114.942664E+06               0.               0.      689.656E+06      689.656E+06
               77   -57.471332E+06   -57.471332E+06   114.942664E+06   114.942664E+06               0.               0.      689.656E+06      689.656E+06
               78   -57.471332E+06   -57.471332E+06   114.942664E+06   114.942664E+06               0.               0.      689.656E+06      689.656E+06
               79   -57.471332E+06   -57.471332E+06   114.942664E+06   114.942664E+06               0.               0.      689.656E+06      689.656E+06
               80   -57.471332E+06   -57.471332E+06   114.942664E+06   114.942664E+06               0.               0.      689.656E+06      689.656E+06
               81   -57.471332E+06   -57.471332E+06   114.942664E+06   114.942664E+06               0.               0.      689.656E+06      689.656E+06
               82   -57.471332E+06   -57.471332E+06   114.942664E+06   114.942664E+06               0.               0.      689.656E+06      689.656E+06
               83   -57.471332E+06   -57.471332E+06   114.942664E+06   114.942664E+06               0.               0.      689.656E+06      689.656E+06
               84   -57.471332E+06   -57.471332E+06   114.942664E+06   114.942664E+06               0.               0.      689.656E+06      689.656E+06
               85   -57.471332E+06   -57.471332E+06   114.942664E+06   114.942664E+06               0.               0.      689.656E+06      689.656E+06
               86   -57.471332E+06   -57.471332E+06   114.942664E+06   114.942664E+06               0.               0.      689.656E+06      689.656E+06
               87   -57.471332E+06   -57.471332E+06   114.942664E+06   114.942664E+06               0.               0.      689.656E+06      689.656E+06
               88   -57.471332E+06   -57.471332E+06   114.942664E+06   114.942664E+06               0.               0.      689.656E+06      689.656E+06
               89   -57.471332E+06   -57.471332E+06   114.942664E+06   114.942664E+06               0.               0.      689.656E+06      689.656E+06
               90   -57.471332E+06   -57.471332E+06   114.942664E+06   114.942664E+06               0.               0.      689.656E+06      689.656E+06
               91   -57.471332E+06   -57.471332E+06   114.942664E+06   114.942664E+06               0.               0.      689.656E+06      689.656E+06
               92   -57.471332E+06   -57.471332E+06   114.942664E+06   114.942664E+06               0.               0.      689.656E+06      689.656E+06
               93   -57.471332E+06   -57.471332E+06   114.942664E+06   114.942664E+06               0.               0.      689.656E+06      689.656E+06
               94   -57.471332E+06   -57.471332E+06   114.942664E+06   114.942664E+06               0.               0.      689.656E+06      689.656E+06
               95   -57.471332E+06   -57.471332E+06   114.942664E+06   114.942664E+06               0.               0.      689.656E+06      689.656E+06
               96   -57.471332E+06   -57.471332E+06   114.942664E+06   114.942664E+06               0.               0.      689.656E+06      689.656E+06
               97   -57.471332E+06   -57.471332E+06   114.942664E+06   114.942664E+06               0.               0.      689.656E+06      689.656E+06
               98   -57.471332E+06   -57.471332E+06   114.942664E+06   114.942664E+06               0.               0.      689.656E+06      689.656E+06
               99   -57.471332E+06   -57.471332E+06   114.942664E+06   114.942664E+06               0.               0.      689.656E+06      689.656E+06
              100   -57.471332E+06   -57.471332E+06   114.942664E+06   114.942664E+06               0.               0.      689.656E+06      689.656E+06


  Minimum           -57.471332E+06   -57.471332E+06   114.942664E+06   114.942664E+06               0.               0.      689.656E+06      689.656E+06
       At Element              100              100              100              100              100              100              100              100

  Maximum           -57.471332E+06   -57.471332E+06   114.942664E+06   114.942664E+06               0.               0.      689.656E+06      689.656E+06
       At Element              100              100              100              100              100              100              100              100

            Total   -5.7471332E+09   -5.7471332E+09   11.4942664E+09   11.4942664E+09               0.               0.      68.9656E+09      68.9656E+09


