********************************************************************************
Field Output Report, written Sun Jan 13 18:20:02 2019

Source 1
---------

   ODB: C:/AbaqusTemp/SolidSphereUMAT.odb
   Step: Step-1
   Frame: Increment      1: Step Time =    1.000

Loc 1 : Centroidal values from source 1

Output sorted by column "Element Label".

Field Output reported at element centroid for part: PART-1-1

          Element            S.S11            S.S22            S.S33            S.S12            S.S13            S.S23
            Label           @Loc 1           @Loc 1           @Loc 1           @Loc 1           @Loc 1           @Loc 1
------------------------------------------------------------------------------------------------------------------------
                1    114.94256E+06   -57.471572E+06   -57.471356E+06      344.828E+06      -21.0030727      -27.9490128
                2     114.9426E+06   -57.471488E+06   -57.471248E+06   344.827968E+06      -16.4166451      -18.6975365
                3   114.942584E+06   -57.471544E+06    -57.47128E+06   344.827936E+06      -28.2817917      -29.1663895
                4   114.942592E+06   -57.471576E+06   -57.471244E+06   344.827936E+06      -39.8403397      -30.0252419
                5   114.942608E+06    -57.47152E+06   -57.471272E+06   344.827936E+06      -16.7610340       51.2477951
                6   114.942608E+06   -57.471488E+06   -57.471288E+06   344.827936E+06      -30.8148499      -10.5885944
                7   114.942592E+06   -57.471156E+06   -57.471432E+06   344.828032E+06       37.1127510       227.595306
                8   114.942336E+06   -57.470904E+06   -57.471752E+06   344.828512E+06      -522.115601      -3.08570862
                9   114.943104E+06   -57.471248E+06   -57.471424E+06    344.82816E+06      -115.278534       243.232819
               10    114.94264E+06   -57.471416E+06   -57.471364E+06   344.827968E+06       34.6475868       185.597137
               11    114.94244E+06   -57.471276E+06    -57.47192E+06   344.828224E+06       36.9066048       315.990875
               12   114.942616E+06   -57.471312E+06   -57.471628E+06   344.828192E+06       131.509735       297.386688
               13   114.952304E+06   -57.460512E+06   -57.460096E+06   344.823808E+06      -188.367523       253.675522
               14   114.942608E+06   -57.471516E+06   -57.471336E+06   344.827968E+06       46.8339005       178.047287
               15   114.943144E+06   -57.471116E+06   -57.471128E+06   344.827872E+06      -112.669380       14.2002859
               16    114.94268E+06   -57.471328E+06   -57.471352E+06   344.827968E+06       53.0897598      -107.292313
               17   114.942728E+06   -57.471308E+06    -57.47134E+06   344.827968E+06      -72.6211548      -14.0320444
               18   114.942608E+06    -57.47154E+06    -57.47148E+06   344.827968E+06      -18.4896851      -143.385193
               19   114.942808E+06   -57.471004E+06   -57.471168E+06      344.828E+06      -1.27055931       100.221878
               20   114.942848E+06   -57.471184E+06   -57.471188E+06   344.827968E+06      -70.9161835       58.9678650
               21    114.92896E+06   -57.482432E+06   -57.478956E+06    344.82816E+06   2.59896777E+03       866.106689
               22   114.943336E+06   -57.471228E+06   -57.469972E+06   344.827264E+06      -189.165771       50.1753693
               23   114.942048E+06   -57.472448E+06   -57.471828E+06   344.828032E+06      -164.763687       58.1785126
               24   114.943376E+06    -57.47132E+06   -57.470776E+06   344.828096E+06      -24.9580479      -33.9348335
               25   114.942464E+06   -57.471492E+06   -57.470644E+06   344.828224E+06      -465.312195      -475.755310
               26   114.942632E+06    -57.47146E+06   -57.471236E+06      344.828E+06      -34.1566124      -18.6714363
               27    114.94556E+06   -57.464944E+06    -57.46814E+06   344.827456E+06       895.305115      -518.932800
               28   114.942712E+06    -57.47138E+06   -57.471288E+06   344.827968E+06      -9.71282387      -63.3332901
               29   114.942592E+06   -57.471292E+06   -57.471476E+06   344.827904E+06       45.5551949      -76.3083954
               30   114.942624E+06   -57.472376E+06   -57.473664E+06   344.833824E+06  -2.46459619E+03       321.086853
               31   114.942688E+06   -57.471408E+06   -57.471344E+06   344.827968E+06      -20.3885746      -13.0631924
               32   114.942672E+06   -57.471396E+06   -57.471332E+06   344.827968E+06      -51.5572586      -14.5796595
               33    114.94344E+06   -57.470488E+06   -57.470612E+06   344.828192E+06       231.153656      -65.4831467
               34   114.940472E+06   -57.474248E+06   -57.473668E+06    344.82784E+06      -622.491211      -432.869232
               35   114.942864E+06    -57.47142E+06   -57.471576E+06    344.82784E+06      -256.074432      -20.7357101
               36   114.943632E+06   -57.470084E+06   -57.470108E+06   344.827168E+06      -909.408203      -55.6818161
               37   114.942616E+06     -57.4709E+06   -57.470676E+06   344.827264E+06      -27.0979614      -93.1052933
               38   114.944104E+06   -57.469244E+06    -57.47044E+06   344.828384E+06       379.775818       459.113892
               39   114.945488E+06   -57.467728E+06   -57.469088E+06   344.827712E+06      -179.867584      -1.48338318
               40   114.942528E+06   -57.471624E+06   -57.471368E+06   344.827968E+06      -67.7502289      -4.35351658
               41   114.942624E+06   -57.471556E+06   -57.471436E+06      344.828E+06      -86.4204636      -15.0321522
               42   114.942608E+06   -57.471572E+06   -57.471384E+06   344.827968E+06      -56.3165016       41.6519547
               43   114.942664E+06   -57.471488E+06   -57.471384E+06      344.828E+06      -47.5315666      -16.5673790
               44   114.942544E+06    -57.47164E+06   -57.471456E+06   344.828032E+06      -67.8678741      -70.2668533
               45   114.942696E+06   -57.471492E+06   -57.471376E+06   344.828064E+06      -61.9365921      -94.4608078
               46   114.942592E+06   -57.471508E+06   -57.471312E+06   344.827936E+06      -37.7164803      -14.0207386
               47    114.94256E+06   -57.471408E+06   -57.471472E+06   344.828128E+06       63.3806686      -58.2431641
               48   114.942608E+06   -57.471476E+06   -57.471312E+06      344.828E+06      -6.80166912      -44.5163422
               49   114.942616E+06   -57.471512E+06   -57.471332E+06   344.827968E+06      -37.7517548       15.3242340
               50   114.942544E+06    -57.47164E+06     -57.4712E+06   344.827936E+06      -35.2799988       15.2956743
               51   114.948112E+06   -57.465432E+06   -57.465888E+06   344.827616E+06      -234.973923   1.05630981E+03
               52   114.942592E+06   -57.471548E+06   -57.471284E+06   344.827968E+06      -2.13216829      -56.6778564
               53     114.9418E+06   -57.471872E+06   -57.471768E+06   344.827712E+06       122.698860       3.97716522
               54   114.941208E+06   -57.472912E+06    -57.47268E+06    344.82864E+06       569.501343       218.562653
               55   114.942176E+06    -57.47168E+06    -57.47144E+06    344.82784E+06       432.363953      -487.821106
               56    114.94264E+06   -57.471156E+06   -57.471312E+06   344.828256E+06      -90.7084045      -70.7490616
               57     114.9468E+06   -57.465536E+06   -57.465824E+06   344.823616E+06   3.30084326E+03       911.674133
               58    114.94256E+06   -57.471828E+06   -57.471416E+06   344.828064E+06      -51.1063576       9.42525101
               59   114.942464E+06   -57.470992E+06   -57.471396E+06   344.827968E+06       81.0055161       11.9672642
               60   114.943432E+06   -57.470896E+06   -57.471076E+06   344.827808E+06      -237.870895       258.666229
               61    114.94192E+06   -57.473248E+06   -57.473112E+06   344.828544E+06       384.215454       282.490326
               62   114.942248E+06   -57.471472E+06   -57.471888E+06   344.828064E+06      -267.559418       9.62577057
               63    114.94256E+06    -57.47112E+06   -57.471412E+06   344.828032E+06      -6.57076168      -57.2935104
               64   114.942672E+06   -57.471072E+06   -57.471368E+06   344.828032E+06      -20.7284813       2.44341183
               65   114.942576E+06   -57.471192E+06   -57.471368E+06   344.827968E+06      -31.1028385      -4.42982197
               66   114.942584E+06   -57.471192E+06   -57.471364E+06   344.827968E+06       4.68514109       19.0004692
               67   114.942944E+06    -57.47102E+06   -57.471236E+06    344.82784E+06      -173.725632       11.2371407
               68   114.942576E+06   -57.471376E+06   -57.471284E+06   344.827936E+06       81.1707687      -25.7711830
               69   114.942672E+06   -57.471216E+06     -57.4713E+06   344.827968E+06       57.3638687      -7.74529457
               70   114.942616E+06   -57.471368E+06   -57.471272E+06   344.827936E+06       19.6172123      -48.7927246
               71   114.942608E+06   -57.471588E+06   -57.471216E+06   344.827936E+06      -43.4289627      -34.4893913
               72   114.942528E+06   -57.471688E+06   -57.471288E+06   344.827968E+06      -11.4464264      -29.8368797
               73   114.942616E+06    -57.47136E+06   -57.471332E+06   344.827936E+06       1.96142530       10.2896404
               74   114.942576E+06   -57.471496E+06    -57.47126E+06   344.827936E+06       64.6706848      -59.7351685
               75   114.942672E+06   -57.471424E+06   -57.471248E+06   344.827968E+06       46.4930725       71.3526611
               76   114.942632E+06   -57.471596E+06    -57.47122E+06   344.827904E+06       5.91227865      -8.35743618
               77   114.942592E+06   -57.471568E+06   -57.471268E+06   344.827904E+06      -36.1087265      -35.8776283
               78    114.94264E+06   -57.471392E+06   -57.471316E+06   344.827936E+06       22.1209126       66.5512466
               79   114.942656E+06   -57.471436E+06   -57.471244E+06   344.827904E+06       26.6160812       46.8254128
               80   114.937008E+06   -57.475464E+06   -57.474392E+06   344.828128E+06  -1.42153027E+03       398.363983
               81   114.942848E+06   -57.471404E+06   -57.471424E+06   344.828224E+06      -150.863647       65.1856842
               82   114.942792E+06     -57.4714E+06    -57.47162E+06   344.828256E+06      -150.895355      -71.5247345
               83   114.942808E+06   -57.471392E+06   -57.471424E+06   344.828096E+06      -164.526825      -17.3765049
               84   114.942672E+06   -57.471212E+06   -57.471392E+06   344.828096E+06      -105.494324      -134.009705
               85   114.942672E+06    -57.47108E+06     -57.4714E+06   344.828096E+06      -136.735275      -135.090469
               86   114.942672E+06   -57.471484E+06   -57.471416E+06      344.828E+06      -65.3434906      -152.213409
               87   114.942688E+06   -57.471384E+06   -57.471384E+06   344.827968E+06      -32.5407715      -12.2787189
               88   114.942784E+06   -57.471272E+06   -57.471276E+06   344.828032E+06      -88.2686157       28.5505600
               89   114.943104E+06   -57.471764E+06   -57.470356E+06   344.827264E+06      -11.5085583       292.007141
               90     114.9428E+06    -57.47142E+06   -57.471256E+06   344.827936E+06      -32.5301895      -9.73898506
               91   114.942576E+06   -57.471752E+06   -57.471448E+06   344.827776E+06       13.1053276       61.8189278
               92   114.942792E+06   -57.471356E+06   -57.471064E+06   344.827904E+06       108.522255       122.568748
               93   114.942584E+06   -57.471792E+06    -57.47154E+06    344.82784E+06      -87.0787964       155.584549
               94    114.94264E+06    -57.47136E+06    -57.47136E+06   344.827968E+06       26.1765690       98.0937729
               95   114.942632E+06   -57.471368E+06     -57.4714E+06   344.827968E+06      -3.72084284       88.5000839
               96   114.942624E+06   -57.471348E+06   -57.471384E+06   344.827968E+06      -21.6989574       48.4438515
               97   114.942632E+06   -57.471176E+06   -57.471336E+06   344.827968E+06       2.73588848      -10.7132092
               98    114.94264E+06   -57.471312E+06   -57.471372E+06   344.827968E+06       13.7691479       76.0178070
               99   114.941664E+06   -57.470876E+06   -57.471404E+06   344.827712E+06       457.515961      -463.075745
              100   114.942712E+06   -57.471032E+06   -57.471284E+06      344.828E+06       86.6758194       38.6583748
              101     114.9496E+06   -57.466496E+06   -57.467332E+06   344.827808E+06   1.43584265E+03       115.937950
              102   114.942656E+06   -57.471304E+06   -57.471316E+06   344.827968E+06       54.0068130       50.2141876
              103   114.942624E+06   -57.471336E+06   -57.471312E+06   344.827936E+06       26.5731163      -4.16680527
              104   114.942656E+06   -57.471168E+06   -57.471356E+06   344.827968E+06       19.9776440       7.80117846
              105   114.942624E+06   -57.471188E+06   -57.471368E+06      344.828E+06       57.2200356      -11.1922722
              106      114.941E+06   -57.472248E+06   -57.472388E+06    344.82832E+06       254.402832       460.750671
              107   114.944064E+06   -57.471864E+06   -57.471768E+06   344.829536E+06       587.058289      -14.5409203
              108    114.94436E+06   -57.470276E+06   -57.471352E+06   344.829248E+06       762.281372       175.529251
              109   114.942208E+06    -57.47164E+06    -57.47144E+06   344.827712E+06       51.4778214      -210.579971
              110   114.941888E+06   -57.471328E+06   -57.471144E+06   344.827776E+06       302.176697       115.206253
              111   114.942352E+06   -57.471192E+06    -57.47168E+06   344.827936E+06       77.1382904      -59.6277008
              112   114.942704E+06   -57.471376E+06   -57.471412E+06   344.827744E+06       128.856384      -173.152939
              113    114.94308E+06   -57.471456E+06   -57.471136E+06   344.828288E+06       159.161499      -97.9340897
              114   114.942528E+06   -57.472236E+06   -57.472392E+06   344.828384E+06       24.6039619      -530.364990
              115   114.942528E+06   -57.472368E+06   -57.472652E+06   344.827648E+06       45.8398209      -688.172485
              116   114.947288E+06     -57.4663E+06   -57.467376E+06   344.828032E+06      -62.5824738       180.029007
              117   114.944872E+06   -57.470448E+06   -57.469992E+06   344.826208E+06       490.519562       929.571899
              118    114.94264E+06   -57.470912E+06   -57.471228E+06   344.827808E+06       183.762024       59.8973198
              119   114.942784E+06    -57.46984E+06   -57.469688E+06    344.82736E+06       157.291550       55.5215721
              120   114.942384E+06    -57.47138E+06     -57.4712E+06   344.828096E+06       135.575638       46.6004257
              121   114.938432E+06   -57.474932E+06   -57.474128E+06   344.828608E+06      -384.626923       548.864868
              122   114.942352E+06   -57.471656E+06   -57.471252E+06      344.828E+06       180.914886       208.400787
              123   114.942752E+06   -57.471472E+06    -57.47138E+06   344.828032E+06       250.896088       349.020660
              124    114.94244E+06   -57.471256E+06    -57.47128E+06   344.828256E+06       611.978516       103.972839
              125    114.94208E+06   -57.471328E+06   -57.471492E+06   344.828096E+06      -78.7695465       148.676575
              126    114.94248E+06   -57.471288E+06   -57.471436E+06   344.827904E+06       41.2648315       214.516174
              127   114.942432E+06   -57.471688E+06    -57.47138E+06   344.827936E+06      -57.9352570       157.836487
              128   114.942528E+06   -57.471624E+06   -57.471424E+06   344.827968E+06      -36.0093384       82.8487015
              129   114.942616E+06   -57.471592E+06   -57.471444E+06   344.827936E+06       27.4134655       122.427734
              130   114.942464E+06    -57.47168E+06   -57.471432E+06   344.827936E+06      -49.5041313       55.1770096
              131   114.942528E+06     -57.4718E+06   -57.471432E+06    344.82784E+06       8.49392509       107.636528
              132    114.94232E+06   -57.472096E+06   -57.471536E+06    344.82784E+06       27.9067230       124.944260
              133   114.942616E+06   -57.471244E+06   -57.471404E+06      344.828E+06       2.55675316       56.1615181
              134   114.942608E+06   -57.471328E+06   -57.471456E+06   344.827968E+06       40.6002731       129.843811
              135   114.942424E+06   -57.470472E+06   -57.470152E+06   344.827552E+06       16.6193771       667.438232
              136   114.942528E+06   -57.471496E+06   -57.471496E+06   344.827904E+06       42.4076195       153.032074
              137    114.94276E+06   -57.471456E+06   -57.471424E+06      344.828E+06       41.9005356       127.103523
              138   114.942672E+06   -57.471672E+06   -57.471596E+06   344.828032E+06       44.7124481       130.611206
              139   114.942672E+06   -57.471476E+06   -57.471396E+06   344.827968E+06      -43.2223740       73.8752899
              140   114.942608E+06   -57.471464E+06   -57.471452E+06   344.827968E+06      -42.8138809       84.9183121
              141    114.94232E+06     -57.4718E+06   -57.471764E+06   344.828608E+06      -241.238251       382.042755
              142    114.94268E+06   -57.471652E+06   -57.471364E+06   344.828096E+06       84.6815948       14.2473402
              143   114.942304E+06   -57.472236E+06   -57.472312E+06   344.828064E+06      -178.580750       299.834656
              144    114.94352E+06   -57.470016E+06   -57.470316E+06   344.828096E+06       283.423889       224.488266
              145    114.94552E+06   -57.467728E+06   -57.468436E+06   344.829504E+06      -63.4550476      -181.922455
              146   114.942112E+06   -57.471184E+06      -57.472E+06   344.828896E+06      -359.315979      -5.42518616
              147   114.943488E+06     -57.4717E+06   -57.470996E+06   344.828608E+06       50.1241646       481.639038
              148   114.942632E+06   -57.471556E+06   -57.471252E+06   344.827904E+06       29.4110355       2.49766636
              149   114.942624E+06   -57.471268E+06     -57.4713E+06   344.827904E+06       75.3890228      -41.4525108
              150   114.942688E+06    -57.47128E+06   -57.471344E+06   344.827968E+06       61.4298401       102.232147
              151   114.942608E+06    -57.47152E+06   -57.471268E+06   344.827936E+06       16.0252438       78.6359253
              152    114.94256E+06   -57.471552E+06   -57.471376E+06   344.827936E+06      -33.1180573       76.0233917
              153    114.94268E+06   -57.471332E+06   -57.471284E+06   344.827968E+06       68.2562485       70.3637695
              154    114.94276E+06   -57.471228E+06   -57.471252E+06   344.827968E+06       80.4733429       127.960861
              155   114.942624E+06   -57.471572E+06   -57.471248E+06   344.827936E+06      -94.6388092      -86.3140411
              156    114.94576E+06   -57.469136E+06    -57.46984E+06   344.827712E+06      -623.850525      -624.361023
              157    114.94248E+06   -57.471584E+06   -57.471464E+06   344.828224E+06       13.6317806      -53.8667908
              158   114.942424E+06   -57.471416E+06    -57.47158E+06   344.828032E+06       30.8682709      -18.5085850
              159   114.942608E+06   -57.471528E+06   -57.471264E+06   344.827904E+06      -50.2636642      -26.6423054
              160   114.938456E+06    -57.47428E+06   -57.474604E+06    344.82768E+06       957.600647      -455.754822
              161    114.94264E+06   -57.471444E+06   -57.471368E+06   344.827968E+06      -39.1441498       18.7317200
              162   114.938464E+06    -57.47388E+06   -57.474124E+06   344.826944E+06       953.679749      -205.706985
              163   114.942632E+06   -57.471372E+06   -57.471312E+06   344.827968E+06      -27.1432972      -42.5428238
              164    114.94256E+06   -57.471644E+06   -57.471288E+06   344.827936E+06      -16.9259243       55.9597397
              165   114.942552E+06   -57.471576E+06   -57.471316E+06   344.827936E+06      -24.8788376       69.2200012
              166   114.943456E+06   -57.469692E+06    -57.47002E+06   344.827712E+06       409.835022       129.986908
              167   114.943064E+06      -57.471E+06   -57.471068E+06   344.828064E+06       96.6173401       80.0012665
              168    114.94048E+06   -57.472848E+06    -57.47182E+06    344.82816E+06      -270.995605      -699.893921
              169   114.942928E+06   -57.470968E+06   -57.470984E+06    344.82784E+06      -149.884430       153.922821
              170    114.94256E+06   -57.471564E+06    -57.47166E+06   344.828448E+06       109.191849       114.730774
              171   114.942568E+06   -57.471276E+06   -57.471264E+06   344.827936E+06      -134.959091      -114.511253
              172   114.943056E+06    -57.47104E+06   -57.471364E+06   344.828256E+06      -278.716644       233.323456
              173   114.943616E+06   -57.469864E+06   -57.470624E+06   344.828032E+06      -153.864700      -138.020752
              174   114.942552E+06   -57.472004E+06     -57.4714E+06   344.828032E+06       37.7880707       76.8509979
              175   114.942608E+06    -57.47284E+06   -57.472648E+06   344.828608E+06       170.423691      -302.868896
              176   114.943264E+06   -57.471804E+06    -57.47272E+06   344.828448E+06      -147.937531      -183.607437
              177    114.94296E+06   -57.472064E+06   -57.472552E+06   344.828864E+06  -1.26598450E+03      -475.719666
              178   114.936504E+06   -57.477048E+06   -57.476068E+06   344.828416E+06      -434.588013      -343.935760
              179   114.942248E+06    -57.47156E+06   -57.469608E+06   344.826432E+06   1.34905774E+03      -283.665466
              180   114.940136E+06   -57.474912E+06     -57.4726E+06   344.827744E+06       811.340637      -75.7007217
              181   114.941968E+06   -57.471624E+06   -57.471512E+06   344.827904E+06       87.3730774       57.0658112
              182   114.941952E+06   -57.470244E+06   -57.470768E+06   344.828224E+06      -77.2201996      -833.855652
              183     114.9424E+06   -57.471704E+06   -57.471464E+06   344.828032E+06      -75.8394547      -72.5091629
              184   114.942312E+06   -57.471844E+06   -57.471536E+06   344.828192E+06      -226.905121      -151.268250
              185   114.942032E+06    -57.47224E+06   -57.471604E+06   344.828064E+06      -250.794418      -276.440857
              186   114.942552E+06   -57.471656E+06   -57.471272E+06      344.828E+06      -206.070129       19.4285583
              187   114.942432E+06   -57.472548E+06   -57.473368E+06    344.82656E+06   1.03530457E+03       523.809204
              188    114.94264E+06   -57.471524E+06   -57.471244E+06   344.827936E+06      -53.4883995      -55.3800354
              189   114.942448E+06    -57.47154E+06   -57.471864E+06   344.827776E+06      -295.807159      -251.341919
              190   114.943264E+06   -57.471028E+06   -57.471292E+06   344.828192E+06       198.694122      -73.3733826
              191   114.942408E+06   -57.471704E+06   -57.471672E+06      344.828E+06       128.605881       64.6798248
              192   114.942712E+06   -57.471216E+06   -57.471132E+06   344.828064E+06      -195.246277      -210.329315
              193   114.942728E+06   -57.471408E+06   -57.471332E+06      344.828E+06      -75.8981781       53.6284981
              194   114.942752E+06   -57.471256E+06   -57.471284E+06   344.827968E+06       70.3353043       144.834824
              195   114.942656E+06   -57.471368E+06   -57.471388E+06   344.828064E+06      -64.7530746       18.0309868
              196   114.942584E+06   -57.471488E+06    -57.47142E+06   344.828032E+06      -77.9870071       49.6487465
              197    114.94284E+06   -57.471368E+06   -57.471276E+06      344.828E+06      -75.0672073       132.642212
              198    114.94268E+06   -57.471384E+06    -57.47138E+06   344.828032E+06      -35.7820244       148.179092
              199   114.942976E+06   -57.471496E+06   -57.471316E+06    344.82816E+06      -95.3882599       225.902252
              200   114.943024E+06    -57.47154E+06    -57.47112E+06    344.82816E+06       45.7838593       69.1823349
              201   114.942848E+06   -57.471292E+06   -57.471608E+06   344.828352E+06      -285.999817      -540.361023
              202   114.942696E+06    -57.47122E+06   -57.471392E+06   344.827968E+06       50.7291679       88.1525192
              203     114.9426E+06   -57.471188E+06   -57.471364E+06   344.827968E+06       22.4719238      -31.0082550
              204   114.942648E+06   -57.471252E+06    -57.47136E+06      344.828E+06      -26.8026638       15.9173794
              205   114.942608E+06   -57.471436E+06   -57.471328E+06   344.827936E+06       8.18179512       122.628983
              206   114.943416E+06   -57.471652E+06   -57.471208E+06   344.828096E+06       416.270447       379.458008
              207   114.942648E+06   -57.471288E+06    -57.47134E+06   344.827968E+06      -25.9049778      -1.11325133
              208   114.942144E+06    -57.47206E+06   -57.471608E+06   344.828096E+06       438.567871      -6.23848724
              209   114.942608E+06   -57.466956E+06   -57.464216E+06   344.828608E+06   1.45853235E+03       705.823608
              210   114.925888E+06   -57.479624E+06   -57.477184E+06   344.826592E+06       42.3871002       990.007507
              211    114.94076E+06      -57.472E+06   -57.475024E+06   344.829568E+06       404.030884       782.537048
              212   114.942512E+06   -57.471752E+06   -57.473348E+06   344.829344E+06      -153.954224      -145.806946
              213   114.959824E+06   -57.462304E+06    -57.45948E+06    344.82688E+06   5.08191260E+03       5.02209473
              214   114.941616E+06   -57.472112E+06   -57.471496E+06   344.828384E+06       61.3515358      -550.029907
              215   114.942624E+06     -57.4716E+06   -57.471352E+06   344.828032E+06      -65.1485825      -95.6024551
              216   114.942664E+06   -57.471592E+06   -57.471384E+06   344.828096E+06      -63.9943161      -82.0443420
              217   114.942552E+06   -57.471624E+06   -57.471528E+06   344.828032E+06      -88.4354248      -44.7532005
              218   114.945048E+06   -57.466968E+06   -57.469712E+06   344.830656E+06       701.775757       682.873169
              219   114.942664E+06   -57.471444E+06   -57.471392E+06      344.828E+06      -46.2828903      -1.67053199
              220   114.942672E+06    -57.47144E+06   -57.471416E+06   344.827968E+06      -63.7785721       25.1684151
              221   114.942648E+06   -57.471496E+06   -57.471392E+06   344.827968E+06      -63.0191994       36.8546600
              222   114.942592E+06   -57.471464E+06   -57.471544E+06   344.827968E+06       64.3821945       127.294937
              223    114.94292E+06   -57.471272E+06    -57.47124E+06      344.828E+06       304.532501       78.0437241
              224   114.942808E+06   -57.470884E+06   -57.471476E+06    344.82816E+06       143.607117       27.6913414
              225   114.942672E+06   -57.471464E+06   -57.471224E+06   344.828032E+06       28.8932724       104.817406
              226   114.942672E+06    -57.47142E+06   -57.471212E+06   344.827968E+06       86.5662918       44.1480522
              227    114.94272E+06    -57.47124E+06   -57.471352E+06   344.828064E+06       89.5574417       101.920898
              228   114.942632E+06   -57.471076E+06   -57.470964E+06   344.827968E+06       40.3870468      -65.3219757
              229    114.94192E+06   -57.471952E+06   -57.471424E+06    344.82784E+06       328.103546       569.993530
              230   114.942416E+06   -57.471428E+06   -57.471396E+06   344.827936E+06       158.770691       640.026001
              231    114.94276E+06    -57.47106E+06   -57.471436E+06   344.828288E+06       202.260452      -45.9081535
              232   114.942424E+06   -57.471392E+06   -57.471416E+06   344.827776E+06      -41.9635620       259.725281
              233   114.943312E+06   -57.471184E+06    -57.47124E+06   344.828096E+06       309.820099      -40.6059418
              234     114.9428E+06   -57.471216E+06    -57.47134E+06    344.82816E+06       97.9607239       69.2857895
              235   114.942624E+06     -57.4712E+06   -57.471536E+06   344.828064E+06       91.9272079       132.865463
              236   114.942592E+06   -57.471544E+06   -57.471308E+06   344.827872E+06      -61.5620537      -53.8151855
              237   114.942816E+06   -57.471584E+06   -57.471152E+06   344.827904E+06       99.2386856       31.6159573
              238   114.938192E+06   -57.476056E+06    -57.48454E+06   344.825728E+06  -2.52978857E+03   2.00580615E+03
              239   114.942816E+06    -57.47168E+06   -57.471412E+06   344.827904E+06       28.2794361       22.0150185
              240   114.942632E+06   -57.471424E+06   -57.471244E+06   344.827936E+06      -78.3772278      -88.0148926
              241   114.942648E+06   -57.471656E+06   -57.471232E+06   344.827872E+06      -60.2029305      -56.4701576
              242     114.9426E+06   -57.471792E+06   -57.471432E+06   344.827904E+06      -52.4551392      -54.6191063
              243    114.94252E+06   -57.471508E+06   -57.471384E+06   344.827968E+06      -60.1126556      -104.884949
              244   114.937368E+06   -57.478668E+06   -57.477864E+06    344.83168E+06      -953.492554   1.02476526E+03
              245   114.942808E+06   -57.471256E+06   -57.471492E+06   344.828032E+06       83.1079102       67.5609360
              246   114.942608E+06   -57.471616E+06    -57.47124E+06   344.827904E+06      -22.6948643       19.8502254
              247   114.942528E+06   -57.471488E+06   -57.471296E+06      344.828E+06       48.0680923       297.500427
              248   114.942624E+06   -57.471544E+06   -57.471356E+06   344.827968E+06      -40.8270111       1.49819314
              249   114.942568E+06   -57.471572E+06   -57.471192E+06   344.827936E+06       24.7814674       75.1721954
              250    114.94248E+06   -57.471716E+06    -57.47128E+06   344.827936E+06      -34.7394562       109.674355
              251   114.942496E+06   -57.471664E+06   -57.471288E+06   344.827936E+06      -35.8332405       40.0746994
              252   114.942672E+06    -57.47066E+06   -57.471168E+06   344.828224E+06      -171.061768      -179.109253
              253   114.942624E+06   -57.471456E+06   -57.471348E+06   344.827968E+06      -55.8767319      -62.1691513
              254    114.94272E+06    -57.47114E+06   -57.471296E+06   344.828096E+06      -75.5808334      -183.479233
              255     114.9428E+06   -57.471264E+06   -57.471376E+06   344.828288E+06      -250.666077       3.52232170
              256   114.942544E+06   -57.471472E+06   -57.471624E+06   344.827968E+06       58.9664726      -146.638184
              257    114.94276E+06   -57.471456E+06   -57.471288E+06   344.828032E+06       58.8452835       72.7784348
              258    114.94264E+06   -57.471584E+06   -57.471308E+06   344.828032E+06       3.67377424       82.1291428
              259   114.943112E+06   -57.469416E+06   -57.469628E+06   344.828256E+06      -654.269470      -464.247223
              260   114.942888E+06    -57.47114E+06   -57.471168E+06   344.828128E+06       41.0379791       38.7432594
              261     114.9426E+06   -57.471528E+06   -57.471312E+06   344.828032E+06       59.3717117      -54.3916702
              262   114.942672E+06   -57.471488E+06   -57.471216E+06   344.828064E+06       65.7901688      -8.33311081
              263   114.942552E+06   -57.471592E+06   -57.471428E+06   344.828096E+06       67.3581467       73.3146057
              264    114.94192E+06   -57.472428E+06   -57.471828E+06   344.827968E+06       6.58830643      -613.854004
              265   114.942728E+06   -57.471516E+06   -57.471304E+06   344.828032E+06       5.36338329       100.350525
              266   114.942224E+06   -57.471752E+06   -57.471416E+06   344.828096E+06       51.8786087       60.9478340
              267     114.9428E+06   -57.471444E+06   -57.471188E+06   344.827968E+06       55.2665329       1.80326521
              268   114.942688E+06   -57.471296E+06   -57.471376E+06      344.828E+06       55.4664917       132.701660
              269   114.942664E+06   -57.471292E+06    -57.47104E+06   344.828064E+06      -36.6145363      -37.1997643
              270   114.942464E+06   -57.471728E+06   -57.471272E+06   344.827936E+06       25.3281898       159.501511
              271   114.942608E+06   -57.471308E+06   -57.471372E+06   344.827968E+06       2.77461028       14.5581112
              272    114.94252E+06    -57.47156E+06   -57.471348E+06   344.827904E+06      -27.8085537       102.432365
              273    114.94256E+06   -57.471604E+06   -57.471268E+06   344.827904E+06      -6.17751598       59.6195259
              274    114.94264E+06   -57.471596E+06   -57.471212E+06   344.827936E+06       7.86345387       27.3333721
              275   114.943632E+06    -57.47064E+06   -57.470624E+06   344.827776E+06      -40.0917549      -177.741867
              276   114.942808E+06   -57.471224E+06    -57.47122E+06   344.827968E+06       56.1136475      -45.6261940
              277    114.94268E+06   -57.471336E+06   -57.471424E+06   344.828096E+06       32.2213898      -96.2609253
              278   114.942648E+06   -57.471192E+06   -57.471188E+06   344.828096E+06       171.954453      -114.785309
              279   114.942832E+06   -57.470908E+06   -57.471092E+06    344.82816E+06       137.254471      -35.0189743
              280   114.942768E+06   -57.471252E+06   -57.471276E+06      344.828E+06       90.5105286       10.3543091
              281   114.942712E+06   -57.471268E+06   -57.471268E+06   344.827968E+06       94.5945206       7.44944715
              282   114.942728E+06   -57.471344E+06    -57.47116E+06   344.827968E+06       82.3893204       53.4640274
              283   114.942584E+06   -57.471396E+06   -57.471284E+06   344.827968E+06       70.1847534       44.7620850
              284   114.942896E+06    -57.47096E+06   -57.471252E+06   344.828096E+06       66.9657593       97.2383575
              285   114.942624E+06   -57.471384E+06   -57.471316E+06   344.827936E+06       32.5231018       42.0797958
              286   114.942568E+06     -57.4714E+06    -57.47126E+06   344.827968E+06       81.9859695      -66.7848740
              287   114.942504E+06    -57.47144E+06   -57.471336E+06   344.827968E+06       78.6738892      -10.5947199
              288   114.942536E+06   -57.471336E+06   -57.471164E+06   344.828064E+06       139.078918       98.7866364
              289    114.94296E+06   -57.470184E+06   -57.470732E+06   344.827232E+06       404.919067       572.614990
              290   114.943176E+06     -57.4707E+06    -57.47064E+06   344.827968E+06       258.794220       85.5876007
              291   114.942416E+06   -57.471288E+06   -57.471396E+06   344.827904E+06       29.4333591       79.5856476
              292   114.944768E+06   -57.469036E+06   -57.469212E+06   344.826656E+06       296.508057       281.230713
              293   114.984432E+06    -57.43316E+06    -57.43506E+06   344.828544E+06  -2.64663843E+03      -7.69708252
              294   114.943792E+06    -57.47058E+06   -57.470516E+06   344.827584E+06       500.292175       32.7804527
              295   114.941416E+06   -57.471652E+06    -57.47196E+06    344.82848E+06      -382.111481       230.638824
              296   114.942992E+06    -57.47102E+06   -57.471104E+06   344.828096E+06       30.9562206       6.58559704
              297   114.941752E+06   -57.470948E+06   -57.471472E+06   344.827264E+06       78.5789032      -34.6884727
              298    114.94176E+06   -57.471064E+06   -57.472112E+06   344.828032E+06      -417.069214      -942.290100
              299   114.942408E+06   -57.471772E+06   -57.471208E+06   344.827648E+06      -261.699921      -63.0489922
              300   114.940048E+06   -57.472104E+06    -57.47204E+06   344.827936E+06      -9.18919659       115.242828
              301   114.942664E+06   -57.471396E+06   -57.471376E+06      344.828E+06      -59.9327927       62.6214676
              302   114.942576E+06   -57.471524E+06   -57.471208E+06   344.828032E+06       50.9955864       38.9693909
              303   114.942792E+06   -57.471368E+06   -57.471304E+06   344.827968E+06      -27.8593636       53.0088272
              304   114.942664E+06   -57.471424E+06   -57.471356E+06   344.828032E+06      -75.7602768       60.9215469
              305   114.942576E+06   -57.471488E+06   -57.471388E+06   344.827936E+06      -73.8077850       86.6404495
              306   114.942792E+06   -57.471448E+06   -57.471368E+06   344.828224E+06      -74.4328384       156.208038
              307    114.94256E+06   -57.471556E+06   -57.471588E+06   344.828128E+06      -84.7320938       33.6090775
              308   114.942664E+06   -57.471452E+06   -57.471104E+06   344.827904E+06      -59.9990234       3.26626396
              309   114.942656E+06   -57.471384E+06   -57.471392E+06   344.827968E+06      -51.7185631       45.7776260
              310   114.942648E+06   -57.471504E+06   -57.471232E+06   344.827904E+06      -62.0300255      -51.2711029
              311     114.9426E+06   -57.471612E+06   -57.471352E+06      344.828E+06      -47.1841393      -5.57862759
              312   114.942656E+06   -57.471412E+06    -57.47136E+06   344.827968E+06      -45.1375160       10.5937061
              313   114.942584E+06   -57.471412E+06   -57.471392E+06   344.827936E+06      -9.18399906       112.950272
              314   114.945024E+06   -57.469964E+06   -57.470112E+06   344.828352E+06      -624.632141      -166.328857
              315    114.94264E+06   -57.471544E+06   -57.471288E+06   344.827968E+06      -107.782356      -189.071274
              316   114.942688E+06   -57.471348E+06   -57.471112E+06   344.827968E+06       13.1141281      -102.968803
              317   114.938392E+06     -57.4705E+06   -57.473188E+06   344.827936E+06  -3.47190234E+03  -1.07585901E+03
              318    114.94248E+06   -57.471376E+06   -57.471368E+06   344.827968E+06       8.41744995      -223.742828
              319   114.942616E+06   -57.471576E+06   -57.471248E+06   344.827904E+06      -25.0462189      -69.1369019
              320   114.942672E+06   -57.471648E+06    -57.47124E+06    344.82784E+06      -50.9527168      -31.0517693
              321   114.942576E+06   -57.471552E+06   -57.471344E+06   344.827936E+06      -38.6929893       43.6922836
              322   114.942536E+06   -57.471224E+06   -57.471344E+06   344.827968E+06      -38.9091835      -152.441559
              323   114.942568E+06   -57.471176E+06   -57.471392E+06   344.828032E+06      -80.6813507      -127.795212
              324     114.9426E+06   -57.471488E+06    -57.47128E+06      344.828E+06      -58.2698898      -190.833969
              325   114.942656E+06   -57.471472E+06   -57.471416E+06   344.827968E+06      -65.4287872       4.12690544
              326   114.944368E+06   -57.469768E+06   -57.470584E+06   344.828992E+06       155.697723       387.589813
              327   114.942736E+06    -57.47156E+06   -57.471396E+06      344.828E+06       5.77414989      -137.180267
              328   114.942728E+06   -57.471688E+06    -57.47144E+06   344.828224E+06      -151.254471      -139.490097
              329     114.9428E+06    -57.47134E+06   -57.471184E+06    344.82832E+06      -2.36638641      -36.7837791
              330   114.942664E+06   -57.471348E+06   -57.471248E+06   344.828032E+06      -19.3709278      -8.05462551
              331   114.937792E+06    -57.47566E+06   -57.474692E+06   344.828864E+06      -6.03027344      -103.530975
              332   114.944912E+06   -57.469556E+06   -57.469096E+06   344.827968E+06      -789.914856       131.477081
              333   114.943288E+06   -57.470776E+06   -57.470156E+06   344.828128E+06       202.266647       539.843506
              334     114.9444E+06   -57.468168E+06   -57.469516E+06   344.828128E+06       943.613831       642.538818
              335   114.943072E+06    -57.47124E+06   -57.470172E+06   344.827712E+06       183.911591       209.618225
              336   114.942816E+06   -57.471236E+06   -57.471736E+06   344.828064E+06      -37.1944199      -118.634972
              337   114.942528E+06   -57.470996E+06    -57.47138E+06   344.828416E+06       211.247375       546.140686
              338   114.941672E+06    -57.47294E+06    -57.47216E+06   344.827648E+06      -115.536560      -20.2821884
              339   114.941528E+06    -57.47202E+06   -57.471344E+06   344.827648E+06       64.6412811      -627.452209
              340   114.942016E+06   -57.471424E+06    -57.47184E+06   344.828096E+06      -215.249283      -303.684937
              341   114.942824E+06   -57.470724E+06   -57.469624E+06   344.826496E+06      -431.514526      -898.989380
              342   114.944784E+06   -57.467852E+06   -57.469032E+06   344.827936E+06      -142.968002      -561.661865
              343   114.942608E+06   -57.471272E+06   -57.471392E+06   344.828064E+06      -39.3515701       1.08729553
              344    114.94264E+06    -57.47122E+06   -57.471388E+06   344.828032E+06      -6.77424574       15.7880230
              345   114.942592E+06   -57.471244E+06   -57.471384E+06   344.828032E+06      -26.5114822      -19.2222786
              346   114.942696E+06   -57.470892E+06   -57.471276E+06   344.827968E+06       4.72090340      -47.6039696
              347   114.942672E+06   -57.471112E+06   -57.471352E+06   344.828032E+06      -4.92420578      -20.1806355
              348   114.940944E+06    -57.47308E+06   -57.472776E+06   344.828864E+06       662.664795      -219.391342
              349   114.942568E+06   -57.471132E+06   -57.471344E+06   344.827936E+06       13.2473812      -73.5570145
              350   114.942584E+06   -57.471536E+06    -57.47144E+06   344.827936E+06      -19.8535709       97.9711609
              351   114.942488E+06   -57.471412E+06   -57.471364E+06   344.827936E+06       19.5184402       213.679337
              352   114.942448E+06   -57.471688E+06   -57.471312E+06      344.828E+06      -89.9944382      -65.3638077
              353   114.942512E+06   -57.471492E+06   -57.471384E+06   344.827936E+06      -6.52350378       128.721848
              354   114.942192E+06    -57.47168E+06   -57.471112E+06   344.828192E+06      -160.038803      -26.4841003
              355   114.942616E+06    -57.47164E+06   -57.471376E+06   344.828032E+06      -55.9208679      -19.5162334
              356   114.942584E+06   -57.471584E+06   -57.471384E+06   344.828032E+06      -45.2950478       2.84114361
              357   114.942496E+06   -57.471696E+06   -57.471336E+06      344.828E+06      -66.5514908      -61.7285347
              358   114.942832E+06   -57.470652E+06   -57.469664E+06   344.827008E+06       80.9419708       199.849869
              359    114.94244E+06    -57.47096E+06   -57.471076E+06   344.828096E+06       381.060120      -104.565010
              360   114.934048E+06   -57.480736E+06   -57.478296E+06   344.830016E+06  -2.35081836E+03  -1.90415234E+03
              361   114.942816E+06   -57.471232E+06   -57.471324E+06   344.828032E+06      -125.211823      -160.793549
              362   114.942824E+06   -57.471048E+06   -57.471364E+06      344.828E+06       60.8208008      -35.0861320
              363   114.942656E+06   -57.471388E+06   -57.471308E+06   344.827968E+06      -48.5576401      -24.7613811
              364   114.943456E+06   -57.470548E+06    -57.47084E+06   344.828608E+06       129.050323      -107.263580
              365    114.94744E+06   -57.468272E+06   -57.469672E+06     344.8272E+06       610.520020       668.332947
              366   114.942904E+06   -57.471272E+06   -57.471256E+06   344.828288E+06      -94.8267899      -22.9197273
              367   114.942648E+06    -57.47138E+06   -57.471352E+06   344.828096E+06      -106.910751      -97.3083572
              368   114.942696E+06   -57.471348E+06   -57.471328E+06   344.827968E+06      -81.2264099      -69.3495636
              369    114.94272E+06    -57.47136E+06    -57.47126E+06   344.827968E+06      -44.3755608      -26.6562805
              370     114.9426E+06    -57.47152E+06   -57.471264E+06   344.827968E+06      -33.3302307      -10.0492811
              371   114.942728E+06   -57.471444E+06   -57.471336E+06   344.828096E+06      -32.9764175       12.7397671
              372   114.942688E+06   -57.470848E+06   -57.470952E+06   344.827808E+06      -241.989838      -71.2947540
              373   114.943144E+06   -57.470896E+06    -57.47086E+06   344.827904E+06       140.392578      -56.2498360
              374   114.942512E+06    -57.47192E+06   -57.471264E+06   344.828384E+06      -143.651779      -237.338058
              375   114.943456E+06   -57.471264E+06   -57.470764E+06   344.828192E+06       254.419159      -24.6267853
              376   114.943296E+06   -57.471076E+06   -57.470968E+06   344.827904E+06       154.104004      -55.4723969
              377   114.942752E+06   -57.471496E+06   -57.471232E+06   344.828032E+06       38.2560692       89.9861832
              378   114.942496E+06     -57.4714E+06    -57.47146E+06   344.828064E+06       41.4966125       224.110565
              379    114.94272E+06   -57.471372E+06     -57.4713E+06      344.828E+06       35.0053558       187.297012
              380   114.943768E+06    -57.47504E+06   -57.472392E+06   344.828064E+06      -991.576050   1.70387964E+03
              381   114.943304E+06    -57.47214E+06   -57.470544E+06    344.82912E+06      -539.938599  -1.03911218E+03
              382   114.942912E+06   -57.470744E+06    -57.47092E+06   344.828096E+06       177.412048       330.276184
              383   114.943888E+06   -57.470672E+06   -57.471812E+06   344.828064E+06      -82.9084473       474.444275
              384   114.942896E+06   -57.471136E+06    -57.47124E+06   344.827936E+06      -38.6122551       228.536728
              385   114.943056E+06   -57.470968E+06   -57.471232E+06    344.82784E+06      -134.561462      -119.001297
              386    114.94108E+06      -57.472E+06   -57.472584E+06   344.828288E+06       210.870773      -58.5971947
              387   114.942736E+06   -57.471332E+06   -57.471344E+06   344.828032E+06      -37.4363708       88.6046600
              388   114.942648E+06    -57.47156E+06    -57.47136E+06   344.828064E+06      -118.719688      -72.8792038
              389    114.94228E+06   -57.470896E+06   -57.471004E+06   344.827904E+06      -16.0672836      -115.201576
              390   114.942064E+06   -57.471192E+06   -57.471388E+06   344.827808E+06      -100.212143      -143.118057
              391   114.942672E+06    -57.47154E+06   -57.471528E+06    344.82816E+06      -163.352463      -139.103424
              392   114.947504E+06   -57.468524E+06   -57.469328E+06   344.829376E+06      -253.635620      -398.751678
              393   114.942576E+06   -57.471128E+06    -57.47136E+06   344.828064E+06       301.454803      -57.4048958
              394   114.942504E+06    -57.47216E+06   -57.471728E+06    344.82784E+06       198.957214       390.155579
              395   114.942056E+06   -57.471408E+06   -57.471764E+06   344.828256E+06       302.228790      -139.404739
              396   114.942496E+06   -57.471712E+06   -57.471368E+06   344.827968E+06      -26.5978012      -40.3935547
              397   114.942568E+06   -57.471632E+06   -57.471436E+06   344.827744E+06       105.640656       194.564026
              398   114.942392E+06   -57.471664E+06   -57.471324E+06   344.827904E+06      -57.7009430       8.16680431
              399   114.942088E+06   -57.467664E+06   -57.467572E+06   344.824512E+06   10.7049482E+03   3.64193408E+03
              400   114.942488E+06   -57.471692E+06    -57.47148E+06   344.827968E+06      -52.8686180       19.8515530
              401   114.942576E+06   -57.471604E+06    -57.47148E+06   344.828032E+06      -100.002296      -15.5489578
              402   114.942576E+06   -57.471536E+06   -57.471312E+06   344.827968E+06      -28.6765671      -17.0753098
              403   114.942456E+06    -57.47176E+06   -57.471704E+06   344.828224E+06       18.1818333       18.7287216
              404   114.942648E+06    -57.47184E+06   -57.471592E+06   344.828064E+06      -35.7354088       83.2010269
              405   114.942848E+06    -57.46944E+06   -57.470748E+06   344.827712E+06      -497.132202      -516.929993
              406    114.94272E+06   -57.470792E+06   -57.471516E+06    344.82816E+06       66.5328064       283.596832
              407   114.943768E+06   -57.472188E+06   -57.471144E+06   344.827904E+06       568.285339      -860.534668
              408   114.942744E+06    -57.47098E+06   -57.470928E+06   344.827968E+06      -335.373566      -94.4433441
              409   114.942808E+06   -57.471156E+06    -57.47136E+06   344.828256E+06      -10.4314499      -71.5989838
              410   114.942384E+06   -57.470996E+06   -57.471728E+06   344.828448E+06       234.572464       99.1533279
              411   114.942704E+06   -57.471376E+06   -57.471236E+06      344.828E+06       85.7124939       58.4214020
              412   114.942848E+06   -57.471356E+06   -57.471328E+06   344.828192E+06       43.3816032       82.4979553
              413   114.942624E+06   -57.471484E+06   -57.471236E+06   344.827904E+06       17.9648380      -56.6001282
              414   114.942696E+06   -57.471504E+06     -57.4711E+06   344.828288E+06      -56.8747482      -82.9571686
              415   114.942352E+06   -57.474024E+06   -57.473128E+06   344.828672E+06      -568.991272      -2.56939697
              416   114.943016E+06   -57.471132E+06   -57.470976E+06    344.82784E+06      -308.801239      -182.695313
              417   114.941696E+06   -57.471208E+06   -57.471792E+06   344.827904E+06       413.997437      -150.783249
              418   114.942536E+06   -57.471424E+06   -57.470884E+06   344.827808E+06       216.409836       131.466400
              419   114.941712E+06    -57.47262E+06   -57.472156E+06   344.825728E+06       75.5212708      -242.477753
              420   114.940808E+06   -57.472928E+06   -57.473568E+06   344.829472E+06       203.367523       457.774597
              421   114.942832E+06   -57.472432E+06   -57.471736E+06    344.82864E+06       15.0825262       850.480896
              422   114.943288E+06   -57.470732E+06   -57.470944E+06    344.82784E+06       128.923431       168.805389
              423   114.940272E+06   -57.472128E+06   -57.471692E+06   344.827776E+06       176.861481      -260.790588
              424   114.941616E+06    -57.47142E+06   -57.471808E+06   344.828416E+06       244.050491      -158.071381
              425   114.943664E+06   -57.473816E+06   -57.469584E+06    344.82864E+06      -859.920166       389.569153
              426   114.932192E+06   -57.481136E+06   -57.479092E+06   344.827808E+06      -683.172791   1.05316357E+03
              427     114.9464E+06   -57.468368E+06   -57.468464E+06    344.82768E+06   1.36254028E+03      -537.180847
              428    114.94452E+06   -57.469512E+06   -57.469928E+06   344.829056E+06       554.281677       270.459900
              429   114.946112E+06   -57.470152E+06   -57.469264E+06   344.827968E+06       5.15654278      -635.431213
              430    114.93568E+06   -57.475636E+06   -57.475648E+06   344.827648E+06      -179.185516       1.32682037
              431   114.943152E+06   -57.471176E+06   -57.470796E+06   344.827968E+06      -170.067719       32.4298668
              432   114.931696E+06    -57.48314E+06   -57.479656E+06   344.827072E+06      -25.9942322       864.909180
              433   114.942608E+06   -57.471448E+06   -57.471288E+06   344.827968E+06      -133.563217       56.4231491
              434   114.941904E+06    -57.47202E+06   -57.471892E+06   344.828352E+06       183.561584       392.604034
              435   114.939488E+06   -57.474192E+06   -57.473088E+06    344.82736E+06       178.950851       899.013184
              436   114.942544E+06   -57.471504E+06    -57.47136E+06   344.828064E+06       58.3482704       87.7763596
              437     114.9428E+06   -57.471652E+06   -57.471356E+06   344.827872E+06      -123.075272      -67.3508530
              438   114.942496E+06   -57.471836E+06   -57.471268E+06   344.827872E+06       30.2893772      -203.346100
              439   114.943328E+06   -57.470692E+06   -57.470804E+06   344.828032E+06       2.69776154       432.333557
              440   114.941888E+06     -57.4714E+06   -57.471092E+06    344.82752E+06      -263.990936       547.869934
              441   114.942384E+06   -57.472144E+06   -57.471564E+06   344.827936E+06       48.5801353       45.6071320
              442    114.94224E+06   -57.471864E+06   -57.471644E+06   344.827424E+06      -16.9425964       64.2842407
              443    114.94276E+06     -57.4718E+06    -57.47104E+06   344.827872E+06       37.3274727      -377.689026
              444    114.94368E+06   -57.470752E+06   -57.471008E+06   344.827648E+06      -245.042282       484.397827
              445   114.943472E+06   -57.469888E+06   -57.470352E+06   344.827968E+06       52.5363808      -12.7516899
              446   114.943328E+06   -57.470484E+06   -57.470664E+06    344.82832E+06      -44.2357864      -193.981247
              447      114.943E+06    -57.47098E+06   -57.471152E+06   344.827904E+06      -185.221863       91.6680832
              448   114.942864E+06   -57.471132E+06   -57.471152E+06   344.828032E+06      -44.6334190       57.8263245
              449   114.943032E+06    -57.47112E+06    -57.47112E+06   344.828064E+06      -96.1728210       36.5667686
              450   114.944336E+06   -57.470636E+06   -57.470656E+06   344.828544E+06      -590.986572      -247.427322
              451   114.938808E+06   -57.474392E+06   -57.473656E+06   344.826688E+06       485.321594       611.018433
              452   114.943776E+06   -57.472548E+06     -57.4715E+06   344.828256E+06      -184.227554      -143.602570
              453   114.941616E+06   -57.472328E+06   -57.470588E+06   344.828032E+06      -878.075439      -744.320862
              454    114.94264E+06   -57.471096E+06    -57.47108E+06    344.82832E+06      -409.780457      -140.096451
              455   114.941536E+06   -57.469864E+06   -57.470424E+06   344.827904E+06      -8.38602829      -406.791229
              456    114.94248E+06     -57.4753E+06   -57.472208E+06   344.829312E+06       194.168472      -325.213684
              457   114.942384E+06   -57.471592E+06   -57.471656E+06   344.828384E+06      -117.470078       196.876968
              458   114.945952E+06   -57.468352E+06    -57.46762E+06   344.827584E+06       295.781952       641.148804
              459   114.941384E+06   -57.474392E+06   -57.473372E+06    344.82768E+06  -1.01363159E+03       671.144653
              460   114.942008E+06   -57.469152E+06   -57.471888E+06   344.827712E+06      -703.873596      -546.741577
              461   114.939672E+06   -57.471656E+06   -57.473104E+06   344.829952E+06      -232.320374   1.33233118E+03
              462   114.942344E+06    -57.47106E+06   -57.471424E+06   344.828192E+06       8.42786980      -111.904503
              463     114.9432E+06   -57.471504E+06    -57.47156E+06   344.827712E+06       51.1665421       393.615753
              464    114.94288E+06   -57.471144E+06   -57.471276E+06   344.828128E+06       98.0879059       50.6620979
              465   114.942624E+06   -57.471344E+06   -57.471296E+06   344.827968E+06       77.2217789       8.53164387
              466   114.942376E+06    -57.47142E+06    -57.47152E+06      344.828E+06      -135.858032       24.1968746
              467   114.942528E+06    -57.47062E+06    -57.47072E+06   344.828576E+06      -387.025757      -134.308624
              468    114.94296E+06    -57.47114E+06   -57.471152E+06   344.828032E+06       114.727112       67.1460266
              469   114.942592E+06   -57.471304E+06   -57.471252E+06      344.828E+06       73.9052811       52.2364120
              470   114.942768E+06   -57.471488E+06    -57.47118E+06   344.828032E+06       52.7249260       209.022614
              471   114.942728E+06   -57.471464E+06   -57.471312E+06   344.828032E+06       38.4142303       150.352112
              472   114.942816E+06   -57.471148E+06    -57.47096E+06   344.827968E+06      -109.270821      -58.4878387
              473    114.94252E+06   -57.471484E+06   -57.471604E+06   344.828032E+06       181.451904   435.346603E-03
              474      114.942E+06   -57.471592E+06   -57.471592E+06   344.828096E+06       139.247253       86.8231506
              475   114.946176E+06   -57.469076E+06   -57.467524E+06   344.827456E+06      -324.702759      -118.195908
              476   114.943784E+06   -57.472184E+06   -57.469888E+06    344.82688E+06       113.458740       155.707977
              477   114.942688E+06   -57.471768E+06   -57.470736E+06   344.827776E+06      -376.732178       162.727753
              478   114.942696E+06   -57.471296E+06   -57.471372E+06   344.828032E+06      -81.0116272   172.669098E-03
              479   114.942624E+06   -57.471252E+06   -57.471352E+06      344.828E+06      -63.4582520      -101.309662
              480   114.942712E+06   -57.470808E+06   -57.471296E+06   344.828064E+06      -136.505707      -213.830811
              481   114.942528E+06   -57.471028E+06   -57.471368E+06   344.828064E+06      -47.1484489      -97.2986069
              482    114.94072E+06   -57.471696E+06   -57.471784E+06   344.827232E+06      -344.429138      -883.660400
              483   114.942512E+06   -57.470804E+06   -57.471176E+06   344.827968E+06       13.1643991      -210.258057
              484   114.942688E+06   -57.471616E+06    -57.47194E+06   344.827936E+06      -80.7265701       96.0401764
              485    114.94164E+06    -57.47162E+06   -57.472888E+06   344.829632E+06      -581.523804      -844.283203
              486   114.944496E+06   -57.470144E+06   -57.469772E+06    344.82752E+06       417.330780       363.932220
              487   114.943496E+06   -57.470608E+06   -57.470396E+06   344.827712E+06       49.1363678      -104.806015
              488   114.937648E+06   -57.475228E+06   -57.475172E+06   344.828544E+06      -782.259644       253.276978
              489   114.942176E+06   -57.471312E+06    -57.47132E+06    344.82816E+06       69.8680420      -3.10208130
              490   114.942848E+06   -57.471108E+06   -57.470568E+06    344.82768E+06      -228.883865       111.162399
              491   114.942304E+06   -57.471528E+06   -57.471216E+06    344.82768E+06       229.717926       219.441803
              492   114.942648E+06   -57.471876E+06   -57.471084E+06   344.827488E+06       5.82227135       40.4441757
              493   114.942416E+06   -57.471576E+06   -57.471252E+06   344.827968E+06       128.235504      -71.4063873
              494   114.942576E+06   -57.471248E+06    -57.47118E+06   344.828064E+06       75.2782288       86.7838898
              495   114.942544E+06   -57.471356E+06    -57.47122E+06   344.828032E+06       78.8969116       64.2002563
              496   114.942832E+06   -57.471396E+06   -57.470932E+06   344.828192E+06       181.032654       30.5734138
              497   114.942616E+06    -57.47156E+06   -57.471196E+06      344.828E+06       91.5139465      -35.0059586
              498   114.942552E+06   -57.471356E+06   -57.471304E+06   344.827936E+06       46.2476311      -85.2462311
              499   114.942552E+06   -57.471472E+06   -57.471244E+06   344.827968E+06       103.154457      -83.5526657
              500   114.942688E+06   -57.471272E+06   -57.470872E+06   344.828096E+06       81.7070923      -15.0122490
              501   114.942736E+06    -57.47102E+06    -57.47146E+06   344.828096E+06       145.964432       24.8204842
              502   114.942704E+06    -57.47122E+06   -57.471292E+06   344.827968E+06       53.7647324      -36.8675079
              503   114.942432E+06   -57.471304E+06   -57.471216E+06   344.828032E+06       75.1453781       117.178055
              504   114.942616E+06     -57.4713E+06   -57.471344E+06   344.827968E+06       65.5566635      -26.7682381
              505    114.94256E+06   -57.471224E+06   -57.471264E+06   344.827968E+06       23.1238155       82.4059219
              506   114.948648E+06    -57.46334E+06   -57.465016E+06   344.825888E+06       214.827530       234.118927
              507   114.941008E+06   -57.471856E+06   -57.472292E+06   344.827936E+06       124.053154      -55.7609062
              508   114.946672E+06   -57.470204E+06   -57.469992E+06   344.828224E+06      -313.857666      -502.860535
              509    114.94208E+06   -57.472184E+06   -57.470972E+06    344.82784E+06       254.039474       10.6438036
              510    114.94088E+06   -57.471496E+06   -57.472056E+06   344.827392E+06       237.276886       490.892456
              511    114.94472E+06    -57.46886E+06   -57.469776E+06   344.827552E+06      -663.155273       217.353378
              512    114.94344E+06   -57.470792E+06   -57.470992E+06   344.828096E+06      -92.9358444      -123.968338
              513   114.942432E+06   -57.470508E+06   -57.470328E+06   344.828288E+06      -479.309326      -67.5529633
              514   114.943136E+06    -57.47158E+06    -57.47156E+06   344.828128E+06      -36.4478111      -201.771179
              515   114.942736E+06     -57.4713E+06    -57.47154E+06   344.828096E+06       73.8045959      -47.4584885
              516   114.944376E+06    -57.46976E+06   -57.468928E+06   344.827904E+06       414.537354       670.730896
              517   114.937848E+06   -57.473608E+06    -57.47362E+06   344.826784E+06       241.705948       551.085449
              518   114.942576E+06   -57.471192E+06   -57.471396E+06   344.828032E+06       3.27873421      -29.3501740
              519   114.942896E+06   -57.470852E+06   -57.471256E+06   344.828064E+06      -30.0179062       11.2415218
              520    114.94308E+06   -57.471108E+06    -57.47086E+06   344.828032E+06       142.235107       39.9703560
              521   114.942848E+06   -57.470992E+06   -57.471252E+06   344.828064E+06      -50.3498421       38.9059105
              522   114.942736E+06   -57.471304E+06   -57.471252E+06      344.828E+06       79.6687775       52.2890015
              523   114.942688E+06   -57.471428E+06   -57.471392E+06      344.828E+06      -64.8254395       49.1872787
              524   114.942616E+06   -57.471348E+06   -57.471364E+06   344.827968E+06      -46.1055679      -48.0963593
              525   114.942592E+06   -57.471244E+06   -57.471292E+06   344.827968E+06       3.69036579      -142.349487
              526   114.942624E+06    -57.47112E+06   -57.471372E+06   344.828064E+06      -81.4028244      -67.9301834
              527    114.94264E+06   -57.471128E+06   -57.471332E+06   344.827968E+06       24.2331123      -16.6597157
              528   114.942768E+06   -57.471428E+06   -57.471992E+06   344.827904E+06       21.3831825       93.2917938
              529     114.9424E+06    -57.47164E+06   -57.471376E+06   344.828032E+06      -182.128433       219.818466
              530   114.941856E+06   -57.470068E+06   -57.470844E+06   344.827648E+06       74.8248444      -505.969604
              531   114.944312E+06   -57.471704E+06    -57.46856E+06   344.826752E+06       288.505829       642.711975
              532   114.942416E+06   -57.470676E+06   -57.470484E+06   344.827136E+06       340.747528       83.8962097
              533   114.944584E+06   -57.470464E+06   -57.470492E+06   344.827936E+06       450.975037       757.838989
              534   114.941136E+06   -57.471256E+06   -57.473328E+06   344.830464E+06  -1.12100500E+03       266.736176
              535   114.941896E+06   -57.470956E+06   -57.471184E+06   344.828096E+06      -165.108139       369.181732
              536   114.942512E+06   -57.471248E+06     -57.4713E+06   344.827392E+06       15.6157837       632.870850
              537   114.941184E+06   -57.472652E+06   -57.471696E+06   344.828064E+06      -28.9798584       549.836731
              538   114.947984E+06   -57.465408E+06   -57.467824E+06   344.828064E+06   1.04223486E+03       484.294312
              539   114.942624E+06   -57.472188E+06   -57.471432E+06   344.827648E+06       137.812531       115.480125
              540   114.941712E+06   -57.472104E+06    -57.47168E+06    344.82832E+06       17.2581806       5.74891663
              541   114.942752E+06   -57.471072E+06    -57.47132E+06      344.828E+06       101.970703       55.3528519
              542   114.942912E+06   -57.471184E+06   -57.471104E+06   344.828128E+06       5.94185829       194.707153
              543   114.942672E+06   -57.470588E+06    -57.47154E+06   344.827968E+06      -31.7312241       229.074020
              544   114.943064E+06    -57.47132E+06     -57.4716E+06   344.828096E+06       90.9575272       140.612656
              545   114.942944E+06   -57.471128E+06    -57.47116E+06   344.828256E+06       247.373276       176.573349
              546   114.942088E+06   -57.472036E+06   -57.471496E+06   344.828096E+06      -253.766663      -34.7229691
              547   114.942328E+06   -57.471856E+06    -57.47134E+06   344.827904E+06       83.8251343       146.527267
              548    114.94232E+06   -57.471744E+06   -57.471416E+06   344.827936E+06      -132.112000       72.0828171
              549   114.942648E+06   -57.471476E+06   -57.471232E+06   344.827904E+06      -48.3009834      -88.0666656
              550    114.94288E+06   -57.471264E+06   -57.471204E+06    344.82816E+06       48.6627655       361.608215
              551   114.942696E+06   -57.471248E+06   -57.471432E+06   344.828032E+06       72.4117203       118.407227
              552   114.942568E+06   -57.471176E+06   -57.471456E+06   344.828064E+06      -10.6001244      -4.86512756
              553    114.94224E+06   -57.471604E+06    -57.47138E+06    344.82848E+06       48.3247452      -158.568924
              554   114.942624E+06   -57.471636E+06   -57.471624E+06   344.828096E+06      -142.676758      -96.0977631
              555   114.942592E+06   -57.470952E+06   -57.471232E+06      344.828E+06   769.983649E-03      -88.8749466
              556   114.943008E+06   -57.472332E+06   -57.470932E+06   344.827968E+06      -241.064713      -237.008713
              557    114.94276E+06    -57.47152E+06   -57.470808E+06   344.827744E+06       188.850861       77.3249817
              558    114.94276E+06   -57.470972E+06    -57.47124E+06   344.828096E+06      -46.9178162      -43.1727524
              559    114.94248E+06   -57.471824E+06   -57.471448E+06   344.827936E+06      -38.7122116       20.8840847
              560   114.942472E+06   -57.471548E+06   -57.471456E+06      344.828E+06      -120.558052      -78.0455780
              561    114.94152E+06    -57.47142E+06   -57.471692E+06   344.828064E+06      -436.388794      -108.223755
              562   114.947328E+06   -57.469404E+06   -57.470904E+06   344.827616E+06   1.13836353E+03       943.339844
              563   114.942504E+06   -57.471472E+06   -57.471424E+06   344.828224E+06      -23.4870510       60.3445549
              564   114.942832E+06   -57.469532E+06    -57.47076E+06   344.828352E+06      -214.911636      -197.077469
              565   114.942152E+06   -57.471232E+06   -57.472496E+06   344.828352E+06      -149.685562       112.854027
              566   114.942992E+06   -57.471076E+06    -57.47128E+06      344.828E+06       93.9035950       27.9651451
              567   114.942592E+06   -57.471596E+06   -57.471288E+06   344.827936E+06      -84.7057037      -122.615463
              568   114.942432E+06   -57.470884E+06   -57.471544E+06   344.827968E+06       267.397247       37.1310196
              569   114.942752E+06   -57.471152E+06   -57.471376E+06   344.828032E+06       78.7832108       19.9657669
              570   114.942776E+06   -57.471332E+06   -57.471416E+06   344.827936E+06       136.056351       138.905945
              571   114.942448E+06   -57.471684E+06   -57.471372E+06      344.828E+06      -148.924362       14.6989937
              572   114.942608E+06   -57.471492E+06   -57.471312E+06   344.827936E+06       6.76102686       81.6779938
              573   114.942944E+06    -57.47114E+06   -57.471488E+06    344.82816E+06       37.1087570      -3.51047754
              574   114.942376E+06   -57.471568E+06   -57.471408E+06   344.827904E+06      -22.1793842       247.261200
              575   114.940976E+06   -57.472896E+06   -57.471996E+06    344.82816E+06       197.299255       203.615433
              576   114.940088E+06    -57.47208E+06    -57.47152E+06   344.827648E+06   1.11149536E+03      -239.787048
              577   114.942464E+06   -57.472088E+06   -57.471304E+06   344.827968E+06       211.439514      -45.2186775
              578    114.94252E+06    -57.47292E+06   -57.471108E+06    344.82752E+06      -174.781342       230.777206
              579   114.942736E+06   -57.471352E+06    -57.47124E+06   344.828032E+06       38.8853874       159.384308
              580   114.942624E+06   -57.471516E+06    -57.47122E+06   344.827968E+06       72.5569992      -24.6449757
              581   114.942648E+06   -57.471616E+06   -57.471216E+06   344.827904E+06      -58.3950653      -108.243645
              582   114.942648E+06   -57.471128E+06   -57.471444E+06   344.828064E+06       32.4463921       18.2497005
              583    114.94248E+06   -57.471272E+06   -57.471344E+06   344.827904E+06       39.0504799      -124.273224
              584   114.942512E+06    -57.47144E+06   -57.471288E+06      344.828E+06      -12.0463371      -187.055252
              585   114.953752E+06   -57.461364E+06   -57.459784E+06   344.820544E+06   5.27113428E+03       858.350952
              586   114.947152E+06   -57.467492E+06   -57.469036E+06   344.829024E+06      -263.949524      -464.049805
              587   114.943216E+06   -57.471856E+06    -57.47076E+06   344.826688E+06       260.650818      -116.548935
              588   114.942552E+06   -57.471252E+06   -57.471208E+06   344.827904E+06       63.5161285      -176.151520
              589   114.942704E+06   -57.471472E+06   -57.471336E+06   344.828096E+06      -133.557800      -126.067108
              590   114.942632E+06   -57.471328E+06   -57.471388E+06   344.827968E+06      -28.3495865       49.6796417
              591   114.941936E+06    -57.47168E+06   -57.471588E+06   344.828512E+06       143.074219      -422.925903
              592   114.941688E+06   -57.471592E+06   -57.471652E+06   344.828608E+06      -46.0751190      -111.775948
              593    114.94008E+06   -57.475036E+06   -57.475664E+06    344.82864E+06      -183.070450       897.093384
              594   114.935544E+06    -57.47466E+06   -57.474608E+06   344.826176E+06   4.73536572E+03   1.78860303E+03
              595   114.942544E+06   -57.471684E+06   -57.471544E+06    344.82816E+06       38.4335098       208.601990
              596   114.942544E+06   -57.471316E+06   -57.471784E+06    344.82816E+06       311.306335       74.6043320
              597   114.942368E+06    -57.47182E+06   -57.471596E+06   344.828096E+06      -42.4486427      -22.7986526
              598    114.94248E+06   -57.471788E+06    -57.47154E+06   344.827776E+06      -123.850632      -200.550064
              599   114.945296E+06   -57.471384E+06   -57.471244E+06   344.828032E+06      -411.531799       127.352081
              600   114.942848E+06    -57.47444E+06   -57.474264E+06   344.829184E+06      -305.712891      -265.913269
              601    114.93636E+06   -57.477024E+06   -57.479888E+06   344.830656E+06   3.38095801E+03       860.214172
              602   114.943432E+06    -57.47206E+06   -57.471524E+06   344.829312E+06   1.31017773E+03       333.982788
              603   114.952432E+06   -57.458216E+06   -57.459528E+06      344.828E+06  -2.24114453E+03      -948.744629
              604   114.938712E+06   -57.474176E+06   -57.472936E+06   344.829888E+06  -1.32852661E+03       649.758179
              605   114.937784E+06    -57.47546E+06   -57.477728E+06   344.827104E+06       30.9474792  -1.24787256E+03
              606   114.947848E+06   -57.465396E+06   -57.467336E+06   344.827616E+06      -732.300476       613.546631
              607   114.915424E+06   -57.488556E+06   -57.488092E+06     344.8248E+06   5.17837207E+03       648.268066
              608    114.94512E+06   -57.470364E+06    -57.47092E+06    344.82832E+06       364.110107      -334.045685
              609   114.942624E+06   -57.471704E+06   -57.471596E+06   344.828288E+06       140.552826       183.232269
              610   114.942432E+06   -57.471752E+06   -57.471508E+06   344.828128E+06       12.9180059       91.2151031
              611   114.943128E+06     -57.4719E+06     -57.4716E+06   344.828384E+06      -177.853180      -80.2841797
              612   114.941944E+06   -57.472056E+06   -57.472064E+06    344.82848E+06      -260.589661      -165.845947
              613   114.941832E+06   -57.472388E+06    -57.47252E+06   344.828448E+06      -209.773880       57.3920135
              614   114.942408E+06   -57.471408E+06   -57.471492E+06    344.82784E+06       18.9257545      -166.200974
              615   114.942224E+06   -57.471024E+06   -57.470912E+06   344.828032E+06      -155.236603       54.7199554
              616   114.942648E+06   -57.471384E+06   -57.471308E+06   344.827936E+06       64.1051712      -44.2625084
              617    114.94176E+06   -57.471308E+06   -57.471472E+06   344.827392E+06      -567.164795      -229.906921
              618   114.942032E+06   -57.472368E+06   -57.472736E+06    344.82816E+06       116.669868      -22.3932495
              619   114.941952E+06   -57.472184E+06   -57.473224E+06   344.828224E+06      -57.0002937       113.886871
              620    114.93816E+06   -57.473764E+06   -57.474572E+06   344.828224E+06      -53.0197296      -592.570557
              621    114.94236E+06   -57.470568E+06   -57.471332E+06   344.828192E+06       65.7174301      -245.720383
              622   114.943512E+06   -57.470364E+06   -57.470716E+06   344.827552E+06       169.533112      -651.113098
              623   114.942192E+06   -57.471508E+06    -57.47204E+06   344.828128E+06      -78.0773773      -53.3541794
              624    114.94128E+06   -57.472116E+06    -57.47248E+06   344.828384E+06       145.440994      -20.9036865
              625   114.945688E+06   -57.469876E+06   -57.469872E+06   344.827776E+06      -600.746826      -10.6280479
              626   114.943608E+06   -57.470728E+06   -57.471144E+06   344.828352E+06       335.101685       103.909874
              627   114.942952E+06    -57.47124E+06   -57.471632E+06   344.827968E+06       198.765915      -81.8685989
              628   114.943904E+06   -57.471612E+06   -57.471152E+06   344.827904E+06      -199.845947       19.2751846
              629   114.942632E+06   -57.471444E+06   -57.471368E+06   344.828032E+06      -71.5760193       80.6798782
              630   114.942704E+06   -57.471124E+06   -57.471364E+06   344.828224E+06      -138.030670      -94.0607452
              631   114.942664E+06   -57.471432E+06   -57.471208E+06   344.827936E+06      -59.7019539      -53.0639191
              632   114.942928E+06    -57.47126E+06    -57.47116E+06   344.828032E+06       22.2811699       88.4140244
              633   114.942648E+06   -57.471344E+06   -57.471388E+06   344.828032E+06      -60.9928970       27.5499191
              634   114.942648E+06   -57.471396E+06   -57.471496E+06   344.828096E+06      -40.6744995       78.2761841
              635   114.949336E+06   -57.464232E+06   -57.465808E+06   344.828608E+06      -235.497589  -1.12489172E+03
              636   114.942648E+06    -57.47148E+06   -57.471168E+06   344.827872E+06       7.67708111       55.6805496
              637     114.9426E+06   -57.471624E+06   -57.471944E+06   344.828576E+06       58.1493835      -293.603271
              638   114.942704E+06   -57.471548E+06   -57.471116E+06   344.828064E+06       21.9977818      -17.0518456
              639   114.942704E+06   -57.471352E+06   -57.471432E+06      344.828E+06      -38.3600502      -7.88217354
              640   114.942544E+06   -57.471624E+06   -57.471228E+06   344.828032E+06      -34.9134636      -26.0866127
              641   114.944064E+06   -57.470792E+06    -57.47004E+06   344.827552E+06      -388.493103       650.337769
              642   114.941848E+06    -57.47126E+06    -57.47138E+06    344.82752E+06  -265.579224E-03       154.359451
              643    114.94256E+06    -57.47144E+06   -57.471356E+06   344.827968E+06      -19.4220562      -91.8710480
              644    114.94268E+06   -57.471424E+06   -57.471352E+06   344.828064E+06      -34.0052185      -19.1589031
              645   114.942664E+06   -57.471484E+06   -57.471372E+06      344.828E+06      -64.9309692      -23.3005543
              646   114.942672E+06   -57.471288E+06   -57.471364E+06    344.82816E+06       14.9975281      -115.799667
              647   114.942616E+06    -57.47164E+06    -57.47152E+06   344.827968E+06       14.9842806       113.945190
              648   114.942712E+06   -57.471184E+06   -57.471408E+06   344.828096E+06       80.0079422      -9.21461296
              649     114.9428E+06    -57.47114E+06   -57.471316E+06   344.827968E+06       67.2823105       103.491486
              650   114.942672E+06   -57.471248E+06   -57.471348E+06   344.828032E+06      -90.1483765      -98.1068344
              651   114.942512E+06   -57.471648E+06   -57.471392E+06      344.828E+06      -65.2742996      -243.293762
              652   114.942616E+06   -57.471532E+06    -57.47142E+06      344.828E+06      -69.6409988       20.6953278
              653   114.942792E+06   -57.471244E+06   -57.471372E+06   344.828192E+06      -134.929001       10.3911448
              654   114.942672E+06    -57.47154E+06   -57.471352E+06   344.828096E+06      -174.261169      -121.506409
              655   114.943072E+06   -57.471312E+06   -57.471368E+06   344.828032E+06       143.354660       134.687653
              656   114.942776E+06   -57.471192E+06   -57.471252E+06      344.828E+06      -55.0697098      -14.9361134
              657   114.942816E+06   -57.471396E+06    -57.47142E+06      344.828E+06      -126.614723       15.1164465
              658   114.942624E+06    -57.47122E+06   -57.471088E+06   344.828032E+06       78.0518112       120.387466
              659    114.94288E+06   -57.471192E+06   -57.470792E+06   344.827968E+06       294.492493       185.957642
              660   114.942784E+06   -57.471516E+06     -57.4713E+06   344.827936E+06      -34.5929413       202.569260
              661   114.943736E+06   -57.470508E+06    -57.47142E+06   344.828032E+06      -656.613525       461.048035
              662   114.942816E+06   -57.471264E+06    -57.47114E+06    344.82784E+06       46.2801361       220.036438
              663    114.94248E+06   -57.471324E+06    -57.47124E+06   344.827904E+06       55.1199722       51.4317551
              664   114.942944E+06   -57.470936E+06   -57.471808E+06    344.82784E+06      -621.938965       375.623352
              665   114.942736E+06    -57.47154E+06   -57.471192E+06    344.82784E+06      -117.576721       5.87395763
              666   114.942664E+06   -57.471244E+06   -57.471224E+06   344.827904E+06      -45.5029755      -40.4903908
              667   114.946848E+06   -57.469532E+06    -57.46978E+06   344.829152E+06       64.0621643       372.679138
              668    114.94264E+06    -57.47156E+06     -57.4712E+06   344.827904E+06      -32.6939659      -6.64926958
              669    114.94276E+06   -57.471328E+06   -57.471136E+06   344.827968E+06      -78.3208160      -127.805756
              670   114.942568E+06     -57.4716E+06   -57.471296E+06   344.827904E+06      -56.4581871      -56.8162384
              671   114.942464E+06   -57.471624E+06    -57.47132E+06   344.827968E+06       52.6470680      -113.331696
              672    114.94232E+06    -57.47302E+06    -57.47252E+06   344.828288E+06  -1.13813391E+03       73.0374451
              673   114.942288E+06    -57.47166E+06   -57.471532E+06    344.82816E+06      -42.8067551       21.5251846
              674   114.951912E+06     -57.4594E+06   -57.458992E+06   344.821504E+06   1.68542969E+03       538.532410
              675   114.942496E+06   -57.471528E+06   -57.471424E+06   344.827904E+06       122.130684      -96.8447418
              676   114.942696E+06   -57.471548E+06   -57.471452E+06   344.828032E+06      -17.0157776      -1.15436554
              677   114.942504E+06    -57.47126E+06   -57.471488E+06   344.828064E+06      -124.133698       58.3558693
              678    114.94296E+06   -57.470912E+06   -57.470976E+06    344.82816E+06      -99.8928223      -76.7716064
              679   114.941776E+06   -57.471316E+06   -57.471272E+06   344.827744E+06      -394.934601       509.563049
              680   114.942736E+06   -57.471336E+06    -57.47136E+06   344.827968E+06      -37.5286751       48.0820847
              681   114.942848E+06   -57.471524E+06   -57.471272E+06      344.828E+06      -156.763519       300.227203
              682    114.94264E+06   -57.471008E+06   -57.471452E+06   344.827968E+06       32.1733704       147.149750
              683   114.943384E+06   -57.471192E+06   -57.471936E+06    344.82848E+06       606.592651       635.192322
              684     114.9426E+06   -57.471188E+06   -57.471384E+06   344.828032E+06      -51.2644958      -38.4567947
              685    114.94272E+06   -57.471292E+06   -57.471276E+06   344.827968E+06      -30.5917797      -44.9141464
              686   114.942608E+06   -57.470976E+06   -57.471276E+06      344.828E+06      -25.5864887      -59.5681839
              687    114.94264E+06   -57.471188E+06   -57.471388E+06   344.828064E+06      -17.9344254      -11.3981037
              688    114.94264E+06    -57.47118E+06   -57.471392E+06   344.828064E+06      -108.552498      -94.8955536
              689    114.94264E+06   -57.471184E+06   -57.471392E+06   344.828096E+06       13.9297066      -30.3765450
              690    114.94268E+06   -57.471176E+06   -57.471412E+06   344.828032E+06       59.4848671       75.3136292
              691    114.94272E+06   -57.471684E+06     -57.4713E+06   344.827904E+06       27.5714798       2.81172562
              692   114.942688E+06   -57.471288E+06   -57.471288E+06   344.827904E+06       54.4143753       8.04995728
              693    114.94276E+06    -57.47118E+06   -57.471368E+06   344.827968E+06      -170.947937      -90.6379776
              694   114.942688E+06   -57.471276E+06    -57.47128E+06   344.828064E+06       52.3750496      -44.7978058
              695   114.942752E+06   -57.471228E+06    -57.47132E+06      344.828E+06       76.5373230       139.882263
              696   114.942952E+06   -57.473996E+06   -57.471452E+06   344.830528E+06      -500.696655  -1.02381860E+03
              697   114.942536E+06   -57.471652E+06   -57.471716E+06   344.828096E+06      -17.5264893      -163.501282
              698    114.94256E+06   -57.471464E+06   -57.471504E+06   344.827968E+06       45.7166138       2.27258015
              699   114.942624E+06   -57.471268E+06   -57.471372E+06   344.828096E+06       47.1376724      -150.778885
              700   114.942528E+06   -57.471312E+06   -57.471476E+06    344.82784E+06       63.1591187       16.7977409
              701   114.942664E+06   -57.471088E+06   -57.471304E+06      344.828E+06      -1.35202277      -16.0722771
              702   114.942688E+06   -57.471256E+06   -57.471492E+06   344.828096E+06      -5.48075771      -7.31653547
              703   114.942608E+06    -57.47116E+06   -57.471432E+06   344.828064E+06       6.59999084  -375.286818E-03
              704   114.942624E+06   -57.471188E+06   -57.471396E+06   344.828032E+06      -2.57352138       8.59980583
              705     114.9426E+06   -57.471264E+06   -57.471456E+06   344.828096E+06      -25.8947945  -673.238993E-03
              706   114.942688E+06   -57.471172E+06   -57.471332E+06      344.828E+06      -132.848740      -23.7211304
              707   114.943024E+06   -57.470944E+06    -57.47114E+06   344.827712E+06      -33.9029503      -29.7893753
              708   114.943736E+06    -57.47056E+06   -57.470876E+06   344.828608E+06       320.450012       141.737274
              709   114.942704E+06    -57.47112E+06   -57.471032E+06   344.827936E+06      -42.6386566       103.745445
              710   114.943288E+06   -57.471324E+06   -57.470448E+06   344.828128E+06      -188.425018      -482.562378
              711   114.942616E+06    -57.47154E+06    -57.47132E+06      344.828E+06      -27.9089851      -11.6987438
              712   114.942448E+06   -57.471352E+06   -57.471624E+06   344.828352E+06      -359.195587      -142.010773
              713   114.940952E+06   -57.472588E+06   -57.472612E+06   344.828928E+06      -613.922485       716.027100
              714   114.943176E+06   -57.471704E+06   -57.471264E+06   344.827776E+06      -125.236633      -266.350616
              715   114.943928E+06   -57.467252E+06     -57.4698E+06   344.827648E+06      -493.651184       383.291412
              716     114.9428E+06   -57.471816E+06   -57.471192E+06   344.827904E+06      -109.474998      -203.088654
              717    114.94328E+06   -57.470708E+06    -57.47042E+06   344.828096E+06      -493.154510       322.221619
              718    114.94188E+06   -57.471592E+06   -57.471956E+06   344.828384E+06      -57.2688828      -102.435303
              719   114.941968E+06   -57.471516E+06   -57.471996E+06   344.828032E+06       95.4480438      -420.910156
              720   114.941792E+06   -57.471268E+06   -57.472624E+06   344.828896E+06       257.671326  -1.10752686E+03
              721    114.94264E+06   -57.471568E+06   -57.471192E+06   344.828064E+06      -88.8006210      -216.019989
              722   114.942744E+06   -57.471628E+06   -57.470952E+06   344.828352E+06      -275.564026      -116.922409
              723   114.942528E+06   -57.471484E+06   -57.471288E+06   344.827968E+06       29.2583885      -51.5708008
              724   114.942624E+06   -57.471592E+06   -57.471256E+06   344.827936E+06      -172.205276       93.3999939
              725   114.942608E+06   -57.471624E+06   -57.471332E+06      344.828E+06      -36.8297272      -8.31167507
              726   114.943104E+06   -57.471572E+06   -57.470976E+06   344.827808E+06      -305.318481       170.993301
              727   114.942704E+06   -57.471712E+06    -57.47132E+06   344.827904E+06      -165.849350      -12.3152723
              728   114.940712E+06   -57.472228E+06   -57.472616E+06    344.82768E+06      -305.346741       198.303711
              729    114.94236E+06    -57.47282E+06    -57.47188E+06    344.82848E+06       688.375793      -328.199890
              730   114.943304E+06   -57.470844E+06   -57.471104E+06   344.827712E+06       17.2563210      -46.8511848
              731   114.936016E+06     -57.4775E+06    -57.47658E+06   344.827328E+06       596.010376       56.5701675
              732   114.943328E+06    -57.47006E+06   -57.470904E+06    344.82704E+06       30.0265503       762.019653
              733   114.942928E+06   -57.471252E+06   -57.471088E+06   344.828032E+06       60.1616325       52.2555389
              734   114.944288E+06   -57.470904E+06   -57.470904E+06   344.828448E+06       147.579086       237.756195
              735   114.941376E+06   -57.473452E+06   -57.473284E+06   344.828352E+06      -42.8679848       2.88781166
              736   114.941712E+06   -57.472772E+06    -57.47214E+06   344.828032E+06       387.536530      -54.5746040
              737   114.939616E+06    -57.47414E+06   -57.473688E+06   344.826816E+06       234.049515   1.16684839E+03
              738   114.942064E+06    -57.47212E+06   -57.471172E+06   344.827616E+06      -23.8895569       179.597733
              739   114.941776E+06   -57.472428E+06    -57.47194E+06   344.828096E+06      -151.442963      -81.7500305
              740   114.942216E+06   -57.472088E+06   -57.471896E+06   344.827712E+06       147.420532       160.577820
              741   114.942664E+06   -57.471392E+06   -57.471384E+06      344.828E+06      -72.4892349      -19.4069042
              742   114.942312E+06   -57.471852E+06   -57.471432E+06      344.828E+06      -39.0507774       44.7830353
              743   114.942376E+06   -57.471852E+06    -57.47134E+06   344.827968E+06      -34.8248749       106.716599
              744    114.94208E+06   -57.471208E+06   -57.471396E+06   344.828352E+06      -289.524475       187.108688
              745   114.939912E+06   -57.472632E+06    -57.47218E+06   344.827008E+06       883.592041      -644.796387
              746   114.942168E+06   -57.471856E+06   -57.471748E+06   344.827776E+06       41.3662872       308.014832
              747   114.942576E+06   -57.471712E+06   -57.471708E+06   344.827968E+06       75.4826431       104.045677
              748   114.942592E+06   -57.471368E+06    -57.47116E+06   344.827776E+06       152.020599       252.853607
              749   114.942672E+06   -57.471628E+06   -57.471452E+06   344.828096E+06      -118.850769      -141.369675
              750    114.94228E+06    -57.47188E+06   -57.471432E+06   344.827872E+06      -21.2171745      -8.53534698
              751   114.937896E+06   -57.474664E+06   -57.471904E+06   344.830176E+06       431.705872       95.4011230
              752   114.939504E+06   -57.471328E+06   -57.474568E+06   344.823936E+06  -1.17252502E+03       365.468079
              753   114.945528E+06   -57.471164E+06   -57.471088E+06   344.828928E+06      -736.074707       31.8075142
              754   114.943488E+06   -57.471352E+06      -57.475E+06   344.829248E+06  -3.03662280E+03  -4.43246924E+03
              755   114.931032E+06   -57.482936E+06    -57.47966E+06   344.830176E+06   4.07149219E+03   3.13138184E+03
              756   114.940064E+06   -57.469524E+06   -57.472244E+06    344.83216E+06   1.37482776E+03  -1.95004285E+03
              757   114.942936E+06   -57.472128E+06   -57.471836E+06   344.827904E+06       178.678558      -142.898193
              758   114.934848E+06    -57.46988E+06   -57.471804E+06   344.826496E+06   2.07803345E+03       100.331100
              759   114.955304E+06    -57.45668E+06   -57.462584E+06   344.827776E+06       423.101013       69.9195557
              760    114.94892E+06    -57.47044E+06   -57.467616E+06   344.825696E+06      -217.775238      -88.7450867
              761   114.937344E+06   -57.479464E+06   -57.475708E+06    344.82992E+06  -3.70589404E+03       989.965271
              762   114.943536E+06   -57.478668E+06   -57.475148E+06   344.826624E+06       208.637085       782.545349
              763   114.944208E+06   -57.469936E+06   -57.469676E+06   344.828032E+06       855.414063       397.486938
              764   114.943328E+06   -57.472708E+06   -57.471168E+06    344.82736E+06       351.596375      -132.449982
              765   114.942032E+06   -57.471668E+06   -57.471936E+06   344.828096E+06       459.908844       132.720917
              766   114.944744E+06   -57.469084E+06   -57.471432E+06   344.830432E+06  -1.28007617E+03  -1.20251843E+03
              767   114.943128E+06   -57.470136E+06    -57.47234E+06    344.82816E+06       165.611603  -1.21441772E+03
              768   114.941712E+06   -57.471264E+06   -57.471336E+06   344.827872E+06       200.403900      -111.273529
              769   114.916752E+06   -57.487272E+06   -57.485108E+06   344.827392E+06   4.28432422E+03  -1.30579736E+03
              770   114.942272E+06   -57.471444E+06   -57.471448E+06      344.828E+06       44.3376694      -207.391617
              771     114.9422E+06   -57.472052E+06   -57.471456E+06    344.82784E+06      -18.6696262      -295.343231
              772   114.942712E+06   -57.471372E+06   -57.471148E+06   344.828096E+06       260.298584      -161.910080
              773   114.942384E+06   -57.471616E+06   -57.471348E+06   344.828032E+06      -73.5348816      -185.532852
              774   114.941944E+06   -57.471992E+06   -57.471552E+06    344.82784E+06      -68.9654999      -273.847412
              775   114.942448E+06   -57.471296E+06   -57.471232E+06      344.828E+06      -73.5490494      -370.416962
              776   114.940104E+06      -57.476E+06   -57.473564E+06      344.824E+06       724.832703   1.21827734E+03
              777   114.949712E+06    -57.46656E+06   -57.468156E+06   344.825088E+06      -861.997559      -195.231903
              778   114.941152E+06   -57.472632E+06   -57.469956E+06   344.829248E+06  -2.49190601E+03  -1.81664905E+03
              779   114.937952E+06   -57.473052E+06   -57.472408E+06   344.826592E+06       772.367676   1.22266345E+03
              780   114.942304E+06   -57.471808E+06   -57.471096E+06   344.827744E+06      -487.039581      -129.446304
              781   114.940688E+06   -57.468976E+06   -57.469888E+06   344.829312E+06       63.4363098      -937.131409
              782   114.938224E+06   -57.475464E+06   -57.474512E+06    344.82624E+06      -934.045715      -159.475342
              783   114.941768E+06   -57.471948E+06   -57.471268E+06   344.827904E+06      -401.497314       259.048340
              784   114.939752E+06   -57.474244E+06   -57.474076E+06   344.830208E+06      -435.605042      -314.917236
              785    114.94272E+06    -57.47148E+06   -57.471164E+06   344.827872E+06      -58.8108177      -17.3819561
              786    114.94296E+06   -57.470932E+06   -57.470704E+06   344.827776E+06      -97.3190994       59.2336044
              787    114.94232E+06   -57.469916E+06   -57.470192E+06   344.827456E+06       253.331390       394.339935
              788   114.942592E+06   -57.471672E+06     -57.4714E+06   344.827776E+06      -106.102539      -24.4719067
              789    114.94256E+06   -57.471308E+06   -57.470864E+06   344.827968E+06       32.7396774       5.42528915
              790    114.94256E+06   -57.471584E+06     -57.4714E+06   344.827968E+06      -98.4117813      -66.6879959
              791   114.942544E+06   -57.471592E+06   -57.471304E+06   344.827904E+06      -77.5614090      -93.4209595
              792   114.940832E+06   -57.473008E+06   -57.471416E+06    344.82688E+06      -142.377777      -433.837921
              793   114.943128E+06    -57.47028E+06     -57.4709E+06   344.827712E+06      -210.126740      -356.351196
              794   114.943544E+06   -57.471324E+06   -57.471152E+06   344.827968E+06      -458.820587      -2.49437714
              795   114.942864E+06   -57.471312E+06   -57.471368E+06   344.827904E+06      -90.8051147       278.303680
              796   114.941104E+06   -57.472328E+06    -57.47256E+06   344.827872E+06       44.9151077       9.18395233
              797    114.94272E+06   -57.471568E+06   -57.471008E+06      344.828E+06      -124.386032       46.9882889
              798   114.943616E+06   -57.469464E+06   -57.469808E+06    344.82704E+06      -221.929199      -331.707825
              799   114.940496E+06   -57.473544E+06   -57.473584E+06   344.829632E+06       172.430679       540.035095
              800   114.942472E+06   -57.471588E+06    -57.47128E+06   344.827936E+06      -90.5270691      -93.9503937
              801   114.942736E+06   -57.471352E+06   -57.471044E+06   344.827904E+06      -28.8097420      -117.635590
              802   114.942568E+06   -57.471336E+06   -57.471296E+06   344.827904E+06      -51.9768829       20.6339741
              803    114.95896E+06   -57.455224E+06   -57.462332E+06   344.824128E+06  -1.21578613E+03  -2.19567480E+03
              804   114.942696E+06   -57.471784E+06   -57.471268E+06   344.827776E+06       61.5219955       68.3762665
              805   114.942344E+06   -57.471384E+06   -57.471704E+06   344.827488E+06      -338.734344      -235.311707
              806    114.94408E+06   -57.469824E+06   -57.469272E+06    344.82688E+06       732.687744       701.241089
              807    114.94288E+06    -57.47112E+06   -57.471352E+06      344.828E+06       63.0027428      -2.99453354
              808   114.942488E+06   -57.471148E+06   -57.471464E+06   344.828288E+06       49.1289825      -61.5073853
              809    114.94276E+06   -57.471188E+06    -57.47138E+06   344.828128E+06      -50.8629875      -802.276917
              810   114.942928E+06    -57.47094E+06   -57.470924E+06    344.82784E+06       96.1799545       77.5530243
              811   114.942184E+06   -57.471584E+06   -57.471412E+06   344.828288E+06       55.4812775      -40.7028542
              812   114.946816E+06   -57.467476E+06   -57.469312E+06    344.82896E+06      -388.719360      -778.261353
              813   114.941112E+06   -57.472996E+06   -57.471428E+06   344.827936E+06       237.829376       37.9461365
              814    114.93648E+06   -57.475908E+06   -57.474536E+06   344.827712E+06      -170.617828   1.08756458E+03
              815    114.94456E+06   -57.470184E+06   -57.471144E+06   344.828096E+06       5.35382843       57.8089600
              816   114.941264E+06   -57.472968E+06   -57.472744E+06    344.82816E+06      -233.923859      -365.395172
              817   114.943056E+06    -57.47156E+06   -57.470568E+06   344.827776E+06      -974.579224      -611.672363
              818   114.945656E+06   -57.468908E+06    -57.46868E+06   344.827936E+06       173.517151      -323.122375
              819   114.941424E+06   -57.472616E+06   -57.472476E+06   344.827712E+06       296.416473      -52.8169708
              820    114.94616E+06   -57.468132E+06    -57.46632E+06   344.825984E+06  -1.28537305E+03      -240.952637
              821   114.944608E+06   -57.470804E+06   -57.467952E+06   344.825248E+06  -1.06769580E+03      -837.151367
              822   114.942504E+06   -57.471448E+06   -57.471344E+06   344.828032E+06       92.2390900      -224.579910
              823   114.941552E+06   -57.472304E+06     -57.4725E+06    344.82816E+06      -14.1588669      -197.620331
              824   114.970608E+06   -57.453544E+06   -57.451952E+06   344.826688E+06  -8.59732031E+03   1.69514331E+03
              825   114.938864E+06   -57.474508E+06    -57.47394E+06    344.82752E+06       49.2113876      -269.552216
              826   114.942192E+06    -57.47084E+06   -57.471116E+06    344.82752E+06      -235.290680      -540.900391
              827   114.942776E+06   -57.470836E+06   -57.471144E+06   344.828672E+06       56.4708633      -141.752243
              828   114.943448E+06   -57.470344E+06   -57.470728E+06   344.828032E+06      -50.2029114       198.089844
              829   114.942336E+06   -57.471256E+06    -57.47118E+06   344.827968E+06      -101.692612      -90.2921448
              830   114.942584E+06   -57.471092E+06   -57.471364E+06   344.827968E+06       9.33328247      -58.3377914
              831   114.942712E+06   -57.471104E+06    -57.47128E+06      344.828E+06      -55.7783775      -25.7612095
              832   114.942848E+06   -57.471288E+06   -57.471584E+06   344.828192E+06      -299.308105       48.7869835
              833    114.94228E+06   -57.470768E+06   -57.471132E+06   344.828576E+06      -226.206573      -534.765808
              834   114.943072E+06    -57.47066E+06   -57.470988E+06      344.828E+06       24.3929863       125.576874
              835   114.942384E+06   -57.472276E+06   -57.471808E+06   344.828064E+06      -464.147034      -130.486343
              836   114.943024E+06   -57.472592E+06   -57.471844E+06   344.828064E+06   1.19746252E+03      -739.743530
              837   114.941072E+06    -57.47072E+06   -57.473252E+06   344.830528E+06   1.05924255E+03   1.12332678E+03
              838   114.940576E+06   -57.480316E+06   -57.474712E+06   344.831008E+06   1.25600928E+03      -863.113525
              839   114.945984E+06   -57.470272E+06   -57.468388E+06   344.829024E+06   1.14339417E+03  -1.32863428E+03
              840   114.942472E+06   -57.471036E+06   -57.471488E+06   344.827872E+06      -25.3063107       268.708069
              841    114.94256E+06   -57.471248E+06   -57.471348E+06   344.827904E+06       44.0291519      -64.4548492
              842   114.942512E+06   -57.471552E+06   -57.471416E+06   344.828032E+06       44.2015991      -94.7235107
              843   114.942952E+06   -57.470656E+06   -57.471128E+06   344.827776E+06       105.846428      -184.222595
              844    114.94252E+06   -57.471552E+06   -57.471196E+06   344.827904E+06       16.0671368      -5.67626095
              845   114.942896E+06   -57.471284E+06    -57.47122E+06   344.827936E+06      -107.077431       31.8892002
              846   114.943912E+06    -57.47116E+06    -57.47122E+06   344.828224E+06       369.610779       53.9235001
              847   114.942672E+06   -57.471488E+06   -57.471232E+06   344.827968E+06       62.5446930       59.5163956
              848     114.9424E+06   -57.471648E+06   -57.471568E+06   344.828096E+06       120.068565      -41.0777054
              849   114.942752E+06   -57.471536E+06   -57.471128E+06   344.827936E+06       102.445755      -8.98241234
              850   114.942864E+06    -57.47124E+06   -57.470784E+06   344.827872E+06       91.1722794      -39.2580605
              851   114.942832E+06   -57.471528E+06   -57.471144E+06   344.827904E+06       81.9973831       17.8351021
              852   114.942552E+06   -57.471428E+06    -57.47134E+06   344.828096E+06       74.6231995      -24.3316994
              853   114.942736E+06   -57.471592E+06   -57.471152E+06      344.828E+06       96.7501144      -10.5119724
              854   114.942464E+06   -57.471528E+06   -57.471336E+06   344.827968E+06       86.6455994      -173.364838
              855   114.941696E+06     -57.4722E+06   -57.471256E+06    344.82736E+06       53.4552040       73.8242950
              856   114.942312E+06   -57.471808E+06   -57.471652E+06   344.827872E+06       60.5996971      -157.219818
              857   114.942632E+06   -57.471136E+06   -57.471244E+06      344.828E+06      -28.7224808      -203.745789
              858   114.942336E+06    -57.47112E+06   -57.471104E+06   344.827616E+06       19.9366703      -265.335083
              859     114.9424E+06    -57.47104E+06    -57.47112E+06   344.827808E+06       29.0109653      -197.854492
              860   114.942464E+06   -57.471144E+06   -57.471208E+06   344.827872E+06       189.606049      -182.794662
              861    114.93732E+06   -57.477584E+06   -57.476344E+06    344.82752E+06       605.055054      -648.054382
              862   114.937208E+06   -57.476784E+06   -57.475452E+06   344.828224E+06      -953.724854      -787.734863
              863   114.944464E+06   -57.471184E+06   -57.470612E+06   344.828736E+06      -263.739471      -23.2788334
              864   114.940216E+06   -57.473124E+06    -57.47466E+06   344.829056E+06       168.572693      -24.5602570
              865   114.940584E+06   -57.471472E+06   -57.471356E+06   344.827136E+06       66.1202087       497.191559
              866    114.94264E+06   -57.471288E+06   -57.472432E+06   344.828032E+06      -237.068863       372.200592
              867    114.94344E+06   -57.470884E+06    -57.47124E+06    344.82816E+06      -21.3850594       249.715668
              868   114.942856E+06   -57.471452E+06   -57.471428E+06    344.82816E+06      -222.619354       292.260956
              869    114.94304E+06   -57.470744E+06   -57.471152E+06      344.828E+06      -95.9311981      -230.856140
              870   114.942656E+06   -57.471008E+06    -57.47146E+06   344.828032E+06       36.7063522       69.4131622
              871   114.942136E+06   -57.472932E+06   -57.472224E+06    344.82768E+06      -294.952759      -134.035919
              872   114.941768E+06   -57.474068E+06   -57.473088E+06    344.82768E+06  -1.00408655E+03      -214.006104
              873   114.941248E+06   -57.473288E+06     -57.4722E+06   344.827616E+06      -394.287018      -294.141052
              874   114.942016E+06    -57.47188E+06   -57.471876E+06   344.827936E+06       357.683258      -223.882111
              875   114.942752E+06   -57.470028E+06    -57.47104E+06   344.827424E+06      -338.884827       30.2024498
              876   114.944784E+06   -57.469784E+06   -57.471984E+06   344.828032E+06   1.02902686E+03       633.738281
              877    114.94288E+06   -57.471332E+06   -57.471856E+06   344.829184E+06       313.460876      -502.561768
              878    114.94328E+06   -57.469308E+06   -57.471012E+06   344.827808E+06       217.709442       278.014191
              879   114.942176E+06   -57.471748E+06   -57.471552E+06   344.828032E+06       117.116135       356.899353
              880   114.942608E+06    -57.47104E+06   -57.471448E+06   344.828032E+06       8.21998024       50.8952713
              881   114.941896E+06   -57.477232E+06   -57.474736E+06   344.826272E+06       320.422943       326.536804
              882   114.947648E+06   -57.463688E+06   -57.466972E+06   344.827808E+06       372.604004   2.80124512E+03
              883   114.942256E+06   -57.470868E+06   -57.472308E+06   344.828992E+06   1.07679761E+03       305.340454
              884   114.941136E+06   -57.474572E+06   -57.472544E+06     344.8272E+06       136.990540       439.557892
              885   114.943176E+06   -57.471468E+06   -57.471112E+06   344.827872E+06       16.7833519      -144.469711
              886   114.941224E+06   -57.472896E+06   -57.472704E+06   344.828288E+06      -463.434174      -615.220581
              887   114.947328E+06   -57.467512E+06   -57.468488E+06   344.827136E+06       550.723022  -1.08854297E+03
              888    114.94276E+06   -57.471544E+06   -57.471452E+06   344.828064E+06       3.82347441      -12.4992304
              889   114.942672E+06   -57.471216E+06    -57.47142E+06      344.828E+06       60.6147156       42.6444359
              890   114.942504E+06   -57.471732E+06   -57.471368E+06   344.827968E+06      -22.0120296      -1.05139542
              891   114.942408E+06   -57.471524E+06   -57.471444E+06    344.82784E+06       79.7635803      -335.272644
              892   114.942672E+06   -57.471468E+06   -57.471248E+06    344.82784E+06      -92.9889069      -26.6072712
              893   114.942704E+06   -57.473304E+06    -57.47144E+06   344.828608E+06      -399.484589      -487.504639
              894   114.942736E+06    -57.47136E+06   -57.471352E+06   344.828032E+06      -63.9188309       78.1201324
              895   114.942424E+06   -57.471376E+06   -57.471376E+06   344.827904E+06       46.7740936      -136.770721
              896   114.941856E+06   -57.471324E+06    -57.47142E+06   344.828032E+06      -35.3011055      -162.208008
              897   114.942216E+06   -57.471712E+06     -57.4716E+06   344.828544E+06      -135.092468      -256.500916
              898   114.943512E+06   -57.469772E+06    -57.47018E+06   344.827744E+06       384.353210      -223.772797
              899   114.935168E+06   -57.480248E+06   -57.475688E+06   344.827232E+06       582.009766      -503.674103
              900   114.948432E+06    -57.47012E+06   -57.469752E+06   344.829152E+06       492.042969  -1.45851208E+03
              901     114.9434E+06    -57.47554E+06   -57.474056E+06   344.829984E+06      -213.023697      -255.878052
              902    114.93816E+06   -57.473164E+06   -57.471708E+06   344.826304E+06   2.15455981E+03   1.01292212E+03
              903   114.944416E+06   -57.468648E+06    -57.46858E+06   344.828096E+06      -252.963562      -263.092834
              904   114.944016E+06   -57.470248E+06   -57.471644E+06   344.827424E+06       596.320923      -183.528671
              905   114.943168E+06   -57.470644E+06    -57.47092E+06   344.828256E+06       79.7623596      -237.077866
              906   114.944344E+06   -57.469548E+06   -57.469332E+06   344.829056E+06       363.650726   1.86290747E+03
              907   114.941048E+06     -57.4727E+06    -57.47236E+06    344.82688E+06      -260.656281      -210.513580
              908    114.94288E+06   -57.469984E+06   -57.472236E+06   344.827936E+06      -174.157745       665.104858
              909    114.93984E+06   -57.472264E+06   -57.471856E+06    344.82752E+06       343.589203      -142.131470
              910    114.94232E+06   -57.471408E+06   -57.471232E+06   344.828032E+06      -46.9184418       244.889008
              911   114.938544E+06   -57.482256E+06   -57.478972E+06    344.82912E+06   1.96770264E+03       334.404846
              912   114.918208E+06   -57.483124E+06   -57.480016E+06   344.825472E+06       348.711426  -1.39021643E+03
              913   114.942448E+06    -57.47078E+06   -57.471356E+06   344.827808E+06      -54.5924568       248.418854
              914   114.941552E+06   -57.469772E+06   -57.471396E+06   344.828736E+06      -14.5610352      -976.423706
              915   114.945992E+06   -57.470696E+06   -57.467204E+06   344.827328E+06       526.955383  -1.50314746E+03
              916   114.942912E+06   -57.472192E+06   -57.471636E+06   344.828416E+06      -276.169403       357.851318
              917   114.942048E+06   -57.471732E+06   -57.471928E+06   344.827904E+06      -95.5290451      -211.968140
              918   114.942752E+06   -57.471332E+06   -57.471336E+06   344.827904E+06      -53.5840797      -68.7032166
              919    114.94224E+06   -57.471424E+06   -57.471356E+06   344.827904E+06      -50.2152023      -40.4350052
              920    114.94256E+06   -57.471488E+06    -57.47154E+06      344.828E+06       12.3628788      -92.1649933
              921   114.942512E+06   -57.471416E+06   -57.471236E+06      344.828E+06       135.751282      -50.0669594
              922   114.942576E+06   -57.471556E+06   -57.471224E+06   344.828032E+06       164.899750      -2.27234268
              923   114.942672E+06   -57.471352E+06   -57.471228E+06   344.827968E+06       79.0127106       42.6373215
              924   114.942616E+06   -57.471164E+06    -57.47124E+06      344.828E+06      -37.9891510       59.5127182
              925    114.94248E+06   -57.471344E+06   -57.471148E+06   344.828096E+06       56.7156181       31.7597904
              926   114.942176E+06    -57.47198E+06    -57.47192E+06    344.82816E+06      -14.4232292       41.7663651
              927   114.935976E+06   -57.473584E+06    -57.47234E+06     344.8256E+06       832.406189   1.14455615E+03
              928   114.942376E+06   -57.472128E+06   -57.471668E+06   344.828928E+06      -434.138031      -472.643555
              929    114.94972E+06   -57.465364E+06    -57.46392E+06    344.82704E+06       824.704468      -968.957764
              930    114.94092E+06    -57.47328E+06   -57.473824E+06   344.828192E+06      -545.241211      -210.288940
              931   114.943304E+06     -57.4692E+06   -57.472104E+06    344.83072E+06       532.954285      -854.648621
              932   114.938488E+06    -57.47282E+06   -57.473788E+06   344.827296E+06  -2.11388110E+03       24.7447891
              933   114.943608E+06    -57.47518E+06    -57.47444E+06   344.830944E+06       297.380615       371.064087
              934   114.944064E+06   -57.473432E+06   -57.467652E+06   344.825056E+06  -2.01919763E+03  -1.56482300E+03
              935    114.94164E+06   -57.471728E+06   -57.472216E+06   344.828288E+06      -300.514160      -298.959900
              936   114.941648E+06   -57.472368E+06   -57.471848E+06   344.828736E+06      -191.593369      -536.627808
              937   114.942872E+06   -57.469904E+06    -57.47134E+06   344.825376E+06   2.64019067E+03      -858.280029
              938   114.949712E+06   -57.467676E+06   -57.469168E+06   344.831552E+06      -714.942139      -527.985962
              939   114.942568E+06   -57.470728E+06   -57.471596E+06    344.82816E+06       67.6620560       22.2083130
              940    114.94268E+06   -57.471176E+06   -57.471424E+06   344.828032E+06       36.0236969       53.0955124
              941   114.941776E+06   -57.472184E+06    -57.47124E+06    344.82704E+06      -31.5744629      -71.9741211
              942   114.942504E+06   -57.471072E+06   -57.471392E+06   344.827968E+06      -36.3037453      -39.4225922
              943   114.942496E+06     -57.4709E+06   -57.471436E+06   344.828224E+06       24.5996284      -131.745148
              944   114.942672E+06   -57.471388E+06   -57.471136E+06   344.827936E+06      -77.1103821      -111.875046
              945   114.946008E+06   -57.468188E+06   -57.467624E+06   344.827904E+06   1.57090430E+03       280.517090
              946   114.941288E+06   -57.470748E+06    -57.47106E+06   344.827744E+06      -63.6661606      -238.996155
              947    114.94224E+06   -57.472872E+06   -57.471764E+06   344.826592E+06       550.520752   1.00148291E+03
              948   114.943312E+06    -57.47064E+06   -57.470608E+06   344.828288E+06       196.692230      -219.543961
              949   114.945736E+06   -57.468188E+06   -57.471208E+06   344.827776E+06      -889.960632       750.857239
              950   114.942136E+06   -57.473056E+06   -57.472312E+06     344.8288E+06      -331.728973       48.5683594
              951   114.941496E+06     -57.4723E+06   -57.472504E+06   344.827168E+06   1.14846753E+03       813.449585
              952    114.94116E+06   -57.471952E+06   -57.472508E+06    344.82736E+06       854.760986       94.4387589
              953   114.942552E+06     -57.4718E+06   -57.471352E+06    344.82848E+06      -175.551025      -192.496841
              954   114.942496E+06    -57.47092E+06   -57.470248E+06    344.82736E+06      -277.488861  -1.07878662E+03
              955   114.952056E+06    -57.46852E+06   -57.473588E+06      344.832E+06   1.06038635E+03      -263.218445
              956   114.942656E+06   -57.472008E+06   -57.471264E+06   344.828544E+06       169.348740       514.756714
              957   114.942832E+06   -57.471936E+06    -57.47156E+06   344.828064E+06      -389.610504       109.464027
              958   114.942336E+06   -57.471804E+06   -57.472852E+06   344.828704E+06      -857.274780       66.9330292
              959   114.942576E+06    -57.47096E+06   -57.470268E+06   344.825824E+06       670.114746       428.783539
              960   114.942264E+06   -57.472068E+06   -57.471376E+06   344.828256E+06       36.7929306       200.040298
              961   114.945728E+06   -57.469788E+06    -57.47028E+06   344.828736E+06       263.144470      -726.974182
              962   114.942488E+06   -57.471144E+06   -57.471304E+06   344.828128E+06      -14.8071709      -85.5184479
              963   114.942632E+06   -57.471388E+06   -57.471504E+06   344.828032E+06      -54.4508553       85.6051559
              964    114.94288E+06   -57.470992E+06    -57.47132E+06   344.828224E+06       48.9372101      -498.246704
              965   114.942608E+06   -57.471232E+06     -57.4714E+06   344.828032E+06      -7.96903801       51.0656929
              966   114.942568E+06   -57.471492E+06   -57.470976E+06   344.828064E+06       250.839523      -23.2389145
              967   114.942544E+06   -57.471288E+06   -57.471388E+06   344.828032E+06       22.5397453       23.0607567
              968   114.942936E+06   -57.470816E+06   -57.471936E+06   344.828384E+06      -23.3913422      -656.577515
              969   114.942256E+06   -57.472156E+06   -57.471552E+06   344.828128E+06      -135.691208      -251.534805
              970   114.942424E+06   -57.472592E+06     -57.4732E+06   344.828128E+06       89.9158707  -1.33616309E+03
              971    114.94052E+06    -57.47144E+06   -57.474724E+06   344.826752E+06      -3.36868286       538.369263
              972   114.942656E+06   -57.471508E+06   -57.470904E+06   344.828032E+06       568.853577       239.650253
              973   114.942824E+06   -57.471104E+06    -57.47168E+06   344.827744E+06      -38.8886185      -340.728088
              974    114.94164E+06   -57.472368E+06    -57.47208E+06   344.827936E+06       1.20843887       280.031769
              975    114.94256E+06   -57.471332E+06   -57.471324E+06   344.827904E+06       69.0798874      -55.9168663
              976     114.9428E+06   -57.471068E+06   -57.471352E+06   344.828096E+06       58.8020859      -53.3276215
              977   114.942656E+06   -57.471224E+06   -57.471408E+06      344.828E+06       53.8993797       113.485741
              978    114.94264E+06   -57.471408E+06   -57.471384E+06   344.827968E+06      -33.2609253       49.7956619
              979   114.938528E+06   -57.474728E+06   -57.472912E+06   344.828544E+06       692.180298      -454.595764
              980   114.942688E+06   -57.471392E+06   -57.471464E+06   344.828032E+06      -10.4439812       103.116074
              981   114.943136E+06   -57.471028E+06   -57.470872E+06   344.827968E+06       69.4088669       136.568130
              982   114.943632E+06   -57.471208E+06   -57.471048E+06   344.828224E+06       46.0959854      -147.835876
              983   114.942752E+06   -57.471252E+06   -57.471396E+06   344.828032E+06       53.2043762       126.456459
              984    114.94264E+06   -57.471128E+06   -57.471452E+06   344.828064E+06       28.0881004       27.0305958
              985   114.942704E+06    -57.47104E+06   -57.471444E+06   344.828224E+06       167.831345       81.5080261
              986   114.942512E+06   -57.471456E+06   -57.471412E+06   344.828032E+06         91.59375       238.532928
              987   114.942608E+06   -57.471224E+06   -57.471336E+06      344.828E+06      -15.7878923       27.2107944
              988   114.942016E+06    -57.47204E+06   -57.472096E+06   344.828192E+06      -490.116364      -558.988281
              989   114.942752E+06   -57.471124E+06   -57.471488E+06   344.828064E+06       29.5923862       134.221054
              990   114.941792E+06   -57.471772E+06   -57.471984E+06   344.828512E+06      -106.257736       548.147888
              991   114.942272E+06   -57.471428E+06   -57.471956E+06   344.827712E+06       283.291809       308.484253
              992   114.942608E+06     -57.4712E+06   -57.471416E+06   344.828032E+06       11.3674545      -3.71920061
              993   114.942768E+06   -57.471168E+06   -57.471416E+06   344.827968E+06       59.6899796       116.993179
              994   114.942648E+06     -57.4714E+06    -57.47136E+06   344.828032E+06      -72.1485214       82.7886734
              995   114.942016E+06    -57.47236E+06   -57.471504E+06    344.82816E+06      -14.3143272      -326.763641
              996   114.942728E+06    -57.47154E+06   -57.471288E+06   344.827968E+06      -96.9443130      -200.619034
              997   114.944304E+06   -57.470156E+06   -57.471224E+06   344.827968E+06       311.589233       235.490540
              998   114.942304E+06     -57.4708E+06   -57.471268E+06   344.828576E+06      -7.80321503       90.0759354
              999   114.942712E+06   -57.471104E+06   -57.471356E+06   344.828064E+06      -24.1551971      -1.22727013
             1000   114.942896E+06   -57.471196E+06   -57.471396E+06   344.827776E+06       50.0144958       139.644806
             1001   114.942832E+06   -57.471104E+06    -57.47096E+06   344.827872E+06      -32.6761551      -33.4266586
             1002    114.94252E+06   -57.471084E+06   -57.471328E+06   344.827968E+06      -1.40906906      -176.426453
             1003   114.942608E+06     -57.4714E+06   -57.471148E+06   344.828032E+06       123.310257       49.7579269
             1004   114.943904E+06    -57.46992E+06   -57.470036E+06   344.827392E+06       354.599121      -18.0166149
             1005   114.942392E+06   -57.471784E+06   -57.471256E+06   344.827872E+06       87.2714996       112.172340
             1006   114.940352E+06    -57.47244E+06   -57.472652E+06   344.828128E+06       72.0469055      -1.26601791
             1007   114.942592E+06   -57.471584E+06    -57.47124E+06   344.827904E+06      -57.7113266      -69.2069626
             1008    114.93896E+06    -57.47612E+06   -57.473264E+06   344.827072E+06  -2.25413867E+03  -2.33461328E+03
             1009   114.942792E+06   -57.471384E+06     -57.4712E+06   344.828736E+06      -91.4287949       12.2556419
             1010   114.942672E+06   -57.471472E+06   -57.471136E+06   344.827968E+06       24.4963608      -95.3488083
             1011   114.942368E+06   -57.471664E+06   -57.470968E+06   344.827936E+06       70.9014435       176.646545
             1012   114.942632E+06   -57.471328E+06   -57.471348E+06   344.828032E+06      -46.7712822       17.4064465
             1013   114.942272E+06   -57.471928E+06    -57.47156E+06   344.827936E+06      -109.608032       52.7872009
             1014   114.942256E+06   -57.471816E+06   -57.471176E+06   344.827808E+06       6.90617180      -10.8262959
             1015   114.943392E+06   -57.472208E+06   -57.470896E+06   344.827776E+06      -86.2848358       138.657501
             1016   114.948032E+06   -57.468264E+06   -57.467532E+06   344.829408E+06  -1.02068768E+03      -153.732498
             1017   114.943144E+06   -57.470996E+06   -57.471324E+06   344.828352E+06       121.590027      -70.7380600
             1018    114.94108E+06   -57.470704E+06   -57.470932E+06   344.828576E+06      -653.782471  -1.25930774E+03
             1019   114.942472E+06   -57.471696E+06   -57.471284E+06   344.827936E+06      -28.7406387      -37.0807419
             1020   114.938432E+06   -57.474204E+06    -57.47418E+06   344.826944E+06   1.33277979E+03       209.386078
             1021   114.942368E+06    -57.47126E+06   -57.471432E+06   344.827936E+06       93.6157532      -295.911530
             1022   114.942944E+06    -57.47048E+06   -57.470612E+06   344.827872E+06       192.123260      -326.178284
             1023   114.941896E+06   -57.472112E+06   -57.471832E+06   344.827776E+06       284.581909      -18.3441238
             1024   114.944176E+06   -57.470724E+06   -57.471172E+06   344.828736E+06      -838.382690      -576.348572
             1025   114.940904E+06   -57.471348E+06   -57.471564E+06     344.8272E+06      -31.2175713      -223.834534
             1026   114.946472E+06   -57.468528E+06   -57.467292E+06   344.827904E+06   1.46300708E+03  -3.85507422E+03
             1027   114.947704E+06   -57.466804E+06   -57.465748E+06   344.824608E+06      -583.712524   1.53286023E+03
             1028   114.941744E+06     -57.4724E+06   -57.472032E+06   344.826336E+06      -233.697876      -359.460541
             1029   114.945568E+06   -57.470552E+06   -57.464808E+06    344.82928E+06       576.625488   1.74900842E+03
             1030    114.94336E+06   -57.469368E+06   -57.476572E+06   344.829152E+06       -989.40625      -807.863892
             1031   114.944864E+06   -57.474096E+06    -57.46862E+06      344.828E+06      -861.553162  -1.69899292E+03
             1032    114.93592E+06    -57.47664E+06   -57.474252E+06    344.82592E+06       702.106628       14.4979858
             1033   114.943496E+06    -57.46994E+06    -57.47038E+06   344.828128E+06       1.24996901       47.1922493
             1034   114.944472E+06   -57.463084E+06   -57.470468E+06   344.827776E+06  -2.33759448E+03       39.7508240
             1035   114.965696E+06   -57.462756E+06   -57.458128E+06   344.833664E+06  -8.32595703E+03  -1.33556555E+03
             1036   114.942496E+06   -57.471316E+06   -57.471124E+06   344.828224E+06       364.348145       61.8261108
             1037    114.93912E+06   -57.475024E+06   -57.474232E+06   344.826912E+06       33.2675781       368.792145
             1038   114.941872E+06   -57.472744E+06   -57.471524E+06   344.827392E+06      -365.519836      -432.889282
             1039   114.939928E+06    -57.47172E+06   -57.472396E+06   344.828128E+06      -175.541748      -251.184113
             1040   114.941584E+06   -57.472476E+06    -57.47208E+06   344.828064E+06       7.33932495      -556.603027
             1041   114.942016E+06    -57.47112E+06    -57.47024E+06    344.82736E+06       136.467514       226.428192
             1042   114.942496E+06    -57.47172E+06   -57.471232E+06    344.82784E+06      -15.4574537      -149.202942
             1043   114.941712E+06   -57.472624E+06   -57.472512E+06   344.826368E+06   1.58392676E+03      -604.199280
             1044     114.9424E+06   -57.472416E+06   -57.471264E+06   344.826944E+06      -514.593567      -234.497940
             1045   114.945328E+06   -57.469228E+06   -57.467784E+06    344.82752E+06  -1.44972510E+03       284.587952
             1046      114.941E+06    -57.47526E+06   -57.476244E+06   344.828608E+06      -830.884460       153.964386
             1047   114.934352E+06   -57.473744E+06    -57.47166E+06   344.825216E+06   2.67445337E+03  -1.02870190E+03
             1048   114.944688E+06   -57.463948E+06   -57.470332E+06   344.838016E+06  -4.19093311E+03       317.934784
             1049   114.942192E+06    -57.47184E+06     -57.4716E+06   344.828064E+06      -68.3189926      -188.045593
             1050    114.94256E+06   -57.471592E+06   -57.471508E+06      344.828E+06       74.8077393      -27.5537376
             1051    114.94312E+06   -57.471064E+06   -57.471076E+06      344.828E+06      -7.52678585      -69.2536697
             1052     114.9426E+06    -57.47122E+06   -57.471248E+06   344.827904E+06       83.0653687      -155.709808
             1053   114.942664E+06   -57.470804E+06   -57.468528E+06   344.825152E+06      -653.588013      -113.452507
             1054   114.942752E+06   -57.471456E+06   -57.471376E+06   344.827872E+06      -454.660583       173.237839
             1055   114.942944E+06   -57.471116E+06   -57.471156E+06    344.82848E+06      -106.355247      -389.851593
             1056    114.94244E+06   -57.472184E+06   -57.471632E+06   344.827968E+06       88.0036469       133.985626
             1057   114.942208E+06   -57.471248E+06   -57.471024E+06   344.828448E+06       438.006653      -228.066528
             1058   114.939248E+06   -57.474316E+06    -57.47394E+06    344.82912E+06      -293.526764       593.005066
             1059   114.941056E+06   -57.471588E+06   -57.474216E+06   344.828544E+06      -230.526367      -241.057373
             1060   114.941664E+06   -57.472904E+06    -57.47212E+06   344.828128E+06      -665.468994      -116.513702
             1061    114.93816E+06   -57.475936E+06   -57.476132E+06   344.824608E+06       975.417175  -1.16683179E+03
             1062   114.943184E+06   -57.471112E+06   -57.470732E+06   344.827904E+06      -197.923630      -344.401825
             1063   114.939096E+06   -57.475488E+06   -57.474276E+06   344.828032E+06       896.327515      -416.588623
             1064   114.938304E+06   -57.469056E+06   -57.470212E+06   344.826656E+06       524.092041   1.54479163E+03
             1065   114.940224E+06    -57.47268E+06   -57.472712E+06   344.828256E+06  -1.53183203E+03  -2.70585742E+03
             1066   114.943616E+06   -57.470504E+06   -57.470936E+06   344.828032E+06      -659.290771       26.0273552
             1067   114.938192E+06   -57.473856E+06   -57.469452E+06   344.827392E+06       263.589905  -3.15494873E+03
             1068   114.947608E+06   -57.461892E+06   -57.466728E+06   344.827648E+06      -252.651474   1.43383386E+03
             1069   114.938536E+06   -57.472156E+06   -57.473036E+06    344.82784E+06       261.797852       177.082855
             1070   114.942456E+06   -57.471952E+06    -57.47124E+06   344.827904E+06      -132.943573      -169.970764
             1071   114.942944E+06   -57.469016E+06    -57.46808E+06    344.82656E+06       615.095642  -2.38109790E+03
             1072    114.94272E+06   -57.471148E+06   -57.471296E+06      344.828E+06       23.5398045      -34.1905518
             1073   114.942352E+06   -57.471256E+06   -57.471784E+06    344.82832E+06      -32.0891075       33.7402992
             1074   114.942752E+06   -57.471152E+06   -57.471388E+06   344.828096E+06       26.3683090       167.150146
             1075   114.942592E+06   -57.471208E+06   -57.471424E+06   344.828032E+06       3.14992690      -25.5034828
             1076   114.942608E+06   -57.471248E+06    -57.47138E+06   344.828032E+06       8.73732281       26.7573471
             1077    114.94268E+06   -57.471136E+06   -57.471388E+06   344.828064E+06      -4.06374741      -12.9290113
             1078   114.942656E+06   -57.471172E+06   -57.471396E+06   344.828032E+06       27.7937107       35.1098862
             1079   114.942808E+06   -57.471192E+06   -57.471396E+06   344.828224E+06       48.1713600      -66.9940338
             1080    114.94272E+06   -57.471128E+06   -57.471428E+06   344.828064E+06      -53.6616669      -30.2369385
             1081   114.942568E+06   -57.470968E+06   -57.471224E+06   344.827936E+06       59.4459801       15.0173664
             1082    114.94272E+06   -57.471004E+06   -57.471376E+06   344.828096E+06       25.6010284       17.1770172
             1083   114.943184E+06   -57.470856E+06   -57.471048E+06    344.82784E+06      -51.3717461      -104.980469
             1084   114.941704E+06      -57.472E+06     -57.4719E+06   344.828032E+06       202.522736       282.434204
             1085   114.942848E+06   -57.471624E+06    -57.47132E+06   344.827936E+06      -4.16743422      -9.14846706
             1086   114.941768E+06   -57.472888E+06   -57.472136E+06    344.82752E+06       259.334869       147.796997
             1087    114.93992E+06   -57.473072E+06   -57.473804E+06   344.829536E+06       279.478088       232.316605
             1088   114.942608E+06   -57.470876E+06   -57.470632E+06   344.827712E+06      -12.4180813       264.530975
             1089   114.942128E+06   -57.471424E+06    -57.47136E+06    344.82784E+06      -248.454514      -39.8599854
             1090   114.943152E+06   -57.471012E+06   -57.471144E+06   344.827872E+06      -97.8566284      -224.342773
             1091   114.941024E+06   -57.471888E+06   -57.472976E+06   344.828736E+06       335.699280       430.718506
             1092   114.943456E+06   -57.470252E+06   -57.470312E+06    344.82816E+06      -159.894028      -72.2948227
             1093   114.942832E+06   -57.470988E+06   -57.471204E+06      344.828E+06      -121.086777  -643.358231E-03
             1094   114.943048E+06   -57.470864E+06   -57.470764E+06   344.827456E+06       7.97517395       219.438324
             1095     114.9426E+06   -57.471752E+06    -57.47144E+06   344.827232E+06       172.895721       241.983047
             1096   114.946192E+06    -57.46646E+06   -57.467184E+06   344.828288E+06       189.500748       246.695526
             1097    114.94292E+06   -57.471168E+06   -57.471204E+06   344.827968E+06      -18.3726940      -27.9829540
             1098   114.942424E+06   -57.471324E+06   -57.471296E+06   344.828096E+06      -156.448669       15.9415998
             1099   114.945936E+06   -57.468236E+06   -57.468716E+06   344.826752E+06      -186.790619      -162.516327
             1100    114.94236E+06   -57.470936E+06   -57.471184E+06   344.827264E+06      -354.599548      -25.4537201
             1101   114.941192E+06    -57.47184E+06   -57.472264E+06   344.827872E+06       225.840973       323.259979
             1102   114.942856E+06   -57.471044E+06   -57.471296E+06   344.828032E+06       75.5376968       1.70576096
             1103     114.9426E+06   -57.471204E+06   -57.471548E+06   344.828096E+06      -19.4631329       30.4386826
             1104   114.942616E+06     -57.4712E+06   -57.471364E+06   344.828064E+06       37.6871147       118.366669
             1105   114.942512E+06   -57.471236E+06    -57.47142E+06   344.828192E+06       130.901947       121.765808
             1106   114.942624E+06    -57.47092E+06   -57.471608E+06    344.82816E+06      -44.5817947       58.7094955
             1107    114.94276E+06    -57.47084E+06    -57.47084E+06   344.828288E+06       170.853943      -17.6690636
             1108   114.943136E+06    -57.47084E+06   -57.470892E+06   344.828064E+06       175.294159      -77.7079010
             1109   114.942944E+06   -57.470504E+06    -57.47088E+06      344.828E+06      -118.300629      -103.857925
             1110     114.9426E+06   -57.470568E+06    -57.47064E+06    344.82688E+06       518.189941      -237.750076
             1111    114.94312E+06   -57.470944E+06   -57.470688E+06   344.827968E+06       40.2600861      -66.6997375
             1112    114.94276E+06   -57.470944E+06   -57.470604E+06   344.828192E+06      -42.5315781       149.094177
             1113   114.942656E+06   -57.471248E+06    -57.47096E+06   344.827968E+06       87.4528275       277.839294
             1114   114.942704E+06   -57.471212E+06   -57.471164E+06   344.827904E+06      -27.1011410       136.802109
             1115   114.940768E+06   -57.473052E+06   -57.470524E+06    344.82624E+06      -220.310028       942.297729
             1116   114.944928E+06   -57.468424E+06    -57.46874E+06   344.827328E+06      -904.755249  -1.04351416E+03
             1117   114.943872E+06   -57.471192E+06   -57.471288E+06   344.827584E+06       619.057495       493.131012
             1118     114.9666E+06   -57.445908E+06    -57.44424E+06   344.822336E+06  -18.8647773E+03  -3.33010010E+03
             1119   114.941024E+06    -57.47484E+06    -57.47238E+06   344.827296E+06       638.167358       37.3170471
             1120   114.947408E+06   -57.465308E+06   -57.466768E+06    344.82784E+06  -1.14370435E+03      -116.567902
             1121   114.940032E+06   -57.472728E+06   -57.472448E+06   344.827168E+06       65.2328873       617.842163
             1122    114.94208E+06   -57.471788E+06   -57.471972E+06   344.828224E+06       232.529800      -4.24087906
             1123   114.943112E+06   -57.471448E+06   -57.471696E+06   344.828928E+06       124.243927       343.533325
             1124   114.942848E+06   -57.470936E+06   -57.470912E+06    344.82816E+06       66.4457092      -145.527573
             1125    114.94264E+06     -57.4713E+06   -57.471408E+06   344.827968E+06       17.9822540       106.206543
             1126    114.94296E+06   -57.468788E+06   -57.467808E+06   344.827136E+06       247.395844       511.378967
             1127   114.942664E+06   -57.471548E+06   -57.471192E+06   344.827936E+06       57.8724518       9.03121853
             1128   114.942864E+06    -57.47126E+06    -57.47132E+06   344.828128E+06       172.210846       289.077271
             1129   114.940968E+06   -57.471872E+06   -57.471388E+06   344.827712E+06      -236.760330      -29.4144287
             1130   114.942848E+06    -57.47212E+06    -57.47116E+06   344.826976E+06      -353.384521   1.12272900E+03
             1131    114.94312E+06   -57.470656E+06   -57.470988E+06   344.828256E+06       176.769958       116.443024
             1132    114.93896E+06   -57.473216E+06   -57.473164E+06    344.82864E+06       313.903687   1.58304004E+03
             1133   114.943464E+06   -57.470864E+06   -57.470432E+06   344.827744E+06      -167.213181      -230.425491
             1134   114.936824E+06   -57.476984E+06   -57.475448E+06   344.828704E+06   1.12344556E+03       417.741547
             1135    114.94516E+06   -57.466032E+06   -57.468956E+06   344.826944E+06   1.56376563E+03       987.893921
             1136   114.942528E+06   -57.471316E+06   -57.471332E+06   344.827904E+06       44.1789093      -94.0907059
             1137   114.946344E+06   -57.472576E+06   -57.467504E+06   344.829408E+06   3.51372510E+03   1.22843652E+03
             1138    114.94064E+06   -57.469496E+06   -57.467176E+06   344.826848E+06   1.56019617E+03      -138.021927
             1139   114.942664E+06   -57.471152E+06    -57.47116E+06    344.82816E+06      -9.12013340      -189.753143
             1140   114.943592E+06   -57.470208E+06    -57.47048E+06   344.827552E+06      -475.475647      -228.242401
             1141   114.941896E+06   -57.469848E+06   -57.471032E+06   344.828384E+06       196.909866      -182.255051
             1142   114.942792E+06   -57.471492E+06   -57.471488E+06   344.828224E+06       289.907593      -225.423004
             1143    114.94056E+06   -57.473152E+06   -57.472412E+06   344.828128E+06      -410.467621      -247.441238
             1144   114.943848E+06   -57.470488E+06   -57.470852E+06   344.828064E+06       398.545044       150.053955
             1145   114.942544E+06   -57.471452E+06    -57.47112E+06   344.827872E+06       26.8621731       228.090179
             1146   114.942728E+06    -57.47138E+06   -57.471352E+06      344.828E+06      -71.3854599       67.8337402
             1147   114.944776E+06   -57.469544E+06   -57.470548E+06    344.82784E+06       372.671265      -17.9771404
             1148   114.943264E+06   -57.470732E+06   -57.470144E+06   344.827008E+06      -93.2584229      -385.922729
             1149    114.94264E+06   -57.471504E+06    -57.47142E+06   344.827872E+06      -92.7167892       83.7541046
             1150   114.942136E+06   -57.471212E+06   -57.471076E+06   344.827808E+06       155.687698       22.2341652
             1151   114.942672E+06   -57.471424E+06   -57.471304E+06      344.828E+06      -71.5935516      -87.0690994
             1152   114.942656E+06   -57.471224E+06   -57.471152E+06    344.82816E+06      -159.821838       140.737549
             1153   114.942352E+06   -57.469712E+06     -57.4705E+06   344.827264E+06       53.4598923      -174.244659
             1154   114.942632E+06    -57.47156E+06   -57.471484E+06      344.828E+06      -14.7896500       136.251740
             1155   114.942416E+06   -57.470688E+06   -57.470804E+06   344.827776E+06      -31.9611931      -300.247650
             1156   114.942208E+06   -57.473792E+06   -57.472176E+06   344.827968E+06       419.191681       229.721497
             1157    114.94068E+06   -57.474448E+06   -57.473844E+06   344.828928E+06      -386.107513       54.0051804
             1158   114.942336E+06   -57.472496E+06   -57.471544E+06   344.828032E+06      -100.733505      -53.7696915
             1159   114.943048E+06   -57.471576E+06   -57.470796E+06   344.827328E+06   1.06395044E+03       94.0564575
             1160   114.942616E+06   -57.471664E+06   -57.471484E+06   344.828032E+06       112.595551       288.368713
             1161   114.942472E+06     -57.4714E+06   -57.471128E+06   344.827904E+06      -110.689178      -1.81575584
             1162   114.942608E+06   -57.471408E+06   -57.471356E+06   344.828032E+06      -63.5394745       39.4150162
             1163   114.942512E+06   -57.471424E+06   -57.471468E+06   344.828032E+06      -71.5874634       18.0812187
             1164   114.942288E+06   -57.471736E+06   -57.471504E+06   344.828032E+06       131.400345       80.5130463
             1165   114.941816E+06   -57.470912E+06   -57.471904E+06   344.828032E+06      -200.309845      -243.328949
             1166   114.942864E+06    -57.47124E+06   -57.471272E+06    344.82784E+06       118.536652       46.1678619
             1167   114.942704E+06   -57.470896E+06    -57.47078E+06   344.827584E+06       13.4250174      -58.1917267
             1168   114.942624E+06   -57.471148E+06   -57.471512E+06   344.828096E+06       7.05769539      -21.2972679
             1169   114.942608E+06   -57.471084E+06   -57.471472E+06   344.828064E+06      -15.2634735       70.2237854
             1170   114.942272E+06   -57.471252E+06   -57.471728E+06   344.828192E+06       153.938477      -7.79829025
             1171   114.942448E+06   -57.471856E+06   -57.471652E+06   344.828096E+06      -32.0955582       121.269135
             1172   114.944824E+06   -57.470132E+06    -57.47024E+06   344.827136E+06      -87.9474564      -604.684021
             1173    114.94216E+06    -57.47152E+06   -57.471852E+06    344.82816E+06       757.902344      -658.742310
             1174   114.941568E+06    -57.47388E+06    -57.47434E+06    344.82848E+06      -204.922531      -513.137695
             1175    114.94288E+06   -57.471496E+06   -57.472976E+06   344.828192E+06       65.5600204       136.632156
             1176   114.936672E+06   -57.479044E+06   -57.476376E+06     344.8272E+06      -69.7345352      -601.462463
             1177   114.944232E+06   -57.470864E+06   -57.470516E+06    344.82848E+06      -16.6290741      -230.572449
             1178   114.941576E+06    -57.47136E+06    -57.47142E+06   344.827328E+06       113.662323       298.982208
             1179    114.94216E+06   -57.473556E+06   -57.472392E+06   344.828032E+06       285.874481      -68.0001984
             1180   114.942624E+06   -57.471512E+06    -57.47142E+06   344.828032E+06      -72.2187119       60.7039261
             1181   114.941944E+06   -57.471964E+06   -57.471816E+06   344.827808E+06       180.171814       50.6255417
             1182   114.941824E+06   -57.472796E+06   -57.471648E+06   344.826976E+06       138.427567       32.8302956
             1183   114.942152E+06   -57.470784E+06   -57.471028E+06   344.827616E+06      -68.8245163       168.039551
             1184   114.942896E+06   -57.471688E+06   -57.471472E+06   344.828224E+06       153.001907       107.631653
             1185   114.942112E+06   -57.474852E+06   -57.474512E+06   344.829408E+06       797.035339       156.014740
             1186   114.942904E+06   -57.472656E+06   -57.471548E+06   344.828192E+06      -87.5284882       402.041138
             1187    114.95136E+06   -57.469576E+06    -57.46908E+06   344.828992E+06  -2.36560303E+03  -2.93347656E+03
             1188   114.946744E+06   -57.469424E+06   -57.468696E+06   344.829536E+06      -951.722595      -463.496094
             1189   114.942576E+06   -57.469708E+06   -57.471696E+06   344.828288E+06       796.655945       252.503021
             1190    114.94332E+06   -57.472496E+06   -57.471368E+06   344.826144E+06   1.92219922E+03      -91.2434387
             1191    114.94208E+06   -57.472476E+06   -57.472536E+06   344.828256E+06       92.8741837       50.5494080
             1192   114.943088E+06   -57.471544E+06   -57.471556E+06   344.828736E+06       74.9710846      -342.467865
             1193   114.942864E+06    -57.47186E+06   -57.471552E+06    344.82784E+06       523.052917      -371.181610
             1194    114.94252E+06     -57.4714E+06   -57.471472E+06   344.827936E+06       37.6695709       152.319305
             1195   114.942496E+06   -57.471188E+06   -57.471644E+06   344.827904E+06       65.0287170       179.616089
             1196   114.942736E+06   -57.471396E+06    -57.47146E+06   344.828064E+06       154.203415       154.931000
             1197     114.9422E+06   -57.472024E+06   -57.471512E+06    344.82784E+06      -72.4220657       190.751358
             1198   114.943128E+06   -57.471072E+06   -57.471464E+06   344.828416E+06       25.1241302       238.866470
             1199   114.942504E+06   -57.472012E+06   -57.471512E+06   344.828224E+06       81.5616074      -52.3021469
             1200   114.941776E+06   -57.470536E+06   -57.470736E+06   344.827008E+06   1.11174854E+03      -10.6603928
             1201   114.943488E+06   -57.470472E+06    -57.47046E+06   344.827776E+06       76.0429459       573.694092
             1202    114.94344E+06   -57.471364E+06   -57.470688E+06   344.827968E+06      -2.53261566       28.7160835
             1203   114.951296E+06     -57.4635E+06    -57.46522E+06   344.828768E+06      -642.954468      -372.523285
             1204   114.941728E+06   -57.470832E+06   -57.471552E+06   344.827744E+06       91.2880859      -78.0812378
             1205    114.94316E+06   -57.471216E+06   -57.471016E+06   344.827808E+06       125.865288       132.044952
             1206   114.942432E+06   -57.470856E+06   -57.470688E+06    344.82704E+06   1.52516113E+03       918.559692
             1207   114.942112E+06   -57.471828E+06   -57.471704E+06   344.827648E+06       397.621918       49.4570999
             1208   114.942584E+06   -57.471536E+06   -57.471096E+06   344.828032E+06       56.5885391       216.360031
             1209   114.935712E+06    -57.48044E+06   -57.478184E+06   344.828576E+06       513.252930   1.43934814E+03
             1210   114.942968E+06   -57.471552E+06   -57.471588E+06   344.828032E+06       154.774811      -107.325104
             1211    114.94324E+06   -57.471408E+06   -57.470912E+06   344.827584E+06      -87.0569763       270.234406
             1212   114.945264E+06   -57.470756E+06   -57.470924E+06   344.828864E+06      -66.0713654       654.821228
             1213   114.935192E+06   -57.476664E+06   -57.475344E+06   344.826528E+06      -255.600967      -241.340454
             1214    114.94136E+06   -57.475284E+06   -57.474796E+06     344.8288E+06      -158.366241   1.26583557E+03
             1215   114.940712E+06   -57.471668E+06   -57.473732E+06   344.827968E+06       364.920624      -112.246292
             1216    114.94036E+06   -57.472032E+06   -57.472676E+06    344.82768E+06  -1.13581763E+03      -389.677979
             1217   114.942912E+06   -57.471208E+06   -57.471196E+06   344.828064E+06      -27.7806053      -215.090424
             1218     114.9428E+06   -57.470348E+06    -57.47056E+06   344.828352E+06       362.280273       152.685822
             1219   114.943416E+06   -57.472836E+06   -57.471416E+06   344.828288E+06      -224.706924       557.950500
             1220   114.942752E+06   -57.471156E+06   -57.471244E+06   344.827968E+06       3.75083566      -21.8781261
             1221   114.942736E+06   -57.471192E+06   -57.471324E+06   344.827968E+06       247.827499       129.923508
             1222    114.94276E+06   -57.471116E+06   -57.471336E+06   344.828032E+06       63.4249802       18.8464184
             1223     114.9426E+06     -57.4712E+06    -57.47136E+06   344.828032E+06       30.3425655       30.3000164
             1224    114.94228E+06   -57.471428E+06   -57.472056E+06   344.828032E+06       34.0553093       154.919037
             1225    114.94264E+06   -57.471264E+06   -57.471456E+06   344.828032E+06       17.1299858       54.8419876
             1226   114.942616E+06   -57.471228E+06   -57.471436E+06   344.827904E+06       184.705338       58.3575134
             1227    114.94256E+06   -57.471268E+06   -57.471864E+06   344.828192E+06      -60.5092621      -22.8533630
             1228   114.942656E+06   -57.471156E+06   -57.471364E+06   344.828032E+06       37.5586777       23.3909931
             1229   114.942536E+06   -57.471064E+06   -57.471492E+06   344.828064E+06       26.4027004      -26.2131577
             1230   114.940528E+06   -57.475984E+06   -57.473728E+06      344.828E+06      -916.323425      -130.784851
             1231   114.942816E+06     -57.4708E+06   -57.469808E+06    344.82752E+06       148.259445      -7.87952614
             1232     114.9422E+06   -57.472276E+06   -57.472296E+06   344.828064E+06       173.579575       9.62657356
             1233   114.942704E+06   -57.470736E+06   -57.471424E+06   344.828288E+06      -228.199341      -202.061218
             1234     114.9448E+06   -57.468148E+06   -57.467272E+06   344.827488E+06      -138.901733      -20.1859741
             1235   114.942832E+06   -57.471444E+06   -57.470896E+06   344.827776E+06      -136.579010       132.275818
             1236   114.942128E+06    -57.47232E+06   -57.471816E+06   344.827712E+06       68.1005859       114.380592
             1237    114.94184E+06   -57.471996E+06   -57.472016E+06   344.828512E+06       150.442612      -200.690140
             1238   114.942784E+06   -57.471152E+06   -57.471232E+06   344.827968E+06       9.50170517       179.629669
             1239   114.942616E+06   -57.471296E+06    -57.47134E+06   344.828096E+06       118.257278       120.211014
             1240   114.942584E+06   -57.471268E+06   -57.471404E+06   344.828032E+06       59.8109665       247.869003
             1241   114.942984E+06   -57.471032E+06    -57.47102E+06   344.828064E+06       123.347794       164.879822
             1242   114.942344E+06    -57.47116E+06   -57.471756E+06      344.828E+06       12.8265533       80.6001740
             1243   114.945872E+06    -57.46836E+06   -57.469088E+06   344.826816E+06      -597.981689      -556.188965
             1244   114.943184E+06   -57.470532E+06   -57.471756E+06   344.827264E+06       105.616234      -564.201782
             1245    114.94696E+06   -57.468296E+06   -57.468572E+06   344.828768E+06      -381.425293       257.861633
             1246   114.945744E+06   -57.469932E+06    -57.46996E+06   344.827872E+06      -476.662415      -394.554749
             1247   114.950672E+06   -57.466288E+06   -57.466476E+06    344.82656E+06      -270.909607       830.450073
             1248   114.931984E+06    -57.47678E+06   -57.479284E+06   344.833216E+06  -3.05516016E+03  -1.60277100E+03
             1249    114.95736E+06   -57.465152E+06   -57.467588E+06   344.830656E+06  -1.43394897E+03       749.936340
             1250   114.938392E+06   -57.471148E+06    -57.47318E+06     344.8304E+06  -2.15342896E+03       297.061829
             1251   114.942768E+06   -57.471208E+06    -57.47138E+06   344.828032E+06       2.30171204      -20.7275715
             1252   114.942744E+06   -57.471608E+06   -57.471728E+06   344.828352E+06       322.154846      -4.32133293
             1253   114.942104E+06   -57.471744E+06   -57.471688E+06   344.828544E+06       105.457085      -59.8959198
             1254    114.94328E+06   -57.471036E+06   -57.471012E+06   344.828544E+06       56.1266937      -29.9106064
             1255    114.94288E+06   -57.471792E+06   -57.471428E+06   344.828032E+06       89.6847763      -31.1917915
             1256   114.942784E+06   -57.471076E+06   -57.471292E+06   344.828192E+06       32.2299271      -9.84813213
             1257   114.942384E+06   -57.471564E+06   -57.471364E+06   344.828064E+06      -43.3747101       39.5538292
             1258   114.943432E+06   -57.471552E+06   -57.469648E+06   344.824448E+06   1.80739331E+03       751.973450
             1259   114.942632E+06    -57.47114E+06   -57.471396E+06   344.828032E+06      -10.2174377       49.2543144
             1260   114.942576E+06   -57.470872E+06   -57.470484E+06   344.827168E+06      -515.712891       14.7642517
             1261   114.942464E+06   -57.471256E+06   -57.471476E+06      344.828E+06       98.9789276       12.0108204
             1262   114.942672E+06     -57.4713E+06   -57.471572E+06   344.828096E+06       7.38888407      -47.0041008
             1263   114.945144E+06    -57.46824E+06    -57.46876E+06   344.828896E+06      -277.152222      -821.789551
             1264   114.941584E+06   -57.472616E+06    -57.47218E+06   344.827456E+06       115.578346      -15.6472626
             1265   114.941592E+06   -57.472572E+06    -57.47152E+06   344.827296E+06      -140.206329      -544.954102
             1266    114.94176E+06   -57.474012E+06    -57.47282E+06   344.827904E+06      -30.1126251       526.055054
             1267   114.943088E+06   -57.471652E+06   -57.471512E+06   344.828416E+06       335.199951       35.3689537
             1268   114.941728E+06    -57.47038E+06   -57.471628E+06   344.828128E+06       128.708878       320.843567
             1269   114.934776E+06   -57.478296E+06   -57.476264E+06   344.828352E+06       835.542786      -345.853577
             1270   114.942672E+06   -57.471208E+06   -57.471412E+06   344.828032E+06       72.7174759       117.528542
             1271    114.94272E+06   -57.471276E+06   -57.471392E+06    344.82784E+06       142.672653       13.5398521
             1272   114.942448E+06   -57.471532E+06   -57.471508E+06   344.828032E+06      -33.4659538      -81.4719315
             1273   114.942872E+06    -57.47056E+06   -57.471232E+06   344.828192E+06       337.674042      -171.640717
             1274   114.944864E+06   -57.469512E+06   -57.469008E+06    344.82752E+06       30.1233826      -49.1929855
             1275   114.941976E+06   -57.470832E+06    -57.47088E+06   344.827232E+06      -301.113037      -655.860657
             1276   114.943568E+06   -57.470696E+06   -57.470784E+06    344.82848E+06       30.6019287       155.879288
             1277   114.943272E+06   -57.471104E+06    -57.47154E+06   344.827968E+06      -8.74551582       191.316223
             1278   114.942328E+06   -57.471084E+06    -57.47144E+06   344.827904E+06       20.1328888      -170.251968
             1279   114.942496E+06    -57.47116E+06   -57.471348E+06   344.827904E+06       29.8544579      -123.105873
             1280   114.946168E+06   -57.466048E+06   -57.466684E+06   344.825344E+06   1.04260779E+03  -1.58654260E+03
             1281   114.942728E+06   -57.471088E+06   -57.471368E+06    344.82816E+06       78.2190704      -61.4969673
             1282   114.942744E+06   -57.471384E+06   -57.471336E+06   344.828192E+06       265.309021       279.819489
             1283   114.942072E+06   -57.472036E+06   -57.471272E+06   344.827712E+06       244.359665      -161.119934
             1284   114.942696E+06   -57.469932E+06   -57.471848E+06   344.829888E+06       479.697052       410.944702
             1285   114.942528E+06   -57.471672E+06   -57.471108E+06   344.827936E+06      -21.6751556      -110.742584
             1286    114.94248E+06   -57.471432E+06   -57.471384E+06    344.82784E+06       52.1902008      -89.5842896
             1287   114.941168E+06   -57.471992E+06   -57.472792E+06   344.828352E+06      -36.9339180       794.061523
             1288   114.941904E+06   -57.471488E+06    -57.47172E+06      344.828E+06       249.698914       83.4788513
             1289   114.942424E+06   -57.470932E+06   -57.470948E+06   344.828064E+06       149.467102       51.1247406
             1290   114.956072E+06    -57.46424E+06   -57.463796E+06   344.830752E+06       630.639343   3.93479492E+03
             1291   114.956752E+06    -57.45464E+06   -57.456272E+06   344.826592E+06      -338.492065   2.05065649E+03
             1292   114.942848E+06   -57.472668E+06   -57.471888E+06   344.828352E+06       117.831787       577.298767
             1293   114.941968E+06   -57.471572E+06    -57.47154E+06      344.828E+06      -17.3493423       235.472122
             1294   114.942224E+06    -57.47172E+06   -57.472244E+06   344.826752E+06       987.824951      -74.3107300
             1295    114.94528E+06   -57.469104E+06   -57.468744E+06   344.827264E+06      -946.228271       116.180603
             1296   114.942608E+06   -57.470816E+06   -57.471244E+06   344.827872E+06       420.470337       213.613632
             1297   114.944112E+06   -57.469272E+06    -57.46906E+06   344.826144E+06       606.076416       738.310059
             1298   114.944016E+06    -57.47124E+06   -57.470408E+06   344.827104E+06       58.8357315       605.564453
             1299   114.942816E+06   -57.470992E+06    -57.47106E+06   344.828032E+06       9.05085373      -135.543808
             1300   114.942704E+06   -57.471272E+06   -57.471488E+06   344.828128E+06      -110.613373       66.6584396
             1301    114.94132E+06   -57.472952E+06   -57.472124E+06   344.827136E+06   1.02378833E+03       272.669983
             1302   114.943616E+06   -57.467772E+06   -57.468668E+06   344.826688E+06      -81.0763245      -152.447464
             1303   114.943176E+06   -57.471176E+06    -57.47104E+06   344.827808E+06       61.7857857       338.553375
             1304   114.946496E+06   -57.468804E+06   -57.468696E+06   344.827584E+06      -247.207001       15.3315582
             1305   114.941496E+06   -57.472508E+06   -57.471496E+06    344.82736E+06       216.838318      -246.442795
             1306   114.942528E+06   -57.471576E+06   -57.472036E+06   344.828064E+06       167.610596       166.034515
             1307    114.94232E+06   -57.472784E+06   -57.471288E+06   344.827936E+06       447.225433       361.047577
             1308   114.944152E+06   -57.471832E+06    -57.47192E+06   344.828832E+06   1.32265137E+03       687.585632
             1309    114.94312E+06    -57.46992E+06   -57.470464E+06   344.827424E+06      -463.839294      -101.119209
             1310    114.94248E+06   -57.472044E+06   -57.471896E+06   344.827808E+06       221.122803       172.432190
             1311   114.935072E+06   -57.479464E+06    -57.47152E+06    344.82752E+06      -74.1307144      -922.042542
             1312   114.944552E+06   -57.469116E+06   -57.470668E+06   344.829696E+06      -268.081421  -1.14482654E+03
             1313   114.941968E+06   -57.474128E+06   -57.471928E+06    344.83136E+06       810.019775   2.22843457E+03
             1314   114.948664E+06   -57.467856E+06   -57.470056E+06   344.833184E+06      -600.373352      -684.671204
             1315   114.942576E+06   -57.471544E+06    -57.47124E+06   344.827968E+06       82.4508514      -83.4033737
             1316   114.942704E+06   -57.471068E+06   -57.471408E+06   344.828096E+06       66.2569427       63.7689896
             1317   114.946816E+06   -57.466708E+06   -57.468428E+06   344.827136E+06      -154.904755       604.519653
             1318    114.94336E+06   -57.471484E+06   -57.471468E+06   344.827904E+06       43.9861870      -37.9117088
             1319   114.941536E+06    -57.47036E+06   -57.472556E+06   344.828512E+06       336.589722      -56.8879547
             1320   114.943824E+06   -57.470532E+06   -57.471248E+06   344.827904E+06      -322.921600       36.5410538
             1321    114.94356E+06    -57.47196E+06   -57.472296E+06    344.82832E+06       247.052917      -135.941788
             1322   114.942656E+06   -57.471172E+06   -57.471308E+06   344.828032E+06       91.9169083      -70.3889313
             1323    114.94256E+06   -57.471216E+06    -57.47126E+06   344.827968E+06       91.0369415      -116.346924
             1324   114.942936E+06   -57.470448E+06   -57.470972E+06   344.828256E+06       211.394531      -275.672302
             1325   114.943208E+06    -57.47254E+06   -57.472344E+06   344.828224E+06       100.820908      -656.702637
             1326   114.943424E+06   -57.472008E+06   -57.472072E+06   344.827616E+06   4.16372656E+03       608.288635
             1327   114.952416E+06   -57.468488E+06   -57.468528E+06   344.829504E+06      -627.048218   1.70777271E+03
             1328   114.944048E+06   -57.471512E+06   -57.471516E+06   344.828416E+06       203.325211      -156.697876
             1329     114.9464E+06   -57.466532E+06   -57.469232E+06   344.828736E+06       176.167313   1.31433228E+03
             1330    114.95088E+06    -57.46752E+06   -57.466688E+06   344.829376E+06  -3.05447144E+03      -969.783752
             1331   114.944496E+06   -57.468792E+06   -57.471072E+06   344.827712E+06      -537.289856       878.730286
             1332   114.943048E+06   -57.469688E+06   -57.470428E+06   344.828064E+06      -201.438416      -219.667740
             1333   114.944536E+06   -57.470808E+06   -57.470304E+06    344.82784E+06       183.945129      -746.238464
             1334   114.942992E+06   -57.469832E+06   -57.470784E+06   344.827904E+06      -186.639496      -324.460327
             1335   114.942576E+06   -57.471312E+06   -57.471328E+06   344.828224E+06       126.481339       28.4647255
             1336    114.94264E+06     -57.4714E+06    -57.47142E+06    344.82816E+06      -39.1091385       85.7197952
             1337   114.946128E+06    -57.46816E+06   -57.468152E+06   344.827808E+06       236.127228      -154.992081
             1338   114.941392E+06    -57.47234E+06   -57.472156E+06    344.82784E+06       4.24593353      -142.834320
             1339   114.942896E+06   -57.470816E+06   -57.468848E+06    344.82688E+06      -226.288391       458.375153
             1340   114.943296E+06   -57.466984E+06   -57.465192E+06   344.826336E+06   1.19674341E+03  -1.23250049E+03
             1341   114.941952E+06    -57.47152E+06   -57.470836E+06   344.827104E+06      -137.063538       713.624084
             1342   114.945608E+06   -57.468168E+06   -57.468652E+06      344.828E+06       277.053986       670.604187
             1343    114.94348E+06   -57.470896E+06   -57.471944E+06   344.828256E+06       41.9076424      -125.981911
             1344   114.945544E+06     -57.4687E+06   -57.468952E+06    344.82896E+06       168.369370       585.619629
             1345   114.955152E+06   -57.467836E+06      -57.463E+06   344.826752E+06  -2.12018408E+03       610.294312
             1346   114.946448E+06     -57.4702E+06   -57.468312E+06   344.829056E+06      -375.227478       795.849670
             1347   114.945064E+06   -57.470048E+06   -57.464856E+06   344.827392E+06   3.65087354E+03   2.44619092E+03
             1348   114.940216E+06    -57.47316E+06   -57.473116E+06   344.827808E+06       12.4770737       270.225220
             1349   114.942688E+06   -57.471208E+06   -57.471324E+06   344.828064E+06  -239.179075E-03      -19.9868107
             1350   114.941232E+06   -57.473116E+06   -57.472672E+06   344.828512E+06       293.968567  -1.06761487E+03
             1351   114.944656E+06   -57.469976E+06   -57.469096E+06   344.828416E+06   1.72388269E+03  -1.53023242E+03
             1352   114.940208E+06   -57.474404E+06   -57.474328E+06   344.828736E+06      -766.935974      -174.437042
             1353    114.94392E+06   -57.475244E+06   -57.472416E+06   344.828448E+06   3.19008936E+03       505.765320
             1354   114.942576E+06   -57.470764E+06   -57.471752E+06    344.82848E+06      -56.7072067      -54.7967377
             1355   114.943664E+06   -57.469956E+06   -57.470752E+06   344.827712E+06      -237.293472       93.9207611
             1356   114.937776E+06   -57.472804E+06   -57.472912E+06    344.82656E+06       312.733704       41.5716553
             1357   114.938048E+06   -57.474336E+06   -57.474004E+06   344.827776E+06       561.972534       353.180206
             1358   114.940656E+06   -57.471496E+06   -57.473024E+06      344.828E+06       239.127563       895.482483
             1359   114.942504E+06   -57.471652E+06   -57.471896E+06    344.82848E+06      -374.972046      -635.713989
             1360   114.944248E+06   -57.469628E+06   -57.469808E+06   344.827904E+06      -75.1679306      -241.113556
             1361    114.94612E+06   -57.467728E+06   -57.468912E+06   344.827968E+06       434.387726       625.071655
             1362   114.942344E+06     -57.4714E+06   -57.471128E+06   344.828384E+06      -309.720673      -249.392014
             1363    114.94416E+06   -57.468596E+06   -57.470144E+06   344.828512E+06       964.871948       794.997498
             1364   114.943864E+06   -57.470436E+06   -57.471524E+06   344.828256E+06       142.363861      -319.420013
             1365   114.935376E+06    -57.47772E+06   -57.477552E+06   344.828832E+06      -408.552856      -474.507538
             1366   114.935168E+06   -57.479556E+06   -57.478392E+06   344.827712E+06   1.39473730E+03      -184.471237
             1367   114.938672E+06   -57.476152E+06   -57.479912E+06   344.827264E+06      -243.847290       484.356537
             1368   114.930432E+06   -57.480024E+06   -57.479648E+06   344.828672E+06   1.60772107E+03       12.1851044
             1369   114.948048E+06    -57.46682E+06   -57.466816E+06   344.827776E+06      -506.668243      -132.991409
             1370   114.942336E+06   -57.471852E+06    -57.47092E+06   344.827456E+06      -651.495483      -729.069641
             1371   114.941648E+06     -57.4717E+06   -57.471636E+06   344.827872E+06       680.199463   1.11353992E+03
             1372    114.94172E+06     -57.4716E+06   -57.471792E+06   344.828192E+06      -459.668091      -604.029541
             1373   114.942648E+06    -57.47172E+06   -57.471488E+06   344.827968E+06      -337.316589      -924.165649
             1374   114.942128E+06   -57.475836E+06   -57.473512E+06   344.830976E+06  -2.38718726E+03  -1.36274854E+03
             1375   114.941408E+06   -57.471008E+06   -57.472272E+06   344.827904E+06       588.953491       609.092163
             1376    114.94216E+06     -57.4728E+06   -57.470188E+06   344.828352E+06       222.024933      -154.747040
             1377   114.944008E+06   -57.468952E+06   -57.469928E+06   344.827776E+06       345.010620      -439.343933
             1378   114.941392E+06   -57.469864E+06   -57.473088E+06   344.828992E+06      -209.252625       24.3966370
             1379   114.945632E+06   -57.465468E+06   -57.470652E+06    344.82688E+06      -212.922577      -677.081604
             1380    114.93964E+06   -57.474252E+06   -57.474052E+06   344.830464E+06   1.13739929E+03      -339.012238
             1381     114.9418E+06    -57.47062E+06   -57.471292E+06   344.827616E+06       173.040741       469.555115
             1382      114.944E+06   -57.469712E+06   -57.468316E+06   344.826112E+06      -791.781128      -66.1610870
             1383   114.942808E+06   -57.471244E+06   -57.470596E+06   344.826752E+06       132.197540      -44.9023895
             1384     114.9358E+06   -57.480296E+06   -57.475744E+06   344.824576E+06       996.129089   2.55222339E+03
             1385   114.938608E+06   -57.474136E+06   -57.473176E+06   344.826944E+06      -55.3185425      -778.621826
             1386     114.9406E+06    -57.47192E+06   -57.472752E+06   344.828864E+06      -64.1451111       352.460632
             1387   114.942632E+06   -57.471376E+06   -57.471212E+06   344.827776E+06       168.094620       200.198303
             1388   114.943008E+06   -57.471084E+06   -57.470952E+06   344.827968E+06      -27.3154030      -85.0908585
             1389   114.941592E+06   -57.475168E+06    -57.47504E+06   344.830336E+06  -2.02920239E+03   1.54862048E+03
             1390   114.942616E+06   -57.471512E+06   -57.471464E+06   344.828032E+06      -51.4289856       59.3518944
             1391   114.944344E+06    -57.46948E+06   -57.470712E+06    344.82752E+06       137.534607       906.746948
             1392    114.94096E+06   -57.470672E+06   -57.470656E+06    344.82656E+06      -177.465240       293.472717
             1393   114.940456E+06   -57.472176E+06   -57.471296E+06   344.826336E+06       769.888794       405.217834
             1394    114.94224E+06    -57.47188E+06   -57.471848E+06   344.828128E+06       283.474670       294.421051
             1395   114.941544E+06   -57.472524E+06   -57.473964E+06     344.8272E+06       277.635376      -821.413330
             1396   114.941048E+06   -57.471712E+06   -57.471496E+06    344.82752E+06      -589.065918      -120.636795
             1397       114.94E+06    -57.47312E+06   -57.471792E+06   344.828096E+06       176.922699       573.200623
             1398   114.941976E+06   -57.471688E+06   -57.470752E+06   344.827744E+06      -274.549835       223.645752
             1399     114.9434E+06    -57.47044E+06   -57.468928E+06   344.827264E+06       632.434265       389.659912
             1400   114.936176E+06   -57.477392E+06   -57.476904E+06    344.82816E+06      -543.102417   1.07628540E+03
             1401     114.9416E+06    -57.47188E+06   -57.471732E+06   344.828672E+06       165.931061       153.223557
             1402   114.943344E+06   -57.471988E+06   -57.470864E+06   344.828096E+06       568.369873       880.268799
             1403     114.9412E+06   -57.471248E+06   -57.470776E+06   344.826336E+06      -223.706589      -792.748535
             1404     114.9422E+06   -57.471304E+06   -57.471064E+06   344.827168E+06       495.910706      -73.6267395
             1405   114.942544E+06   -57.471756E+06   -57.471368E+06   344.828096E+06      -213.380051      -164.480118
             1406   114.940632E+06   -57.472652E+06   -57.473072E+06   344.827744E+06      -322.702118      -693.078979
             1407   114.942944E+06   -57.471372E+06   -57.471152E+06   344.828096E+06      -57.6062584      -39.4552231
             1408   114.941856E+06   -57.476008E+06   -57.473836E+06    344.82544E+06   1.16147571E+03       29.9607544
             1409   114.942472E+06   -57.471924E+06   -57.471804E+06   344.828192E+06       1.98404312      -71.1541595
             1410   114.944768E+06   -57.471568E+06   -57.469168E+06   344.827616E+06       996.688538   1.04011340E+03
             1411    114.94316E+06   -57.471404E+06   -57.471272E+06   344.827904E+06      -410.548462       135.581955
             1412   114.943672E+06   -57.471008E+06    -57.47062E+06    344.82816E+06       299.198029       314.336090
             1413   114.942304E+06   -57.472052E+06   -57.471468E+06   344.828096E+06      -127.119827      -111.909012
             1414    114.94288E+06    -57.47098E+06   -57.470984E+06   344.828288E+06      -271.410980      -390.218018
             1415    114.94308E+06   -57.471716E+06   -57.471752E+06    344.82864E+06      -11.7568417      -181.900208
             1416    114.94256E+06   -57.471728E+06   -57.471088E+06   344.828448E+06      -302.314911      -299.370483
             1417   114.942224E+06   -57.471732E+06   -57.472192E+06   344.827808E+06       284.723541      -111.134018
             1418   114.941776E+06   -57.472528E+06    -57.47338E+06   344.828736E+06      -46.7783394       349.461212
             1419    114.94164E+06      -57.472E+06   -57.472108E+06   344.828096E+06       349.430969       223.097244
             1420   114.940704E+06   -57.472404E+06    -57.47204E+06   344.827648E+06       1.55816317       178.548325
             1421    114.94368E+06   -57.468944E+06   -57.470104E+06   344.827648E+06       433.713623       692.070679
             1422   114.943568E+06   -57.469916E+06   -57.470772E+06   344.827584E+06       913.440430       210.838104
             1423   114.955712E+06   -57.459936E+06   -57.459344E+06   344.824704E+06   1.83412952E+03      -782.711731
             1424   114.942688E+06   -57.471208E+06   -57.471384E+06   344.828192E+06       18.8826237       11.7836142
             1425   114.939584E+06    -57.47412E+06   -57.474272E+06   344.828736E+06      -517.280762      -424.819366
             1426   114.943776E+06    -57.46758E+06   -57.465632E+06   344.823936E+06      -236.933167  -1.33949829E+03
             1427   114.943328E+06   -57.470752E+06   -57.469932E+06   344.827552E+06       406.514008      -148.406418
             1428   114.942584E+06   -57.471484E+06   -57.471416E+06   344.827936E+06      -20.5692997       90.3468475
             1429   114.941552E+06   -57.472472E+06   -57.470016E+06   344.828416E+06       63.6497955       979.340942
             1430   114.927704E+06   -57.482972E+06     -57.4812E+06   344.834368E+06  -4.07775098E+03      -446.226532
             1431   114.944032E+06   -57.469476E+06   -57.469948E+06   344.827904E+06      -80.3301468       229.858795
             1432   114.943032E+06    -57.47104E+06   -57.471052E+06   344.827648E+06       233.826904      -33.3476524
             1433    114.94464E+06   -57.470876E+06   -57.470108E+06   344.828544E+06      -569.466736      -50.3770981
             1434   114.962704E+06    -57.46192E+06   -57.462368E+06   344.827104E+06   1.04171472E+03       152.589661
             1435   114.943152E+06   -57.472224E+06   -57.472336E+06   344.828064E+06      -641.653076       735.345215
             1436   114.942888E+06   -57.469724E+06   -57.470828E+06    344.82816E+06       558.823547      -357.621490
             1437    114.94164E+06   -57.471896E+06   -57.472136E+06    344.82832E+06       364.918701       91.4797363
             1438   114.942176E+06   -57.471992E+06   -57.471944E+06   344.827648E+06      -124.025490      -55.0760231
             1439    114.94344E+06   -57.471284E+06   -57.470192E+06   344.826496E+06      -686.656189      -730.582886
             1440    114.94316E+06    -57.47278E+06   -57.471344E+06   344.827744E+06      -61.3973846       421.999054
             1441   114.942496E+06    -57.47142E+06   -57.471472E+06   344.827808E+06      -89.7979660      -6.65367222
             1442   114.942352E+06   -57.471744E+06   -57.471584E+06   344.827648E+06      -18.1168213      -16.0538559
             1443   114.945296E+06    -57.46988E+06   -57.470128E+06    344.82784E+06      -495.231110      -59.2352676
             1444   114.942576E+06    -57.47072E+06   -57.470412E+06    344.82816E+06      -190.320724      -311.289124
             1445   114.941384E+06   -57.474016E+06   -57.473012E+06      344.828E+06      -333.286102   1.10628809E+03
             1446   114.943608E+06   -57.471124E+06   -57.471312E+06   344.827008E+06       54.6432953      -658.924988
             1447    114.94328E+06    -57.47246E+06   -57.472368E+06   344.827328E+06      -546.115417      -263.818970
             1448   114.942272E+06   -57.471312E+06   -57.471672E+06   344.828096E+06      -26.5676613      -241.686829
             1449   114.942472E+06   -57.471364E+06   -57.471488E+06   344.828032E+06      -30.1970673      -263.865662
             1450   114.943264E+06   -57.471504E+06   -57.471488E+06   344.828608E+06       935.886230      -468.443604
             1451   114.939848E+06   -57.474304E+06   -57.473704E+06   344.829184E+06       133.120682       610.262207
             1452   114.944416E+06   -57.471364E+06   -57.470268E+06    344.82768E+06       513.187927      -239.461670
             1453   114.943072E+06   -57.471712E+06    -57.47158E+06   344.827328E+06      -204.845535      -629.744385
             1454   114.942512E+06   -57.471152E+06    -57.47144E+06    344.82816E+06      -102.748352      -222.263367
             1455    114.94256E+06    -57.47162E+06   -57.471288E+06   344.827968E+06      -43.6072655      -166.511673
             1456   114.942576E+06   -57.471564E+06   -57.471444E+06   344.827968E+06      -77.8215179       9.56097507
             1457   114.942304E+06   -57.471408E+06   -57.471544E+06   344.828064E+06      -43.6005287      -253.283859
             1458   114.942624E+06   -57.470904E+06   -57.471232E+06   344.828224E+06      -67.8345108      -194.467758
             1459   114.943192E+06   -57.470296E+06   -57.470784E+06   344.828096E+06       72.4952927      -24.0061340
             1460   114.943104E+06   -57.470888E+06   -57.471128E+06   344.827744E+06      -22.2282486      -19.9549026
             1461   114.942808E+06   -57.470892E+06   -57.471104E+06   344.828064E+06      -13.9026327      -219.677002
             1462   114.942704E+06   -57.471436E+06    -57.47144E+06   344.828032E+06      -67.8522644       59.2001228
             1463   114.942784E+06   -57.471332E+06   -57.471424E+06   344.828096E+06      -109.610077       78.0259171
             1464   114.943552E+06   -57.471136E+06   -57.471372E+06    344.82848E+06      -220.746628       197.586533
             1465   114.942528E+06    -57.47104E+06   -57.471376E+06   344.828032E+06      -54.0954895      -158.374847
             1466   114.942752E+06   -57.471412E+06   -57.471276E+06   344.827936E+06       12.6565981       113.527145
             1467   114.942664E+06   -57.471636E+06   -57.471464E+06   344.827872E+06      -48.1440048       26.4904785
             1468   114.942088E+06   -57.472308E+06     -57.4715E+06   344.827744E+06       393.206299       77.3897629
             1469   114.954736E+06   -57.478412E+06   -57.470256E+06   344.824224E+06   1.06951868E+03   2.15929443E+03
             1470   114.942656E+06   -57.471612E+06   -57.471776E+06   344.828192E+06      -19.8400230      -21.1774635
             1471   114.942624E+06   -57.471624E+06   -57.471652E+06   344.828128E+06      -76.5606461       112.085175
             1472   114.942584E+06   -57.471272E+06    -57.47136E+06   344.828032E+06       3.49449158       17.1519165
             1473   114.937768E+06    -57.47704E+06    -57.48134E+06   344.824768E+06      -876.590698      -3.77307129
             1474    114.93908E+06    -57.47272E+06   -57.473848E+06   344.825024E+06   2.45561670E+03   1.45579309E+03
             1475   114.942424E+06   -57.473284E+06   -57.472608E+06   344.825856E+06   2.76848267E+03   1.91751221E+03
             1476   114.943688E+06    -57.47172E+06    -57.47134E+06   344.828448E+06      -82.0079498       139.181824
             1477   114.941576E+06    -57.47158E+06   -57.472084E+06   344.828448E+06       74.9486694      -76.9653549
             1478    114.94216E+06    -57.47168E+06    -57.47142E+06   344.827776E+06      -28.8898277       215.324951
             1479    114.94984E+06   -57.464296E+06   -57.469636E+06    344.83072E+06      -837.309509       39.3856964
             1480   114.946472E+06   -57.468328E+06   -57.466584E+06   344.826752E+06      -415.224396      -965.745972
             1481   114.939552E+06   -57.472188E+06   -57.472164E+06   344.827136E+06      -28.8760529       399.041931
             1482   114.942592E+06    -57.47168E+06   -57.471768E+06   344.828288E+06       141.440918       231.144836
             1483   114.942704E+06   -57.471696E+06   -57.471084E+06   344.827872E+06      -70.6140060       26.6588135
             1484   114.942288E+06   -57.471148E+06   -57.471428E+06   344.827616E+06       60.1000824       117.370819
             1485   114.942944E+06   -57.476024E+06    -57.47636E+06   344.827008E+06   1.48417334E+03       833.289063
             1486   114.942568E+06    -57.47038E+06   -57.471632E+06   344.827968E+06      -36.4388351       403.410187
             1487   114.939816E+06   -57.473496E+06   -57.472568E+06   344.830688E+06       568.269714  -1.11903577E+03
             1488   114.942576E+06   -57.470908E+06   -57.471232E+06   344.828416E+06      -129.280212      -194.601578
             1489   114.942688E+06   -57.471376E+06   -57.472208E+06   344.828416E+06      -143.261887      -352.935120
             1490   114.940936E+06   -57.472488E+06   -57.473008E+06   344.829216E+06  -1.10094019E+03       269.778168
             1491   114.942432E+06    -57.47102E+06   -57.471352E+06    344.82816E+06      -152.406677      -237.919067
             1492    114.94264E+06    -57.47072E+06   -57.471176E+06   344.827968E+06      -28.3261833      -170.832764
             1493   114.941008E+06   -57.474064E+06    -57.46986E+06   344.825792E+06   3.23908643E+03   1.39724768E+03
             1494   114.942584E+06   -57.470884E+06     -57.4714E+06   344.827968E+06      -2.94472599      -91.7982864
             1495   114.940136E+06    -57.47378E+06   -57.473168E+06   344.828352E+06      -487.166748       37.6016998
             1496   114.943472E+06   -57.470932E+06   -57.471292E+06   344.829056E+06       33.0634842       75.0042725
             1497    114.94216E+06    -57.47166E+06   -57.471072E+06    344.82784E+06      -131.271912       69.5334167
             1498   114.942672E+06   -57.471556E+06   -57.471496E+06   344.827968E+06       39.7258911      -3.01559567
             1499   114.942824E+06   -57.471192E+06    -57.47144E+06   344.826112E+06      -550.609192       618.786316
             1500   114.947928E+06    -57.46736E+06   -57.468348E+06   344.827584E+06  -1.04475574E+03      -354.496399
             1501   114.942256E+06   -57.471556E+06   -57.471524E+06   344.828352E+06      -88.4888916       188.818481
             1502   114.940152E+06   -57.471864E+06   -57.472636E+06   344.828224E+06      -470.316223      -272.771332
             1503     114.9398E+06   -57.473668E+06    -57.47334E+06   344.827712E+06      -476.251038       16.2374134
             1504   114.942168E+06   -57.475036E+06   -57.473376E+06   344.827616E+06      -351.730896       695.082336
             1505   114.940344E+06     -57.4723E+06   -57.471564E+06   344.826496E+06      -555.785400       215.954987
             1506   114.942128E+06   -57.471548E+06   -57.471672E+06   344.828032E+06       62.8058624      -198.541977
             1507   114.945104E+06   -57.471856E+06   -57.469612E+06    344.82544E+06      -721.638245      -979.534546
             1508    114.94864E+06     -57.4655E+06   -57.466144E+06   344.828352E+06       755.861389      -70.6357117
             1509    114.94344E+06   -57.470544E+06   -57.470608E+06      344.828E+06       734.842163      -324.543945
             1510   114.941584E+06   -57.475228E+06   -57.471728E+06   344.824608E+06   1.58588599E+03   2.06957886E+03
             1511   114.949112E+06     -57.4659E+06     -57.4692E+06   344.829376E+06      -90.1393433   1.39814624E+03
             1512   114.941144E+06   -57.475904E+06   -57.472304E+06   344.826144E+06       602.032471      -517.323364
             1513   114.943208E+06   -57.470856E+06   -57.471404E+06   344.828096E+06       142.872543       129.463608
             1514   115.033504E+06   -57.415328E+06    -57.41216E+06   344.830432E+06  -6.87628271E+03   2.81020923E+03
             1515   114.942592E+06     -57.4713E+06    -57.47146E+06    344.82784E+06       50.8357391      -78.8598709
             1516   114.942176E+06   -57.471448E+06    -57.47156E+06   344.828096E+06      -126.805305       61.5414963
             1517   114.942736E+06   -57.471696E+06   -57.471572E+06   344.827904E+06      -4.90192890      -165.081665
             1518   114.941976E+06   -57.470396E+06   -57.470724E+06      344.828E+06      -116.083084       166.383850
             1519   114.941112E+06   -57.471756E+06   -57.471388E+06   344.828928E+06       313.528870       383.436096
             1520   114.946416E+06   -57.468972E+06   -57.469496E+06   344.828608E+06       233.155273      -758.513672
             1521   114.941328E+06   -57.469636E+06   -57.467696E+06   344.826528E+06      -805.523376       238.229385
             1522   114.943536E+06   -57.467856E+06    -57.46852E+06   344.826688E+06      -25.7217617   1.01587433E+03
             1523   114.937304E+06   -57.476032E+06    -57.47616E+06   344.828448E+06       670.820435      -97.7948608
             1524   114.936736E+06   -57.473128E+06   -57.475572E+06   344.827136E+06  -1.41257068E+03       598.975891
             1525   114.942848E+06   -57.469524E+06    -57.47026E+06   344.827456E+06       331.480591       982.623413
             1526   114.942552E+06   -57.471592E+06   -57.471576E+06    344.82784E+06      -103.275772      -113.755035
             1527   114.941888E+06   -57.471568E+06   -57.471544E+06   344.828448E+06      -272.643311      -566.117065
             1528   114.940952E+06   -57.472788E+06   -57.472368E+06    344.82784E+06      -335.765442      -634.907898
             1529   114.944792E+06   -57.468656E+06   -57.469064E+06     344.8272E+06       445.784760      -81.3318863
             1530   114.941528E+06   -57.471016E+06    -57.47272E+06   344.828672E+06       161.704910       455.960388
             1531   114.941976E+06    -57.47212E+06   -57.471468E+06    344.82832E+06      -483.024902      -56.9977188
             1532   114.937776E+06     -57.4745E+06   -57.473996E+06   344.827136E+06      -887.959473       768.575134
             1533    114.94008E+06   -57.473328E+06   -57.474424E+06    344.82784E+06       293.162476      -201.072296
             1534   114.941568E+06    -57.47348E+06   -57.473752E+06      344.828E+06       327.170105      -656.823364
             1535   114.942848E+06    -57.46974E+06   -57.470712E+06   344.828224E+06      -157.025452       309.323517
             1536   114.941328E+06   -57.469368E+06   -57.470876E+06   344.826688E+06       117.411255       618.875793
             1537   114.942576E+06   -57.469168E+06   -57.470188E+06   344.828288E+06       254.522079      -533.463257
             1538   114.945104E+06   -57.468736E+06   -57.468848E+06   344.827104E+06       741.980347       102.790077
             1539   114.949912E+06    -57.46356E+06   -57.465652E+06   344.824768E+06      -96.2596054      -155.697571
             1540   114.942368E+06    -57.47134E+06   -57.471224E+06   344.826752E+06       719.603821      -159.300598
             1541    114.94288E+06   -57.471056E+06   -57.471208E+06   344.827968E+06       33.5033150       34.2435760
             1542   114.942544E+06    -57.47146E+06   -57.471416E+06   344.827936E+06       124.002853      -10.2616119
             1543   114.942592E+06   -57.471592E+06   -57.471368E+06   344.827968E+06      -52.0252457       22.8222046
             1544   114.942616E+06    -57.47196E+06   -57.471716E+06    344.82832E+06       156.740952       79.1296158
             1545   114.942744E+06   -57.471472E+06   -57.471396E+06      344.828E+06      -10.6762896      -109.084732
             1546   114.942424E+06   -57.471808E+06   -57.471356E+06   344.827936E+06       42.9691124       170.260406
             1547   114.942224E+06   -57.471748E+06   -57.471464E+06   344.828256E+06      -306.969635      -270.456543
             1548    114.94264E+06   -57.471808E+06   -57.471152E+06   344.827904E+06       84.5168152      -44.2296371
             1549   114.942536E+06   -57.470056E+06   -57.469936E+06   344.827904E+06        1.031E+03      -73.5769653
             1550   114.942656E+06   -57.471548E+06   -57.471308E+06   344.828032E+06      -41.5283051      -23.6146774
             1551   114.942544E+06   -57.471424E+06   -57.471288E+06      344.828E+06      -59.7182922      -197.724243
             1552   114.941936E+06   -57.471944E+06   -57.471536E+06   344.827424E+06      -37.7607574       27.9991379
             1553   114.942832E+06   -57.471408E+06    -57.47148E+06   344.828032E+06       112.223289       158.792938
             1554   114.942632E+06     -57.4713E+06   -57.471416E+06   344.827968E+06      -14.7967901       80.2677383
             1555    114.94288E+06   -57.471424E+06   -57.471068E+06   344.828416E+06       343.808777       33.1401062
             1556   114.942656E+06   -57.471072E+06   -57.471348E+06   344.828192E+06      -139.852890      -84.6255493
             1557   114.942544E+06    -57.47112E+06   -57.471352E+06   344.827808E+06       52.1980972      -109.131027
             1558   114.942624E+06   -57.471416E+06   -57.471244E+06   344.827936E+06      -35.0965195      -49.4195328
             1559   114.942696E+06   -57.470996E+06    -57.47118E+06   344.828192E+06       1.75850868      -14.5530481
             1560   114.942832E+06   -57.471508E+06   -57.471312E+06   344.828096E+06      -126.776222      -95.2310410
             1561   114.942688E+06     -57.4714E+06   -57.471336E+06   344.827968E+06      -87.9326935      -138.026489
             1562   114.943256E+06   -57.470196E+06   -57.470392E+06   344.827424E+06       488.764282      -701.539185
             1563   114.942296E+06   -57.471768E+06   -57.471608E+06    344.82816E+06      -283.424927      -72.9442825
             1564    114.94304E+06   -57.470372E+06   -57.470988E+06   344.827904E+06      -49.4834404      -189.622604
             1565   114.943168E+06   -57.471124E+06   -57.470944E+06   344.828288E+06       32.6229172      -73.9175568
             1566   114.942312E+06   -57.471568E+06   -57.471964E+06   344.827904E+06       164.686630       102.087296
             1567   114.942784E+06   -57.471264E+06   -57.471324E+06   344.827872E+06      -54.7949829      -199.529114
             1568    114.94276E+06   -57.471356E+06   -57.471368E+06      344.828E+06       161.868530       2.48427773
             1569   114.942832E+06   -57.471228E+06   -57.471236E+06   344.828032E+06       69.2959595       80.1537781
             1570   114.942504E+06   -57.471216E+06    -57.47138E+06   344.827904E+06       37.6018600      -77.2834930
             1571   114.942864E+06   -57.471476E+06   -57.470556E+06    344.82752E+06      -64.4062805      -206.577789
             1572   114.942424E+06   -57.471604E+06   -57.471216E+06    344.82768E+06       87.0707397       33.9272346
             1573   114.942712E+06   -57.471588E+06   -57.471296E+06   344.828032E+06       21.0694275       66.3040695
             1574   114.941696E+06   -57.472724E+06    -57.47222E+06    344.82768E+06       148.352600       153.508362
             1575   114.942456E+06   -57.471652E+06   -57.471444E+06    344.82784E+06       295.070099       595.559021
             1576   114.942504E+06   -57.472248E+06   -57.471416E+06   344.826624E+06       414.498932   1.09883337E+03
             1577    114.94268E+06   -57.471584E+06   -57.471328E+06   344.827968E+06      -75.9763947      -10.8095818
             1578   114.951616E+06   -57.468616E+06   -57.471116E+06   344.832832E+06      -513.573242       386.684570
             1579   114.946744E+06   -57.470596E+06    -57.46894E+06   344.826752E+06   1.19615942E+03       899.915771
             1580    114.94636E+06    -57.46624E+06   -57.468228E+06   344.828416E+06       301.507141   1.28237793E+03
             1581    114.93596E+06   -57.477136E+06   -57.476192E+06   344.828672E+06      -492.146606      -346.407471
             1582   114.946048E+06    -57.47116E+06   -57.471164E+06   344.827872E+06      -744.058899      -274.636414
             1583   114.952736E+06   -57.460648E+06    -57.46218E+06   344.827712E+06  -1.61185803E+03  -1.39361060E+03
             1584   114.942528E+06   -57.471516E+06   -57.471776E+06   344.828736E+06      -225.035477      -248.119904
             1585   114.942024E+06   -57.471496E+06   -57.471324E+06   344.827552E+06      -281.933563      -426.604980
             1586   114.942864E+06   -57.471464E+06   -57.471384E+06   344.827968E+06      -145.965225       45.5455894
             1587   114.942384E+06   -57.472052E+06    -57.47182E+06     344.8288E+06       387.122070       131.440308
             1588   114.942576E+06   -57.471496E+06   -57.471488E+06   344.828096E+06      -42.5569801      -162.578949
             1589   114.946408E+06   -57.468832E+06   -57.470848E+06   344.827936E+06      -205.020477       619.900024
             1590   114.942728E+06    -57.47148E+06     -57.4716E+06   344.828512E+06      -84.5252151      -77.7992172
             1591   114.942424E+06   -57.471244E+06   -57.471456E+06   344.828032E+06       59.4834366      -45.2169571
             1592   114.943472E+06    -57.47208E+06   -57.470548E+06   344.828448E+06      -817.223572      -700.841675
             1593     114.9464E+06   -57.471876E+06     -57.4731E+06   344.830656E+06      -23.7392502       454.126587
             1594    114.93308E+06   -57.480672E+06   -57.475224E+06   344.824256E+06      -28.7174988      -392.262268
             1595   114.942472E+06   -57.473552E+06    -57.47276E+06   344.827008E+06       650.612366       587.159790
             1596     114.9328E+06     -57.4818E+06    -57.47904E+06   344.824256E+06   3.03705103E+03       108.988220
             1597   114.942944E+06   -57.471368E+06   -57.471296E+06    344.82816E+06       6.33181000       129.293060
             1598   114.942496E+06   -57.472672E+06    -57.47136E+06   344.827552E+06       82.2536545      -446.879578
             1599   114.942632E+06   -57.471032E+06   -57.471468E+06   344.827776E+06       262.232208      -122.943741
             1600   114.942336E+06   -57.471784E+06    -57.47246E+06   344.828608E+06      -130.253326       362.774231
             1601   114.943392E+06   -57.471328E+06   -57.471228E+06   344.828064E+06       234.675186       215.704132
             1602   114.942544E+06   -57.471316E+06   -57.471392E+06   344.828096E+06      -211.474792       36.4648857
             1603   114.942648E+06   -57.471164E+06    -57.47142E+06   344.828064E+06      -1.83670735       35.5425339
             1604   114.942552E+06   -57.471856E+06   -57.471836E+06   344.828544E+06       40.1129990       251.700485
             1605   114.942992E+06     -57.4712E+06    -57.47138E+06   344.828096E+06      -93.1924133       96.9159851
             1606     114.9428E+06   -57.472056E+06   -57.472088E+06   344.828224E+06      -102.959480       148.948700
             1607     114.9444E+06   -57.467372E+06    -57.46986E+06   344.828128E+06   1.07531982E+03      -506.898071
             1608    114.94032E+06   -57.471312E+06     -57.4716E+06   344.828192E+06       234.262878      -744.634888
             1609   114.943392E+06   -57.470736E+06   -57.471112E+06    344.82736E+06      -340.496246       33.9317474
             1610   114.940792E+06   -57.473144E+06   -57.473592E+06   344.828384E+06      -140.614319      -97.7860107
             1611   114.943032E+06   -57.469908E+06    -57.46938E+06   344.826368E+06      -483.425812      -96.8094788
             1612   114.942344E+06   -57.471628E+06   -57.471104E+06   344.827744E+06       59.1878891      -177.445404
             1613   114.942512E+06    -57.46884E+06   -57.467072E+06    344.82656E+06  -1.28913379E+03   1.22498584E+03
             1614   114.946848E+06   -57.468488E+06   -57.468652E+06   344.827968E+06  -1.31049768E+03       493.617096
             1615   114.937352E+06   -57.473568E+06   -57.473368E+06      344.828E+06       120.483192       225.012512
             1616   114.941808E+06   -57.471428E+06   -57.471192E+06   344.827968E+06       112.756744      -145.306885
             1617   114.942464E+06   -57.470784E+06    -57.47132E+06   344.828032E+06      -25.3329296      -255.772675
             1618    114.94268E+06   -57.470936E+06   -57.471344E+06   344.828096E+06       73.1009369       159.544586
             1619   114.942728E+06   -57.471032E+06   -57.470968E+06   344.828192E+06       223.534760      -234.432449
             1620   114.943584E+06   -57.470492E+06   -57.470416E+06   344.827648E+06      -727.149719      -49.4280319
             1621    114.94532E+06   -57.469072E+06   -57.470064E+06   344.828352E+06      -468.540161      -486.640930
             1622    114.94664E+06    -57.46924E+06   -57.466936E+06   344.828864E+06   1.96104626E+03       864.826050
             1623    114.93652E+06     -57.4768E+06    -57.47676E+06   344.829824E+06  -2.10642090E+03      -535.987915
             1624   114.941712E+06   -57.471616E+06   -57.472056E+06     344.8272E+06       125.402786      -545.533081
             1625    114.94272E+06   -57.471952E+06   -57.471972E+06   344.827904E+06      -200.328568      -127.139603
             1626   114.942688E+06    -57.47156E+06   -57.471416E+06    344.82784E+06       59.1235046      -259.101776
             1627    114.94432E+06   -57.467512E+06   -57.469256E+06   344.827776E+06      -338.258484      -725.114563
             1628   114.932816E+06    -57.47428E+06   -57.472712E+06   344.827968E+06   2.14437207E+03   1.52584204E+03
             1629   114.950496E+06   -57.465356E+06   -57.465952E+06    344.82688E+06      -273.303711      -169.490875
             1630   114.940552E+06   -57.473868E+06    -57.47348E+06   344.828416E+06   1.27453589E+03      -30.6639423
             1631   115.032512E+06    -57.40976E+06   -57.407384E+06    344.82928E+06  -7.46861914E+03      -640.883606
             1632   114.943296E+06   -57.469856E+06   -57.470084E+06    344.82688E+06      -497.750946       374.786499
             1633   114.942672E+06   -57.471232E+06   -57.471376E+06   344.828288E+06       271.913208       497.337646
             1634   114.931264E+06   -57.475744E+06   -57.475496E+06   344.822624E+06  -3.39195996E+03      -562.866821
             1635   114.943128E+06   -57.471144E+06   -57.471124E+06    344.82816E+06       444.638092       9.46612549
             1636   114.943672E+06   -57.471028E+06   -57.470608E+06    344.82816E+06       285.615723       166.425751
             1637   114.941576E+06   -57.471808E+06   -57.471512E+06    344.82768E+06      -88.2781448      -402.472137
             1638   114.944384E+06   -57.470128E+06   -57.470104E+06   344.827808E+06       188.358078       26.1309795
             1639   114.942512E+06   -57.469792E+06    -57.47044E+06    344.82768E+06       597.510010      -439.876831
             1640   114.937128E+06   -57.479508E+06    -57.47758E+06   344.830784E+06  -1.68069934E+03      -332.455872
             1641   114.940328E+06   -57.472956E+06   -57.471656E+06   344.827936E+06      -578.022156      -306.534058
             1642   114.942256E+06   -57.473776E+06   -57.471764E+06   344.828384E+06       169.641144       287.695435
             1643   114.944584E+06   -57.469616E+06   -57.469276E+06    344.82768E+06       635.826782       199.368362
             1644   114.942408E+06   -57.472252E+06   -57.471512E+06    344.82784E+06      -560.417542       183.120239
             1645   114.942608E+06   -57.471548E+06   -57.471476E+06   344.828032E+06      -59.5365486       55.3470612
             1646   114.943536E+06   -57.469008E+06   -57.469796E+06   344.827904E+06      -305.292633      -47.0863342
             1647   114.942192E+06   -57.471684E+06   -57.471872E+06   344.828576E+06       318.503143      -53.6072731
             1648   114.933296E+06   -57.479072E+06   -57.478992E+06   344.828928E+06       940.296448       893.610352
             1649   114.948048E+06    -57.46892E+06   -57.468396E+06   344.828448E+06      -775.066223      -68.9241943
             1650   114.940368E+06   -57.473912E+06   -57.473736E+06   344.829216E+06       324.780457       507.268616
             1651   114.944264E+06   -57.467104E+06   -57.471172E+06   344.826528E+06  -3.16291211E+03  -1.47432227E+03
             1652   114.932256E+06    -57.48016E+06   -57.479344E+06   344.829376E+06   1.80276758E+03       684.299072
             1653   114.942672E+06   -57.470988E+06   -57.471216E+06   344.827808E+06      -92.4452057      -79.1996002
             1654   114.942992E+06   -57.472012E+06   -57.471792E+06    344.82832E+06       276.854279       233.197235
             1655   114.948328E+06   -57.466704E+06   -57.465004E+06   344.826432E+06   1.14154333E+03      -363.091492
             1656   114.942584E+06   -57.471332E+06   -57.471052E+06   344.827328E+06      -477.614929      -136.636322
             1657   114.942648E+06   -57.471604E+06   -57.471216E+06   344.827872E+06      -24.2124100      -35.9783478
             1658   114.934912E+06   -57.477524E+06   -57.477956E+06   344.828672E+06       443.662109       343.130768
             1659   114.954576E+06   -57.459844E+06   -57.464384E+06   344.830432E+06   1.38681604E+03  -1.06417969E+03
             1660    114.97036E+06    -57.44528E+06   -57.448736E+06   344.823264E+06  -12.2453428E+03   1.35876282E+03
             1661   114.942584E+06   -57.471688E+06    -57.47128E+06   344.827904E+06      -79.2799301      -142.200668
             1662   114.940664E+06   -57.474476E+06    -57.47532E+06   344.829376E+06      -534.624268       502.132019
             1663    114.94088E+06   -57.473024E+06   -57.473112E+06   344.828416E+06       729.395386       187.117615
             1664   114.945872E+06   -57.477152E+06   -57.473652E+06   344.830176E+06       370.179932   3.35584766E+03
             1665   114.937408E+06    -57.47438E+06   -57.474304E+06   344.827008E+06      -97.5590515   1.06880896E+03
             1666   114.942864E+06   -57.467732E+06   -57.471116E+06   344.826816E+06   1.14407715E+03       878.479370
             1667   114.946824E+06   -57.463704E+06   -57.464884E+06   344.827456E+06   1.10196277E+03   1.88023938E+03
             1668   114.942632E+06   -57.471296E+06   -57.471432E+06   344.828032E+06   146.271706E-03       16.7825279
             1669   114.941344E+06    -57.47208E+06     -57.4721E+06   344.828352E+06       196.859879      -25.4542007
             1670   114.944096E+06     -57.4661E+06   -57.467424E+06   344.826848E+06  -1.26732861E+03       212.849792
             1671    114.94208E+06   -57.471056E+06   -57.471488E+06   344.827616E+06      -263.517151      -50.8736305
             1672   114.940576E+06   -57.474504E+06    -57.47412E+06   344.827328E+06       217.259155       57.3355713
             1673   114.942784E+06   -57.471876E+06    -57.47164E+06   344.828416E+06      -254.039581      -537.517456
             1674   114.942656E+06   -57.471212E+06   -57.471712E+06    344.82832E+06       319.331543       19.4724617
             1675   114.943064E+06    -57.47174E+06    -57.47128E+06   344.828192E+06       449.669434      -548.611633
             1676   114.944608E+06   -57.470696E+06    -57.47056E+06   344.828864E+06       227.469696       427.507538
             1677    114.94144E+06    -57.47198E+06    -57.47174E+06   344.827232E+06       299.985352       118.086761
             1678   114.942688E+06   -57.471352E+06    -57.47156E+06      344.828E+06       17.1127357       192.791672
             1679   114.942272E+06   -57.469884E+06    -57.46982E+06   344.826816E+06   1.21664587E+03       255.639740
             1680   114.942672E+06   -57.467384E+06   -57.469908E+06   344.828128E+06       549.128906      -8.13854980
             1681   114.944352E+06       -57.47E+06    -57.47004E+06   344.828512E+06       308.852722       571.096619
             1682   114.943624E+06    -57.47174E+06   -57.471672E+06    344.82896E+06      -270.284363      -319.533630
             1683   114.935888E+06   -57.477812E+06   -57.478124E+06    344.82912E+06       7.83422852       401.891876
             1684    114.94388E+06   -57.470652E+06   -57.470296E+06   344.828224E+06      -505.343567      -192.643585
             1685    114.94264E+06   -57.471604E+06   -57.471904E+06    344.82736E+06       155.452011      -170.811676
             1686   114.942904E+06   -57.471292E+06    -57.47114E+06   344.827904E+06       422.720459       321.784851
             1687   114.942912E+06   -57.471228E+06    -57.47132E+06    344.82816E+06       49.1387787       35.0094604
             1688    114.93216E+06   -57.479636E+06   -57.479848E+06   344.828608E+06       840.629883       286.586365
             1689   114.943968E+06   -57.468024E+06   -57.469124E+06   344.826496E+06       291.067749       224.685608
             1690   114.935048E+06   -57.478268E+06   -57.477636E+06   344.827488E+06       288.091431      -488.073730
             1691   114.943208E+06   -57.471916E+06   -57.471288E+06   344.827712E+06       461.188477       480.105927
             1692   114.944136E+06    -57.47144E+06     -57.4704E+06   344.827616E+06       393.296448       279.891144
             1693   114.938592E+06   -57.473264E+06   -57.473388E+06   344.827008E+06      -258.001556       214.642914
             1694   114.936688E+06   -57.474744E+06     -57.4747E+06   344.828064E+06       600.147461           -698.5
             1695    114.94152E+06    -57.46872E+06   -57.473232E+06   344.828448E+06  -3.47789404E+03       830.202515
             1696    114.92752E+06   -57.485908E+06   -57.482744E+06   344.825824E+06  -1.16848901E+03      -555.873535
             1697   114.891272E+06   -57.507424E+06   -57.507912E+06   344.828864E+06       955.240601  -1.18657031E+03
             1698   114.949592E+06   -57.462992E+06    -57.46604E+06   344.829888E+06      -666.930298       775.452637
             1699   114.942376E+06   -57.471872E+06   -57.471392E+06   344.828096E+06      -85.9351807       92.9219513
             1700   114.943296E+06   -57.466816E+06   -57.467912E+06   344.825888E+06      -266.856140       315.108093
             1701   114.942048E+06   -57.471408E+06   -57.470684E+06   344.826624E+06       490.285553       247.657898
             1702   114.901376E+06   -57.495584E+06   -57.490512E+06   344.823808E+06  -1.85233691E+03      -947.212585
             1703   114.940488E+06   -57.467384E+06   -57.470308E+06   344.828832E+06  -5.74727979E+03      -320.963776
             1704   114.939568E+06   -57.473936E+06   -57.473804E+06   344.828032E+06      -428.456665      -436.002930
             1705    114.94512E+06   -57.470208E+06    -57.46788E+06   344.828288E+06      -645.134277       225.638580
             1706   114.945504E+06    -57.46782E+06   -57.469288E+06     344.8288E+06      -780.507324       264.110291
             1707   114.943912E+06   -57.470804E+06   -57.470756E+06   344.828256E+06      -9.26681137       101.991707
             1708   114.938856E+06   -57.474328E+06   -57.476628E+06   344.828512E+06      -213.820816  -1.34268579E+03
             1709    114.94268E+06   -57.471104E+06    -57.47138E+06   344.828064E+06       24.6484833      -51.0057335
             1710     114.9418E+06   -57.471348E+06   -57.472032E+06   344.827552E+06       170.441376      -305.686554
             1711    114.94128E+06   -57.473424E+06   -57.472664E+06   344.828416E+06      -237.284637      -21.7576199
             1712   114.942656E+06    -57.47154E+06   -57.471348E+06   344.827904E+06      -74.1716995       10.4964724
             1713   114.941088E+06   -57.470288E+06   -57.470992E+06    344.82784E+06       418.728027      -604.266846
             1714   114.887088E+06     -57.5133E+06    -57.51906E+06   344.837952E+06       60.9868164   376.678467E-03
             1715   114.940936E+06   -57.473664E+06    -57.47372E+06   344.829152E+06      -405.808472       322.282410
             1716   114.957488E+06   -57.462412E+06   -57.464044E+06   344.827648E+06      -291.386230      -357.647400
             1717   114.942672E+06   -57.471016E+06   -57.471208E+06   344.827936E+06      -123.365250       124.889488
             1718   114.940568E+06   -57.471868E+06   -57.472224E+06   344.827296E+06       162.492218       388.572754
             1719   114.946912E+06   -57.468952E+06   -57.472908E+06   344.825568E+06    6.6360625E+03   2.14804687E+03
             1720   114.943344E+06   -57.470868E+06   -57.471076E+06   344.827776E+06      -408.396118       414.412872
             1721   114.942696E+06   -57.471268E+06   -57.471488E+06   344.828064E+06      -33.6227951       80.9941177
             1722   114.955672E+06     -57.4636E+06   -57.462836E+06   344.831968E+06   2.37495435E+03  -1.63051392E+03
             1723    114.94256E+06   -57.471436E+06   -57.471872E+06   344.827936E+06       251.135895       23.6142521
             1724    115.02568E+06    -57.40536E+06   -57.406208E+06   344.824416E+06   5.09664990E+03      -73.1916504
             1725   114.940672E+06   -57.471276E+06   -57.472648E+06   344.828384E+06      -768.906799       153.480469
             1726   114.943424E+06   -57.471492E+06   -57.471384E+06   344.828224E+06      -145.716553      -154.108551
             1727   114.942096E+06   -57.471336E+06   -57.472016E+06   344.828128E+06      -183.888458      -30.9262085
             1728   114.972984E+06    -57.45516E+06   -57.451128E+06   344.826464E+06   8.08054004E+03       689.753052
             1729    114.94668E+06   -57.469264E+06   -57.470384E+06    344.83072E+06  -1.00413330E+03       231.753708
             1730   114.941616E+06   -57.472356E+06   -57.472132E+06   344.827648E+06       132.210419      -446.635620
             1731   114.942704E+06   -57.471664E+06   -57.471196E+06   344.827904E+06       162.519272       57.9812927
             1732   114.943968E+06   -57.470124E+06   -57.470596E+06   344.828512E+06      -47.9932251       233.977661
             1733   114.944096E+06   -57.472496E+06   -57.471036E+06   344.829312E+06   1.48132886E+03       329.407776
             1734   114.942712E+06   -57.471568E+06   -57.471156E+06   344.827936E+06      -82.9369812      -103.099121
             1735   114.941096E+06   -57.472984E+06   -57.472816E+06   344.828736E+06      -238.594177      -60.6057968
             1736   114.944824E+06   -57.469624E+06   -57.470272E+06   344.828544E+06  -1.17152185E+03      -398.640167
             1737   114.938568E+06   -57.474568E+06   -57.473824E+06   344.827648E+06       532.528137      -229.095093
             1738   114.939912E+06   -57.473648E+06   -57.472212E+06   344.826816E+06      -242.479340       25.2528572
             1739   114.947928E+06   -57.467584E+06    -57.46688E+06   344.827968E+06       53.8716202       367.544647
             1740   114.957856E+06   -57.459448E+06   -57.461912E+06   344.823872E+06  -3.33107935E+03       481.144562
             1741   114.918192E+06    -57.48828E+06   -57.489128E+06   344.829952E+06   11.2750391E+03       566.996216
             1742   114.943216E+06    -57.47078E+06    -57.47116E+06   344.827968E+06      -98.4469604       151.796936
             1743   114.937128E+06   -57.479664E+06   -57.476052E+06   344.828384E+06       1.38049316      -23.3138123
             1744   114.941376E+06   -57.472904E+06   -57.472508E+06   344.828896E+06       111.418976       63.3082619
             1745     114.9408E+06   -57.472416E+06     -57.4713E+06   344.825152E+06      -140.734131   1.39159595E+03
             1746   114.940816E+06   -57.472312E+06   -57.472664E+06   344.828768E+06       287.198059      -222.680359
             1747   114.942808E+06    -57.47124E+06   -57.471328E+06    344.82816E+06       100.793678       24.1812687
             1748   114.951104E+06   -57.464712E+06   -57.466324E+06   344.827904E+06   1.34593384E+03       511.050568
             1749   114.943056E+06   -57.469248E+06     -57.4713E+06   344.828288E+06       64.4465179      -40.1343079
             1750   114.944696E+06   -57.469384E+06   -57.469376E+06   344.827136E+06      -138.243729       647.592651
             1751   114.943232E+06   -57.470904E+06   -57.470952E+06   344.827968E+06       155.366806       67.7480240
             1752    114.94104E+06   -57.473224E+06   -57.473044E+06   344.827904E+06      -132.540009       164.270279
             1753   114.943904E+06   -57.470376E+06    -57.46996E+06    344.82704E+06      -382.949493       92.6507187
             1754   114.939744E+06   -57.472328E+06   -57.471796E+06   344.827008E+06       262.286438       294.970032
             1755   114.924552E+06   -57.486476E+06   -57.482216E+06   344.831456E+06  -2.60618066E+03       764.356384
             1756   114.942464E+06   -57.471832E+06   -57.471256E+06   344.827808E+06       10.1144781      -147.278839
             1757    114.94296E+06   -57.473344E+06   -57.472096E+06     344.8288E+06      -30.7626724      -458.608337
             1758   114.942664E+06    -57.47096E+06   -57.471336E+06   344.828576E+06       83.5679779       6.15817833
             1759   114.942608E+06   -57.471584E+06   -57.471256E+06   344.828128E+06       132.740967       35.6753006
             1760     114.9248E+06   -57.484728E+06   -57.485596E+06   344.828608E+06  -5.49486572E+03       902.146179
             1761   114.942208E+06    -57.47288E+06    -57.47144E+06   344.827968E+06   1.07958533E+03       930.888245
             1762   114.938808E+06   -57.468728E+06   -57.467148E+06   344.820096E+06   1.60074988E+03  -3.61779053E+03
             1763   114.963344E+06    -57.46584E+06    -57.46272E+06   344.829344E+06  -2.98361523E+03      -984.277954
             1764   114.942512E+06   -57.470632E+06   -57.472816E+06   344.829504E+06      -416.111542      -13.2959538
             1765   114.942584E+06    -57.47164E+06   -57.471272E+06   344.827904E+06       16.1904202       9.13943386
             1766   114.943424E+06   -57.470452E+06   -57.470692E+06   344.828256E+06      -41.7117157      -200.559921
             1767   114.943272E+06   -57.471128E+06   -57.471036E+06    344.82752E+06      -30.8058929      -280.401733
             1768   114.930736E+06   -57.479992E+06   -57.480124E+06   344.829696E+06      -19.3049316      -813.630676
             1769   114.942208E+06   -57.471336E+06   -57.471184E+06   344.827968E+06       111.880112       13.0257797
             1770     114.9424E+06   -57.471168E+06   -57.471412E+06   344.828032E+06      -40.9017258       149.402817
             1771   114.944912E+06   -57.468752E+06    -57.46776E+06   344.827936E+06       180.930359       813.566162
             1772   114.970056E+06   -57.453084E+06   -57.452608E+06   344.825088E+06  -6.49465869E+03  -1.46865942E+03
             1773   114.938336E+06   -57.474408E+06   -57.475692E+06   344.827744E+06       305.606750       224.364014
             1774   114.938384E+06   -57.476816E+06   -57.477256E+06    344.83008E+06  -1.26011487E+03      -108.928009
             1775   114.943688E+06   -57.468408E+06   -57.470512E+06   344.828608E+06      -464.397003      -156.573715
             1776   114.942752E+06   -57.471072E+06   -57.470928E+06   344.827648E+06       136.084015       7.30780411
             1777   114.939024E+06   -57.472984E+06   -57.470956E+06    344.82752E+06       411.946259      -20.7528534
             1778    114.93968E+06   -57.473504E+06      -57.474E+06   344.829568E+06      -539.901978      -126.669960
             1779    114.94444E+06   -57.470972E+06   -57.469804E+06   344.828064E+06      -120.514481      -478.614288
             1780   114.941792E+06    -57.47168E+06   -57.471048E+06      344.828E+06       691.277527       200.091690
             1781   114.941592E+06   -57.471388E+06   -57.471308E+06   344.827968E+06      -374.711548      -201.849304
             1782   114.909696E+06   -57.503608E+06   -57.503704E+06   344.834816E+06  -5.11385498E+03       920.411194
             1783   114.943192E+06    -57.47992E+06   -57.474416E+06   344.826592E+06  -2.75936646E+03   1.35576917E+03
             1784   114.939112E+06   -57.473332E+06   -57.473724E+06      344.828E+06       611.855347      -105.005829
             1785   114.941992E+06   -57.471624E+06   -57.471984E+06    344.82848E+06      -393.309174      -109.809410
             1786   114.945352E+06   -57.470604E+06    -57.47048E+06   344.828416E+06      -624.017578      -106.960449
             1787   114.943832E+06   -57.471668E+06   -57.470128E+06   344.827712E+06      -226.628357       211.242218
             1788   114.946096E+06   -57.468444E+06    -57.46874E+06   344.828576E+06       889.543396       660.792480
             1789   114.949456E+06   -57.464812E+06   -57.467052E+06     344.8304E+06       775.423767   1.57730798E+03
             1790   114.942048E+06   -57.471616E+06   -57.471584E+06   344.827744E+06      -267.318787      -201.309052
             1791   114.948248E+06   -57.465656E+06   -57.468792E+06   344.828928E+06       511.462891       550.348083
             1792   114.946512E+06   -57.467764E+06   -57.467816E+06   344.827456E+06      -140.717392       775.247925
             1793   114.941744E+06   -57.471836E+06   -57.471244E+06   344.827104E+06       789.710571       65.3807068
             1794     114.9392E+06   -57.471608E+06   -57.469088E+06   344.827264E+06   1.83082446E+03       414.230133
             1795   114.870816E+06   -57.519204E+06     -57.5177E+06   344.829536E+06   2.52665527E+03  -3.45055688E+03
             1796   114.940128E+06    -57.47326E+06   -57.473868E+06   344.828128E+06      -428.950012      -182.702652
             1797    114.94232E+06   -57.471396E+06   -57.471688E+06      344.828E+06   1.16913684E+03       147.558914
             1798   114.941008E+06   -57.474256E+06   -57.474728E+06    344.83264E+06       486.396484  -2.11991479E+03
             1799   114.940592E+06    -57.47116E+06    -57.47088E+06   344.826944E+06       917.639404       39.5774078
             1800   114.936912E+06     -57.4772E+06    -57.47664E+06   344.828224E+06       947.554749      -213.054337
             1801   114.944216E+06   -57.470708E+06   -57.471916E+06   344.829664E+06      -119.694931       741.962891
             1802    114.94424E+06   -57.467464E+06   -57.469384E+06    344.82672E+06      -344.378632   1.02175934E+03
             1803   114.943952E+06   -57.471832E+06   -57.470132E+06   344.828224E+06       713.258240       163.915710
             1804   114.946424E+06    -57.46666E+06   -57.466792E+06    344.82864E+06       79.7874069  -1.28158728E+03
             1805   114.942856E+06   -57.473064E+06   -57.472348E+06    344.82912E+06      -531.759705       30.7065754
             1806   114.942256E+06     -57.4716E+06   -57.471388E+06   344.828096E+06       15.5453663      -146.021332
             1807   114.941664E+06   -57.471164E+06    -57.47116E+06   344.828224E+06      -348.610046      -83.8793411
             1808    114.94276E+06    -57.47126E+06   -57.471456E+06   344.827968E+06      -65.7024765      -60.3959351
             1809   114.942648E+06   -57.471472E+06   -57.471544E+06   344.828128E+06      -85.4351349      -187.799820
             1810   114.942616E+06   -57.471616E+06    -57.47136E+06   344.828032E+06      -160.472687      -125.659286
             1811   114.943144E+06   -57.469828E+06     -57.4708E+06    344.82768E+06       843.671753       175.071320
             1812   114.942672E+06   -57.471776E+06   -57.471768E+06   344.828096E+06       419.206757      -292.276581
             1813   114.938016E+06    -57.47476E+06    -57.47394E+06   344.828448E+06      -2.31647491      -405.328888
             1814   114.946656E+06   -57.468712E+06    -57.46974E+06    344.82976E+06      -321.914917       356.432922
             1815   114.942592E+06    -57.47186E+06   -57.471136E+06   344.828352E+06       70.2993774      -97.1917038
             1816    114.94288E+06   -57.471408E+06   -57.471032E+06    344.82816E+06       69.3263855      -103.790497
             1817   114.942768E+06   -57.471392E+06   -57.471448E+06   344.827904E+06       14.2652264      -106.467392
             1818   114.942416E+06   -57.472036E+06     -57.4709E+06   344.827232E+06       29.6605988       175.960846
             1819   114.947976E+06   -57.467416E+06   -57.467312E+06   344.827616E+06      -292.295074       46.6912003
             1820   114.946584E+06   -57.468352E+06   -57.468452E+06   344.827904E+06      -103.353195       231.558441
             1821   114.938352E+06   -57.475068E+06    -57.47384E+06   344.826528E+06       405.187012       39.1021042
             1822   114.942776E+06    -57.47242E+06   -57.471668E+06   344.828736E+06      -74.5511932       406.430939
             1823   114.946776E+06   -57.468088E+06     -57.4684E+06    344.82816E+06       633.541870       399.026306
             1824   114.945584E+06    -57.46832E+06   -57.467508E+06   344.828288E+06      -54.8510742      -121.981995
             1825   114.944664E+06   -57.468972E+06   -57.468916E+06    344.82784E+06       834.066284      -235.030899
             1826    114.94196E+06   -57.471144E+06     -57.4723E+06   344.828864E+06      -208.992737      -511.286194
             1827    114.93416E+06   -57.477188E+06   -57.476392E+06   344.828736E+06       231.802521      -572.417236
             1828   114.940448E+06   -57.473764E+06   -57.474296E+06   344.829696E+06      -116.144646      -236.438141
             1829   114.948112E+06   -57.466644E+06   -57.466744E+06    344.82784E+06      -50.9157486      -204.796188
             1830   114.942592E+06   -57.471572E+06   -57.471368E+06      344.828E+06       7.00737762       130.454025
             1831   114.939728E+06   -57.474424E+06    -57.47484E+06   344.828928E+06       33.6260605      -123.965683
             1832   114.942392E+06   -57.470904E+06   -57.471712E+06   344.828544E+06      -660.628906       303.171082
             1833    114.94288E+06   -57.471236E+06    -57.47136E+06   344.828032E+06       77.0490265       102.194519
             1834   114.940784E+06   -57.473892E+06   -57.472616E+06    344.82736E+06      -167.478348       235.372391
             1835   114.922768E+06    -57.48228E+06   -57.482768E+06   344.828704E+06  -5.63906396E+03  -1.39766162E+03
             1836   114.944208E+06   -57.468376E+06   -57.469368E+06   344.828544E+06      -398.263062      -752.749390
             1837   114.942848E+06   -57.471648E+06   -57.471136E+06   344.827904E+06       201.685638       457.926086
             1838   114.941984E+06   -57.471888E+06   -57.471904E+06    344.82832E+06      -325.405701       167.673843
             1839   114.946192E+06   -57.467048E+06   -57.469136E+06     344.8288E+06      -111.504822      -1.08524323
             1840    114.94216E+06   -57.471488E+06    -57.47202E+06   344.828224E+06       929.345337      -566.138672
             1841   114.943424E+06   -57.472108E+06   -57.471528E+06   344.828928E+06       366.210022       198.778351
             1842    114.94216E+06   -57.472332E+06    -57.47192E+06   344.828096E+06      -22.3574829      -7.39764404
             1843   114.942768E+06   -57.471472E+06   -57.470564E+06    344.82752E+06       122.851585       154.830276
             1844   114.942816E+06   -57.471584E+06   -57.471408E+06   344.828192E+06      -118.163582      -209.962677
             1845   114.942984E+06   -57.470984E+06   -57.471132E+06   344.828032E+06      -6.02132416       42.3477135
             1846   114.938336E+06   -57.489388E+06   -57.483728E+06   344.834688E+06   2.05644287E+03      -682.678711
             1847   114.944424E+06   -57.471704E+06   -57.470564E+06   344.828384E+06      -200.013550      -748.339966
             1848    114.89216E+06   -57.507264E+06   -57.508468E+06   344.835392E+06   2.88101221E+03   1.16671436E+03
             1849   114.942672E+06     -57.4717E+06   -57.471436E+06   344.827968E+06      -271.662659      -133.527969
             1850   114.943392E+06   -57.470844E+06    -57.47116E+06   344.828224E+06       23.4686623       56.8283119
             1851    114.95908E+06   -57.458224E+06   -57.460276E+06   344.829184E+06      -136.485428   1.22406299E+03
             1852   114.942816E+06   -57.464868E+06   -57.464772E+06    344.82448E+06   3.95087891E+03      -784.371338
             1853   114.941792E+06   -57.470852E+06   -57.470272E+06   344.827136E+06      -233.245239       103.071815
             1854   114.963216E+06   -57.467428E+06   -57.464168E+06   344.827392E+06   3.00825342E+03  -2.68287158E+03
             1855   114.942616E+06   -57.471224E+06   -57.471432E+06   344.828352E+06      -140.320374      -103.200195
             1856    114.92548E+06   -57.490148E+06   -57.488376E+06    344.83152E+06  -5.43088281E+03      -47.1046448
             1857   114.997488E+06   -57.416704E+06     -57.4214E+06   344.823744E+06  -4.46751270E+03  -1.14743250E+03
             1858   114.937072E+06   -57.476756E+06   -57.476152E+06   344.829568E+06      -397.173401       53.5541534
             1859    114.94272E+06   -57.470348E+06    -57.47084E+06    344.82784E+06      -135.212128      -145.077362
             1860   114.941264E+06   -57.473984E+06   -57.473056E+06   344.827296E+06      -136.359741       354.450714
             1861   114.941048E+06   -57.471804E+06   -57.471948E+06    344.82784E+06      -879.304504      -150.389435
             1862   114.934608E+06   -57.471436E+06   -57.473112E+06   344.826752E+06      -978.396606       389.396179
             1863   114.942352E+06   -57.471952E+06   -57.471824E+06   344.828192E+06      -148.705139       155.788345
             1864   114.947848E+06   -57.469204E+06   -57.468668E+06   344.828128E+06       313.009583       73.2778625
             1865   114.944536E+06   -57.471852E+06   -57.470964E+06    344.82688E+06       249.080139       28.4389877
             1866   114.938144E+06    -57.47698E+06   -57.475104E+06    344.82736E+06   2.44152148E+03      -660.447998
             1867   114.942416E+06   -57.471516E+06    -57.47212E+06    344.82784E+06       107.927490       550.399475
             1868   114.940576E+06   -57.472768E+06   -57.472892E+06   344.827776E+06      -13.9698792      -31.7603130
             1869   114.944136E+06   -57.479468E+06   -57.474176E+06    344.82976E+06  -3.61474780E+03  -4.34639453E+03
             1870   114.944112E+06   -57.468768E+06   -57.468396E+06    344.82784E+06       8.80049133       247.209122
             1871   114.944624E+06   -57.469536E+06   -57.471072E+06   344.828224E+06      -632.782471      -515.115723
             1872    114.94296E+06    -57.47136E+06   -57.471416E+06   344.827968E+06      -191.091797       87.1253128
             1873   114.939264E+06   -57.473648E+06    -57.47332E+06    344.82832E+06       491.030640       106.232437
             1874   114.941432E+06   -57.472216E+06    -57.47242E+06   344.828512E+06      -277.385468      -267.100220
             1875     114.9762E+06    -57.44906E+06   -57.449496E+06   344.828128E+06       414.710205   1.09941809E+03
             1876    114.91312E+06   -57.496844E+06     -57.4964E+06   344.832576E+06      -417.023743      -334.682220
             1877   114.935952E+06   -57.472684E+06   -57.475012E+06   344.828192E+06   3.39595874E+03  -1.74800769E+03
             1878   114.947488E+06   -57.467628E+06   -57.468008E+06   344.827648E+06      -620.812988       97.0371628
             1879   114.937728E+06   -57.474252E+06   -57.474108E+06     344.8288E+06      -256.830688       216.901505
             1880    114.94308E+06   -57.469528E+06   -57.470464E+06   344.828064E+06       413.733002       135.320480
             1881   114.941024E+06   -57.472168E+06   -57.472272E+06   344.826784E+06      -410.770203       11.2223721
             1882   114.907496E+06   -57.505544E+06   -57.508096E+06   344.834048E+06   6.86512988E+03  -1.84703857E+03
             1883   114.941632E+06   -57.471864E+06    -57.47208E+06   344.825664E+06       374.402802       542.915344
             1884   114.943072E+06   -57.471216E+06   -57.471264E+06   344.828256E+06       238.889465       176.824951
             1885   114.944736E+06   -57.467384E+06   -57.464152E+06   344.824352E+06      -575.193542      -338.553131
             1886   114.944544E+06   -57.460736E+06   -57.464736E+06   344.818432E+06  -7.60738770E+03  -1.84001135E+03
             1887   114.942944E+06    -57.47092E+06    -57.47124E+06   344.827904E+06       47.3238983       95.9946442
             1888   114.943968E+06    -57.47172E+06   -57.471276E+06    344.82912E+06       471.882416      -252.308197
             1889      114.942E+06   -57.471948E+06   -57.472232E+06   344.827904E+06       105.491112      -66.8791962
             1890   114.943104E+06   -57.470984E+06   -57.471592E+06   344.828576E+06      -277.093445       106.928185
             1891   114.943104E+06   -57.471304E+06   -57.470924E+06   344.827648E+06       46.4787216      -89.2969055
             1892   114.934432E+06   -57.479672E+06   -57.481124E+06    344.82976E+06  -1.66561023E+03   1.40898755E+03
             1893     114.9406E+06   -57.472452E+06    -57.47252E+06   344.829152E+06       39.4754028       446.321472
             1894   114.942568E+06   -57.471336E+06    -57.47132E+06   344.827968E+06       51.3894882       15.0503359
             1895   114.938208E+06   -57.474192E+06   -57.473104E+06   344.826432E+06      -398.058563       542.307007
             1896    114.94292E+06    -57.47124E+06   -57.471488E+06   344.828256E+06      -58.1337738      -174.389526
             1897   114.942408E+06   -57.471888E+06   -57.471736E+06   344.827968E+06      -136.144073      -100.216766
             1898    114.94912E+06   -57.466088E+06    -57.46492E+06   344.829504E+06      -526.793091       677.160461
             1899   114.942384E+06   -57.472924E+06   -57.471796E+06   344.829888E+06      -305.110352      -528.793396
             1900   114.930984E+06   -57.477808E+06   -57.477048E+06   344.825728E+06   4.10038623E+03  -1.02852014E+03
             1901   114.943032E+06   -57.470908E+06   -57.471568E+06   344.828736E+06      -677.140137      -257.661774
             1902   114.940504E+06   -57.474308E+06   -57.472408E+06   344.828576E+06   1.47949634E+03       763.097961
             1903    114.92676E+06   -57.472884E+06    -57.47292E+06     344.8176E+06      -474.716278  -1.79252417E+03
             1904   114.942864E+06   -57.472508E+06   -57.471232E+06   344.827072E+06       63.9377213       561.925232
             1905   114.948576E+06   -57.467968E+06   -57.469008E+06   344.830752E+06  -2.18491162E+03   1.26592310E+03
             1906    114.94256E+06   -57.471704E+06   -57.471632E+06   344.828128E+06       32.5522041       177.664078
             1907    114.94928E+06   -57.467992E+06   -57.471108E+06    344.83136E+06      -745.972046  -1.77360840E+03
             1908   114.945688E+06   -57.468992E+06    -57.46954E+06   344.828864E+06      -555.745483       64.9732285
             1909   114.942344E+06   -57.471652E+06    -57.47154E+06      344.828E+06      -84.3799820       24.8234406
             1910   114.942736E+06   -57.471656E+06   -57.471588E+06   344.828224E+06       137.127197       189.494110
             1911   114.939616E+06   -57.473584E+06   -57.474084E+06   344.829664E+06       163.946350      -480.857971
             1912   114.942528E+06    -57.47188E+06   -57.471276E+06   344.827616E+06      -607.049866      -340.224121
             1913   114.929536E+06   -57.480964E+06   -57.482024E+06   344.832352E+06   3.01722070E+03   1.20522949E+03
             1914   114.942544E+06   -57.471168E+06   -57.471236E+06   344.827456E+06       35.0996971      -179.170609
             1915   114.928328E+06   -57.477148E+06   -57.477752E+06    344.82784E+06  -4.78270996E+03       117.401474
             1916    114.94228E+06     -57.4713E+06   -57.471224E+06   344.828032E+06       136.884735      -122.483322
             1917   114.943192E+06   -57.471056E+06     -57.4718E+06   344.829504E+06       960.479797      -226.434753
             1918   114.948304E+06   -57.466392E+06   -57.466696E+06   344.826784E+06       958.850464       417.577057
             1919   114.942656E+06   -57.471644E+06   -57.471408E+06   344.828032E+06      -81.0276566      -41.3539124
             1920    114.94276E+06   -57.470264E+06    -57.47008E+06   344.828352E+06      -321.969635      -805.000427
             1921   114.942696E+06     -57.4714E+06   -57.471184E+06      344.828E+06       135.200684       153.511932
             1922   114.947968E+06   -57.468072E+06   -57.468072E+06    344.82784E+06       240.596970       196.066620
             1923   114.942584E+06   -57.471496E+06   -57.471408E+06   344.828032E+06   610.729337E-03       28.6527138
             1924   114.942352E+06   -57.471768E+06   -57.471728E+06    344.82816E+06      -82.2746811       103.408951
             1925   114.942408E+06   -57.471412E+06   -57.471528E+06   344.828096E+06       192.990204       152.134415
             1926   114.942624E+06   -57.472592E+06   -57.471512E+06   344.827232E+06       90.9667664      -2.94892502
             1927   114.946688E+06   -57.468108E+06   -57.468888E+06   344.828608E+06      -11.0093689      -101.317772
             1928   114.942632E+06    -57.47124E+06   -57.471392E+06   344.828064E+06       96.8054428       67.9971542
             1929    114.94692E+06   -57.469104E+06   -57.468756E+06   344.827104E+06   1.21303845E+03      -184.338837
             1930   114.944984E+06   -57.467744E+06   -57.468816E+06    344.82752E+06      -71.9924774       686.546387
             1931   114.939888E+06   -57.476832E+06    -57.47426E+06     344.8336E+06   2.56260693E+03      -157.926529
             1932   114.936424E+06   -57.476356E+06   -57.473928E+06   344.827808E+06   1.29063794E+03       637.247070
             1933   114.942216E+06   -57.471764E+06   -57.471876E+06    344.82784E+06       41.7127991       239.779144
             1934    114.94168E+06    -57.47118E+06   -57.471516E+06   344.827584E+06      -712.685303       136.904083
             1935   114.943648E+06   -57.470748E+06     -57.4705E+06   344.827456E+06      -142.473099       531.646484
             1936   114.943992E+06     -57.4713E+06   -57.470352E+06   344.826496E+06  -1.03693958E+03      -358.904297
             1937   114.940504E+06   -57.473876E+06   -57.472408E+06    344.82816E+06      -643.935730      -182.746506
             1938   114.942192E+06    -57.47464E+06   -57.471784E+06    344.82656E+06  -1.42420654E+03       440.878021
             1939   114.926976E+06   -57.483072E+06   -57.486716E+06   344.832064E+06  -6.47040869E+03      -327.035797
             1940   114.942256E+06   -57.470036E+06   -57.470564E+06    344.82736E+06      -246.416428       63.9359894
             1941    114.94176E+06   -57.472212E+06    -57.47164E+06    344.82816E+06      -107.515182      -120.092377
             1942   114.941088E+06   -57.472076E+06   -57.472548E+06   344.827552E+06       255.895905       522.764709
             1943   114.897472E+06   -57.508012E+06    -57.50864E+06    344.83488E+06   3.12801953E+03   1.88936304E+03
             1944   114.944232E+06   -57.471252E+06   -57.470596E+06   344.828192E+06       270.549896       255.134567
             1945   114.944384E+06   -57.470112E+06   -57.471184E+06    344.82912E+06       125.738953      -191.199921
             1946   114.942592E+06     -57.4712E+06   -57.471028E+06   344.827968E+06       393.685669       312.207367
             1947   114.942864E+06   -57.471112E+06   -57.470916E+06   344.827904E+06       49.3222122       117.401657
             1948   114.945096E+06    -57.46972E+06   -57.470224E+06   344.827872E+06       34.5880775       484.407867
             1949   114.945944E+06   -57.467616E+06   -57.466252E+06   344.830944E+06       220.568268  -1.78225342E+03
             1950   114.941896E+06   -57.473772E+06   -57.471548E+06   344.829312E+06       560.090332      -527.878479
             1951    114.94208E+06   -57.471392E+06   -57.472372E+06     344.8288E+06       247.208908       165.542160
             1952   114.934608E+06   -57.474892E+06   -57.471448E+06    344.82096E+06       385.678955       742.025818
             1953   114.943272E+06   -57.470552E+06   -57.469912E+06   344.827296E+06      -533.229980      -174.077408
             1954    114.93552E+06   -57.483816E+06   -57.483576E+06   344.836928E+06       430.852844       259.911377
             1955   114.940184E+06   -57.472744E+06   -57.473724E+06   344.829248E+06       29.2563019      -617.836975
             1956   114.943336E+06   -57.471448E+06   -57.472304E+06    344.82848E+06   1.44323340E+03      -110.614975
             1957    114.94004E+06   -57.473616E+06   -57.473512E+06   344.829152E+06       110.826530       400.415405
             1958   114.942576E+06   -57.469632E+06    -57.47082E+06   344.828096E+06      -517.683167       382.983612
             1959   114.969224E+06   -57.458376E+06   -57.454436E+06   344.824192E+06  -8.92255859E+03   1.32790771E+03
             1960   114.947648E+06   -57.467216E+06   -57.468392E+06   344.829408E+06      -119.410339       694.126587
             1961   114.948736E+06   -57.469712E+06   -57.468444E+06   344.829856E+06   1.30152539E+03       616.201843
             1962   114.941008E+06   -57.466656E+06   -57.468996E+06   344.824864E+06   2.27532666E+03   1.48694287E+03
             1963   114.945408E+06   -57.472564E+06   -57.471608E+06    344.82784E+06   1.00291394E+03   1.74556641E+03
             1964   114.943264E+06   -57.471048E+06   -57.471088E+06   344.829344E+06      -290.840698      -206.290634
             1965   114.945328E+06   -57.470056E+06   -57.471496E+06   344.830048E+06  -2.07870190E+03      -79.8921661
             1966   114.943032E+06   -57.470816E+06     -57.4699E+06   344.826272E+06       671.123535      -175.852493
             1967   114.915072E+06   -57.487532E+06    -57.49084E+06   344.828224E+06       171.157837       155.218674
             1968   114.943976E+06   -57.469984E+06   -57.470076E+06   344.827616E+06      -517.969910      -209.857315
             1969   114.912208E+06   -57.492012E+06   -57.493188E+06   344.828448E+06  -3.70824243E+03  -1.04464844E+03
             1970   114.942736E+06    -57.47068E+06   -57.470812E+06    344.82688E+06       127.107544       85.0226898
             1971   114.940712E+06   -57.472032E+06   -57.471972E+06   344.828448E+06      -244.358612       71.5868988
             1972   114.941944E+06   -57.472024E+06   -57.471992E+06   344.827712E+06       87.1920319      -222.870407
             1973   114.979272E+06    -57.44548E+06   -57.443304E+06   344.821824E+06  -7.51171777E+03      -932.834473
             1974   114.943456E+06   -57.470652E+06   -57.471776E+06   344.828672E+06      -185.749008       371.253540
             1975    114.94376E+06   -57.471856E+06    -57.47232E+06   344.829056E+06   1.34553455E+03       549.853027
             1976    114.94372E+06    -57.47118E+06   -57.470888E+06   344.828128E+06       192.301758      -6.98630905
             1977   114.942576E+06   -57.471064E+06   -57.471332E+06      344.828E+06      -38.3807373      -77.1852722
             1978   114.942568E+06   -57.471384E+06   -57.471228E+06   344.828096E+06      -70.3523026       2.66949654
             1979   114.942368E+06   -57.472852E+06   -57.473196E+06   344.828992E+06      -172.198029      -611.734131
             1980   114.941888E+06   -57.472212E+06   -57.472192E+06   344.828288E+06      -165.222961      -141.099609
             1981    114.98864E+06   -57.441756E+06   -57.441504E+06   344.829312E+06   1.64044385E+03       489.700592
             1982   114.950664E+06   -57.464184E+06   -57.465584E+06      344.828E+06      -327.702820      -9.16489410
             1983   114.946496E+06   -57.469156E+06   -57.470248E+06   344.828512E+06       907.464417       291.203430
             1984    114.93912E+06   -57.475416E+06   -57.473956E+06   344.828096E+06      -277.882751       156.381866
             1985    114.94576E+06    -57.46876E+06   -57.469208E+06   344.827872E+06       159.321701       658.820374
             1986    114.94624E+06   -57.468964E+06   -57.469848E+06   344.828928E+06      -348.618408       289.123535
             1987   114.941816E+06   -57.471888E+06   -57.473584E+06   344.829152E+06      -349.750122   1.73984839E+03
             1988   114.939864E+06    -57.47172E+06   -57.473696E+06   344.828992E+06       311.409576      -270.781006
             1989   114.964336E+06   -57.453316E+06   -57.454536E+06   344.829536E+06   9.82927344E+03       6.85063171
             1990   114.942616E+06      -57.471E+06   -57.471516E+06   344.828032E+06       23.8416214       92.8968430
             1991   114.942688E+06   -57.471312E+06   -57.471416E+06   344.828096E+06       57.2607803       161.315186
             1992    114.94368E+06   -57.470444E+06   -57.470872E+06   344.826496E+06   1.00054156E+03      -287.024506
             1993   114.942736E+06   -57.470916E+06   -57.471172E+06   344.827744E+06       33.2032318      -44.9472771
             1994   114.942376E+06   -57.471144E+06   -57.471304E+06    344.82784E+06       39.1046448      -41.5497971
             1995   114.943416E+06   -57.471768E+06   -57.471024E+06   344.827584E+06      -456.211365       277.951477
             1996   114.942576E+06   -57.471304E+06    -57.47066E+06   344.826432E+06      -376.219025       482.626312
             1997     114.9424E+06   -57.471592E+06   -57.473124E+06   344.827776E+06       58.2141724       222.170074
             1998    114.94472E+06   -57.464856E+06   -57.465464E+06   344.828448E+06      -859.576416  -1.49741846E+03
             1999   114.943288E+06   -57.467768E+06   -57.469808E+06   344.826816E+06      -234.599060      -313.557068
             2000   114.942728E+06   -57.468136E+06   -57.471516E+06   344.826176E+06      -703.495117       565.051880
             2001   114.942448E+06   -57.470672E+06   -57.471272E+06   344.827776E+06      -194.662750       500.294922
             2002   114.936352E+06    -57.47406E+06   -57.478488E+06   344.825888E+06   2.27803247E+03  -1.56856812E+03
             2003   114.943472E+06   -57.459672E+06   -57.457024E+06   344.824512E+06  -2.36886328E+03  -1.23031494E+03
             2004   114.942488E+06    -57.47428E+06   -57.473604E+06   344.826048E+06       602.350281       453.065674
             2005   114.948976E+06   -57.464904E+06   -57.466296E+06   344.827104E+06      -271.546265       379.433838
             2006   115.002824E+06   -57.435868E+06   -57.433948E+06    344.82832E+06   1.20544141E+03  -1.76561267E+03
             2007   114.946112E+06   -57.472088E+06   -57.472152E+06   344.827808E+06     4.409375E+03       851.082153
             2008   114.943072E+06   -57.477172E+06    -57.47646E+06   344.830336E+06      -326.160828      -372.279510
             2009   114.938256E+06   -57.475748E+06   -57.476404E+06   344.828512E+06       284.717041   1.69591565E+03
             2010   114.941904E+06   -57.468936E+06   -57.471172E+06   344.826688E+06       309.706635      -200.709137
             2011   114.936272E+06    -57.47884E+06   -57.475256E+06   344.828096E+06      -786.825256      -548.953918
             2012    114.95264E+06   -57.474932E+06   -57.469064E+06   344.833088E+06  -1.69884595E+03  -2.39770923E+03
             2013    114.94308E+06    -57.47136E+06   -57.471132E+06    344.82784E+06      -1.46626759       52.9276810
             2014   114.938792E+06   -57.475072E+06   -57.473868E+06   344.828576E+06      -811.694946      -4.47412109
             2015   114.940144E+06   -57.470912E+06   -57.473156E+06   344.828832E+06       640.269775      -169.669250
             2016   114.942848E+06    -57.47092E+06   -57.471152E+06   344.827744E+06      -103.473061       297.314758
             2017    114.94404E+06   -57.469716E+06    -57.47004E+06   344.828096E+06      -287.213470       167.266464
             2018   114.942512E+06    -57.47148E+06    -57.47146E+06   344.827904E+06       40.8007774      -81.8488464
             2019   114.938032E+06   -57.475072E+06   -57.475916E+06   344.829696E+06      -80.5074921       284.119080
             2020   114.932928E+06   -57.482284E+06   -57.478864E+06   344.824928E+06      -511.283203   1.05642041E+03
             2021   114.937696E+06    -57.47508E+06    -57.47362E+06   344.827584E+06      -514.917725      -214.793427
             2022   114.939496E+06   -57.472532E+06   -57.472312E+06   344.827072E+06      -257.207855       112.346947
             2023   114.943712E+06    -57.46934E+06   -57.469664E+06   344.827232E+06      -251.887604      -56.7540207
             2024   114.944528E+06   -57.470856E+06    -57.46866E+06   344.828352E+06      -846.424622       640.116211
             2025   114.942536E+06   -57.472288E+06   -57.472248E+06   344.828672E+06      -31.2706909      -77.1813507
             2026   114.942768E+06   -57.471352E+06    -57.47136E+06   344.828992E+06       180.795670       189.321243
             2027   114.941992E+06   -57.471944E+06   -57.471796E+06   344.827904E+06      -57.2179489       434.490051
             2028   114.949504E+06   -57.465664E+06    -57.46598E+06   344.828704E+06       721.253662       425.470276
             2029   114.941296E+06   -57.471208E+06   -57.471116E+06    344.82816E+06      -403.060425       128.046768
             2030     114.9454E+06   -57.469856E+06    -57.46972E+06   344.825792E+06   1.45980505E+03      -709.899414
             2031   114.943488E+06    -57.47186E+06   -57.471564E+06    344.82832E+06      -95.4825439      -124.778580
             2032    114.94244E+06   -57.471384E+06   -57.471088E+06   344.827904E+06       33.1792755       57.4950027
             2033   114.942936E+06    -57.47124E+06   -57.471288E+06   344.828128E+06       42.1635094       43.8170433
             2034   114.936792E+06   -57.470956E+06   -57.472776E+06   344.826176E+06  -4.01839014E+03       516.871948
             2035   114.942512E+06   -57.470848E+06   -57.471188E+06   344.827936E+06       51.6306114       152.312561
             2036   114.950496E+06   -57.467332E+06   -57.468532E+06   344.828672E+06       930.692688       263.821899
             2037    114.94264E+06     -57.4714E+06   -57.471404E+06   344.827968E+06      -36.5404892       56.2120361
             2038   114.943944E+06   -57.469596E+06   -57.470556E+06   344.828736E+06       76.0203705       801.693848
             2039   114.937176E+06   -57.475536E+06   -57.475396E+06   344.830208E+06   1.54291602E+03   1.93220874E+03
             2040   114.943088E+06    -57.47012E+06   -57.470812E+06   344.827776E+06       443.480865       279.803802
             2041   114.936792E+06   -57.476036E+06   -57.476172E+06   344.829248E+06       45.4384766      -448.813843
             2042   114.943968E+06   -57.471544E+06   -57.471156E+06   344.827872E+06       480.027802       40.9654312
             2043   114.940664E+06   -57.464848E+06   -57.467964E+06   344.826912E+06      -869.446655   2.25779297E+03
             2044   114.945896E+06   -57.470108E+06   -57.470204E+06   344.826784E+06       662.798706      -392.640320
             2045   114.938336E+06   -57.480632E+06   -57.479128E+06   344.829408E+06      -203.063095  -1.85184363E+03
             2046   114.942984E+06   -57.470776E+06    -57.47056E+06   344.829376E+06   1.25738208E+03       694.235046
             2047   114.938672E+06      -57.474E+06   -57.473296E+06   344.827136E+06       44.6741333       18.1353722
             2048   114.940816E+06   -57.473928E+06   -57.474072E+06   344.828736E+06      -94.2230759       371.056976
             2049   114.941952E+06     -57.4712E+06   -57.471824E+06   344.827904E+06       135.171936       49.6470718
             2050   114.936472E+06   -57.481868E+06    -57.48056E+06   344.827968E+06      -415.261169  -1.77951367E+03
             2051   114.952376E+06   -57.463088E+06   -57.464464E+06   344.832128E+06   3.64902979E+03       330.874939
             2052   114.949752E+06   -57.465156E+06   -57.465872E+06   344.827584E+06      -133.184891      -643.463562
             2053   114.910896E+06    -57.49144E+06    -57.48928E+06   344.827616E+06  -2.51116284E+03       722.935547
             2054   114.955312E+06   -57.461504E+06   -57.467804E+06   344.831648E+06   4.73000586E+03   2.28208838E+03
             2055   114.938504E+06   -57.474424E+06    -57.47418E+06    344.82912E+06       223.384262      -239.879425
             2056    114.91784E+06   -57.476252E+06   -57.480116E+06   344.825152E+06  -4.73024854E+03       231.511017
             2057   114.941568E+06   -57.472196E+06   -57.473064E+06   344.828544E+06      -598.309387      -775.236572
             2058   114.939472E+06   -57.474136E+06    -57.47278E+06   344.826976E+06       12.5085602      -756.041748
             2059   114.939544E+06   -57.475828E+06   -57.474256E+06   344.828288E+06      -302.279510       224.115570
             2060   114.944512E+06   -57.462056E+06   -57.465668E+06   344.828032E+06  -1.79364209E+03      -352.486877
             2061   114.946448E+06    -57.46654E+06   -57.468152E+06     344.8272E+06      -720.805237      -432.650940
             2062   114.932688E+06   -57.481524E+06   -57.478968E+06   344.829632E+06       354.668396      -153.107132
             2063   114.941376E+06   -57.474192E+06   -57.472336E+06   344.828096E+06      -131.881897       90.6740723
             2064   114.943664E+06   -57.469992E+06   -57.470968E+06   344.828352E+06      -208.926605      -63.2178497
             2065   114.942504E+06   -57.471528E+06   -57.471728E+06   344.827776E+06      -231.391937       245.910248
             2066   114.938736E+06   -57.474256E+06   -57.473744E+06   344.827072E+06      -941.764160      -19.1691208
             2067    114.94844E+06   -57.466912E+06   -57.466136E+06   344.827456E+06   1.28615137E+03       136.947418
             2068   114.940704E+06   -57.473968E+06   -57.472644E+06   344.827712E+06      -397.043457      -14.4479275
             2069   114.935344E+06   -57.476208E+06   -57.475972E+06   344.827008E+06      -828.148132       327.837921
             2070   114.940272E+06   -57.474432E+06   -57.473904E+06   344.829248E+06       160.063583       155.456848
             2071   114.948592E+06   -57.466612E+06   -57.466084E+06   344.827904E+06      -532.843262      -461.974823
             2072   114.951608E+06   -57.466088E+06   -57.465596E+06    344.82544E+06  -1.20192712E+03      -577.952759
             2073   114.930488E+06    -57.47448E+06   -57.475576E+06   344.822656E+06   1.69479932E+03       99.0699158
             2074   114.942056E+06   -57.472016E+06   -57.472448E+06   344.827712E+06      -99.3260345      -629.908447
             2075   114.946328E+06   -57.468508E+06     -57.4688E+06      344.828E+06      -744.071899       690.520630
             2076   114.940696E+06   -57.475868E+06   -57.472576E+06   344.827968E+06       277.147278       756.956543
             2077   114.942224E+06   -57.471392E+06    -57.47146E+06   344.828096E+06      -106.591133       180.370667
             2078   114.941056E+06   -57.472888E+06   -57.472612E+06   344.827968E+06      -311.539307      -40.0417938
             2079   114.942648E+06   -57.471956E+06   -57.471884E+06   344.828416E+06      -885.620239      -87.2145538
             2080   114.933744E+06   -57.471608E+06   -57.470504E+06    344.82976E+06       196.635895  -1.80895996E+03
             2081    114.94252E+06   -57.471312E+06    -57.47144E+06   344.827968E+06      -2.74307537       116.630394
             2082    114.94232E+06   -57.470096E+06   -57.470244E+06   344.827584E+06       166.158112       134.340210
             2083   114.943656E+06   -57.471672E+06    -57.47126E+06   344.828768E+06       546.540894       289.216858
             2084   114.943864E+06   -57.469904E+06   -57.470272E+06    344.82816E+06       93.9974365       146.348007
             2085   114.948072E+06   -57.467488E+06   -57.467316E+06   344.827136E+06       440.327850      -635.032349
             2086     114.9414E+06   -57.473836E+06   -57.473492E+06   344.829184E+06      -848.768860       15.5971804
             2087    114.94372E+06   -57.471496E+06   -57.471384E+06   344.828224E+06       147.676544      -186.005814
             2088    114.94268E+06   -57.471224E+06   -57.471352E+06   344.828032E+06       48.2859840      -48.8787384
             2089   114.946512E+06   -57.469032E+06   -57.468992E+06    344.82784E+06       99.5958099      -2.53114343
             2090   114.941576E+06    -57.47234E+06   -57.470776E+06    344.82688E+06       367.207825       96.7063904
             2091   114.942912E+06   -57.469528E+06    -57.47048E+06   344.827392E+06       607.870605       21.1886292
             2092    114.94072E+06   -57.472372E+06   -57.473036E+06   344.828224E+06      -173.854172      -291.906799
             2093   114.941712E+06     -57.4706E+06   -57.470008E+06   344.827968E+06       224.032410       85.1237946
             2094   114.943224E+06    -57.47006E+06   -57.470848E+06   344.828864E+06       680.310974       91.2941132
             2095   114.939536E+06   -57.474664E+06   -57.473984E+06   344.828576E+06       177.488129  -1.15552686E+03
             2096   114.942048E+06   -57.475752E+06   -57.474312E+06   344.829088E+06       476.611359       960.121826
             2097   114.946336E+06   -57.469652E+06   -57.468776E+06   344.827296E+06      -919.645630      -595.884277
             2098     114.9304E+06    -57.47918E+06   -57.478176E+06   344.823456E+06   2.24727173E+03       782.703857
             2099   114.939288E+06   -57.471404E+06    -57.47206E+06    344.82608E+06      -617.573730       948.099854
             2100   114.940224E+06   -57.474888E+06   -57.474192E+06   344.828608E+06       215.197128       240.401245
             2101    114.94308E+06   -57.471052E+06   -57.470892E+06   344.827936E+06       64.8328018       45.6882248
             2102   114.942432E+06   -57.471944E+06    -57.47144E+06   344.828032E+06       73.8728714      -173.696259
             2103   114.942096E+06    -57.47102E+06   -57.471408E+06    344.82784E+06       8.58189011      -276.467285
             2104   114.940888E+06    -57.47184E+06   -57.471824E+06   344.826656E+06       442.240692       398.044617
             2105   114.926496E+06   -57.477008E+06    -57.47916E+06    344.83088E+06  -1.84374365E+03   2.58090015E+03
             2106    114.94256E+06   -57.471616E+06   -57.471528E+06   344.827968E+06       174.294983       16.4554100
             2107    114.94264E+06   -57.471192E+06    -57.47166E+06   344.828064E+06       5.04163361       124.461708
             2108   114.942544E+06    -57.47084E+06   -57.471288E+06   344.828352E+06       452.605347      -70.3438416
             2109   114.943904E+06   -57.471132E+06   -57.471008E+06   344.827904E+06       380.184174       232.024307
             2110    114.94268E+06   -57.470968E+06   -57.471416E+06      344.828E+06      -23.7842522      -16.2750320
             2111   114.941888E+06   -57.470192E+06   -57.470324E+06   344.826944E+06  -1.42337341E+03      -335.560364
             2112   114.942752E+06   -57.471592E+06   -57.470652E+06   344.825856E+06       340.969971       517.905090
             2113   114.950152E+06    -57.46548E+06   -57.465996E+06   344.828544E+06      -71.7264252      -327.371216
             2114    114.97684E+06    -57.44576E+06   -57.445644E+06   344.824448E+06   1.17354053E+03  -3.38688940E+03
             2115    114.94268E+06   -57.471644E+06   -57.471476E+06   344.827936E+06  -119.305611E-03       54.9933586
             2116   115.017856E+06   -57.412832E+06   -57.408036E+06    344.81024E+06   5.86263867E+03   1.45247925E+03
             2117    114.89184E+06    -57.51178E+06   -57.510852E+06   344.831872E+06  -4.82090723E+03  -1.78260522E+03
             2118   114.944952E+06   -57.467048E+06   -57.467392E+06     344.8256E+06      -732.942200      -788.176147
             2119   114.950016E+06    -57.46442E+06    -57.46274E+06   344.820832E+06  -1.02769238E+03       392.592468
             2120   114.942968E+06   -57.470224E+06    -57.47088E+06   344.827808E+06      -106.537926      -404.152893
             2121   114.933872E+06   -57.482672E+06   -57.483676E+06   344.830592E+06  -2.85896289E+03   1.22003088E+03
             2122   114.940432E+06   -57.471364E+06   -57.472224E+06   344.828032E+06  -1.30238672E+03       898.187927
             2123    114.94152E+06   -57.471168E+06   -57.471308E+06      344.828E+06      -618.140503       25.6628952
             2124   114.942152E+06    -57.47088E+06   -57.470784E+06   344.826304E+06      -61.6604958      -416.688812
             2125    114.94268E+06   -57.471328E+06   -57.471416E+06   344.828064E+06      -108.702469      -172.986603
             2126   114.940288E+06   -57.473224E+06   -57.471408E+06   344.828352E+06       678.794617       248.472748
             2127   114.946064E+06   -57.464068E+06   -57.465952E+06    344.83008E+06  -2.48523145E+03   2.38052637E+03
             2128     114.9394E+06   -57.464976E+06   -57.468608E+06   344.825376E+06  -1.06340063E+03   1.65406555E+03
             2129   114.913248E+06     -57.4847E+06   -57.486348E+06    344.82896E+06      -205.850769   1.80327356E+03
             2130    114.95312E+06   -57.464624E+06   -57.466864E+06   344.826912E+06      -419.118896   -2.5585625E+03
             2131   114.943432E+06     -57.4712E+06     -57.4714E+06   344.828256E+06       168.608917       327.496582
             2132   114.944096E+06    -57.47254E+06   -57.471636E+06   344.827264E+06      -57.6106071      -3.28518677
             2133    114.93552E+06   -57.481348E+06   -57.482068E+06   344.829824E+06  -4.17641162E+03  -1.83375684E+03
             2134   114.948632E+06   -57.467596E+06   -57.466764E+06   344.828992E+06   1.84699536E+03   2.21980151E+03
             2135   114.940168E+06   -57.472624E+06   -57.471368E+06    344.82848E+06      -576.849915      -932.878296
             2136    114.94352E+06   -57.466972E+06   -57.467712E+06   344.827776E+06      -651.216187  -1.14880042E+03
             2137   114.942552E+06   -57.471476E+06   -57.471384E+06   344.827968E+06       162.364212      -66.1272430
             2138   114.938456E+06   -57.473328E+06   -57.472292E+06   344.828992E+06   2.21328809E+03   1.15246631E+03
             2139   114.943728E+06   -57.471952E+06   -57.471136E+06      344.828E+06      -33.7369461      -542.285034
             2140     114.9394E+06   -57.471424E+06   -57.472164E+06   344.828768E+06   1.66921216E+03   1.44577136E+03
             2141   114.941944E+06   -57.470704E+06   -57.472328E+06   344.829632E+06  -1.23422510E+03      -335.260162
             2142   114.938256E+06   -57.472644E+06   -57.470244E+06   344.827456E+06      -723.153748  -2.11639795E+03
             2143   114.908032E+06    -57.49252E+06    -57.49294E+06   344.831584E+06  -1.85030518E+03       300.844727
             2144    114.91196E+06   -57.487704E+06    -57.49426E+06   344.831424E+06  -4.18321094E+03      -17.1929474
             2145   114.942704E+06   -57.471888E+06   -57.471264E+06   344.827904E+06      -135.625519       11.0954094
             2146    114.94232E+06   -57.471764E+06    -57.47188E+06   344.827584E+06      -129.875610       4.24508286
             2147   114.941232E+06    -57.47408E+06    -57.47344E+06   344.829984E+06       385.619354      -206.603836
             2148   114.950384E+06   -57.464368E+06   -57.463724E+06   344.829344E+06  -1.55355908E+03      -96.5022888
             2149   114.949584E+06   -57.463648E+06   -57.461256E+06   344.828064E+06  -2.10738989E+03      -312.138214
             2150   114.942224E+06   -57.471504E+06     -57.4718E+06   344.828736E+06      -129.093521      -26.8560772
             2151   114.944048E+06    -57.46636E+06   -57.467964E+06   344.827008E+06       703.654663      -512.242371
             2152   114.941976E+06     -57.4718E+06   -57.471896E+06   344.828096E+06       267.684937      -243.948334
             2153   114.941816E+06   -57.473516E+06   -57.473284E+06   344.828096E+06       372.252808      -473.617401
             2154   114.942744E+06   -57.471716E+06   -57.471692E+06   344.828128E+06      -232.496658      -47.3037415
             2155   114.942376E+06    -57.47134E+06   -57.471212E+06   344.827872E+06      -5.94285202       106.738068
             2156   114.944544E+06   -57.470696E+06   -57.469104E+06    344.82704E+06  -1.24284448E+03      -448.631897
             2157    114.94144E+06    -57.47214E+06   -57.472288E+06   344.828288E+06       61.3434296       224.285950
             2158   114.933872E+06   -57.478416E+06   -57.477892E+06     344.8248E+06      -450.309509       781.389648
             2159   114.942584E+06   -57.471628E+06   -57.471852E+06   344.827808E+06      -519.074402      -205.639954
             2160    114.94276E+06   -57.470752E+06   -57.471608E+06   344.828992E+06      -606.019958       277.775024
             2161   114.942728E+06   -57.471348E+06   -57.471144E+06   344.827968E+06       107.139969      -261.954163
             2162   114.942712E+06    -57.47112E+06   -57.471468E+06      344.828E+06       33.1364059       113.376053
             2163   114.942008E+06     -57.4712E+06   -57.471136E+06   344.828128E+06       183.369995       5.69413757
             2164    114.94248E+06   -57.471388E+06   -57.471352E+06   344.828096E+06       3.22098160       214.944351
             2165   114.939744E+06   -57.475408E+06   -57.474624E+06    344.82848E+06      -680.698669      -469.706421
             2166   114.942552E+06   -57.471332E+06   -57.471444E+06    344.82784E+06      -407.719788      -156.009567
             2167   114.942792E+06   -57.470944E+06   -57.470848E+06   344.827776E+06       26.0105667       280.926758
             2168   114.942768E+06   -57.471328E+06   -57.471376E+06   344.828064E+06       37.2180519      -67.4275436
             2169   114.942776E+06   -57.471032E+06   -57.470784E+06   344.827744E+06      -467.418549      -114.075851
             2170   114.945712E+06   -57.471316E+06   -57.472716E+06   344.833504E+06   9.23204590E+03       549.234436
             2171   114.942944E+06   -57.471028E+06    -57.47028E+06   344.827552E+06       103.800758       22.1011868
             2172   114.949272E+06   -57.468644E+06   -57.472336E+06    344.83056E+06   2.27697559E+03   1.09652441E+03
             2173   114.943336E+06   -57.472424E+06     -57.4726E+06   344.829248E+06      -74.7139969      -366.313660
             2174   114.942776E+06   -57.471432E+06   -57.471388E+06   344.828096E+06       30.1054020       225.788696
             2175    114.93464E+06   -57.475552E+06   -57.474244E+06   344.825664E+06   1.69281592E+03      -55.6381531
             2176   114.942984E+06   -57.471456E+06   -57.471416E+06   344.827968E+06      -261.966003       16.4951973
             2177   114.941824E+06   -57.471488E+06   -57.471572E+06   344.828256E+06       145.308884       13.9805183
             2178   114.948232E+06   -57.465096E+06   -57.466352E+06    344.82672E+06       263.851990       486.486603
             2179    114.94176E+06   -57.464936E+06   -57.464896E+06   344.820544E+06   4.97535645E+03   1.04913037E+03
             2180   114.966832E+06   -57.464136E+06   -57.459752E+06   344.827296E+06  -1.11056958E+03  -1.00823358E+03
             2181   114.942856E+06   -57.471448E+06   -57.471384E+06   344.827744E+06       4.69509411      -114.363602
             2182   114.939296E+06   -57.473944E+06   -57.473696E+06   344.828416E+06      -448.989502      -463.595367
             2183   114.937744E+06   -57.475816E+06   -57.476072E+06    344.82896E+06      -227.204773       875.775146
             2184   114.940672E+06   -57.473256E+06   -57.472184E+06    344.82768E+06       420.164948      -94.2409134
             2185   114.943352E+06   -57.473152E+06   -57.472416E+06   344.828288E+06       362.553131      -179.085464
             2186   114.942992E+06    -57.47078E+06   -57.471232E+06   344.827424E+06       470.053894      -170.561554
             2187   114.947848E+06   -57.469088E+06   -57.464584E+06   344.826336E+06   1.61051147E+03       635.585083
             2188    114.97176E+06   -57.451864E+06    -57.44876E+06    344.82464E+06  -2.21590430E+03       710.253296
             2189   114.950368E+06   -57.465228E+06   -57.465896E+06   344.828192E+06       17.5991058      -306.493408
             2190   114.951288E+06   -57.465032E+06   -57.465972E+06   344.826464E+06      -868.372314      -284.803406
             2191   114.946416E+06   -57.471656E+06   -57.472968E+06   344.828096E+06   1.39884497E+03       675.100952
             2192   114.941512E+06   -57.471448E+06    -57.47178E+06   344.829248E+06       163.246201  -1.11784680E+03
             2193   114.939648E+06   -57.473096E+06   -57.472712E+06     344.8264E+06  -2.10976538E+03  -1.70440564E+03
             2194   114.895504E+06   -57.496276E+06   -57.499688E+06   344.828416E+06      -688.813965  -1.26477234E+03
             2195   114.949928E+06   -57.465392E+06   -57.461188E+06   344.826848E+06   3.03753638E+03  -1.52824548E+03
             2196   114.939728E+06   -57.475672E+06   -57.475528E+06   344.827456E+06  -2.81909375E+03      -245.249084
             2197   114.953336E+06   -57.463532E+06    -57.46114E+06   344.828832E+06  -1.79567273E+03  -2.05640503E+03
             2198   114.950464E+06   -57.464348E+06     -57.4646E+06   344.828064E+06       160.266922      -183.418320
             2199   114.942448E+06   -57.473472E+06     -57.4697E+06   344.825344E+06   1.29543335E+03      -9.92025757
             2200   114.942192E+06   -57.470312E+06       -57.47E+06   344.827296E+06  -1.10276074E+03      -468.468018
             2201   114.946248E+06   -57.469736E+06   -57.468304E+06   344.828288E+06   1.58339929E+03       15.4857864
             2202   114.944536E+06   -57.471104E+06   -57.469128E+06   344.827328E+06       302.811279       211.468933
             2203   114.942464E+06   -57.470868E+06   -57.470596E+06   344.827648E+06       157.152664       4.88364410
             2204   114.933264E+06   -57.484736E+06    -57.48426E+06   344.833952E+06       830.721680      -550.845032
             2205   114.941888E+06   -57.472176E+06   -57.471456E+06   344.827008E+06      -240.075424      -910.593933
             2206   114.943616E+06   -57.470168E+06   -57.470164E+06   344.827904E+06      -158.681274       258.518127
             2207   114.927872E+06   -57.475728E+06   -57.477104E+06    344.82848E+06   5.11841602E+03      -831.859253
             2208   114.960592E+06    -57.45438E+06   -57.457072E+06    344.82608E+06  -5.20246777E+03   1.65738953E+03
             2209   114.947416E+06    -57.46868E+06   -57.467988E+06   344.828288E+06       813.799438       289.832977
             2210   114.941824E+06   -57.472616E+06   -57.473024E+06   344.829344E+06      -100.033600       86.0101624
             2211    114.94244E+06   -57.471632E+06   -57.471332E+06   344.828032E+06      -12.7045612      -4.73142624
             2212     114.9394E+06   -57.473116E+06   -57.473152E+06     344.8272E+06      -553.309692      -69.6552277
             2213   114.941088E+06     -57.4726E+06   -57.471572E+06   344.826784E+06       112.951454       4.85715485
             2214    114.94252E+06    -57.47136E+06   -57.471336E+06   344.828192E+06      -5.89216995      -32.8924942
             2215    114.94596E+06   -57.478856E+06   -57.469132E+06   344.827712E+06   1.21690552E+03       402.401489
             2216   114.942272E+06   -57.470856E+06   -57.470848E+06    344.82752E+06       177.417053      -151.373047
             2217   114.941208E+06   -57.472592E+06   -57.472688E+06   344.828064E+06      -623.877869       21.7988758
             2218   114.940416E+06   -57.473172E+06    -57.47284E+06    344.82816E+06       18.8709259       18.3345375
             2219   114.943984E+06   -57.471308E+06   -57.471952E+06   344.828864E+06   1.17544434E+03   1.22179126E+03
             2220   114.943048E+06   -57.469692E+06   -57.470152E+06   344.827168E+06       902.503784      -403.846863
             2221    114.94248E+06   -57.471056E+06   -57.471576E+06   344.827872E+06       177.461624       1.60547829
             2222   114.944928E+06   -57.470164E+06    -57.46966E+06   344.828928E+06  -1.15111438E+03       50.9079666
             2223   114.926976E+06   -57.486996E+06   -57.486572E+06   344.835008E+06  -3.49015430E+03      -273.012024
             2224    114.94256E+06   -57.471676E+06   -57.471632E+06    344.82784E+06       427.574097       148.362564
             2225   114.936008E+06   -57.472872E+06   -57.471276E+06   344.825248E+06  -3.75164355E+03  -1.83358435E+03
             2226   114.933336E+06   -57.473032E+06   -57.472768E+06   344.829248E+06       576.240967      -864.689087
             2227   114.945792E+06   -57.464208E+06   -57.464272E+06   344.826048E+06   1.31457568E+03      -148.951431
             2228   114.935256E+06    -57.47806E+06   -57.481016E+06   344.833824E+06   1.78418945E+03      -957.301758
             2229   114.947048E+06   -57.468768E+06   -57.468264E+06   344.827648E+06       467.211609      -360.514557
             2230   114.942712E+06   -57.471204E+06   -57.468272E+06   344.825664E+06       312.754547      -2.23303223
             2231   114.946424E+06   -57.468976E+06   -57.469084E+06    344.82848E+06       953.607910       349.754700
             2232   114.937712E+06   -57.472436E+06   -57.469312E+06   344.827904E+06  -2.53241309E+03  -1.55102539E+03
             2233   114.939936E+06   -57.469888E+06    -57.46698E+06   344.828224E+06       847.462280  -1.98539783E+03
             2234   114.941944E+06    -57.47282E+06   -57.472344E+06    344.82816E+06      -127.609604      -246.773071
             2235   114.943056E+06   -57.471956E+06   -57.471464E+06   344.828032E+06       227.860016       501.112183
             2236   114.947256E+06   -57.477536E+06   -57.475388E+06    344.83536E+06   11.7674424E+03   1.95515405E+03
             2237   114.960992E+06   -57.451136E+06   -57.458132E+06   344.829568E+06  -1.44481824E+03  -1.02263257E+03
             2238   114.947808E+06   -57.467644E+06   -57.470228E+06   344.826368E+06  -1.60258533E+03      -910.587402
             2239   114.942352E+06   -57.470724E+06    -57.47126E+06   344.828032E+06      -39.4167633      -176.177109
             2240   114.943928E+06   -57.470272E+06   -57.470308E+06   344.827648E+06      -240.543121       590.614258
             2241    114.94792E+06   -57.468656E+06   -57.467924E+06   344.827584E+06      -636.254578   1.12706287E+03
             2242   114.940576E+06   -57.467004E+06   -57.469496E+06   344.825088E+06  -1.48340222E+03      -963.224304
             2243   114.942752E+06   -57.471972E+06   -57.470784E+06   344.829696E+06       139.841980      -402.963165
             2244   114.933192E+06   -57.474596E+06   -57.473088E+06   344.821472E+06      -643.935059  -1.38656946E+03
             2245   114.945064E+06   -57.467864E+06    -57.46568E+06   344.827488E+06   3.01614478E+03  -2.84200684E+03
             2246     114.9564E+06   -57.464352E+06   -57.465636E+06   344.834432E+06      -527.818726       38.3818359
             2247   114.944936E+06   -57.466436E+06   -57.467452E+06   344.827872E+06       48.1427765       565.347839
             2248   114.944696E+06   -57.468724E+06   -57.469184E+06   344.826656E+06       865.778259      -236.671661
             2249   114.933952E+06   -57.476992E+06   -57.476672E+06   344.825888E+06   2.26879736E+03   2.49914819E+03
             2250   114.945072E+06    -57.46978E+06   -57.468036E+06    344.82496E+06       746.724365      -90.1690674
             2251   114.942552E+06     -57.4717E+06   -57.471584E+06   344.828224E+06       556.217285       25.2892265
             2252    114.94276E+06   -57.471464E+06   -57.471444E+06    344.82848E+06      -120.087021      -399.441254
             2253    114.94292E+06   -57.471896E+06    -57.47168E+06    344.82816E+06       282.595642       2.15517426
             2254   114.941824E+06   -57.469888E+06   -57.472616E+06   344.827264E+06       298.417816      -118.651100
             2255   114.940872E+06   -57.468848E+06   -57.471152E+06   344.827648E+06       445.775330      -589.079651
             2256   114.943136E+06   -57.468648E+06   -57.470892E+06      344.824E+06      -34.4572144       347.172729
             2257   114.963192E+06   -57.462656E+06   -57.461164E+06   344.827392E+06      -442.815918   3.27670752E+03
             2258   114.926712E+06   -57.473456E+06   -57.481912E+06   344.832288E+06  -2.13515405E+03       625.531555
             2259   114.925888E+06    -57.47962E+06   -57.479648E+06   344.831104E+06  -1.79412866E+03  -2.18920557E+03
             2260    114.94788E+06    -57.46752E+06   -57.467268E+06   344.827808E+06       251.048447      -184.793228
             2261   114.944816E+06     -57.4685E+06    -57.46932E+06   344.825408E+06   2.69228491E+03      -225.572998
             2262    114.94332E+06   -57.471448E+06   -57.471288E+06   344.828832E+06       395.476990       570.569519
             2263    114.94256E+06   -57.471384E+06   -57.471528E+06   344.827712E+06       155.368713       94.4925995
             2264   114.940552E+06   -57.474476E+06   -57.474288E+06    344.82864E+06      -621.190125   1.06950928E+03
             2265   114.942704E+06   -57.471596E+06   -57.471312E+06   344.827936E+06       34.3621826       10.0402393
             2266   114.942792E+06   -57.470552E+06    -57.47024E+06    344.82816E+06      -323.570679      -468.856567
             2267    114.94904E+06   -57.468772E+06   -57.467168E+06    344.82112E+06      -562.898315  -2.63208667E+03
             2268   114.946464E+06    -57.46868E+06   -57.471064E+06   344.829952E+06       153.826996      -212.339584
             2269   114.943264E+06   -57.470696E+06   -57.470444E+06   344.827424E+06       335.718323      -547.642090
             2270   114.941624E+06   -57.471332E+06   -57.471308E+06   344.827328E+06      -815.106750      -47.3446808
             2271   114.939344E+06   -57.472288E+06   -57.474344E+06   344.829376E+06  -1.71744824E+03   1.95557373E+03
             2272   114.956392E+06   -57.472216E+06   -57.467448E+06   344.832352E+06   3.74162305E+03      -754.603516
             2273   114.943328E+06   -57.470572E+06   -57.470904E+06   344.828448E+06       360.054230       197.350433
             2274   114.938528E+06     -57.4728E+06   -57.472968E+06    344.82624E+06      -459.163513   1.17099866E+03
             2275   114.939664E+06     -57.4814E+06   -57.475372E+06   344.826912E+06   1.36636182E+03       435.429993
             2276   114.960568E+06   -57.455468E+06   -57.454304E+06   344.823232E+06  -1.00179803E+03   1.05815466E+03
             2277    114.95844E+06   -57.463952E+06   -57.461976E+06   344.828032E+06   3.31901099E+03      -88.0518570
             2278   114.942944E+06   -57.469208E+06   -57.468848E+06   344.823936E+06  -1.03715759E+03  -1.07567896E+03
             2279    114.94216E+06   -57.470896E+06   -57.471276E+06   344.827776E+06       319.138092       189.659302
             2280   114.945816E+06   -57.468528E+06    -57.46806E+06    344.82688E+06      -426.611328      -321.102997
             2281     114.9364E+06   -57.475772E+06   -57.474528E+06   344.825536E+06      -22.6628418       165.414551
             2282   114.917336E+06   -57.493336E+06   -57.492224E+06   344.830432E+06  -3.78716675E+03   1.33970007E+03
             2283   114.956128E+06    -57.45806E+06   -57.462648E+06   344.828736E+06  -2.30556982E+03      -267.803650
             2284     114.9452E+06   -57.469452E+06   -57.469672E+06   344.828224E+06      -72.9500885      -190.803345
             2285   114.951544E+06   -57.462232E+06   -57.468784E+06   344.829856E+06   3.44668506E+03   1.86599658E+03
             2286   114.943208E+06   -57.470832E+06   -57.471252E+06   344.827936E+06       146.422913      -28.1179543
             2287   114.933736E+06   -57.475684E+06    -57.47742E+06   344.834144E+06  -3.81383447E+03   4.10179785E+03
             2288   114.942528E+06    -57.47204E+06   -57.471424E+06   344.828224E+06      -19.4633484       97.4660797
             2289    114.92264E+06   -57.482052E+06    -57.48328E+06   344.823872E+06  -2.94699756E+03      -892.176880
             2290   114.962872E+06    -57.45576E+06   -57.451904E+06     344.8232E+06  -4.91678662E+03   3.33355103E+03
             2291    114.94448E+06   -57.467116E+06   -57.468424E+06   344.827008E+06       256.594788      -744.979614
             2292   114.942696E+06   -57.471532E+06   -57.471808E+06   344.828224E+06       53.4971466       31.2869644
             2293   114.943296E+06    -57.47068E+06   -57.470104E+06    344.82688E+06       223.914490      -551.536438
             2294   114.950248E+06   -57.467872E+06     -57.4657E+06   344.830368E+06       84.8201065      -869.500793
             2295   114.953608E+06   -57.459324E+06    -57.46384E+06    344.82688E+06   1.44345142E+03      -605.308533
             2296   114.937456E+06   -57.474832E+06   -57.473512E+06     344.8256E+06      -586.973511      -371.259094
             2297   114.947376E+06   -57.466416E+06    -57.46684E+06   344.826688E+06  -1.26034155E+03       11.8946991
             2298   114.940208E+06   -57.474328E+06   -57.472064E+06   344.827072E+06      -425.779907      -138.564209
             2299   114.940176E+06   -57.474152E+06   -57.473856E+06   344.827008E+06      -466.169312      -73.1539612
             2300   114.941368E+06   -57.472704E+06    -57.47394E+06   344.830048E+06       261.808716      -914.614990
             2301   114.942752E+06   -57.471528E+06   -57.470712E+06      344.828E+06       228.916656      -411.404572
             2302   114.941784E+06    -57.47376E+06   -57.472672E+06   344.828032E+06       163.956909      -914.989624
             2303   114.986848E+06   -57.440412E+06   -57.443752E+06   344.834784E+06   9.14901855E+03       466.890869
             2304     114.9432E+06   -57.471204E+06   -57.470652E+06   344.827968E+06      -75.5070648      -157.109344
             2305   114.941536E+06   -57.474052E+06    -57.47212E+06   344.828032E+06      -495.079468  -1.06351123E+03
             2306   114.942528E+06   -57.471188E+06   -57.470776E+06   344.828192E+06      -70.3808899       250.997055
             2307   114.943504E+06   -57.471296E+06   -57.471668E+06   344.827712E+06      -273.659149      -416.471375
             2308    114.94208E+06   -57.471224E+06   -57.471848E+06   344.828256E+06       290.746307       187.003174
             2309    114.94272E+06    -57.47144E+06    -57.47134E+06   344.828128E+06      -77.0121307       74.1347809
             2310   114.965736E+06   -57.451064E+06   -57.453392E+06   344.820896E+06  -4.86977979E+03      -903.632629
             2311   114.943472E+06   -57.470496E+06   -57.469896E+06   344.827808E+06       659.969116       656.712585
             2312   114.942656E+06   -57.471512E+06   -57.471316E+06   344.827968E+06       27.4113083       61.8772354
             2313   114.939896E+06   -57.470848E+06   -57.473252E+06   344.829504E+06       217.285278       94.4847107
             2314     114.9412E+06   -57.471472E+06   -57.471844E+06     344.8288E+06      -184.210861       38.1218948
             2315    114.91904E+06   -57.486484E+06    -57.49208E+06   344.829152E+06  -2.51095850E+03       783.519958
             2316   114.940832E+06   -57.471504E+06   -57.473336E+06   344.829376E+06      -150.363525      -272.427368
             2317   114.947808E+06   -57.468264E+06   -57.468564E+06    344.82928E+06   1.15103735E+03      -370.307312
             2318   114.940272E+06   -57.464292E+06   -57.462372E+06   344.819808E+06  -1.77364941E+03  -5.05422949E+03
             2319     114.9368E+06   -57.474096E+06    -57.47494E+06   344.831392E+06   2.65433887E+03  -1.89252734E+03
             2320   114.943056E+06    -57.47124E+06    -57.47004E+06   344.829184E+06   1.16783789E+03       156.142181
             2321   114.951864E+06   -57.460424E+06   -57.465296E+06   344.821984E+06   1.33205798E+03       347.937439
             2322    114.94176E+06   -57.473468E+06   -57.471244E+06   344.828608E+06       68.5034714      -623.892395
             2323   114.945392E+06   -57.466792E+06   -57.465736E+06   344.822016E+06      -350.290558   1.28807690E+03
             2324      114.942E+06   -57.470472E+06    -57.47186E+06    344.82896E+06       460.706451      -59.0359955
             2325    114.93284E+06     -57.4774E+06    -57.47792E+06   344.828032E+06       835.414551      -323.838867
             2326    114.94192E+06   -57.473216E+06   -57.474728E+06   344.828544E+06      -380.975006   1.41849585E+03
             2327   114.947512E+06   -57.466376E+06   -57.467504E+06   344.829376E+06      -167.930161      -199.371368
             2328   114.947632E+06    -57.45916E+06   -57.465484E+06   344.825728E+06  -3.52952856E+03  -1.93733594E+03
             2329   114.941432E+06    -57.47064E+06     -57.4708E+06     344.8272E+06       266.966675       128.357178
             2330   114.947888E+06   -57.468912E+06   -57.466296E+06   344.824384E+06   3.48111768E+03      -423.105286
             2331    114.94344E+06   -57.471044E+06   -57.470916E+06   344.828256E+06       148.900314       287.991028
             2332   114.943712E+06   -57.471144E+06   -57.470488E+06     344.8272E+06       314.811584      -689.805298
             2333   114.941784E+06    -57.47228E+06   -57.472372E+06   344.828032E+06      -75.4986038      -490.738831
             2334   114.942384E+06   -57.471524E+06   -57.471488E+06   344.828064E+06       119.448563      -62.4113045
             2335   114.943472E+06   -57.469792E+06   -57.470072E+06   344.828064E+06       399.504333      -107.761200
             2336   114.942352E+06   -57.471636E+06   -57.472732E+06    344.82896E+06       202.352509       550.889404
             2337   114.943352E+06   -57.471016E+06   -57.471244E+06   344.828096E+06      -430.686920      -393.270874
             2338   114.949936E+06   -57.465856E+06   -57.467012E+06      344.828E+06  -1.45392297E+03      -954.727539
             2339   114.942576E+06     -57.4712E+06   -57.471416E+06   344.828064E+06       90.6492386       84.2854538
             2340   114.941984E+06    -57.47088E+06   -57.472496E+06   344.828832E+06       289.778961      -123.079491
             2341   114.942184E+06   -57.471392E+06   -57.472688E+06    344.82832E+06       322.337372      -181.107574
             2342   114.941288E+06   -57.468816E+06   -57.470356E+06   344.825856E+06      -192.686676       161.862228
             2343   114.943416E+06   -57.470372E+06   -57.470752E+06   344.828224E+06  -1.06594202E+03      -191.509369
             2344   114.942064E+06   -57.471456E+06   -57.471556E+06   344.827968E+06       103.581291       162.823975
             2345   114.942632E+06   -57.471356E+06   -57.471464E+06   344.827968E+06       141.329880       36.1126099
             2346   114.942472E+06   -57.471468E+06   -57.471328E+06   344.828032E+06       149.621811      -50.8760338
             2347    114.94312E+06   -57.470932E+06   -57.470452E+06   344.827456E+06      -355.227142      -310.609680
             2348   114.938728E+06    -57.47108E+06   -57.472936E+06    344.82992E+06   1.56918628E+03       649.430603
             2349   114.942608E+06    -57.47126E+06    -57.47134E+06   344.827968E+06       32.3039780      -34.1405716
             2350   114.943928E+06   -57.470616E+06   -57.469728E+06   344.827968E+06       293.255951      -332.022888
             2351   114.940992E+06   -57.472432E+06   -57.471384E+06   344.826496E+06       294.226501      -220.086884
             2352   114.942856E+06    -57.47116E+06   -57.471024E+06   344.827904E+06       26.7200050       37.2244568
             2353   114.944496E+06    -57.46722E+06   -57.464964E+06   344.829312E+06  -3.93783496E+03      -358.100464
             2354   114.934952E+06   -57.475708E+06   -57.476408E+06    344.82864E+06      -612.324585      -228.950867
             2355    114.94344E+06   -57.471288E+06   -57.471344E+06   344.827648E+06       384.609222       104.368233
             2356    114.94128E+06   -57.473724E+06    -57.47678E+06    344.82608E+06      -627.473083       102.127548
             2357   114.943696E+06    -57.47174E+06   -57.471352E+06   344.827904E+06       181.677063       790.411682
             2358   114.942888E+06   -57.471932E+06   -57.471736E+06   344.828128E+06       310.373230       138.825226
             2359   114.943824E+06   -57.470028E+06   -57.470768E+06   344.828032E+06      -127.254837       94.4949417
             2360    114.94036E+06   -57.473372E+06   -57.473908E+06    344.82752E+06      -432.884277      -681.394470
             2361   114.961504E+06   -57.456192E+06   -57.459356E+06   344.831232E+06       735.032349       79.5933228
             2362   114.928496E+06   -57.482804E+06    -57.48226E+06   344.828608E+06      -696.017334  -1.08564307E+03
             2363    114.94248E+06   -57.471488E+06   -57.471532E+06    344.82816E+06       65.8356552      -189.232056
             2364   114.941232E+06   -57.473112E+06   -57.472548E+06   344.828544E+06      -915.179810       453.046509
             2365   114.943152E+06   -57.469912E+06     -57.4706E+06   344.827584E+06       827.576782       648.161438
             2366   114.943024E+06    -57.47142E+06   -57.469944E+06   344.824288E+06       916.719421  -1.99207935E+03
             2367   114.942272E+06   -57.471116E+06    -57.47126E+06    344.82784E+06       22.3168221       17.7559547
             2368   114.941128E+06    -57.47274E+06   -57.471544E+06   344.827616E+06      -821.846252       183.170547
             2369   114.949208E+06   -57.467508E+06    -57.46968E+06   344.827136E+06      -499.001373      -31.0710144
             2370   114.937808E+06   -57.478548E+06   -57.483008E+06    344.83216E+06      -454.179749       426.033630
             2371   114.942632E+06   -57.471584E+06   -57.471256E+06   344.828096E+06      -26.6105919      -244.172424
             2372   114.944136E+06   -57.470548E+06   -57.472096E+06    344.82912E+06  -1.72169080E+03  -1.68556470E+03
             2373   114.941168E+06   -57.473256E+06   -57.473188E+06   344.829056E+06       856.455872      -468.660553
             2374   114.941528E+06   -57.472544E+06    -57.47156E+06   344.828864E+06       548.463135       60.9109344
             2375     114.9462E+06   -57.469012E+06   -57.469208E+06   344.828192E+06      -241.309082      -522.995422
             2376   114.943632E+06   -57.470104E+06   -57.470496E+06   344.827328E+06      -373.339783       217.556000
             2377   114.944848E+06     -57.4678E+06   -57.470296E+06    344.82944E+06      -107.026993      -121.191864
             2378    114.93804E+06    -57.47236E+06   -57.473052E+06   344.829344E+06      -532.657715  -1.13463916E+03
             2379   114.944752E+06     -57.4699E+06   -57.469184E+06   344.827776E+06      -490.401794       237.241135
             2380    114.94208E+06   -57.473116E+06     -57.4726E+06    344.82976E+06      -545.659180      -694.880981
             2381   114.943808E+06   -57.472688E+06   -57.472992E+06   344.828352E+06      -390.845032  -1.34926416E+03
             2382    114.94416E+06   -57.470704E+06   -57.470356E+06   344.827392E+06       229.104538      -21.9800396
             2383   114.942216E+06   -57.471856E+06   -57.471852E+06   344.828224E+06      -29.6582146       19.7970142
             2384   114.940048E+06   -57.473528E+06   -57.472848E+06   344.829568E+06  -1.98586951E+03       542.588989
             2385    114.94108E+06   -57.472948E+06   -57.468832E+06   344.828096E+06  -1.88576392E+03  -1.25420251E+03
             2386   114.942784E+06   -57.469232E+06   -57.470772E+06   344.827488E+06      -679.633423      -465.487305
             2387   114.944176E+06   -57.468896E+06   -57.470284E+06   344.828288E+06      -264.666504      -344.085144
             2388    114.94532E+06     -57.4707E+06   -57.470228E+06   344.829024E+06      -535.431580      -123.618439
             2389   114.941432E+06     -57.4721E+06   -57.471788E+06   344.828128E+06      -502.206207      -56.6083984
             2390   114.942016E+06   -57.471064E+06   -57.471676E+06   344.828864E+06      -173.321777      -54.8654099
             2391   114.942296E+06   -57.472328E+06   -57.473008E+06   344.829568E+06       185.859940      -478.441589
             2392   114.942768E+06   -57.469412E+06   -57.471352E+06   344.828288E+06       310.351746       141.683289
             2393   114.942032E+06   -57.471532E+06   -57.471912E+06    344.82816E+06       211.408554       105.610756
             2394   114.943792E+06   -57.471532E+06   -57.471164E+06    344.82848E+06       338.417084       83.9747696
             2395   114.938672E+06    -57.47368E+06   -57.474608E+06   344.827328E+06      -406.656555       167.365509
             2396   114.938728E+06    -57.47656E+06    -57.47616E+06   344.829952E+06      -450.935272      -142.890671
             2397   114.948312E+06   -57.467084E+06   -57.468256E+06   344.828064E+06       101.946884   1.06202319E+03
             2398   114.942416E+06   -57.471464E+06   -57.471244E+06   344.828064E+06       172.211639       55.1039429
             2399    114.93584E+06   -57.476308E+06   -57.475864E+06   344.830144E+06      -265.533020      -340.026764
             2400   114.942304E+06    -57.47154E+06   -57.471756E+06   344.827456E+06      -152.229416       56.5996132
             2401   114.946808E+06   -57.467376E+06    -57.46798E+06   344.828352E+06      -73.5611877       596.471924
             2402   114.943216E+06   -57.471856E+06   -57.471552E+06      344.828E+06      -107.543579       11.4769783
             2403   114.942536E+06    -57.47132E+06   -57.471988E+06    344.82896E+06       79.2974472      -194.884094
             2404   114.946376E+06   -57.469024E+06   -57.467132E+06    344.82592E+06       683.795288       984.479126
             2405   114.952096E+06    -57.46542E+06   -57.464864E+06    344.82656E+06  -1.89152490E+03      -650.305725
             2406   114.941072E+06   -57.473796E+06   -57.473416E+06   344.828864E+06   1.00782361E+03       380.473541
             2407   114.942624E+06   -57.471064E+06   -57.471176E+06    344.82784E+06       1.37007713       101.251801
             2408     114.9436E+06    -57.47012E+06   -57.470604E+06   344.827776E+06       81.5854492       61.7994804
             2409   114.944216E+06   -57.470388E+06    -57.47056E+06   344.827456E+06      -693.944031       463.391174
             2410   114.899064E+06   -57.508248E+06    -57.50592E+06   344.830176E+06   5.59663184E+03       813.958008
             2411   114.935288E+06    -57.47604E+06   -57.472564E+06     344.8272E+06   2.52057959E+03       651.189819
             2412     114.9412E+06   -57.473624E+06     -57.4735E+06   344.828672E+06   2.05186182E+03       481.691345
             2413   114.970528E+06     -57.4535E+06   -57.453688E+06   344.829344E+06   6.33841309E+03       135.649902
             2414   114.942016E+06   -57.471744E+06   -57.473008E+06   344.829056E+06      -367.284058       82.3074799
             2415   114.942448E+06   -57.471004E+06   -57.471248E+06   344.827968E+06       85.9009781       165.905869
             2416   114.943336E+06   -57.472808E+06   -57.471824E+06   344.828032E+06       284.953064  -1.19859875E+03
             2417   114.918616E+06   -57.481008E+06   -57.487584E+06   344.838112E+06  -8.82298145E+03   1.94216199E+03
             2418    114.94244E+06   -57.471172E+06   -57.471352E+06    344.82736E+06       9.19834900       221.914246
             2419   114.941272E+06   -57.473228E+06    -57.47336E+06   344.828736E+06      -259.041229      -293.263733
             2420   114.947888E+06   -57.466704E+06   -57.470112E+06    344.82592E+06       213.676636  -2.14820410E+03
             2421   114.944816E+06   -57.469984E+06    -57.47068E+06   344.828096E+06      -469.679382       196.518204
             2422   114.942872E+06   -57.469016E+06   -57.471264E+06   344.827072E+06       255.652435       264.796356
             2423   114.967104E+06   -57.458152E+06   -57.460292E+06   344.833536E+06       360.140869       710.169250
             2424   114.941448E+06   -57.472716E+06   -57.472072E+06   344.828864E+06      -70.3816833       84.0448914
             2425   114.942496E+06   -57.471968E+06   -57.471652E+06      344.828E+06       204.419006      -108.164963
             2426   114.942688E+06   -57.471112E+06   -57.471204E+06   344.827936E+06       61.2713928       63.2543602
             2427   114.943208E+06    -57.47174E+06   -57.472852E+06   344.828352E+06       502.469177   1.43494519E+03
             2428   114.865472E+06    -57.53404E+06   -57.533944E+06   344.830688E+06  -5.52013574E+03       60.1567078
             2429   114.942192E+06   -57.471428E+06   -57.471416E+06    344.82816E+06       22.1673584       37.1688042
             2430   114.939648E+06    -57.47356E+06   -57.473228E+06   344.828096E+06       316.039429       37.8038864
             2431    114.94356E+06   -57.472412E+06   -57.470412E+06   344.825184E+06      -64.7547302      -51.9375229
             2432    114.94392E+06   -57.469712E+06   -57.469912E+06    344.82736E+06      -477.866608       416.913422
             2433    114.94544E+06   -57.469356E+06    -57.46872E+06   344.828224E+06        -878.1875       178.708786
             2434   114.945888E+06   -57.469784E+06   -57.469592E+06   344.827392E+06      -304.151306       526.127075
             2435   114.942232E+06    -57.47118E+06   -57.471136E+06     344.8288E+06       73.1516495      -624.713135
             2436     114.9428E+06   -57.470512E+06    -57.47072E+06   344.827616E+06       213.893188       363.605499
             2437   114.942592E+06   -57.471216E+06   -57.470876E+06   344.828032E+06       185.099854       113.984192
             2438    114.94284E+06   -57.471352E+06   -57.471512E+06   344.828064E+06      -15.4182062       118.852898
             2439   114.944024E+06   -57.469536E+06     -57.4699E+06   344.828128E+06       64.5999146       354.765350
             2440   114.943064E+06   -57.469552E+06   -57.470428E+06   344.828416E+06       208.022232      -50.6861877
             2441   114.943712E+06    -57.47062E+06   -57.471468E+06   344.829984E+06       830.173706       311.949005
             2442   114.944208E+06   -57.468828E+06   -57.468608E+06   344.826496E+06      -934.415771       43.9557648
             2443   114.935968E+06   -57.468632E+06   -57.470396E+06    344.82368E+06  -2.19447925E+03   1.05878845E+03
             2444   114.942008E+06   -57.471484E+06   -57.471468E+06   344.827872E+06       65.0913696       28.8217678
             2445   114.942912E+06   -57.471944E+06   -57.471676E+06    344.82816E+06       154.171509       152.459183
             2446   114.941864E+06   -57.470908E+06   -57.471112E+06   344.827776E+06      -447.339386       223.284698
             2447   114.939056E+06   -57.473168E+06   -57.470036E+06   344.824384E+06       382.003418   1.63181702E+03
             2448    114.94272E+06   -57.471632E+06   -57.471532E+06   344.828032E+06       79.5349808       33.7198143
             2449   114.946432E+06   -57.467748E+06   -57.466052E+06   344.827936E+06   1.32779004E+03   2.78010352E+03
             2450   114.938664E+06    -57.47588E+06    -57.47484E+06   344.828768E+06       105.917603       500.204468
             2451   114.976328E+06   -57.448856E+06   -57.449376E+06   344.830816E+06       7.44091797      -186.722061
             2452   114.952848E+06   -57.466744E+06   -57.469552E+06   344.828352E+06       57.7675781  -1.42976892E+03
             2453   114.942416E+06   -57.471116E+06   -57.471712E+06   344.828864E+06      -75.1629944      -395.230408
             2454   114.943368E+06   -57.464544E+06   -57.465848E+06   344.824128E+06   2.01187317E+03   1.96427966E+03
             2455   114.942208E+06   -57.471912E+06   -57.471764E+06   344.828288E+06       491.698029       501.065613
             2456   114.942408E+06   -57.471336E+06   -57.471124E+06   344.828032E+06       106.801163      -12.1448498
             2457   114.941024E+06   -57.472752E+06   -57.473312E+06   344.828736E+06      -373.318359   490.112305E-03
             2458    114.94276E+06   -57.471016E+06   -57.471084E+06   344.827936E+06       101.150482       186.262924
             2459   114.945312E+06   -57.468808E+06   -57.468828E+06   344.828416E+06  -1.02642493E+03      -925.857117
             2460   114.942448E+06   -57.470572E+06   -57.470588E+06   344.827168E+06      -23.5950451      -261.010437
             2461   114.941872E+06   -57.473424E+06   -57.472684E+06   344.828064E+06       839.598267       631.035400
             2462   114.945496E+06   -57.469568E+06   -57.469568E+06   344.827808E+06       378.932617      -86.8872452
             2463    114.94312E+06   -57.471672E+06    -57.47204E+06   344.827584E+06       132.946503       568.507446
             2464   114.941112E+06   -57.472316E+06    -57.47166E+06   344.827392E+06      -469.276489       327.975708
             2465   114.942224E+06   -57.470024E+06   -57.471192E+06   344.828576E+06       507.354858       67.5901260
             2466    114.94124E+06    -57.47252E+06   -57.472272E+06   344.827776E+06      -352.655762       4.58169174
             2467    114.94952E+06     -57.4649E+06   -57.467352E+06   344.828704E+06      -863.089233      -271.152405
             2468   114.954336E+06   -57.463428E+06   -57.467296E+06   344.829792E+06  -2.93225610E+03  -4.45753418E+03
             2469   114.941072E+06    -57.47032E+06    -57.47086E+06   344.827584E+06      -311.761688       518.810059
             2470   114.942656E+06   -57.470776E+06   -57.471228E+06   344.828032E+06      -27.8192253      -58.7924919
             2471   114.941488E+06   -57.472168E+06    -57.47204E+06   344.827904E+06      -69.1601410       234.575500
             2472   114.940904E+06   -57.469268E+06   -57.472452E+06   344.827744E+06       515.717834       524.310913
             2473   114.940056E+06   -57.471152E+06   -57.471988E+06    344.82784E+06       917.564453   1.09563757E+03
             2474    114.94388E+06   -57.470144E+06   -57.471168E+06   344.827904E+06      -311.029114       360.053253
             2475   114.942576E+06   -57.470884E+06    -57.47096E+06   344.827392E+06       350.052582       504.913116
             2476   114.942584E+06   -57.471648E+06   -57.471288E+06   344.828032E+06      -133.187439      -138.457382
             2477   114.942848E+06   -57.471192E+06   -57.471212E+06   344.828032E+06       109.051682      -7.10723925
             2478   114.942688E+06   -57.471184E+06    -57.47158E+06   344.828448E+06       103.282143      -35.2751732
             2479    114.93964E+06   -57.477712E+06   -57.474164E+06   344.828768E+06      -557.686218      -5.53961182
             2480   114.942304E+06   -57.471652E+06   -57.471672E+06   344.827904E+06      -111.798477      -75.7636414
             2481   114.942944E+06   -57.470832E+06   -57.471416E+06   344.828192E+06      -237.427948      -178.124924
             2482   114.945656E+06   -57.473396E+06     -57.4713E+06   344.828224E+06       607.664917       7.68148804
             2483   114.942944E+06   -57.471528E+06    -57.47126E+06   344.828064E+06       155.002579       106.576706
             2484   114.957008E+06   -57.458192E+06     -57.4594E+06   344.828992E+06   3.64316113E+03   1.14012354E+03
             2485   114.938752E+06   -57.471948E+06    -57.47242E+06    344.82688E+06  -1.00847668E+03   1.59681299E+03
             2486   114.942936E+06    -57.47142E+06   -57.471012E+06   344.828192E+06       22.3451881      -129.812210
             2487   114.944232E+06   -57.469992E+06     -57.4697E+06    344.82816E+06      -269.979523       276.134369
             2488   114.943712E+06   -57.470672E+06   -57.473068E+06   344.824736E+06      -936.756226   2.02951123E+03
             2489   114.943416E+06   -57.471172E+06   -57.471424E+06   344.827424E+06      -704.584961   1.02573413E+03
             2490   114.942704E+06    -57.47166E+06   -57.471512E+06   344.828096E+06      -97.0536804      -34.0275421
             2491    114.94928E+06   -57.464428E+06   -57.465672E+06   344.826816E+06   1.03336255E+03   2.99142041E+03
             2492    114.94192E+06    -57.47162E+06   -57.471936E+06   344.828032E+06       75.6714783      -492.647949
             2493   114.963824E+06   -57.462204E+06   -57.458896E+06    344.82624E+06   4.50465723E+03   1.14141895E+03
             2494    114.94048E+06    -57.47404E+06   -57.473856E+06    344.82816E+06       63.7503433       356.715363
             2495    114.94096E+06   -57.471736E+06   -57.472888E+06   344.828512E+06       8.28987122      -582.443481
             2496   114.942272E+06   -57.471768E+06   -57.471348E+06    344.82784E+06      -127.185654       56.8139038
             2497   114.942288E+06   -57.471912E+06   -57.471936E+06      344.828E+06      -289.515900      -174.806839
             2498   114.943264E+06   -57.471584E+06   -57.470724E+06      344.828E+06      -195.499969      -168.450455
             2499   114.943128E+06   -57.470744E+06   -57.471064E+06   344.827904E+06      -43.6459236       31.9679241
             2500   114.942776E+06   -57.471408E+06   -57.471436E+06   344.828032E+06      -25.8333416       95.2602539
             2501   114.933592E+06   -57.471724E+06   -57.475408E+06   344.827904E+06   2.19517383E+03   1.04277209E+03
             2502   114.948184E+06   -57.464992E+06   -57.461308E+06   344.827008E+06       101.131714      -496.242706
             2503   114.936576E+06    -57.47588E+06    -57.47568E+06   344.829184E+06       436.181335      -118.778999
             2504   114.951328E+06    -57.46644E+06    -57.46586E+06   344.828256E+06       611.454468       489.411316
             2505    114.94328E+06    -57.47164E+06   -57.471928E+06   344.828896E+06       66.9851227       52.9400597
             2506   114.942288E+06   -57.472104E+06   -57.471584E+06   344.828032E+06      -259.221313      -71.4703140
             2507   114.942104E+06   -57.472648E+06   -57.472272E+06   344.827904E+06      -132.914200      -133.436905
             2508   114.942384E+06   -57.471632E+06   -57.471088E+06   344.828032E+06      -62.1246033       70.3474884
             2509   114.946032E+06   -57.467468E+06   -57.467928E+06   344.826592E+06      -233.722427      -612.403259
             2510    114.94132E+06   -57.472708E+06   -57.472992E+06   344.827904E+06       476.920990      -34.5553970
             2511   114.943224E+06    -57.46868E+06   -57.470484E+06    344.82896E+06      -336.835205      -441.946503
             2512   114.943152E+06   -57.470608E+06   -57.471316E+06   344.828704E+06       75.5043030       578.694885
             2513   114.941992E+06   -57.471572E+06   -57.471728E+06   344.828128E+06       127.088486      -174.319458
             2514   114.941512E+06    -57.47272E+06   -57.472248E+06   344.828096E+06      -111.079384      -73.6051865
             2515   114.942504E+06   -57.471924E+06   -57.471216E+06    344.82768E+06   1.37186047E+03       378.369415
             2516   114.942368E+06   -57.470576E+06   -57.466116E+06   344.830112E+06   1.92742065E+03  -3.61268384E+03
             2517   114.942512E+06   -57.469596E+06   -57.470384E+06   344.827968E+06       103.950256      -213.194794
             2518   114.944064E+06   -57.471876E+06    -57.47228E+06    344.82912E+06       339.068146       186.413696
             2519   114.943528E+06   -57.470904E+06   -57.470344E+06   344.827808E+06       286.965668      -327.663055
             2520   114.942632E+06   -57.470976E+06   -57.471704E+06   344.828064E+06      -142.387878      -147.747772
             2521   114.942832E+06    -57.47098E+06   -57.470808E+06   344.828192E+06      -191.190018       119.402237
             2522       114.94E+06   -57.470848E+06   -57.471268E+06   344.828096E+06       715.367188       960.826416
             2523    114.94184E+06   -57.472024E+06    -57.47086E+06    344.82624E+06      -965.260803      -180.600769
             2524    114.94408E+06   -57.470708E+06   -57.471208E+06   344.827744E+06       709.068848       681.206360
             2525   114.942968E+06   -57.470572E+06    -57.47048E+06    344.82784E+06      -200.217621      -50.4912453
             2526    114.93856E+06   -57.473768E+06   -57.474856E+06    344.82784E+06   1.16877441E+03   1.09904822E+03
             2527   114.937136E+06   -57.478208E+06   -57.475588E+06   344.826336E+06       267.656860       270.396362
             2528   114.944976E+06   -57.471524E+06   -57.471128E+06   344.828928E+06   1.28994727E+03       819.305969
             2529   114.946448E+06    -57.46856E+06   -57.468316E+06   344.828896E+06      -140.114777  -1.07335327E+03
             2530    114.94248E+06   -57.471344E+06   -57.471632E+06   344.827872E+06      -434.251892      -237.953339
             2531   114.940264E+06   -57.472664E+06    -57.47256E+06   344.828416E+06       780.254089   1.09869641E+03
             2532   114.943264E+06    -57.47282E+06   -57.474672E+06   344.829248E+06       745.411377      -92.8214569
             2533   114.942912E+06   -57.470984E+06   -57.471068E+06   344.827936E+06       250.083450       336.550049
             2534    114.94348E+06   -57.471616E+06    -57.47136E+06   344.828256E+06      -14.0979156      -115.044174
             2535   114.945032E+06    -57.46744E+06   -57.470932E+06   344.828096E+06      -320.586395      -241.357620
             2536   114.943984E+06   -57.470352E+06   -57.470668E+06     344.8288E+06       232.798599       568.289063
             2537   114.942416E+06   -57.471692E+06   -57.471768E+06   344.827264E+06      -198.575943      -455.497009
             2538   114.944064E+06     -57.4713E+06   -57.471672E+06   344.829056E+06   1.37546362E+03       226.014282
             2539   114.945992E+06   -57.468944E+06   -57.468188E+06   344.826432E+06       773.793762      -414.396362
             2540   114.940496E+06   -57.471512E+06   -57.471608E+06   344.827168E+06       208.008118       41.0940285
             2541   114.938008E+06   -57.474116E+06   -57.474388E+06   344.827552E+06      -437.826935       554.000732
             2542    114.94416E+06   -57.468772E+06   -57.469844E+06    344.82704E+06      -44.6633034       599.776733
             2543   114.946496E+06   -57.468224E+06   -57.469064E+06    344.82848E+06       9.94730377      -713.124878
             2544   114.942768E+06   -57.471384E+06   -57.471292E+06   344.828032E+06      -13.2748013   905.914307E-03
             2545   114.943904E+06   -57.465704E+06   -57.468888E+06    344.82688E+06   1.05901501E+03       43.4896164
             2546   114.932576E+06   -57.482432E+06   -57.483844E+06    344.83232E+06  -1.85597522E+03       27.8190536
             2547   114.948272E+06   -57.466844E+06   -57.467156E+06   344.828352E+06   1.33488672E+03       299.146454
             2548   114.946432E+06   -57.466512E+06   -57.466208E+06   344.826208E+06   1.50745557E+03       115.594772
             2549   114.942352E+06   -57.472844E+06   -57.471348E+06   344.828544E+06      -103.541466      -301.385406
             2550    114.94032E+06   -57.472848E+06   -57.472428E+06    344.82624E+06  -1.34763501E+03       26.6394806
             2551     114.9424E+06    -57.47128E+06   -57.472272E+06   344.828448E+06       68.6075668       204.526001
             2552    114.93944E+06   -57.472296E+06    -57.47424E+06   344.828288E+06  -1.29916919E+03      -611.024170
             2553   114.938568E+06   -57.474688E+06   -57.471228E+06   344.834112E+06  -2.74764990E+03      -624.410522
             2554    114.94268E+06    -57.47152E+06   -57.471256E+06   344.828032E+06      -131.685333      -91.9253235
             2555   114.942928E+06   -57.470992E+06   -57.471272E+06    344.82784E+06      -532.383423      -167.083374
             2556   114.942576E+06   -57.471656E+06   -57.471728E+06   344.827808E+06      -91.1324005      -29.2109909
             2557      114.941E+06   -57.471368E+06   -57.471836E+06   344.827232E+06      -29.7928543       22.7469769
             2558   114.943536E+06   -57.468208E+06   -57.469368E+06   344.826592E+06       935.161316       324.053619
             2559   114.942624E+06   -57.471472E+06   -57.471404E+06   344.828128E+06      -75.1663666       43.6622124
             2560   114.926248E+06   -57.477288E+06   -57.479488E+06    344.82016E+06  -8.25591895E+03       927.683228
             2561   114.942544E+06   -57.470704E+06   -57.470768E+06   344.828064E+06       299.891174      -6.79373217
             2562   114.944304E+06   -57.469564E+06   -57.471056E+06   344.828672E+06       584.846313       926.853455
             2563   114.942296E+06   -57.471504E+06   -57.471208E+06   344.827968E+06       53.8248367      -206.700317
             2564   114.942536E+06   -57.471208E+06    -57.47116E+06   344.828096E+06       76.1492004       24.5241070
             2565   114.942688E+06    -57.47136E+06   -57.471736E+06   344.828224E+06      -33.3877563      -8.46587944
             2566   114.937264E+06   -57.470708E+06   -57.474632E+06   344.831104E+06   1.63331091E+03      -711.309021
             2567   114.941376E+06   -57.471236E+06   -57.471508E+06    344.82736E+06       308.763794      -103.406738
             2568   114.942384E+06   -57.471696E+06   -57.471584E+06   344.828032E+06      -116.955879      -139.900131
             2569   114.941808E+06   -57.471392E+06   -57.471556E+06   344.827968E+06      -820.641479      -316.853241
             2570   114.943872E+06   -57.472676E+06     -57.4729E+06   344.827776E+06   1.01632751E+03   2.13789600E+03
             2571   114.941952E+06   -57.472052E+06      -57.472E+06   344.828032E+06      -227.886063      -131.510483
             2572   114.940728E+06   -57.469504E+06    -57.47108E+06   344.827168E+06      -161.080978  -1.40867297E+03
             2573   114.944832E+06   -57.469172E+06   -57.469484E+06    344.82784E+06       677.896729      -159.744553
             2574   114.943736E+06   -57.469896E+06    -57.46996E+06   344.827968E+06      -584.249390       72.1579056
             2575    114.94088E+06   -57.471544E+06     -57.4744E+06   344.830464E+06   4.36595703E+03      -494.755615
             2576    114.94248E+06   -57.470632E+06   -57.471876E+06   344.827712E+06       405.819916      -311.225342
             2577   114.954464E+06   -57.463504E+06   -57.464344E+06   344.828416E+06      -728.878906      -795.079712
             2578    114.93912E+06   -57.475236E+06    -57.47438E+06   344.827968E+06      -972.917358      -47.8732872
             2579   114.943456E+06   -57.471168E+06   -57.471432E+06   344.827648E+06       133.839005      -8.10030270
             2580   114.940928E+06   -57.471668E+06   -57.472044E+06   344.828096E+06       324.065887       171.102417
             2581   114.944688E+06    -57.47086E+06   -57.470776E+06   344.828384E+06      -307.340515      -465.922394
             2582    114.93984E+06    -57.47474E+06   -57.472832E+06   344.828096E+06      -776.878967      -743.087769
             2583   114.940888E+06   -57.473052E+06   -57.473144E+06   344.827968E+06       539.945068       489.511169
             2584   114.942792E+06   -57.471988E+06   -57.471748E+06    344.82816E+06      -172.607391      -211.836243
             2585     114.9454E+06    -57.46868E+06   -57.468792E+06   344.828576E+06      -399.396362       406.005035
             2586   114.940736E+06   -57.476568E+06   -57.474676E+06   344.827904E+06  -3.67640234E+03      -49.4336548
             2587   114.943456E+06   -57.471256E+06   -57.471328E+06   344.827872E+06      -63.9590454      -236.674774
             2588    114.93776E+06    -57.47476E+06   -57.474816E+06   344.828352E+06      -427.735809      -139.214752
             2589    114.94208E+06   -57.471256E+06   -57.471116E+06   344.828288E+06      -95.5270844       16.3651161
             2590   114.942784E+06   -57.471452E+06   -57.471212E+06   344.828384E+06       47.2672272       221.355042
             2591   114.938888E+06   -57.476916E+06   -57.476992E+06   344.832928E+06   8.02884717E+03      -150.755020
             2592   114.940696E+06     -57.4704E+06   -57.467824E+06   344.831072E+06       767.071411   1.96018408E+03
             2593   114.942584E+06   -57.471256E+06   -57.471408E+06   344.827776E+06       109.107407      -31.1260948
             2594   114.942304E+06   -57.471816E+06   -57.471784E+06   344.827968E+06      -188.082077      -151.604462
             2595   114.936384E+06   -57.475904E+06    -57.47648E+06    344.82928E+06      -632.520691       281.367126
             2596   114.943536E+06   -57.470068E+06   -57.469608E+06   344.827488E+06      -616.339050       171.463409
             2597   114.944304E+06    -57.47052E+06   -57.471368E+06   344.829024E+06      -201.965775       644.392456
             2598    114.94272E+06   -57.471252E+06    -57.47084E+06   344.828192E+06      -286.843933      -43.2753906
             2599   114.943104E+06    -57.47084E+06   -57.470908E+06   344.828064E+06       461.285309      -19.4962730
             2600   114.942728E+06   -57.471164E+06   -57.470648E+06    344.82752E+06      -246.073975      -267.797699
             2601   114.942768E+06   -57.470936E+06   -57.470976E+06    344.82784E+06      -95.3185501      -50.4007111
             2602    114.94304E+06   -57.471072E+06   -57.471096E+06   344.828352E+06       25.8607368       19.8522682
             2603   114.942464E+06   -57.471228E+06    -57.47104E+06      344.828E+06      -77.6414185      -135.603256
             2604   114.942896E+06   -57.471224E+06   -57.471304E+06   344.828224E+06       314.780212      -254.491394
             2605   114.942848E+06     -57.4698E+06   -57.469964E+06    344.82768E+06      -293.320862      -95.8253326
             2606   114.942416E+06   -57.471708E+06   -57.471616E+06     344.8272E+06      -472.863037       462.540649
             2607   114.942904E+06   -57.471312E+06   -57.471224E+06   344.827712E+06       180.229660       28.5091877
             2608   114.942608E+06   -57.470976E+06   -57.471168E+06   344.827968E+06       70.3958282       71.3572388
             2609   114.945856E+06   -57.469228E+06   -57.469544E+06   344.828032E+06       133.062378       374.349274
             2610   114.941744E+06   -57.472636E+06   -57.472112E+06   344.828064E+06       213.823669       572.797668
             2611   114.945904E+06   -57.472212E+06   -57.474172E+06   344.830464E+06      -329.803345      -262.143890
             2612    114.94264E+06   -57.471304E+06   -57.471056E+06   344.828448E+06      -165.930130      -326.793213
             2613   114.943776E+06    -57.47038E+06   -57.470648E+06   344.827744E+06       27.5432529      -185.859314
             2614   114.942688E+06    -57.47126E+06    -57.47084E+06   344.827744E+06      -720.757690      -66.4082336
             2615   114.941776E+06   -57.471812E+06    -57.47084E+06   344.828064E+06      -208.897247      -281.748169
             2616   114.943384E+06   -57.471524E+06   -57.472256E+06   344.828704E+06   1.16033301E+03       537.674683
             2617    114.94356E+06   -57.470696E+06    -57.47068E+06   344.827808E+06      -606.354004      -100.985085
             2618   114.944616E+06   -57.465232E+06    -57.46458E+06   344.827424E+06   3.11157764E+03   1.89668677E+03
             2619   114.947712E+06   -57.467556E+06   -57.468816E+06   344.828448E+06      -514.050049  -1.43730762E+03
             2620   114.940792E+06   -57.471948E+06   -57.472212E+06   344.827584E+06       57.1575317      -81.5453949
             2621   114.943232E+06   -57.471448E+06   -57.470388E+06   344.827776E+06       48.3198242       318.328735
             2622   114.943688E+06   -57.467552E+06   -57.470208E+06   344.828544E+06      -402.259735      -81.3722534
             2623   114.940648E+06   -57.472028E+06   -57.472596E+06   344.827712E+06      -454.893555   207.276344E-03
             2624   114.942496E+06   -57.471996E+06   -57.470992E+06   344.827712E+06      -639.130493      -191.721481
             2625   114.942688E+06   -57.471168E+06   -57.471272E+06   344.827968E+06      -24.2219086       106.363472
             2626   114.940416E+06   -57.472904E+06    -57.47312E+06   344.827584E+06      -34.6652832      -111.555969
             2627   114.940352E+06   -57.473208E+06    -57.47262E+06   344.829248E+06      -816.720032      -422.398865
             2628   114.939304E+06   -57.474696E+06   -57.473844E+06   344.827744E+06      -86.2114716       398.877869
             2629   114.943952E+06   -57.468616E+06   -57.470044E+06   344.828928E+06  -1.46772534E+03      -932.841797
             2630   114.944624E+06   -57.470552E+06   -57.472128E+06   344.829952E+06  -1.07153979E+03       305.631653
             2631   114.942856E+06   -57.472328E+06   -57.471536E+06    344.82816E+06       81.6759720       91.3593292
             2632   114.940624E+06   -57.475164E+06    -57.47368E+06   344.827392E+06      -395.085083      -21.1190948
             2633   114.957768E+06   -57.461008E+06   -57.461912E+06   344.827264E+06   1.83176440E+03  -1.37939172E+03
             2634   114.940072E+06    -57.47448E+06   -57.474436E+06   344.825024E+06       431.439423      -144.617462
             2635   114.943688E+06   -57.471744E+06   -57.470568E+06   344.827712E+06       578.835083      -48.2141113
             2636   114.934112E+06   -57.478904E+06   -57.477664E+06   344.825728E+06       201.875336      -831.923584
             2637   114.908104E+06    -57.49924E+06   -57.500008E+06   344.830208E+06   5.18132861E+03  -1.59863635E+03
             2638   114.945424E+06   -57.468528E+06   -57.469256E+06   344.828864E+06      -723.289063  -1.49413379E+03
             2639   114.940136E+06   -57.470836E+06   -57.470648E+06    344.82688E+06       464.198853       813.522705
             2640   114.942672E+06   -57.471156E+06   -57.471364E+06   344.828096E+06      -90.8189240      -39.9783859
             2641    114.94276E+06   -57.471036E+06    -57.47126E+06   344.828096E+06      -59.2193451      -138.378296
             2642   114.942728E+06   -57.471484E+06   -57.471448E+06   344.828224E+06      -68.4086227       47.2608032
             2643   114.943272E+06   -57.470164E+06   -57.470236E+06   344.827456E+06      -484.204285       90.3360596
             2644    114.94664E+06   -57.468584E+06   -57.468352E+06   344.828608E+06      -47.4928894      -494.846436
             2645   114.941456E+06    -57.46972E+06   -57.471304E+06   344.828672E+06       483.830688       239.849030
             2646   114.944688E+06   -57.466656E+06    -57.47018E+06   344.828608E+06       402.242828  -1.12810608E+03
             2647   114.943952E+06   -57.470268E+06   -57.469864E+06    344.82736E+06       12.3186340       110.396210
             2648   114.939384E+06   -57.472504E+06   -57.479328E+06   344.828032E+06       877.400513       851.769287
             2649    114.94184E+06   -57.471448E+06   -57.471664E+06      344.828E+06       200.722549      -16.4130592
             2650   114.943408E+06   -57.472268E+06   -57.471708E+06   344.828928E+06      -518.911499       231.960083
             2651   114.945896E+06   -57.467864E+06   -57.467588E+06   344.827936E+06      -187.401077      -488.193054
             2652   114.911464E+06    -57.49836E+06    -57.49144E+06   344.830464E+06  -10.4793770E+03   1.81812866E+03
             2653   114.940976E+06   -57.471736E+06   -57.472732E+06   344.830368E+06   1.29786426E+03       170.499619
             2654   114.945904E+06   -57.470528E+06    -57.46984E+06    344.82976E+06       971.327515      -803.628906
             2655   114.942632E+06     -57.4716E+06   -57.471784E+06   344.828864E+06      -278.600006      -109.116760
             2656   114.942384E+06   -57.471272E+06    -57.47108E+06      344.828E+06       13.8057070       104.314926
             2657    114.94264E+06   -57.472768E+06   -57.471376E+06   344.829376E+06  -1.56746533E+03       182.787689
             2658   114.946048E+06   -57.470832E+06   -57.470856E+06   344.828032E+06       198.335815      -501.888245
             2659   114.945552E+06   -57.469784E+06   -57.470056E+06   344.828832E+06       483.310394      -140.071136
             2660   114.942496E+06   -57.471468E+06   -57.471624E+06   344.828032E+06       7.58938980      -81.3120346
             2661   114.943056E+06   -57.458384E+06   -57.462912E+06   344.826208E+06       97.7698364  -1.26928784E+03
             2662    114.93904E+06   -57.474776E+06   -57.474832E+06   344.828096E+06      -661.424072       106.501297
             2663   114.942488E+06    -57.47138E+06    -57.47176E+06   344.829344E+06  -1.15494397E+03      -38.1525803
             2664    114.94264E+06   -57.470928E+06   -57.470896E+06   344.827552E+06      -516.145752       468.246094
             2665   114.939168E+06    -57.47314E+06   -57.473128E+06   344.827584E+06      -86.4359360      -134.778458
             2666      114.944E+06   -57.470856E+06   -57.471196E+06   344.828384E+06       734.938538       5.76048470
             2667    114.94712E+06    -57.46694E+06    -57.46798E+06   344.827584E+06       308.171814       48.7123985
             2668   114.943824E+06   -57.471872E+06    -57.47248E+06     344.8288E+06       139.848923       198.057632
             2669   114.945936E+06   -57.466208E+06   -57.467292E+06   344.827584E+06      -135.258209      -8.79253769
             2670   114.942144E+06      -57.472E+06   -57.471736E+06      344.828E+06      -246.220398      -210.754120
             2671   114.941568E+06   -57.473128E+06   -57.471864E+06    344.82864E+06      -359.633514      -277.980591
             2672    114.94128E+06    -57.47158E+06     -57.4722E+06   344.828384E+06       166.812469      -283.106445
             2673   114.942664E+06   -57.470976E+06   -57.471444E+06   344.828608E+06      -186.149506      -249.240860
             2674   114.934352E+06    -57.47932E+06    -57.48024E+06   344.832608E+06   3.65067065E+03      -663.501465
             2675   114.927024E+06    -57.47086E+06   -57.465856E+06   344.826816E+06      -426.061371  -1.99068799E+03
             2676    114.94264E+06    -57.46996E+06   -57.471964E+06   344.827712E+06   1.72415808E+03      -528.153687
             2677   114.958976E+06   -57.454308E+06      -57.459E+06   344.823168E+06  -2.39185205E+03       635.028076
             2678   114.953048E+06     -57.4638E+06    -57.46288E+06   344.827392E+06  -1.02060132E+03      -685.628540
             2679   114.941576E+06   -57.473008E+06    -57.47232E+06    344.82896E+06      -78.6194458      -711.061462
             2680   114.942968E+06   -57.473708E+06   -57.472416E+06   344.827136E+06      -773.863098  -1.47863977E+03
             2681   114.943648E+06   -57.474468E+06   -57.472912E+06    344.82784E+06      -10.2668457  -1.27943457E+03
             2682   114.953368E+06    -57.45774E+06   -57.456808E+06   344.827904E+06   1.59370557E+03   2.87853735E+03
             2683   114.942312E+06    -57.47118E+06   -57.471312E+06   344.827904E+06       57.9371529      -119.527679
             2684   114.942336E+06   -57.472016E+06   -57.472256E+06   344.828768E+06      -898.396729       242.934357
             2685   114.942512E+06   -57.469368E+06   -57.470136E+06   344.827808E+06       363.924896       194.830627
             2686   114.945768E+06   -57.468772E+06   -57.469008E+06   344.827648E+06      -356.485077       196.898956
             2687    114.95176E+06   -57.454808E+06   -57.463784E+06   344.820608E+06       586.329163   6.52035059E+03
             2688   114.946552E+06   -57.468936E+06    -57.47102E+06   344.828928E+06       640.899231      -590.542908
             2689   114.946592E+06   -57.479504E+06    -57.47506E+06   344.828544E+06  -2.20562817E+03  -1.07952539E+03
             2690   114.942744E+06   -57.470956E+06   -57.472636E+06   344.826176E+06       295.895081      -877.226685
             2691   114.944976E+06   -57.468736E+06   -57.472848E+06   344.832768E+06   3.75436401E+03       351.019348
             2692   114.957504E+06   -57.454932E+06   -57.459488E+06   344.827168E+06   2.26931934E+03   4.02305054E+03
             2693   114.940496E+06   -57.472584E+06   -57.471672E+06   344.827488E+06      -275.178589      -136.396637
             2694   114.942808E+06   -57.471032E+06   -57.471028E+06   344.828192E+06       87.4824219      -422.447144
             2695   114.942272E+06     -57.4705E+06   -57.469732E+06    344.82832E+06      -894.362183      -179.894196
             2696   114.942296E+06    -57.47292E+06    -57.47258E+06   344.828928E+06      -119.299347      -238.493851
             2697    114.94116E+06   -57.471824E+06   -57.471896E+06   344.827392E+06      -82.0719070       551.410217
             2698   114.937448E+06   -57.476108E+06   -57.475612E+06   344.828736E+06      -752.191772       359.049622
             2699   114.942688E+06   -57.471328E+06   -57.471164E+06   344.827968E+06      -32.8637390      -162.672302
             2700   114.885152E+06     -57.5156E+06   -57.521512E+06    344.84544E+06   4.80321631E+03   3.58088306E+03
             2701   114.938576E+06    -57.47198E+06   -57.473888E+06   344.828992E+06   1.01369092E+03      -178.829559
             2702   114.942512E+06    -57.47236E+06   -57.472068E+06   344.828672E+06      -485.253143       25.4801903
             2703   114.941472E+06   -57.472748E+06   -57.472228E+06   344.827584E+06      -492.941132      -330.379395
             2704    114.94288E+06   -57.470972E+06   -57.471376E+06   344.827776E+06       135.829895       61.1215820
             2705   114.941936E+06    -57.47272E+06   -57.471872E+06   344.828064E+06       17.4520988      -331.015869
             2706   114.942816E+06   -57.471372E+06    -57.47152E+06   344.828192E+06      -263.933075      -1.60818958
             2707   114.942672E+06   -57.471344E+06   -57.471364E+06   344.827936E+06       106.831367       276.238312
             2708    114.94352E+06    -57.47208E+06   -57.472176E+06   344.827904E+06       54.5862885       273.614990
             2709   114.945808E+06      -57.469E+06   -57.469004E+06   344.827072E+06      -584.043579       514.648804
             2710   114.940576E+06   -57.470704E+06    -57.47384E+06   344.826816E+06  -1.07315356E+03       305.414429
             2711   114.948424E+06   -57.469396E+06   -57.470964E+06   344.831744E+06  -2.11795947E+03  -1.33728430E+03
             2712    114.94256E+06   -57.471872E+06   -57.471608E+06    344.82768E+06      -140.568787      -44.0655060
             2713   114.939032E+06   -57.471216E+06   -57.473476E+06    344.82912E+06      -851.743530      -988.042236
             2714   114.942624E+06   -57.471236E+06   -57.471408E+06   344.828096E+06       54.0529022       50.0460472
             2715   114.938576E+06   -57.473904E+06   -57.474732E+06   344.826144E+06       315.057922   1.02213086E+03
             2716   114.942352E+06   -57.471088E+06   -57.471368E+06   344.827904E+06      -227.948822      -204.250168
             2717   114.943248E+06   -57.470312E+06   -57.470992E+06   344.826976E+06      -98.3121338       12.8954010
             2718   114.942824E+06   -57.471596E+06   -57.471272E+06   344.828064E+06       214.169098       11.3256207
             2719   114.942848E+06   -57.471056E+06    -57.47132E+06    344.82816E+06       9.17052269       360.443298
             2720    114.94168E+06   -57.469956E+06   -57.471072E+06   344.827008E+06       949.398132      -341.941254
             2721    114.94268E+06   -57.472376E+06   -57.471848E+06   344.828768E+06      -176.976715      -125.983154
             2722   114.936664E+06   -57.475608E+06   -57.475504E+06   344.827456E+06   1.61332336E+03      -371.646606
             2723   114.941712E+06   -57.471744E+06   -57.471844E+06   344.828384E+06       330.761078      -492.204651
             2724   114.944224E+06   -57.470868E+06   -57.470472E+06   344.827872E+06       539.975342       459.890015
             2725    114.94532E+06    -57.46998E+06   -57.469936E+06   344.827584E+06      -208.694611      -463.358734
             2726    114.93208E+06   -57.479216E+06   -57.480756E+06   344.831264E+06      -432.494293      -966.752563
             2727   114.941496E+06   -57.471948E+06   -57.471056E+06   344.827168E+06      -416.681030      -11.6981506
             2728   114.948448E+06   -57.464648E+06    -57.46858E+06   344.829376E+06      -744.340027       264.104828
             2729    114.94232E+06   -57.471152E+06   -57.471464E+06      344.828E+06      -12.6483049       69.9476166
             2730   114.942032E+06    -57.47148E+06   -57.471548E+06    344.82816E+06       141.880920       252.869965
             2731   114.940456E+06   -57.475308E+06    -57.47504E+06   344.826112E+06      -434.152710  -4.14245850E+03
             2732     114.9424E+06   -57.471336E+06   -57.471204E+06   344.828032E+06       87.6447678       130.514801
             2733   114.946008E+06   -57.470152E+06   -57.470892E+06   344.829024E+06   3.25952051E+03   1.37546436E+03
             2734   114.942552E+06   -57.472352E+06    -57.47224E+06   344.827904E+06      -262.643616       647.181091
             2735   114.941424E+06   -57.472956E+06   -57.472352E+06   344.828032E+06       815.642700      -51.7474442
             2736   114.943248E+06    -57.47058E+06   -57.470188E+06   344.829344E+06  -1.27806018E+03  -1.19047888E+03
             2737   114.941728E+06   -57.471808E+06   -57.471776E+06   344.827776E+06      -186.854736      -506.673553
             2738   114.943064E+06   -57.471736E+06   -57.471804E+06   344.827968E+06      -16.7599258      -25.7951546
             2739   114.946384E+06    -57.46756E+06    -57.46816E+06    344.82784E+06      -779.514465      -346.141663
             2740   114.941728E+06   -57.470448E+06   -57.471228E+06   344.829024E+06       313.450287       485.657532
             2741    114.94504E+06   -57.469624E+06   -57.469092E+06    344.82864E+06       352.739441       34.4380112
             2742   114.942528E+06   -57.470816E+06   -57.471232E+06   344.828032E+06       83.5450211      -184.531204
             2743   114.937136E+06   -57.472744E+06   -57.467124E+06   344.821856E+06      -534.641479      -587.171509
             2744   114.940816E+06   -57.473552E+06   -57.476384E+06   344.827264E+06      -98.6943970      -762.512329
             2745   114.942128E+06   -57.482608E+06   -57.486376E+06   344.832256E+06       397.561890  -2.11682617E+03
             2746   114.949456E+06   -57.469748E+06   -57.471352E+06   344.830016E+06       433.721771       252.541870
             2747   114.940232E+06   -57.473636E+06   -57.476868E+06   344.831136E+06      -820.061890  -1.36831348E+03
             2748   114.942024E+06   -57.473316E+06   -57.472852E+06     344.8288E+06      -56.3447876      -287.768005
             2749   114.946872E+06   -57.467336E+06    -57.46826E+06   344.829056E+06       114.902321      -309.762238
             2750    114.92816E+06   -57.482324E+06   -57.482032E+06   344.829248E+06   3.86553149E+03      -162.803040
             2751   114.946536E+06   -57.467984E+06   -57.469092E+06   344.830848E+06  -4.30646533E+03       376.148163
             2752    114.94428E+06   -57.471888E+06   -57.470816E+06   344.830944E+06   1.01348657E+03       69.6104126
             2753   114.929568E+06   -57.477688E+06    -57.47246E+06   344.824288E+06   2.69197363E+03   1.15734290E+03
             2754   114.940808E+06   -57.472188E+06   -57.471572E+06    344.82624E+06       182.565811       261.452026
             2755   114.953576E+06   -57.466012E+06   -57.468788E+06   344.830496E+06       625.702698      -145.061951
             2756   114.946032E+06   -57.467876E+06    -57.46756E+06   344.826336E+06       499.827881      -251.916412
             2757    114.94084E+06   -57.473324E+06    -57.47224E+06   344.828096E+06      -879.610168      -152.814148
             2758   114.942528E+06   -57.471444E+06   -57.471512E+06      344.828E+06      -871.336792      -76.3822327
             2759   114.944816E+06   -57.468424E+06   -57.469348E+06   344.828544E+06       64.7681656       66.4994202
             2760   114.945952E+06   -57.469512E+06   -57.471024E+06   344.829728E+06       178.832672      -486.989746
             2761   114.943952E+06   -57.470056E+06   -57.470148E+06   344.827552E+06      -353.901001      -150.115723
             2762     114.9428E+06    -57.47052E+06   -57.471004E+06   344.827968E+06       49.3255310       24.9632416
             2763   114.946224E+06   -57.467476E+06   -57.468372E+06   344.827008E+06      -185.451660      -98.7813416
             2764   114.943984E+06   -57.469084E+06   -57.469932E+06   344.828288E+06       11.4063644      -379.640259
             2765   114.919368E+06   -57.490132E+06   -57.489128E+06   344.826944E+06   1.96281702E+03       15.6136780
             2766   114.885488E+06   -57.518088E+06    -57.51632E+06    344.82976E+06      -420.034058      -964.599365
             2767    114.94496E+06   -57.470772E+06   -57.470972E+06   344.828352E+06       669.220581      -128.471848
             2768   114.935232E+06   -57.479048E+06   -57.476996E+06    344.82912E+06      -443.030090       279.451111
             2769   114.942368E+06   -57.470388E+06   -57.470912E+06    344.82784E+06       732.044434       967.411987
             2770   114.942248E+06   -57.472044E+06   -57.471684E+06   344.828768E+06       534.555786       68.2065048
             2771   114.940608E+06   -57.471384E+06    -57.47098E+06   344.826976E+06      -675.344360      -68.9293289
             2772    114.94172E+06   -57.470872E+06   -57.471584E+06   344.827776E+06      -283.056641      -456.148865
             2773   114.944408E+06   -57.469152E+06   -57.470368E+06    344.82656E+06      -449.650574      -745.618164
             2774   114.940848E+06   -57.471376E+06   -57.471192E+06   344.827456E+06      -195.481171      -692.446350
             2775   114.941208E+06   -57.472928E+06   -57.473984E+06    344.82784E+06      -573.151001      -229.197769
             2776   114.943504E+06     -57.4705E+06   -57.470624E+06   344.831968E+06   3.23034375E+03       948.767639
             2777    114.89884E+06    -57.50696E+06   -57.505524E+06    344.82848E+06       768.053345       889.330750
             2778   114.885392E+06   -57.509192E+06    -57.50992E+06   344.829152E+06   6.87142383E+03       610.043579
             2779    114.94184E+06   -57.472236E+06   -57.471784E+06   344.826176E+06      -19.6616135       356.184448
             2780   114.944024E+06   -57.469872E+06    -57.47024E+06   344.827968E+06      -7.42263031      -63.7030106
             2781   114.942056E+06    -57.47004E+06    -57.47096E+06   344.827744E+06       182.130325      -152.078308
             2782   114.941816E+06   -57.472288E+06   -57.474112E+06   344.830336E+06       18.4869843       158.776047
             2783   114.941576E+06   -57.472988E+06   -57.471704E+06   344.826688E+06  -1.35973962E+03      -454.179138
             2784   114.973336E+06   -57.452176E+06   -57.452536E+06   344.828032E+06  -8.17142383E+03   1.00335364E+03
             2785    114.94296E+06   -57.469144E+06   -57.471336E+06    344.82672E+06       108.634323       879.928101
             2786   114.943912E+06   -57.469996E+06   -57.469696E+06    344.82688E+06      -398.467102       317.912170
             2787   114.953752E+06   -57.467188E+06   -57.464128E+06   344.824704E+06  -2.22688477E+03      -865.790833
             2788   114.941712E+06   -57.466416E+06   -57.468504E+06   344.827872E+06       770.499146       229.405975
             2789    114.94092E+06   -57.471796E+06   -57.471984E+06   344.828288E+06       351.385162       299.517029
             2790    114.94592E+06   -57.465696E+06   -57.466572E+06    344.82624E+06      -48.5648193  -2.30373999E+03
             2791   114.933784E+06   -57.469568E+06   -57.478076E+06   344.828864E+06       397.973999   1.64438086E+03
             2792   114.941296E+06   -57.474172E+06   -57.472552E+06   344.827072E+06       610.997192   1.10587524E+03
             2793   114.935824E+06   -57.472404E+06   -57.474084E+06    344.83056E+06      -373.785400       882.483337
             2794    114.94296E+06    -57.47088E+06   -57.473016E+06   344.827424E+06      -933.548462       182.756912
             2795   114.945272E+06   -57.469904E+06   -57.468296E+06   344.827136E+06       751.613342      -905.799194
             2796    114.94456E+06   -57.467288E+06   -57.468456E+06    344.82864E+06      -155.376923      -866.828857
             2797   114.942912E+06   -57.471372E+06   -57.471448E+06   344.828128E+06       136.473480   145.515442E-03
             2798      114.935E+06   -57.480644E+06   -57.478668E+06     344.8272E+06       74.8853455       501.745850
             2799   114.947008E+06   -57.468248E+06    -57.46832E+06   344.828576E+06       719.744873       749.762756
             2800   114.941048E+06   -57.473176E+06   -57.473512E+06    344.83104E+06       268.396545       46.7802734
             2801    114.93776E+06    -57.47744E+06   -57.474164E+06   344.828672E+06      -396.102386      -849.991455
             2802   114.943744E+06   -57.472336E+06   -57.470712E+06    344.82816E+06      -176.359161      -184.211823
             2803   114.949832E+06   -57.465304E+06   -57.465228E+06   344.828288E+06       344.091187      -994.036743
             2804    114.93848E+06   -57.475692E+06   -57.474204E+06     344.8272E+06      -699.271362      -876.061157
             2805   114.947168E+06   -57.466576E+06    -57.46678E+06   344.827808E+06  -1.02266724E+03  -1.43811487E+03
             2806   114.947552E+06   -57.466544E+06   -57.468488E+06   344.828032E+06       953.705994       261.614655
             2807   114.940048E+06   -57.472916E+06    -57.47216E+06   344.827936E+06      -757.369263      -726.219299
             2808   114.946032E+06   -57.464608E+06   -57.463192E+06   344.821568E+06  -3.73676855E+03      -784.518250
             2809   114.942416E+06   -57.471552E+06   -57.471276E+06   344.827968E+06       36.8163643      -37.7559052
             2810   114.941808E+06   -57.472216E+06   -57.472072E+06   344.828032E+06       99.9376755      -40.6575279
             2811   114.940216E+06   -57.473044E+06   -57.472676E+06   344.829472E+06   1.60512695E+03  -1.70014087E+03
             2812   114.934576E+06   -57.479492E+06   -57.477312E+06   344.826912E+06      -562.304871       36.1873779
             2813   114.944592E+06   -57.475364E+06   -57.472936E+06   344.826912E+06  -2.89702100E+03       456.206055
             2814   114.944288E+06   -57.469376E+06    -57.46968E+06   344.828512E+06      -177.789429      -755.159973
             2815   114.942472E+06   -57.471348E+06   -57.473128E+06   344.829248E+06       421.561035      -189.390564
             2816   115.001632E+06   -57.416256E+06   -57.417408E+06    344.81824E+06   7.32111035E+03   1.32136462E+03
             2817   114.943016E+06   -57.470512E+06   -57.471784E+06    344.82928E+06      -421.462769      -201.627609
             2818    114.94252E+06   -57.471284E+06   -57.471576E+06   344.828064E+06      -7.86383533      -137.255844
             2819   114.941424E+06   -57.471064E+06   -57.470556E+06    344.82496E+06       877.156860      -379.237427
             2820   114.929304E+06   -57.493984E+06   -57.493184E+06   344.844608E+06   4.76094824E+03       739.306396
             2821   114.942896E+06   -57.470968E+06   -57.471268E+06   344.828096E+06       113.748871      -105.367828
             2822   114.943008E+06    -57.47212E+06   -57.471756E+06   344.827904E+06      -223.408417      -483.418457
             2823    114.94176E+06      -57.471E+06   -57.470728E+06   344.828224E+06      -660.337219       327.403351
             2824   114.942792E+06   -57.471844E+06    -57.47098E+06   344.826816E+06      -7.82144165      -5.51147842
             2825   114.942368E+06   -57.471496E+06   -57.471632E+06   344.828416E+06       252.770782       261.127411
             2826      114.939E+06    -57.47644E+06    -57.47484E+06    344.82912E+06       183.866623       954.600403
             2827   114.942136E+06   -57.471744E+06   -57.471468E+06   344.828096E+06      -227.587173       296.907166
             2828    114.94276E+06   -57.471288E+06   -57.471224E+06   344.828032E+06       94.4904938       112.898483
             2829   114.941648E+06   -57.471744E+06   -57.472128E+06   344.827744E+06       49.1242676      -27.5292015
             2830   114.945472E+06    -57.46776E+06   -57.469072E+06   344.827808E+06      -53.6858521   1.24515308E+03
             2831   114.944128E+06    -57.46664E+06    -57.46954E+06   344.827232E+06       152.662903       264.260925
             2832    114.94128E+06   -57.471704E+06   -57.472904E+06    344.83056E+06      -272.395752      -301.948181
             2833   114.943392E+06   -57.470336E+06   -57.470684E+06   344.828224E+06       33.5591049      -145.188843
             2834   114.937336E+06   -57.489128E+06   -57.487788E+06   344.829312E+06  -4.04210645E+03   1.02834204E+03
             2835   114.947512E+06   -57.465916E+06    -57.46816E+06   344.828224E+06       617.119019       790.510498
             2836   114.940872E+06    -57.47326E+06    -57.47232E+06   344.827776E+06      -529.803833      -250.343933
             2837   114.947456E+06   -57.464316E+06    -57.46608E+06   344.828096E+06      -1.67774963       203.294891
             2838   114.943728E+06    -57.47082E+06   -57.470372E+06   344.827968E+06      -156.503403       68.9984283
             2839   114.942736E+06    -57.47498E+06   -57.471432E+06   344.835168E+06   1.58692908E+03      -36.0261230
             2840   114.965552E+06   -57.450932E+06   -57.458432E+06   344.833216E+06   2.69211255E+03   1.45758459E+03
             2841   114.942872E+06    -57.47124E+06   -57.471456E+06   344.828256E+06       300.097290       272.240631
             2842    114.94048E+06    -57.47154E+06   -57.473468E+06     344.8296E+06       249.993500      -21.7910156
             2843   114.942064E+06   -57.472612E+06   -57.472244E+06   344.828192E+06      -266.984283       53.1385002
             2844   114.941568E+06   -57.471784E+06   -57.471984E+06   344.827872E+06       347.108582       209.457886
             2845   114.943184E+06   -57.470792E+06   -57.471392E+06   344.828256E+06       109.471375       349.119415
             2846   114.956616E+06     -57.4743E+06     -57.4622E+06    344.82368E+06  -11.6959297E+03   2.14219897E+03
             2847   114.932568E+06   -57.469296E+06   -57.474624E+06   344.829824E+06       694.223206       601.860046
             2848    114.94416E+06   -57.470116E+06   -57.470192E+06   344.828224E+06      -104.433334       239.682236
             2849   114.930192E+06   -57.475816E+06   -57.487172E+06     344.8392E+06   1.84370227E+03   1.16505444E+03
             2850    114.94256E+06   -57.471528E+06   -57.471732E+06   344.828224E+06       243.643250      -147.291016
             2851   114.943088E+06   -57.470164E+06   -57.470344E+06   344.827712E+06       396.165802      -125.778564
             2852   114.934528E+06   -57.474752E+06     -57.4772E+06   344.833472E+06  -4.96646143E+03   3.82622534E+03
             2853   114.943328E+06   -57.470988E+06   -57.470232E+06   344.828832E+06       266.569061       521.211426
             2854   114.942784E+06   -57.472648E+06   -57.471668E+06   344.827264E+06       784.745361      -900.216553
             2855   114.942544E+06   -57.471272E+06   -57.470704E+06   344.827392E+06       90.6468048       826.774475
             2856   114.955216E+06   -57.466124E+06   -57.470244E+06   344.830976E+06  -1.01659167E+03      -468.906525
             2857      114.943E+06   -57.472644E+06   -57.469804E+06   344.829184E+06   1.72488599E+03       179.062683
             2858   114.944128E+06   -57.471484E+06   -57.469724E+06   344.827328E+06       105.735046       851.188599
             2859   114.952312E+06   -57.463368E+06   -57.473968E+06   344.826528E+06  -1.06970801E+03  -1.19534644E+03
             2860   114.945728E+06   -57.468964E+06   -57.468208E+06    344.82768E+06   1.41918481E+03  -1.78643054E+03
             2861    114.94444E+06   -57.470728E+06   -57.473492E+06      344.828E+06  -1.28589600E+03       548.791626
             2862      114.936E+06   -57.475544E+06   -57.476492E+06   344.828736E+06       866.875183       594.586609
             2863   114.955776E+06   -57.469124E+06   -57.459104E+06   344.827264E+06   2.65771484E+03  -1.93032410E+03
             2864   114.945376E+06   -57.471088E+06   -57.468852E+06   344.827584E+06       520.375366       230.262177
             2865   114.942776E+06   -57.474172E+06   -57.472464E+06    344.82912E+06   -1.5035625E+03      -719.885254
             2866   114.946016E+06   -57.469016E+06   -57.469192E+06   344.828032E+06   1.64666040E+03       614.178955
             2867   114.941984E+06   -57.466352E+06   -57.466288E+06   344.828096E+06   1.03212573E+03   2.64676343E+03
             2868   114.939616E+06   -57.473116E+06   -57.473832E+06   344.828096E+06   1.81007617E+03      -387.055603
             2869   114.942616E+06   -57.473608E+06   -57.473776E+06   344.830272E+06       17.5169525       243.938263
             2870   114.947352E+06   -57.463908E+06   -57.462876E+06    344.82624E+06       589.302368      -42.4070587
             2871   114.942816E+06   -57.471344E+06   -57.471124E+06   344.827968E+06       30.4882851      -89.0431061
             2872   114.946864E+06   -57.466664E+06   -57.467468E+06   344.827968E+06       399.207672       44.4803696
             2873   114.942256E+06   -57.471516E+06   -57.472032E+06   344.827808E+06      -661.524048       528.312439
             2874   114.934664E+06   -57.481132E+06   -57.478184E+06   344.828288E+06       963.763550      -338.459198
             2875   114.944016E+06   -57.465028E+06     -57.4681E+06   344.828864E+06  -2.27436279E+03       71.0130997
             2876   114.954208E+06   -57.462776E+06   -57.461952E+06   344.830304E+06   1.25688965E+03      -117.602501
             2877   114.941408E+06   -57.472136E+06     -57.4716E+06    344.82816E+06      -304.587799       423.242676
             2878    114.94616E+06   -57.467328E+06    -57.46864E+06   344.828352E+06       42.4068527      -235.691116
             2879   114.942584E+06   -57.469512E+06    -57.47086E+06   344.827296E+06       228.654922       272.402618
             2880   114.949728E+06    -57.46768E+06    -57.47136E+06   344.828192E+06  -3.40299976E+03  -2.89265845E+03
             2881   114.938496E+06   -57.475536E+06   -57.475012E+06     344.8288E+06       543.398438       536.901672
             2882    114.94216E+06   -57.472132E+06   -57.472088E+06   344.828384E+06       325.346924      -203.696747
             2883    114.93832E+06   -57.475496E+06   -57.474976E+06    344.82832E+06       220.942535       285.952606
             2884   114.937192E+06   -57.476932E+06    -57.47528E+06   344.828544E+06      -681.690857   1.23919629E+03
             2885   114.947808E+06   -57.467448E+06   -57.467568E+06   344.827264E+06       670.949341       51.9754791
             2886   114.939616E+06   -57.475212E+06   -57.474336E+06   344.828544E+06       548.608765       860.187805
             2887   114.944568E+06    -57.46998E+06   -57.469548E+06    344.83008E+06      -257.659973       803.171997
             2888   114.923168E+06   -57.488828E+06    -57.48776E+06    344.83136E+06      -767.669556  -1.59858264E+03
             2889   114.942848E+06    -57.47018E+06   -57.468712E+06   344.825312E+06       63.1842804       534.127563
             2890   114.939824E+06   -57.473376E+06   -57.473764E+06   344.828768E+06      -186.904327       681.772156
             2891   114.944456E+06    -57.46644E+06   -57.467868E+06   344.827328E+06      -692.562012      -95.1080627
             2892   114.932584E+06   -57.481948E+06     -57.4758E+06   344.832736E+06  -3.15518848E+03  -3.17290405E+03
             2893   114.942944E+06   -57.471484E+06    -57.46948E+06   344.824288E+06  -1.32814209E+03       731.902039
             2894   114.939608E+06   -57.473788E+06    -57.47256E+06   344.830144E+06   4.54110254E+03  -2.11550952E+03
             2895   114.945984E+06   -57.466024E+06    -57.46856E+06   344.827808E+06       742.647949       258.441956
             2896   114.955632E+06   -57.467668E+06   -57.469568E+06   344.826528E+06   1.64984717E+03       698.550049
             2897   114.941912E+06    -57.47168E+06   -57.471584E+06   344.827872E+06       128.056366      -318.654724
             2898   114.942776E+06   -57.470772E+06   -57.471012E+06    344.82816E+06      -114.742783      -131.130936
             2899   114.956504E+06    -57.45392E+06   -57.453936E+06   344.824032E+06       557.440674   1.09306226E+03
             2900   114.940224E+06   -57.465452E+06   -57.467444E+06   344.827072E+06   3.34178003E+03   3.28612012E+03
             2901   114.942456E+06   -57.470212E+06   -57.465968E+06   344.827456E+06   1.35418994E+03       365.204956
             2902   114.949728E+06   -57.469176E+06   -57.467336E+06    344.82656E+06      -936.462952   1.08402087E+03
             2903    114.94128E+06   -57.467096E+06   -57.470268E+06   344.828096E+06       834.805237       501.090515
             2904   114.954032E+06    -57.46162E+06   -57.459928E+06   344.824128E+06   2.78852173E+03       691.188904
             2905   114.949088E+06   -57.463144E+06   -57.462124E+06   344.824448E+06  -1.65018994E+03       268.190765
             2906   114.928496E+06   -57.478304E+06   -57.472568E+06   344.829984E+06   1.44017114E+03       577.146118
             2907   114.943552E+06   -57.470704E+06    -57.47024E+06   344.828192E+06      -599.511414      -528.958008
             2908   114.940512E+06   -57.464528E+06   -57.467808E+06   344.823584E+06       557.986572       22.2984619
             2909   114.942952E+06   -57.470928E+06    -57.47152E+06   344.828096E+06      -104.141121       30.6170235
             2910    114.94036E+06   -57.472644E+06    -57.47228E+06    344.82704E+06      -399.692871      -33.9634743
             2911   114.942528E+06   -57.471484E+06   -57.471112E+06    344.82784E+06       22.7242146      -139.050369
             2912    114.94264E+06   -57.471464E+06   -57.471412E+06   344.827968E+06      -50.3572922       64.4935150
             2913   114.986952E+06   -57.440972E+06   -57.438944E+06   344.828608E+06   2.40715356E+03   1.98742517E+03
             2914   114.943616E+06   -57.469752E+06   -57.470096E+06    344.82624E+06      -359.429749       191.132889
             2915   114.942624E+06   -57.472224E+06   -57.472448E+06   344.828928E+06      -411.981384      -211.101181
             2916   114.944568E+06    -57.46888E+06    -57.47024E+06    344.82816E+06       565.103638       517.122009
             2917   114.941632E+06   -57.473892E+06    -57.47308E+06    344.82768E+06       168.773163      -225.742950
             2918   114.943144E+06    -57.47074E+06    -57.47088E+06   344.828128E+06       165.971100      -32.7377625
             2919   114.941096E+06   -57.472108E+06   -57.472224E+06   344.828704E+06       12.4357147       44.4848709
             2920   114.942512E+06   -57.471624E+06   -57.471328E+06   344.828352E+06       25.2883759      -195.541245
             2921   114.945152E+06   -57.468168E+06   -57.469144E+06   344.827968E+06       494.167114      -474.151031
             2922   114.947312E+06   -57.468852E+06   -57.470552E+06   344.829152E+06      -257.878235  -1.10165051E+03
             2923   114.943784E+06   -57.469768E+06   -57.469648E+06   344.827328E+06       143.728760      -343.004883
             2924   114.942704E+06   -57.470828E+06    -57.47136E+06   344.828032E+06      -67.7252197      -4.50407600
             2925   114.941936E+06   -57.471812E+06   -57.471744E+06   344.828224E+06       444.160339      -89.6084671
             2926    114.94376E+06   -57.471556E+06   -57.470672E+06   344.826944E+06      -108.204651       32.3278580
             2927   114.942432E+06   -57.471496E+06   -57.471124E+06   344.828064E+06       158.454910       84.3048706
             2928   114.944016E+06   -57.470312E+06   -57.469576E+06   344.827648E+06       467.157318       98.4728241
             2929   114.942008E+06   -57.469064E+06   -57.471608E+06   344.827168E+06       28.3915329       229.135834
             2930   114.942024E+06   -57.469772E+06   -57.470592E+06   344.828032E+06  -1.00694885E+03   1.51181384E+03
             2931   114.941872E+06   -57.471588E+06   -57.471688E+06    344.82816E+06       10.3826332       86.9215088
             2932   114.943248E+06   -57.470808E+06   -57.470656E+06   344.828096E+06      -937.959473       138.602814
             2933   114.933096E+06   -57.494408E+06   -57.490924E+06   344.834272E+06  -5.00458252E+03       342.612183
             2934   114.943336E+06   -57.469932E+06   -57.470664E+06   344.827488E+06      -654.432739       210.005386
             2935   114.945776E+06    -57.46788E+06    -57.46908E+06   344.828416E+06      -91.6791992      -267.187073
             2936    114.94712E+06   -57.465384E+06    -57.46918E+06   344.828096E+06      -902.113831      -951.987610
             2937    114.94228E+06   -57.471632E+06   -57.473144E+06    344.82944E+06      -207.243622      -268.143219
             2938   114.940912E+06   -57.472116E+06   -57.472184E+06    344.82784E+06   1.07914380E+03       60.6799393
             2939   114.949496E+06   -57.467568E+06     -57.4659E+06    344.82624E+06   1.49239246E+03      -718.817078
             2940   114.945192E+06   -57.470032E+06   -57.470276E+06   344.828416E+06       765.591675       152.003647
             2941   114.945856E+06   -57.468848E+06    -57.46972E+06     344.8272E+06      -6.04943419       762.338440
             2942   114.945096E+06   -57.466208E+06   -57.471184E+06   344.825088E+06      -971.323975   1.23332715E+03
             2943   114.940928E+06   -57.471324E+06   -57.471784E+06   344.827264E+06      -352.438568      -133.532608
             2944    114.94992E+06   -57.467176E+06   -57.467076E+06   344.828704E+06       547.005371      -208.982834
             2945   114.942824E+06     -57.4703E+06   -57.470732E+06     344.8272E+06  -1.56766931E+03      -173.773315
             2946   114.944592E+06   -57.471336E+06   -57.467384E+06   344.827456E+06       762.677002       368.228638
             2947   114.940608E+06    -57.47258E+06   -57.472384E+06   344.828352E+06       326.179321       147.057770
             2948   114.943472E+06   -57.471336E+06     -57.4711E+06   344.828096E+06       50.9640007      -83.5229492
             2949   114.943312E+06     -57.4781E+06   -57.471912E+06   344.828064E+06       262.613586       197.251266
             2950   114.940944E+06   -57.472264E+06   -57.472952E+06   344.827616E+06      -360.868591      -9.84654903
             2951   114.938824E+06   -57.471832E+06   -57.471256E+06   344.831168E+06       565.492004      -981.347717
             2952   114.942616E+06   -57.471656E+06   -57.471248E+06   344.827968E+06       50.1932678      -6.78810883
             2953   114.940976E+06   -57.473712E+06   -57.471208E+06   344.825344E+06      -301.749329       267.809601
             2954    114.94384E+06     -57.4734E+06   -57.476376E+06   344.833184E+06       342.084808   1.34368677E+03
             2955   114.943408E+06   -57.470636E+06   -57.471168E+06   344.828512E+06       29.6123047       249.278809
             2956   114.942128E+06   -57.468456E+06   -57.470852E+06   344.827616E+06      -452.066101      -214.901428
             2957   114.945088E+06    -57.46564E+06   -57.467416E+06   344.826144E+06  -1.21664856E+03      -219.663132
             2958    114.92976E+06   -57.471032E+06    -57.47644E+06    344.82976E+06   4.73353613E+03   4.19210156E+03
             2959    114.94276E+06   -57.471616E+06    -57.47136E+06   344.827872E+06      -30.3747883       1.37326336
             2960    114.94248E+06   -57.471676E+06   -57.471308E+06   344.827936E+06       19.8624191      -385.976013
             2961   114.965864E+06   -57.455524E+06   -57.458508E+06   344.830272E+06       353.709351      -987.595154
             2962   114.943008E+06   -57.471276E+06     -57.4718E+06   344.828032E+06      -15.4775658       169.109802
             2963   114.943504E+06   -57.463816E+06   -57.466592E+06   344.825472E+06      -44.5941467   1.63541553E+03
             2964   114.948616E+06   -57.467068E+06   -57.467088E+06   344.828416E+06       253.132004       133.063309
             2965   114.949648E+06   -57.466892E+06    -57.46794E+06    344.82864E+06      -76.9716415       118.265930
             2966   114.947632E+06   -57.465484E+06   -57.466284E+06   344.825888E+06       842.700562   2.77457251E+03
             2967    114.94216E+06   -57.471504E+06    -57.47136E+06   344.827904E+06       60.5302734       27.2375374
             2968   114.941552E+06     -57.4707E+06     -57.4708E+06   344.827872E+06      -374.846985      -989.775330
             2969   114.942648E+06   -57.471372E+06   -57.471244E+06   344.828032E+06      -234.262665       155.045929
             2970     114.9432E+06    -57.47174E+06    -57.47114E+06   344.827392E+06      -92.1734924       373.992798
             2971   114.942056E+06   -57.471984E+06   -57.471828E+06   344.826976E+06      -54.8796616       238.875381
             2972   114.943136E+06   -57.470208E+06   -57.470716E+06   344.828256E+06      -33.1810532      -141.200317
             2973   114.940832E+06   -57.473536E+06   -57.473124E+06     344.8272E+06      -134.715042      -431.844360
             2974   114.942456E+06   -57.471736E+06   -57.471356E+06   344.827584E+06      -142.910126      -741.015198
             2975   114.942464E+06   -57.471624E+06   -57.471704E+06    344.82816E+06      -157.604187       48.2048416
             2976   114.905184E+06   -57.493992E+06     -57.4986E+06   344.829888E+06   1.86801880E+03      -33.2743912
             2977   114.942528E+06   -57.471672E+06    -57.47156E+06   344.828256E+06      -133.442703      -120.865776
             2978    114.94448E+06   -57.470048E+06   -57.470064E+06   344.827776E+06       5.50475693      -231.886536
             2979   114.951056E+06    -57.46822E+06   -57.471984E+06   344.827776E+06   1.27337817E+03   1.26381543E+03
             2980    115.00616E+06    -57.41802E+06   -57.417856E+06   344.824576E+06      -485.616760      -202.522858
             2981   114.941992E+06   -57.469592E+06    -57.47104E+06   344.827328E+06       247.320328       137.298035
             2982   114.939792E+06   -57.474972E+06   -57.479136E+06   344.827904E+06  -1.00367468E+03  -1.51018848E+03
             2983   114.941856E+06   -57.471656E+06   -57.471312E+06    344.82816E+06      -910.383728       38.0371246
             2984   114.989192E+06   -57.446152E+06   -57.439368E+06   344.824768E+06      -493.345306       254.405411
             2985   114.961008E+06   -57.463388E+06    -57.46388E+06   344.826272E+06  -7.50992969E+03  -3.25784131E+03
             2986   114.847008E+06   -57.552408E+06   -57.553008E+06   344.842496E+06      -308.197510   3.41393457E+03
             2987    114.94112E+06    -57.47068E+06   -57.471472E+06   344.827328E+06       329.053925       118.609268
             2988   114.944208E+06   -57.470108E+06   -57.470128E+06   344.828896E+06       50.8009148       187.118500
             2989   114.892888E+06   -57.507584E+06   -57.505704E+06   344.825888E+06  -2.60410010E+03   1.98346985E+03
             2990     114.9408E+06   -57.470504E+06   -57.470308E+06   344.825696E+06       552.469116       4.39056396
             2991   114.942232E+06     -57.4709E+06    -57.47016E+06   344.826848E+06      -658.693481      -437.811523
             2992   114.940416E+06   -57.477392E+06   -57.475392E+06   344.828352E+06       888.503174      -55.7021484
             2993    114.94224E+06    -57.47162E+06   -57.470588E+06   344.828352E+06      -338.731934      -172.950226
             2994   114.939808E+06     -57.4728E+06   -57.472612E+06   344.826432E+06       403.994324      -540.205322
             2995   114.946416E+06    -57.46924E+06   -57.471352E+06   344.829376E+06       74.0473938   1.36280005E+03
             2996   114.943552E+06   -57.470192E+06    -57.47174E+06   344.828576E+06      -678.842651       601.690308
             2997   114.943536E+06   -57.472216E+06   -57.471064E+06   344.828384E+06   1.66598877E+03       148.387024
             2998   114.943088E+06      -57.471E+06   -57.470768E+06   344.828224E+06       797.994873   1.01635254E+03
             2999   114.942312E+06    -57.47194E+06    -57.47156E+06   344.828608E+06       543.374268       462.982239
             3000   114.935824E+06   -57.471804E+06   -57.471352E+06   344.827232E+06  -3.01580273E+03  -2.22465796E+03
             3001    114.94096E+06    -57.47468E+06   -57.474448E+06   344.830304E+06  -1.19638110E+03  -1.16268640E+03
             3002   114.941872E+06   -57.472132E+06    -57.47068E+06   344.828032E+06       242.597885       43.0305328
             3003   114.942864E+06    -57.47164E+06   -57.471656E+06   344.827968E+06       220.741974       271.419617
             3004   114.941472E+06    -57.47286E+06   -57.473164E+06   344.828704E+06      -543.861084      -21.2779102
             3005   114.910128E+06   -57.500472E+06   -57.497472E+06   344.826496E+06  -1.45581348E+03       196.195770
             3006   114.888608E+06   -57.509652E+06   -57.509224E+06   344.831008E+06  -2.02067224E+03       5.76037598
             3007   114.941288E+06   -57.471464E+06   -57.471576E+06   344.828736E+06       563.491821   2.26738477E+03
             3008   114.941744E+06   -57.473904E+06   -57.472904E+06   344.828704E+06       179.440674      -729.969604
             3009   114.943848E+06     -57.4707E+06   -57.470592E+06   344.828096E+06       79.7639542       362.128021
             3010   114.942696E+06   -57.471032E+06   -57.471072E+06   344.827872E+06      -91.5594330       27.8245277
             3011    114.94268E+06    -57.47174E+06   -57.471176E+06    344.82784E+06       13.4125032      -17.3482208
             3012   114.944328E+06   -57.469456E+06   -57.470616E+06   344.829088E+06      -125.592667       582.937195
             3013   114.942896E+06   -57.471596E+06    -57.47112E+06   344.827968E+06      -205.346451       34.1294861
             3014   114.944664E+06   -57.471744E+06   -57.471212E+06   344.827808E+06       336.680817      -213.740692
             3015   114.933768E+06   -57.474288E+06   -57.472704E+06   344.822944E+06   1.01019519E+03       47.3367081
             3016     114.9472E+06   -57.467904E+06   -57.469324E+06   344.828832E+06      -524.091553       389.993103
             3017   114.930352E+06   -57.477392E+06   -57.478592E+06    344.83328E+06      -828.872681      -829.441406
             3018    114.94336E+06   -57.467896E+06    -57.46846E+06   344.826944E+06       815.536682       640.839233
             3019   114.942416E+06   -57.470928E+06   -57.471144E+06   344.827328E+06      -177.437439      -332.258606
             3020    114.93384E+06   -57.475048E+06   -57.472656E+06   344.824832E+06  -2.60668262E+03  -2.60346143E+03
             3021   114.945272E+06   -57.469832E+06   -57.468752E+06   344.829248E+06   1.95543628E+03       567.646667
             3022    114.93876E+06   -57.475284E+06    -57.47098E+06   344.826912E+06       100.696945       705.972534
             3023    114.94672E+06   -57.469664E+06   -57.468312E+06    344.82752E+06      -777.064148       75.7196655
             3024   114.967984E+06   -57.451812E+06   -57.448876E+06   344.823296E+06  -3.54662012E+03      -83.2518387
             3025   115.006768E+06   -57.426056E+06   -57.429264E+06   344.825888E+06  -4.67092188E+03   1.22501782E+03
             3026    114.94048E+06   -57.471188E+06   -57.471252E+06   344.827648E+06       479.811951       9.74862671
             3027   114.941624E+06    -57.47174E+06   -57.471032E+06    344.82736E+06       307.584900       83.1370468
             3028   114.940456E+06   -57.472016E+06   -57.471892E+06   344.827936E+06      -425.691528      -95.0578156
             3029   114.942592E+06   -57.471776E+06   -57.471552E+06   344.828416E+06       149.027634       107.484116
             3030   114.942912E+06   -57.473388E+06   -57.471664E+06   344.828832E+06      -798.437622      -714.111145
             3031    114.94256E+06    -57.47088E+06   -57.470664E+06   344.828672E+06      -92.1626663       99.4756851
             3032   114.946256E+06   -57.468196E+06    -57.46838E+06   344.828096E+06   1.13611792E+03       109.516342
             3033   114.913104E+06   -57.499016E+06   -57.498912E+06   344.835008E+06   2.29860742E+03      -403.771362
             3034   114.941208E+06   -57.471504E+06   -57.472884E+06   344.828512E+06       755.627686      -492.571259
             3035    114.94168E+06   -57.472644E+06   -57.471776E+06   344.827648E+06       15.6866379      -251.031891
             3036    114.94224E+06   -57.471288E+06   -57.471412E+06   344.828288E+06       449.095398       284.117859
             3037   114.942232E+06   -57.471192E+06   -57.470856E+06   344.826848E+06      -329.361816      -713.445374
             3038   114.945024E+06   -57.467508E+06   -57.463688E+06   344.827968E+06      -988.758179  -2.67742261E+03
             3039   114.952112E+06   -57.470132E+06   -57.468344E+06    344.82288E+06   2.11592578E+03       161.020752
             3040   114.938112E+06   -57.473332E+06   -57.474428E+06   344.827904E+06       373.160492      -673.337585
             3041   114.962296E+06   -57.464248E+06   -57.460716E+06   344.829696E+06   9.33844434E+03      -519.843994
             3042     114.9412E+06   -57.477756E+06   -57.477332E+06   344.829024E+06      -232.334900   1.33266980E+03
             3043    114.94624E+06   -57.468776E+06   -57.468644E+06   344.827712E+06      -18.8756409      -65.8581848
             3044   114.942776E+06   -57.472336E+06    -57.47238E+06     344.8288E+06       610.533569       392.455444
             3045    114.94312E+06   -57.470604E+06   -57.470752E+06   344.828192E+06       376.778503      -304.506989
             3046   114.945208E+06   -57.469836E+06   -57.470328E+06   344.828864E+06      -369.528229      -31.8205719
             3047   114.942584E+06   -57.471544E+06    -57.47128E+06   344.827936E+06       56.4945831      -173.478226
             3048   114.943152E+06   -57.470448E+06   -57.470444E+06   344.828288E+06       423.587341       567.562805
             3049    114.94248E+06   -57.471256E+06    -57.47116E+06   344.829312E+06      -176.087921  -1.36119092E+03
             3050   114.944864E+06   -57.467568E+06   -57.468064E+06   344.827616E+06       296.110321      -252.879242
             3051    114.93792E+06   -57.472936E+06   -57.473144E+06   344.828992E+06       193.234528  -1.47650244E+03
             3052   114.947024E+06   -57.467512E+06   -57.467112E+06   344.828544E+06       957.722839       493.644958
             3053     114.9426E+06   -57.471552E+06   -57.471252E+06   344.827936E+06       31.0767746       123.756317
             3054   114.939544E+06    -57.47284E+06    -57.47262E+06   344.826304E+06       607.338135       178.851685
             3055    114.94192E+06    -57.47316E+06   -57.472392E+06   344.826176E+06   1.49590039E+03       49.7666626
             3056   114.942624E+06   -57.471668E+06   -57.471184E+06    344.82784E+06       245.192825       488.667358
             3057   114.937232E+06    -57.47518E+06    -57.47568E+06   344.828224E+06      -276.133667       171.959320
             3058    114.94316E+06   -57.471724E+06   -57.472188E+06   344.827264E+06       366.433472       415.105652
             3059   114.942472E+06    -57.47164E+06   -57.472016E+06   344.828288E+06       45.9083099       267.979309
             3060    114.94284E+06   -57.471488E+06   -57.471312E+06   344.828032E+06      -33.1920013       18.4957924
             3061   114.944792E+06   -57.469636E+06   -57.469504E+06   344.826336E+06       324.741455      -132.806992
             3062    114.94824E+06   -57.466772E+06   -57.467912E+06   344.828896E+06       514.076660      -206.345291
             3063   114.947272E+06   -57.467204E+06    -57.46846E+06     344.8288E+06       579.096375       97.7332230
             3064   114.941632E+06   -57.472568E+06     -57.4724E+06    344.82816E+06       508.338409  -498.406887E-03
             3065   114.940416E+06   -57.471496E+06   -57.473964E+06   344.829184E+06   1.80963647E+03   1.52790991E+03
             3066   114.941288E+06   -57.472428E+06   -57.472336E+06   344.827808E+06       50.5121536       94.6128616
             3067    114.92848E+06   -57.468944E+06   -57.471292E+06   344.825088E+06   3.25141235E+03      -195.138504
             3068   114.942672E+06    -57.47122E+06   -57.471436E+06   344.828128E+06       100.828217      -32.9196434
             3069   114.943152E+06   -57.470224E+06   -57.470152E+06   344.827744E+06       127.558670       2.33546448
             3070   114.941952E+06   -57.471512E+06    -57.47144E+06    344.82784E+06       304.476990       517.831787
             3071   114.944192E+06   -57.470364E+06   -57.469784E+06    344.82752E+06       69.3675385       166.503967
             3072   114.936568E+06   -57.475612E+06   -57.478096E+06   344.827136E+06  -3.39448828E+03       762.517212
             3073   114.942288E+06   -57.471952E+06    -57.47144E+06   344.827904E+06       53.8149719      -46.7190247
             3074    114.94324E+06   -57.471504E+06   -57.471516E+06    344.82816E+06       407.142334       432.133362
             3075   114.892088E+06   -57.505796E+06   -57.512212E+06   344.826112E+06  -6.93441846E+03       132.684204
             3076    114.93524E+06   -57.467356E+06   -57.470184E+06    344.82624E+06  -1.45409180E+03      -755.764282
             3077   114.916496E+06   -57.486556E+06   -57.487532E+06    344.82544E+06   3.01941577E+03      -655.911865
             3078   114.949624E+06   -57.467904E+06   -57.468248E+06   344.824704E+06   1.51978955E+03  -1.07927441E+03
             3079   114.941208E+06   -57.468308E+06   -57.469816E+06     344.8272E+06   1.00861902E+03       388.507507
             3080    114.94224E+06    -57.47072E+06   -57.471712E+06   344.828448E+06       756.944336      -2.44367981
             3081     114.9416E+06   -57.470848E+06      -57.473E+06   344.827968E+06      -207.381119       518.045593
             3082    114.94336E+06   -57.470632E+06   -57.470872E+06   344.828256E+06      -223.506958      -90.9046021
             3083   114.951552E+06   -57.458192E+06   -57.456188E+06   344.824576E+06  -4.35346094E+03   2.97451807E+03
             3084   114.942432E+06    -57.47132E+06   -57.471252E+06   344.827616E+06       287.206146       275.071167
             3085   114.934568E+06   -57.475244E+06   -57.474244E+06   344.826368E+06   1.48522961E+03       544.340576
             3086    114.94948E+06   -57.464824E+06   -57.468692E+06   344.826048E+06  -2.02974207E+03  -4.44691748E+03
             3087     114.9454E+06   -57.469044E+06   -57.470084E+06   344.829472E+06      -816.843994  -1.19947864E+03
             3088   114.944544E+06   -57.470768E+06   -57.469912E+06   344.826944E+06       310.825836      -167.569870
             3089    114.94408E+06     -57.4713E+06   -57.470728E+06   344.827008E+06      -433.761566      -355.175842
             3090    114.93976E+06   -57.472492E+06   -57.473904E+06   344.829312E+06   1.40683411E+03       108.876892
             3091   114.969584E+06   -57.453048E+06    -57.45706E+06   344.827552E+06   6.66452832E+03  -1.65805737E+03
             3092   114.951128E+06   -57.467952E+06   -57.468116E+06   344.827136E+06   2.50045947E+03  -1.16609900E+03
             3093   114.942376E+06     -57.4702E+06   -57.470628E+06   344.827264E+06      -4.24678802      -133.415512
             3094   114.991368E+06   -57.433636E+06   -57.432596E+06    344.82432E+06   2.10484546E+03      -59.9186401
             3095   114.933192E+06    -57.47664E+06   -57.474944E+06   344.825792E+06      -158.780258  -2.55036499E+03
             3096   114.987056E+06   -57.444268E+06    -57.43934E+06   344.825248E+06  -3.51318555E+03   2.08550708E+03
             3097   114.941552E+06   -57.470604E+06   -57.470628E+06   344.827232E+06       189.883270      -11.6010056
             3098   114.954272E+06   -57.468336E+06   -57.476024E+06   344.831456E+06      -830.808228  -4.27302783E+03
             3099   114.867488E+06   -57.531368E+06   -57.533484E+06   344.832512E+06  -1.27801672E+03      -509.339844
             3100   114.936016E+06       -57.48E+06   -57.473828E+06   344.823424E+06       899.246094      -906.901855
             3101   114.940688E+06   -57.471612E+06   -57.471528E+06   344.826368E+06      -100.807785      -201.636581
             3102   114.941808E+06   -57.472984E+06    -57.47236E+06   344.829024E+06      -285.043884      -340.743195
             3103   114.942784E+06   -57.471592E+06   -57.471684E+06   344.828288E+06       30.2323265       205.747971
             3104   114.942256E+06   -57.471272E+06   -57.470888E+06    344.82768E+06      -566.970276      -761.759705
             3105   114.942344E+06   -57.471584E+06    -57.47156E+06   344.827904E+06      -149.105881      -117.822800
             3106   114.943032E+06   -57.474676E+06   -57.473864E+06   344.828576E+06       97.0240173      -666.926636
             3107   114.946848E+06   -57.469984E+06   -57.470164E+06     344.8296E+06       773.086304      -472.813782
             3108    114.94256E+06   -57.471528E+06   -57.471264E+06   344.828384E+06      -136.397125      -284.512665
             3109   114.944128E+06   -57.468048E+06   -57.469608E+06   344.827424E+06       93.8585510   1.05493042E+03
             3110   114.942968E+06   -57.471192E+06   -57.471364E+06   344.827424E+06       239.943314       509.626831
             3111   114.947192E+06   -57.466536E+06   -57.467776E+06   344.828416E+06      -189.033661      -516.278992
             3112   114.938792E+06     -57.4733E+06    -57.47136E+06   344.825984E+06      -243.238327       288.451965
             3113   114.939936E+06   -57.475632E+06   -57.471528E+06   344.826624E+06      -631.775879      -204.565720
             3114   114.961096E+06    -57.46642E+06   -57.463548E+06   344.833984E+06   5.67250830E+03      -415.775024
             3115   114.942128E+06   -57.470368E+06    -57.47256E+06    344.82928E+06      -191.731323       137.247131
             3116   114.943456E+06   -57.470228E+06   -57.471928E+06     344.8288E+06       255.062256       77.1993637
             3117   114.936592E+06   -57.475216E+06     -57.4751E+06     344.8272E+06      -696.491577       159.107025
             3118   114.950904E+06   -57.467312E+06    -57.46808E+06   344.831008E+06      -744.657471   1.08531299E+03
             3119   114.936536E+06   -57.477464E+06   -57.475608E+06   344.826528E+06      -712.236206  -1.96208289E+03
             3120   114.944656E+06    -57.46998E+06   -57.468248E+06   344.826816E+06       439.476837      -182.457397
             3121   114.943024E+06    -57.47096E+06   -57.471168E+06   344.827904E+06       10.3097410      -329.618774
             3122   114.943416E+06   -57.470512E+06   -57.470424E+06   344.828384E+06      -303.485138      -187.670013
             3123   114.942512E+06   -57.471188E+06   -57.471548E+06   344.828032E+06      -36.2346916      -98.8399963
             3124   114.922624E+06   -57.481928E+06   -57.484792E+06   344.829056E+06      -271.397095       865.634644
             3125   114.942312E+06   -57.471692E+06    -57.47138E+06   344.827904E+06      -56.6939278      -86.1565704
             3126   114.942784E+06   -57.470552E+06   -57.471432E+06   344.828544E+06      -338.460846       89.4947968
             3127   114.926712E+06   -57.492936E+06   -57.489456E+06   344.827552E+06       685.795776      -657.586853
             3128   114.943368E+06   -57.471064E+06   -57.471356E+06   344.827744E+06      -329.312042      -156.091919
             3129   114.958736E+06   -57.460028E+06   -57.460832E+06   344.829184E+06   2.92901074E+03  -4.05173682E+03
             3130   114.943248E+06   -57.472296E+06   -57.472024E+06   344.829056E+06      -370.470398       775.748718
             3131   114.940616E+06   -57.470464E+06   -57.474496E+06   344.828192E+06  -1.17953076E+03  -2.28123755E+03
             3132   114.943024E+06   -57.471256E+06    -57.47122E+06   344.828032E+06      -63.8716507       308.952972
             3133   114.942672E+06   -57.471504E+06   -57.471152E+06   344.828096E+06      -214.565338      -534.929199
             3134   114.937824E+06    -57.47546E+06   -57.475856E+06   344.828064E+06      -761.015869      -295.846954
             3135   114.941264E+06    -57.47266E+06   -57.471196E+06   344.828608E+06       937.715149       361.268677
             3136    114.95028E+06    -57.47218E+06   -57.469328E+06    344.82432E+06       113.587036   3.16482642E+03
             3137   114.948008E+06   -57.475532E+06   -57.473952E+06   344.833216E+06  -7.29364453E+03       769.061035
             3138   114.938872E+06   -57.474624E+06   -57.472496E+06   344.826656E+06       383.911377      -854.368774
             3139   114.940416E+06   -57.471824E+06    -57.47148E+06   344.828256E+06  -1.01183923E+03      -719.278381
             3140   114.943832E+06   -57.471108E+06   -57.471428E+06   344.828768E+06      -291.868958      -590.177795
             3141   114.943104E+06   -57.471276E+06   -57.470568E+06   344.827712E+06       30.0288181       91.9090805
             3142   114.885664E+06   -57.525408E+06   -57.525756E+06   344.838656E+06   7.75523633E+03       880.688538
             3143   114.941976E+06    -57.47092E+06   -57.471968E+06    344.82864E+06       152.992310      -213.054703
             3144   114.940216E+06   -57.475216E+06   -57.473884E+06   344.827648E+06   1.89010718E+03       738.688477
             3145   114.944864E+06    -57.47172E+06   -57.472232E+06   344.829056E+06      -637.982300       934.656860
             3146    114.90696E+06   -57.504924E+06   -57.500496E+06    344.83312E+06   4.38924219E+03  -2.02112878E+03
             3147   114.944608E+06   -57.470776E+06   -57.469472E+06   344.826304E+06      -368.865875      -557.382324
             3148    114.92824E+06   -57.479568E+06   -57.478164E+06   344.829888E+06   3.12873340E+03       69.7764282
             3149   114.942528E+06   -57.473096E+06   -57.472272E+06    344.82784E+06      -406.153259      -110.815620
             3150   114.946976E+06   -57.465072E+06   -57.467128E+06   344.825184E+06  -3.66651050E+03   1.41269531E+03
             3151    114.94116E+06   -57.470612E+06   -57.472352E+06   344.828928E+06      -973.530029  -1.04778833E+03
             3152   114.941584E+06   -57.471536E+06   -57.471424E+06   344.827968E+06       225.177765      -135.905426
             3153   114.938816E+06     -57.4747E+06   -57.473424E+06   344.829184E+06       521.867188       610.226013
             3154   114.948328E+06   -57.467876E+06    -57.46886E+06   344.828736E+06      -17.6310120      -200.782272
             3155   114.941792E+06   -57.475084E+06   -57.471528E+06   344.824256E+06  -3.01284180E+03   1.13880334E+03
             3156   114.942376E+06   -57.472264E+06   -57.470376E+06   344.826848E+06  -1.25476819E+03      -662.797424
             3157   114.942688E+06   -57.471272E+06   -57.471332E+06   344.828032E+06       63.4455948      -32.6155052
             3158   114.932904E+06   -57.491176E+06   -57.490368E+06   344.828928E+06  -1.64583289E+03   1.93728247E+03
             3159   114.942336E+06   -57.475744E+06   -57.477528E+06   344.828768E+06  -2.64851343E+03  -2.99576563E+03
             3160   114.941128E+06   -57.471688E+06   -57.472112E+06   344.827712E+06       162.996475       2.95550919
             3161   114.945928E+06   -57.469208E+06   -57.469748E+06    344.82896E+06       112.986404       348.086426
             3162   114.943072E+06   -57.471844E+06   -57.471516E+06   344.828032E+06       268.102844       223.137329
             3163   114.947984E+06    -57.46502E+06   -57.464616E+06   344.825312E+06   1.73534082E+03       445.673889
             3164   114.965672E+06    -57.45092E+06   -57.451864E+06   344.824576E+06   1.92765234E+03      -786.889832
             3165    114.94024E+06    -57.47002E+06   -57.473012E+06   344.826752E+06   2.25072217E+03   1.67254126E+03
             3166   114.909024E+06   -57.482544E+06   -57.488512E+06   344.827328E+06   2.95534619E+03       328.454285
             3167   114.938568E+06   -57.474696E+06   -57.474152E+06   344.827456E+06       97.1100616      -397.714417
             3168   114.942736E+06   -57.471252E+06   -57.470824E+06   344.827904E+06      -31.2854996      -240.848602
             3169     114.9542E+06   -57.465812E+06   -57.468168E+06   344.830336E+06  -1.90931519E+03   1.21347290E+03
             3170   114.942752E+06   -57.471176E+06   -57.471256E+06   344.827936E+06       67.3670578      -176.976410
             3171   114.943088E+06     -57.4667E+06    -57.46796E+06   344.828864E+06  -1.68657861E+03      -907.721558
             3172   114.933224E+06   -57.476588E+06    -57.47642E+06   344.828544E+06      -764.407593      -716.789124
             3173   114.942608E+06   -57.471528E+06   -57.471352E+06   344.828032E+06      -73.2254791      -81.1021042
             3174   114.940064E+06   -57.474304E+06   -57.474288E+06   344.828448E+06      -764.604431       44.8175964
             3175   114.941216E+06   -57.469176E+06   -57.469656E+06   344.827584E+06      -656.567139      -615.673828
             3176   114.944336E+06   -57.469356E+06   -57.469704E+06   344.826816E+06   1.06903650E+03   1.09545410E+03
             3177   114.942368E+06    -57.47332E+06   -57.473388E+06   344.828192E+06       169.379562       517.456299
             3178   114.930648E+06   -57.481488E+06   -57.481296E+06   344.829088E+06      -420.769928       137.872665
             3179   114.964128E+06   -57.458904E+06   -57.457784E+06   344.824288E+06       408.855103   2.46064014E+03
             3180   114.943984E+06   -57.471752E+06   -57.471592E+06   344.828416E+06       80.7514343       272.970886
             3181    114.94428E+06    -57.47102E+06   -57.471768E+06   344.825088E+06   2.86344043E+03   1.71379553E+03
             3182     114.9422E+06   -57.468472E+06   -57.466884E+06   344.822304E+06   6.14012402E+03       82.5590515
             3183   114.964416E+06    -57.45434E+06   -57.450344E+06   344.817504E+06   5.79005029E+03       443.921509
             3184     114.9464E+06   -57.469692E+06   -57.468912E+06    344.82768E+06   2.11084863E+03       799.663452
             3185   114.942288E+06   -57.472304E+06   -57.472408E+06   344.828288E+06       3.26938486       143.348816
             3186   114.939528E+06   -57.470792E+06   -57.472176E+06   344.827776E+06   1.32477026E+03       891.706238
             3187   114.935624E+06    -57.47798E+06   -57.475688E+06    344.83008E+06  -1.14293286E+03       106.984993
             3188   114.944304E+06   -57.471152E+06    -57.47024E+06   344.827968E+06       229.776031      -384.759766
             3189   114.924848E+06   -57.491312E+06   -57.491144E+06   344.835424E+06  -2.42386279E+03      -488.867493
             3190   114.939552E+06   -57.472512E+06   -57.471488E+06   344.825504E+06       311.351746       210.636368
             3191   114.941296E+06   -57.470648E+06   -57.471268E+06   344.827488E+06       666.876526       184.416962
             3192   114.923104E+06    -57.48612E+06   -57.486536E+06   344.829312E+06       91.2634659       282.625671
             3193   114.941744E+06   -57.472096E+06    -57.47142E+06   344.827328E+06      -59.6326370       10.8244514
             3194   114.942512E+06    -57.47148E+06    -57.47148E+06   344.828192E+06      -159.564240      -390.325745
             3195   114.940656E+06   -57.473264E+06    -57.47292E+06   344.828032E+06       148.780487       387.365967
             3196   114.942584E+06   -57.471432E+06    -57.47134E+06      344.828E+06      -26.4759426      -13.1155853
             3197   114.940736E+06   -57.473488E+06   -57.473616E+06   344.827424E+06      -259.299683      -123.386757
             3198   114.941904E+06   -57.473336E+06   -57.472464E+06   344.828576E+06       640.597778      -268.964752
             3199     114.9422E+06   -57.474096E+06   -57.470624E+06   344.827776E+06       151.028259   1.00388977E+03
             3200   114.942976E+06   -57.471488E+06   -57.470908E+06    344.82816E+06      -395.573395      -104.975327
             3201   114.943248E+06   -57.469696E+06   -57.471212E+06   344.830208E+06       727.272888      -299.965515
             3202    114.93916E+06    -57.47992E+06   -57.477324E+06   344.830112E+06       729.007385   1.26649109E+03
             3203   114.932896E+06    -57.46702E+06   -57.467924E+06   344.823456E+06       441.627655       786.711914
             3204   114.940656E+06   -57.475088E+06   -57.473072E+06   344.832256E+06       617.449524       102.919525
             3205   114.942504E+06   -57.471264E+06   -57.471376E+06   344.828032E+06       45.8472557       30.7009945
             3206     114.9436E+06   -57.470844E+06   -57.470884E+06   344.828352E+06       46.9359894      -20.6320381
             3207   114.943248E+06   -57.470748E+06    -57.47074E+06   344.827584E+06      -173.712982       107.995201
             3208   114.944992E+06   -57.470912E+06   -57.470672E+06    344.82816E+06       146.220169       244.181549
             3209   114.943344E+06   -57.470388E+06   -57.469856E+06   344.828032E+06       365.693878       241.790939
             3210    114.94604E+06     -57.4689E+06   -57.467404E+06   344.827136E+06       847.341797       18.7805557
             3211    114.94284E+06   -57.471848E+06    -57.47184E+06   344.828608E+06      -72.9574890       18.8556633
             3212   114.935512E+06   -57.474916E+06   -57.471512E+06   344.825728E+06   3.60054150E+03       587.367798
             3213   114.943328E+06   -57.472972E+06   -57.471872E+06   344.828992E+06   1.21024390E+03       492.509277
             3214   114.942992E+06   -57.471392E+06   -57.471388E+06   344.828096E+06       182.919403      -158.152512
             3215   114.939936E+06   -57.473536E+06   -57.473008E+06   344.827904E+06       280.324890      -156.303329
             3216   114.943128E+06   -57.470908E+06   -57.470608E+06   344.827552E+06       865.401855      -43.5957298
             3217     114.9426E+06   -57.471604E+06     -57.4715E+06   344.827968E+06      -164.114029      -135.562485
             3218   114.938912E+06   -57.477584E+06   -57.476944E+06   344.829152E+06  -2.43403027E+03      -491.756165
             3219   114.939048E+06   -57.475304E+06   -57.474532E+06   344.828384E+06      -42.0354004       514.611023
             3220   114.940728E+06   -57.471452E+06   -57.472748E+06   344.826688E+06  -1.23173633E+03      -686.521729
             3221   114.942448E+06    -57.47054E+06   -57.471164E+06   344.828768E+06       915.288818      -39.5394974
             3222   114.943128E+06   -57.470656E+06    -57.47024E+06   344.828416E+06      -22.0334988      -97.1892242
             3223   114.942192E+06   -57.470964E+06   -57.471292E+06   344.827936E+06       266.009094      -355.486877
             3224   114.977824E+06   -57.448388E+06   -57.447308E+06    344.82432E+06  -2.14098340E+03   2.89745361E+03
             3225   114.947536E+06   -57.466484E+06   -57.468048E+06   344.827968E+06      -372.234680      -242.715698
             3226   114.941904E+06   -57.470464E+06    -57.46956E+06   344.827712E+06       449.625580   1.24470410E+03
             3227   114.942696E+06    -57.47122E+06   -57.471176E+06   344.828032E+06      -41.6782646       6.47756672
             3228   114.943096E+06   -57.470648E+06     -57.4713E+06    344.82784E+06       111.535866       175.457779
             3229   114.972776E+06   -57.454576E+06    -57.45608E+06   344.827584E+06       285.869537   2.36506006E+03
             3230   114.941824E+06   -57.469372E+06   -57.472328E+06   344.828256E+06  -1.24742578E+03      -258.972168
             3231   114.942584E+06   -57.471532E+06   -57.471344E+06   344.827776E+06       52.1852493      -43.6151505
             3232   115.001144E+06   -57.426368E+06   -57.425708E+06   344.829184E+06   3.35039746E+03  -1.46190454E+03
             3233   114.942576E+06   -57.470504E+06   -57.470592E+06    344.82816E+06       335.064606      -33.3014717
             3234   114.942416E+06     -57.4712E+06   -57.470976E+06   344.827936E+06      -3.40782166       71.5735016
             3235   114.941896E+06   -57.471584E+06    -57.47154E+06    344.82784E+06       680.152649      -130.470398
             3236      114.943E+06     -57.4711E+06   -57.470808E+06   344.827904E+06      -362.522034      -512.085266
             3237    114.94248E+06   -57.469168E+06   -57.473392E+06   344.830336E+06  -3.15212476E+03  -3.98816577E+03
             3238   114.946784E+06   -57.467436E+06     -57.4682E+06    344.82816E+06      -144.412720       62.9347305
             3239   114.923024E+06   -57.483292E+06   -57.483504E+06   344.823616E+06   3.18317871E+03      -63.8908005
             3240   114.941904E+06   -57.473268E+06   -57.472896E+06   344.827872E+06      -567.604492      -661.846924
             3241   114.943216E+06   -57.470104E+06    -57.47066E+06    344.82816E+06      -210.075317       340.547272
             3242   114.970832E+06   -57.453244E+06   -57.454568E+06   344.829088E+06  -3.27529785E+03  -1.32842932E+03
             3243   114.942808E+06   -57.472564E+06    -57.47228E+06   344.828064E+06       319.676575      -135.059967
             3244   114.947784E+06    -57.46606E+06   -57.466776E+06   344.827424E+06       195.216537      -50.6971130
             3245   114.968184E+06   -57.456436E+06    -57.45192E+06   344.819456E+06  -11.7931113E+03       702.855408
             3246   114.942416E+06   -57.471544E+06   -57.471224E+06   344.827904E+06       159.567337      -102.641617
             3247   115.004456E+06   -57.425748E+06   -57.423568E+06   344.826304E+06  -2.48689990E+03      -525.590088
             3248   114.985392E+06   -57.440688E+06   -57.441824E+06   344.822784E+06   5.13777148E+03   1.12892529E+03
             3249   114.951696E+06   -57.460732E+06    -57.45742E+06      344.828E+06       425.362396  -3.20642188E+03
             3250   114.942928E+06   -57.471484E+06   -57.471272E+06   344.827936E+06      -26.3687153       39.2378922
             3251   114.943944E+06   -57.469992E+06   -57.470188E+06   344.827968E+06      -108.536964      -112.536774
             3252   114.936144E+06   -57.472636E+06    -57.47124E+06    344.82496E+06   6.21154687E+03   1.93044043E+03
             3253   114.937336E+06   -57.476376E+06   -57.476644E+06   344.828352E+06      -689.380493       36.2380371
             3254    114.94352E+06    -57.47056E+06   -57.469996E+06   344.827968E+06      -589.900513      -479.363708
             3255   114.938912E+06   -57.470844E+06    -57.47116E+06   344.826176E+06  -1.29912378E+03       372.857941
             3256   114.942504E+06   -57.471456E+06   -57.470948E+06   344.827744E+06      -54.0267487       79.6550751
             3257   114.968072E+06   -57.453784E+06   -57.452936E+06   344.826112E+06   3.66150610E+03  -1.18195642E+03
             3258   114.956648E+06   -57.464456E+06   -57.471092E+06    344.83424E+06  -2.09175146E+03  -1.63788843E+03
             3259   114.944032E+06   -57.470768E+06    -57.47124E+06    344.82752E+06       758.254883       344.175476
             3260   114.942792E+06    -57.47228E+06   -57.471676E+06   344.828416E+06       26.5573273       73.3162079
             3261   114.943264E+06   -57.470572E+06   -57.470456E+06   344.827712E+06       126.230217       33.0222626
             3262   114.942656E+06   -57.471448E+06   -57.471184E+06   344.827872E+06      -77.8882828       72.7059937
             3263   114.942656E+06   -57.471144E+06   -57.471472E+06   344.828032E+06      -22.4565449       38.3282928
             3264   114.944288E+06   -57.471296E+06   -57.470332E+06   344.828224E+06       331.203247      -201.462952
             3265   114.942512E+06   -57.471348E+06   -57.471696E+06   344.827872E+06      -77.2740326      -431.950073
             3266   114.942536E+06      -57.471E+06   -57.470968E+06   344.827648E+06      -551.078491       107.866234
             3267   114.927072E+06   -57.485384E+06   -57.482844E+06   344.829728E+06      -952.604980   1.31747742E+03
             3268   114.945264E+06    -57.46802E+06   -57.468796E+06    344.82768E+06      -110.945343      -595.768311
             3269   114.942472E+06   -57.471552E+06    -57.47148E+06      344.828E+06       116.254883      -72.4177017
             3270    114.91936E+06   -57.483336E+06    -57.48908E+06   344.825728E+06   3.94700879E+03       868.408203
             3271     114.9424E+06   -57.471596E+06   -57.471316E+06   344.827744E+06      -106.836456      -251.656754
             3272   114.942896E+06     -57.4704E+06   -57.470936E+06   344.827584E+06      -369.080231       352.914001
             3273   114.934272E+06    -57.47782E+06   -57.476368E+06   344.828864E+06       293.325989       351.061096
             3274   114.943328E+06   -57.471348E+06     -57.4704E+06   344.827648E+06       313.497192       50.2965775
             3275   114.943168E+06   -57.471008E+06   -57.471248E+06   344.828352E+06       37.5676727       79.0187607
             3276   114.942048E+06    -57.47112E+06   -57.471452E+06   344.828416E+06      -55.9580688       333.138153
             3277    114.94552E+06    -57.46776E+06   -57.467832E+06   344.827776E+06      -193.478043      -60.2612228
             3278   114.942096E+06   -57.470444E+06   -57.473848E+06   344.828512E+06   2.51817627E+03       212.108459
             3279    114.93836E+06    -57.47394E+06   -57.473188E+06   344.826464E+06       377.224487      -709.104614
             3280   114.945336E+06     -57.4708E+06   -57.471376E+06    344.82816E+06       323.986572       211.660553
             3281    114.94316E+06    -57.47166E+06    -57.47192E+06   344.829024E+06       130.855530       90.6050415
             3282   114.959312E+06   -57.458384E+06   -57.442696E+06    344.82832E+06  -5.96409912E+03   2.81317847E+03
             3283   114.943648E+06   -57.471284E+06    -57.47036E+06    344.82848E+06       785.210876       387.693390
             3284   114.945728E+06    -57.47072E+06    -57.47084E+06   344.828352E+06   1.03574487E+03      -370.410400
             3285   114.963512E+06   -57.461532E+06   -57.466328E+06   344.828736E+06   2.02932202E+03       314.650696
             3286   114.953712E+06   -57.464868E+06   -57.464688E+06   344.829536E+06   6.21863379E+03      -502.142456
             3287   114.986632E+06   -57.441396E+06   -57.445328E+06   344.829024E+06  -3.47054736E+03      -353.532593
             3288   114.942432E+06   -57.470884E+06   -57.470944E+06   344.828864E+06       387.601196      -169.472076
             3289   114.940232E+06   -57.473368E+06   -57.473168E+06   344.827296E+06      -470.045929      -668.458862
             3290   114.924592E+06   -57.482764E+06     -57.4756E+06   344.820256E+06       775.988525       164.400757
             3291   114.940368E+06   -57.457096E+06    -57.46074E+06   344.822592E+06   1.26782239E+03       12.7055378
             3292   114.942528E+06   -57.471364E+06    -57.47174E+06   344.828416E+06      -461.315186       116.136513
             3293   114.948792E+06   -57.466016E+06   -57.466124E+06   344.827392E+06       271.083008      -45.8135986
             3294   114.945544E+06   -57.468784E+06    -57.47012E+06   344.827232E+06   1.94415576E+03       270.449341
             3295   114.942496E+06   -57.471588E+06   -57.471296E+06   344.827936E+06      -68.6984253      -200.157791
             3296   114.941744E+06   -57.471968E+06   -57.471364E+06   344.828128E+06       442.858643      -471.591431
             3297    114.94256E+06     -57.4714E+06   -57.471396E+06      344.828E+06       25.1468391      -76.5785675
             3298   114.939624E+06   -57.473096E+06   -57.471632E+06    344.82688E+06   1.81416846E+03       218.131454
             3299   114.944376E+06   -57.470656E+06   -57.470292E+06    344.82832E+06      -689.796692      -772.794556
             3300    114.93904E+06   -57.475892E+06   -57.476108E+06   344.829664E+06   1.32316565E+03      -71.1865158
             3301   114.943144E+06   -57.470728E+06   -57.471564E+06   344.829216E+06       950.576233      -298.801208
             3302    114.94496E+06    -57.46958E+06    -57.47112E+06   344.827936E+06      -948.907227       912.592957
             3303   114.958776E+06   -57.460872E+06   -57.461536E+06   344.825024E+06  -1.80996216E+03       907.884888
             3304   114.942256E+06   -57.471884E+06   -57.471408E+06   344.828032E+06       624.344849       71.1347351
             3305   114.948032E+06   -57.465816E+06   -57.466204E+06    344.82784E+06       731.653442       957.061890
             3306   114.944272E+06   -57.470912E+06    -57.47096E+06   344.828928E+06       654.993591       407.381287
             3307   114.938344E+06   -57.474792E+06   -57.474464E+06   344.828864E+06   1.01618878E+03      -611.513062
             3308   114.943128E+06   -57.470936E+06   -57.470744E+06   344.828128E+06       127.900635      -207.352356
             3309     114.9418E+06    -57.47182E+06   -57.472856E+06   344.827456E+06       96.6630478       505.135376
             3310   114.943312E+06    -57.47074E+06   -57.470624E+06   344.827744E+06       120.840363       117.540894
             3311   114.947992E+06   -57.467076E+06    -57.46752E+06   344.827776E+06  -1.10725928E+03      -754.158875
             3312   114.942912E+06     -57.4713E+06   -57.471376E+06    344.82832E+06       225.106430       261.997192
             3313   114.938048E+06   -57.477056E+06   -57.476444E+06   344.830464E+06       280.931030       60.0945663
             3314   114.942648E+06   -57.471376E+06   -57.471352E+06    344.82832E+06      -440.103638      -47.4136772
             3315   114.940064E+06   -57.474704E+06   -57.474736E+06   344.828192E+06       277.731323       362.880920
             3316   114.943352E+06    -57.47184E+06    -57.47096E+06    344.82912E+06      -582.573730       251.780258
             3317   114.943952E+06   -57.470084E+06   -57.470932E+06   344.827424E+06       287.648071      -236.861511
             3318    114.94072E+06   -57.472576E+06   -57.471444E+06   344.827424E+06   1.20748816E+03       238.472610
             3319   114.937584E+06   -57.473152E+06   -57.475324E+06   344.827456E+06   1.04450867E+03      -119.339409
             3320   114.938456E+06   -57.475636E+06   -57.474776E+06   344.828992E+06       782.467041       659.970520
             3321   114.935464E+06   -57.475848E+06   -57.473736E+06     344.8288E+06       140.597046      -72.2349243
             3322   114.942496E+06   -57.470248E+06     -57.4704E+06   344.827136E+06      -722.354736      -342.962891
             3323   114.947672E+06   -57.467068E+06   -57.467824E+06   344.827168E+06       379.130981       445.956299
             3324   114.942232E+06   -57.471652E+06   -57.471848E+06    344.82944E+06       634.744812      -336.241516
             3325   114.944592E+06   -57.469716E+06   -57.468856E+06   344.827648E+06      -57.3475494      -422.621277
             3326    114.94256E+06   -57.470364E+06   -57.468972E+06   344.825664E+06      -483.422729      -563.462158
             3327   114.946488E+06   -57.469004E+06   -57.469952E+06   344.828928E+06      -38.2194519      -317.307983
             3328   114.941992E+06   -57.473136E+06     -57.4724E+06    344.82752E+06      -45.5403252      -530.624023
             3329   114.942968E+06   -57.471384E+06   -57.472192E+06   344.828512E+06       271.975464       382.888000
             3330    114.94256E+06   -57.471608E+06   -57.471576E+06   344.828256E+06       450.851440       137.347595
             3331   114.943744E+06   -57.462888E+06   -57.466036E+06   344.821088E+06      -189.493988  -1.02158453E+03
             3332   114.944288E+06   -57.470096E+06   -57.469616E+06   344.827392E+06      -115.735466      -301.366333
             3333   114.945024E+06   -57.469416E+06   -57.469972E+06   344.828032E+06      -359.843689      -38.5184555
             3334   114.942264E+06   -57.470944E+06   -57.470888E+06   344.827808E+06      -358.979309       150.712280
             3335   114.941904E+06   -57.471548E+06    -57.47208E+06   344.829024E+06      -400.914185       163.838638
             3336   114.941568E+06   -57.472068E+06   -57.471556E+06    344.82784E+06       298.388458      -312.718933
             3337   114.945728E+06   -57.468576E+06    -57.46872E+06   344.828672E+06       17.3580627      -111.087334
             3338   114.944136E+06   -57.469392E+06   -57.469844E+06   344.827424E+06      -986.533020      -31.0090332
             3339   114.941104E+06    -57.47344E+06   -57.473092E+06   344.829216E+06       402.392517      -140.200470
             3340   114.941408E+06   -57.472512E+06   -57.473364E+06   344.829056E+06      -12.2126160       201.329315
             3341   114.945376E+06   -57.468328E+06   -57.470264E+06   344.829824E+06       739.927795       143.115768
             3342   114.941976E+06   -57.473732E+06   -57.472916E+06   344.830656E+06      -438.409760  -1.92870618E+03
             3343   114.949264E+06   -57.466792E+06   -57.456084E+06   344.830528E+06  -5.99524023E+03  -5.28146631E+03
             3344   114.942504E+06   -57.471432E+06   -57.471084E+06    344.82784E+06      -319.203705       60.8092422
             3345   114.943072E+06   -57.471232E+06   -57.471624E+06   344.828352E+06      -102.716530       173.632202
             3346   114.942976E+06    -57.47078E+06   -57.470364E+06    344.82768E+06       645.631470       393.123383
             3347   114.940736E+06    -57.47116E+06    -57.47196E+06   344.827072E+06      -388.968201      -614.634521
             3348    114.94224E+06   -57.471108E+06   -57.469268E+06   344.827008E+06      -707.413086  -1.69356091E+03
             3349   114.941816E+06   -57.472168E+06   -57.470988E+06   344.828896E+06       366.841675       488.768646
             3350   114.945376E+06   -57.470024E+06   -57.469148E+06   344.827424E+06       940.593872       108.789368
             3351   114.957168E+06   -57.463356E+06   -57.461824E+06   344.826336E+06   6.23586572E+03   2.82109033E+03
             3352   114.946608E+06   -57.469176E+06   -57.468268E+06    344.82864E+06      -634.245544  -1.00471722E+03
             3353    114.93552E+06   -57.477304E+06   -57.478604E+06   344.827968E+06   1.38814502E+03      -662.690674
             3354   114.943584E+06   -57.470224E+06   -57.469952E+06   344.827744E+06      -163.010742       286.492859
             3355    114.94576E+06   -57.467216E+06   -57.469372E+06   344.827584E+06       617.665894      -217.958237
             3356    114.94108E+06    -57.47168E+06   -57.472316E+06   344.827776E+06      -392.053497       130.113510
             3357     114.9394E+06   -57.472348E+06     -57.4741E+06   344.829504E+06   1.14686829E+03       67.5946503
             3358   114.942112E+06    -57.47136E+06   -57.472376E+06   344.828864E+06       245.919861  -1.07545337E+03
             3359   114.942736E+06   -57.469872E+06   -57.471688E+06    344.82656E+06       691.301025       23.3024521
             3360   114.945968E+06    -57.46886E+06   -57.469536E+06    344.82768E+06   1.17588306E+03       830.903076
             3361   114.937936E+06   -57.474212E+06    -57.47522E+06   344.828096E+06   1.28819043E+03      -37.4816589
             3362   114.944784E+06    -57.46888E+06   -57.469816E+06   344.827904E+06      -482.365173      -496.051270
             3363   114.939576E+06   -57.473948E+06   -57.472748E+06   344.826816E+06       670.904053       495.444092
             3364   114.944456E+06    -57.46902E+06   -57.469272E+06   344.827328E+06      -720.116211       350.751617
             3365   114.941968E+06   -57.471344E+06   -57.471008E+06   344.827488E+06      -798.672485      -478.935699
             3366   114.944976E+06   -57.469856E+06    -57.46944E+06   344.827232E+06       348.214844       56.5929489
             3367   114.942512E+06   -57.471648E+06   -57.471516E+06      344.828E+06      -181.536057      -69.8407593
             3368     114.9418E+06   -57.473184E+06   -57.472532E+06   344.829216E+06      -516.206360       3.53417587
             3369   114.942144E+06    -57.47148E+06   -57.471264E+06   344.827808E+06       351.373901      -144.995911
             3370   114.938888E+06   -57.475436E+06   -57.475228E+06   344.828544E+06      -152.414368       303.793457
             3371   114.942344E+06   -57.471772E+06    -57.47178E+06   344.829056E+06      -709.095520       569.531433
             3372   114.944176E+06   -57.470656E+06   -57.470008E+06   344.828192E+06      -207.440186      -194.487976
             3373   114.938104E+06   -57.476612E+06    -57.47696E+06   344.827712E+06   1.61104688E+03       500.978973
             3374   114.942872E+06    -57.47148E+06   -57.471584E+06   344.827904E+06       123.953934       181.454514
             3375   114.937352E+06   -57.475556E+06    -57.47602E+06    344.82912E+06       175.208786      -370.164307
             3376   114.942664E+06   -57.469504E+06   -57.469984E+06   344.826944E+06       687.076538       58.5662842
             3377   114.942952E+06   -57.471224E+06     -57.4713E+06    344.82848E+06      -57.9006004      -181.185791
             3378   114.917584E+06    -57.48952E+06   -57.492252E+06   344.830016E+06  -2.07884521E+03  -2.78052808E+03
             3379   114.947424E+06   -57.471036E+06    -57.47866E+06   344.828704E+06   5.11006348E+03      -171.379913
             3380    114.94284E+06   -57.471152E+06    -57.47116E+06      344.828E+06      -51.2099342      -29.5224876
             3381   114.943272E+06    -57.47008E+06   -57.469892E+06   344.827424E+06       85.8053970       772.621948
             3382    114.94288E+06    -57.47226E+06    -57.47306E+06    344.82928E+06      -106.469254       86.3002853
             3383   114.942656E+06    -57.47122E+06   -57.471236E+06   344.828032E+06      -47.9870605       37.0052948
             3384     114.9428E+06    -57.47116E+06   -57.471392E+06   344.828192E+06       102.625771      -84.4549561
             3385   114.942696E+06   -57.471464E+06   -57.471328E+06   344.827968E+06       195.124115       158.127441
             3386   114.941984E+06    -57.47138E+06   -57.471348E+06   344.827328E+06      -328.756012      -276.328522
             3387   114.948264E+06   -57.465408E+06   -57.469044E+06    344.82976E+06      -588.763367       816.926819
             3388   114.943912E+06    -57.47086E+06   -57.471576E+06   344.828128E+06      -253.473541       741.912231
             3389   114.939792E+06   -57.473648E+06   -57.475128E+06    344.82976E+06      -771.748779       165.534561
             3390   114.949328E+06   -57.465856E+06   -57.466156E+06   344.828544E+06      -44.2533417      -690.524658
             3391   114.943112E+06   -57.471696E+06   -57.472476E+06   344.829248E+06  -1.14451086E+03       114.608444
             3392   114.946184E+06    -57.46706E+06   -57.467396E+06   344.827648E+06      -297.718964      -742.960083
             3393   114.935056E+06   -57.477544E+06    -57.47832E+06   344.829568E+06      -714.164917      -201.453232
             3394   114.943952E+06    -57.46844E+06   -57.468892E+06   344.828096E+06  -1.29439099E+03      -313.786316
             3395   114.945696E+06   -57.469936E+06    -57.47094E+06   344.826528E+06   1.25025513E+03   1.46722876E+03
             3396   114.943192E+06   -57.472676E+06    -57.47292E+06    344.82736E+06       344.801544      -130.279327
             3397   114.942648E+06   -57.471016E+06   -57.470768E+06   344.827744E+06      -444.251038       208.570404
             3398      114.941E+06    -57.47454E+06   -57.471828E+06    344.82656E+06      -677.321777  -1.43171118E+03
             3399   114.941472E+06    -57.47086E+06   -57.471596E+06   344.828928E+06      -884.261597       722.500549
             3400    114.93632E+06   -57.477096E+06   -57.478464E+06   344.829728E+06  -2.19156348E+03       76.0868530
             3401   114.938064E+06   -57.479584E+06   -57.475904E+06    344.82544E+06      -120.397400   2.17802173E+03
             3402   114.941088E+06   -57.471068E+06    -57.46854E+06   344.826624E+06   2.83189209E+03      -238.927521
             3403   114.939088E+06   -57.475112E+06   -57.474104E+06     344.8272E+06      -116.188538      -625.277466
             3404   114.882352E+06   -57.513336E+06    -57.51114E+06   344.825216E+06   4.50712793E+03      -214.193665
             3405   114.936304E+06   -57.475836E+06   -57.476092E+06   344.827648E+06       134.821411      -616.798645
             3406    114.94024E+06   -57.472516E+06   -57.472976E+06   344.827328E+06      -138.509842       552.521606
             3407   114.943104E+06   -57.470584E+06    -57.47018E+06   344.828096E+06      -471.609344      -686.733459
             3408   114.944288E+06    -57.47084E+06   -57.470748E+06   344.828096E+06       726.578369       291.847443
             3409   114.939136E+06   -57.474676E+06   -57.474296E+06    344.82848E+06      -298.410309      -238.741165
             3410   114.940904E+06   -57.472928E+06   -57.472356E+06    344.82848E+06      -53.4105225      -609.566406
             3411   114.942488E+06      -57.472E+06   -57.471256E+06   344.826816E+06      -230.907471       113.717560
             3412   114.942224E+06   -57.472648E+06   -57.472296E+06   344.828256E+06       241.805954       424.369965
             3413   114.941472E+06    -57.47168E+06    -57.47086E+06   344.827136E+06       635.502319       780.876770
             3414   114.944832E+06   -57.471112E+06   -57.468808E+06      344.828E+06   2.72513110E+03   2.09655176E+03
             3415   114.939832E+06   -57.473728E+06    -57.47318E+06   344.828704E+06      -598.197754      -183.120148
             3416   114.942072E+06   -57.471864E+06    -57.47164E+06   344.828064E+06      -50.8736877      -63.9946365
             3417    114.94332E+06   -57.472672E+06   -57.471428E+06   344.829312E+06       498.204590       536.404297
             3418   114.943264E+06   -57.470068E+06   -57.471212E+06   344.828576E+06       161.771851      -395.718109
             3419    114.94616E+06    -57.46808E+06    -57.46836E+06   344.827328E+06      -79.1458664      -83.6159515
             3420    114.94032E+06    -57.47364E+06   -57.473264E+06   344.829344E+06       325.044556      -501.497620
             3421   114.940064E+06   -57.470088E+06   -57.472816E+06   344.827904E+06       823.950684      -98.6416550
             3422   114.952152E+06   -57.467248E+06   -57.464932E+06   344.826912E+06       954.426941       88.1675110
             3423   114.943744E+06   -57.469492E+06   -57.470128E+06   344.829056E+06      -103.712448      -81.9027557
             3424   114.941504E+06   -57.468688E+06   -57.469856E+06   344.828928E+06      -675.753906  -2.22145410E+03
             3425   114.941088E+06   -57.472444E+06   -57.472152E+06   344.827872E+06  -1.05889502E+03       23.3437366
             3426   114.942256E+06   -57.471728E+06   -57.471792E+06   344.828224E+06       82.0312271      -6.39968300
             3427   114.939744E+06   -57.476768E+06   -57.476328E+06   344.827584E+06      -245.869339       170.420532
             3428    114.94408E+06   -57.470736E+06    -57.47104E+06     344.8296E+06       842.345459       72.8967438
             3429   114.942592E+06    -57.47124E+06   -57.471092E+06   344.828224E+06      -116.897636      -61.2147217
             3430    114.94264E+06   -57.471516E+06   -57.471496E+06   344.827904E+06      -264.924164       47.2587128
             3431    114.94368E+06   -57.470248E+06   -57.470324E+06    344.82784E+06      -204.272217      -158.588150
             3432     114.9432E+06    -57.47174E+06   -57.471924E+06    344.82896E+06      -485.788269       553.597046
             3433    114.94368E+06    -57.47096E+06    -57.47202E+06   344.830464E+06      -756.210388       458.321869
             3434   114.949192E+06   -57.465544E+06   -57.465136E+06   344.827072E+06   1.78181067E+03       768.348389
             3435   114.943952E+06    -57.47152E+06   -57.471836E+06   344.829184E+06      -488.209045      -254.142868
             3436   114.942976E+06   -57.467156E+06   -57.467152E+06   344.827104E+06      -543.169189   1.21172876E+03
             3437   114.943056E+06   -57.471592E+06   -57.470196E+06   344.827712E+06       142.059006      -17.8684082
             3438   114.942384E+06   -57.471448E+06   -57.471212E+06   344.827712E+06       107.152664      -65.9548340
             3439   114.939472E+06   -57.472748E+06    -57.47334E+06   344.827904E+06       121.100906      -408.498535
             3440   114.943808E+06    -57.47114E+06   -57.470424E+06   344.828352E+06       129.807587      -174.479828
             3441   114.943288E+06   -57.471992E+06    -57.47022E+06   344.826528E+06      -468.452209      -378.136688
             3442   114.941768E+06   -57.473532E+06   -57.472892E+06   344.827872E+06      -352.215515      -448.347778
             3443     114.9456E+06   -57.469256E+06   -57.468512E+06   344.825856E+06   1.11369177E+03      -230.369049
             3444   114.938536E+06   -57.478824E+06    -57.47558E+06   344.827232E+06       104.379089      -108.772705
             3445   114.941432E+06   -57.468808E+06   -57.472212E+06   344.829312E+06       422.085144      -452.176331
             3446    114.94252E+06    -57.47128E+06   -57.471684E+06   344.827968E+06       95.9016647      -330.088379
             3447   114.943728E+06       -57.47E+06   -57.469224E+06   344.827232E+06       192.246902       111.460144
             3448   114.945304E+06   -57.470172E+06   -57.469264E+06   344.827584E+06       60.2756958      -457.555237
             3449   114.943224E+06   -57.471864E+06   -57.473328E+06   344.829376E+06      -482.322998      -116.603966
             3450   114.942416E+06   -57.471632E+06   -57.471456E+06   344.827712E+06       130.721954       590.174744
             3451   114.947184E+06   -57.466728E+06   -57.467536E+06   344.827968E+06       40.2046814       160.215561
             3452   114.942608E+06    -57.47126E+06   -57.471408E+06   344.828032E+06       88.2999191      -27.2833786
             3453   114.946776E+06   -57.468412E+06    -57.46456E+06   344.828544E+06  -4.74401465E+03  -3.53681177E+03
             3454    114.94196E+06   -57.471192E+06   -57.470952E+06   344.827392E+06      -439.187988       259.197510
             3455   114.949464E+06   -57.465484E+06   -57.465868E+06   344.826144E+06      -283.781128       622.934143
             3456       114.94E+06   -57.473076E+06    -57.47232E+06   344.825952E+06       415.070251       245.966736
             3457   114.941456E+06   -57.471624E+06   -57.472056E+06   344.827904E+06      -250.469193       171.016205
             3458   114.941704E+06   -57.471708E+06    -57.47176E+06   344.828032E+06      -138.281143      -52.2047768
             3459   114.931304E+06     -57.4787E+06   -57.475828E+06   344.825696E+06      -880.534607       959.418335
             3460   114.942976E+06    -57.47144E+06   -57.470976E+06   344.827456E+06      -91.5626373       137.798309
             3461   114.939504E+06   -57.470404E+06   -57.471808E+06   344.825664E+06   1.67481665E+03       397.273010
             3462    114.94248E+06   -57.471592E+06   -57.471652E+06    344.82816E+06      -89.8385925      -5.80867720
             3463    114.94144E+06   -57.474008E+06    -57.47216E+06    344.82752E+06      -642.223877      -259.634583
             3464   114.944128E+06   -57.468232E+06   -57.470352E+06   344.827744E+06      -23.9078979      -583.135132
             3465   114.930984E+06   -57.485168E+06    -57.48794E+06   344.828256E+06  -1.22665295E+03  -2.92831128E+03
             3466   114.944368E+06   -57.471336E+06    -57.46978E+06   344.827616E+06   1.37090381E+03       1.17652893
             3467   114.941928E+06   -57.474952E+06   -57.474384E+06   344.827488E+06   2.28321265E+03   1.11437671E+03
             3468   114.939872E+06   -57.466296E+06    -57.47088E+06   344.830816E+06      -502.256958      -688.144531
             3469   114.942648E+06   -57.472288E+06   -57.471816E+06   344.827808E+06      -13.3170166       468.189728
             3470   114.940416E+06   -57.470552E+06    -57.47212E+06      344.828E+06       855.069397      -94.6240387
             3471   114.942512E+06   -57.471208E+06   -57.471436E+06   344.827968E+06      -32.5659943      -32.0807686
             3472   114.943088E+06   -57.471752E+06   -57.471524E+06   344.828064E+06       198.188049       55.6435204
             3473   114.944192E+06   -57.471524E+06   -57.471744E+06   344.828864E+06      -211.264648      -602.373962
             3474   114.946816E+06   -57.468052E+06   -57.469232E+06   344.828736E+06       840.784668      -121.907578
             3475   114.925088E+06   -57.482448E+06    -57.48522E+06   344.829952E+06  -3.08150854E+03      -216.468384
             3476   114.952992E+06   -57.461036E+06   -57.464616E+06   344.826464E+06      -106.254272   2.65844727E+03
             3477   114.944296E+06   -57.470368E+06   -57.470368E+06   344.828096E+06       867.453918      -20.6982651
             3478   114.914432E+06   -57.485208E+06   -57.482568E+06   344.822592E+06  -3.12646533E+03   1.76134387E+03
             3479   114.967536E+06    -57.45286E+06   -57.457992E+06   344.834304E+06   5.94932617E+03      -220.804184
             3480   114.939344E+06   -57.473728E+06   -57.473768E+06   344.827456E+06      -857.835571       135.884262
             3481   114.940456E+06   -57.472328E+06   -57.471768E+06   344.826816E+06       235.042847       308.300781
             3482   114.963048E+06   -57.458828E+06   -57.460508E+06    344.82624E+06  -3.98051660E+03       235.333679
             3483   114.943264E+06   -57.472388E+06   -57.472728E+06   344.830208E+06  -1.53290759E+03  -1.43868103E+03
             3484    114.94752E+06   -57.467712E+06   -57.466244E+06   344.825504E+06      -434.374298      -182.582092
             3485   114.942496E+06   -57.471576E+06   -57.471376E+06    344.82704E+06       598.321594       435.166321
             3486   114.943208E+06   -57.471584E+06   -57.471452E+06    344.82864E+06      -672.259094      -428.829590
             3487    114.94788E+06   -57.464648E+06    -57.46728E+06   344.826944E+06      -527.544556       59.1337509
             3488    114.94248E+06    -57.47144E+06   -57.471592E+06   344.827776E+06       57.8855362       52.0668106
             3489   114.934368E+06   -57.472848E+06   -57.475472E+06   344.830848E+06  -1.28155774E+03   1.26829272E+03
             3490    114.94384E+06    -57.47042E+06     -57.4705E+06   344.827584E+06      -148.485001      -34.8038406
             3491   114.942432E+06   -57.471428E+06   -57.471488E+06   344.828064E+06      -94.1295471       15.1569729
             3492   114.944688E+06    -57.47078E+06     -57.4712E+06   344.829056E+06      -286.837585       413.661316
             3493   114.940272E+06   -57.472792E+06   -57.472212E+06   344.828704E+06   1.09816711E+03       610.175049
             3494   114.941616E+06   -57.471832E+06   -57.471752E+06   344.827776E+06      -289.383209      -132.958801
             3495   114.945808E+06   -57.462784E+06   -57.462708E+06     344.8232E+06  -3.48871289E+03       131.969589
             3496   114.942592E+06   -57.471612E+06   -57.471416E+06   344.828032E+06      -16.4452934      -26.1851616
             3497   114.928112E+06   -57.487788E+06   -57.485088E+06    344.83072E+06  -3.41981641E+03      -420.747864
             3498   114.935752E+06   -57.476932E+06   -57.476128E+06   344.826432E+06       77.4032669      -973.575378
             3499   114.941776E+06   -57.471216E+06   -57.472224E+06   344.827072E+06      -253.236969   1.01867126E+03
             3500   114.943808E+06   -57.470756E+06   -57.470868E+06   344.828288E+06      -258.401947       119.013260
             3501   114.942616E+06   -57.471552E+06   -57.471372E+06   344.828096E+06      -27.6669998       132.689957
             3502   114.935576E+06   -57.473024E+06   -57.472936E+06   344.825984E+06   6.10934473E+03   2.26369751E+03
             3503    114.94624E+06   -57.468008E+06     -57.4686E+06   344.826368E+06      -938.904419      -926.214111
             3504    114.94248E+06   -57.470952E+06   -57.471392E+06   344.827968E+06       34.5719604      -26.0805664
             3505   114.943016E+06    -57.47014E+06   -57.470056E+06   344.827296E+06      -224.053253       274.421600
             3506   114.947688E+06   -57.470248E+06   -57.469216E+06    344.82912E+06  -1.27631543E+03      -889.564270
             3507   114.944608E+06   -57.470224E+06   -57.469668E+06   344.827488E+06       122.723900      -167.171432
             3508   114.943168E+06   -57.471152E+06   -57.471012E+06   344.827968E+06      -726.697327  -1.91486108E+03
             3509    114.94064E+06   -57.472092E+06   -57.472156E+06   344.827072E+06       99.1518860       655.019226
             3510   114.942104E+06   -57.471412E+06   -57.471284E+06   344.827776E+06       118.269775       38.5865402
             3511     114.9452E+06   -57.467172E+06   -57.468856E+06   344.826144E+06   2.12859155E+03       151.634644
             3512   114.941952E+06   -57.472888E+06   -57.471548E+06   344.824896E+06   1.86433325E+03   1.80230444E+03
             3513    114.95052E+06   -57.457684E+06   -57.459612E+06    344.82992E+06   10.7551660E+03  -2.94596826E+03
             3514   114.942672E+06   -57.471024E+06    -57.47142E+06    344.82816E+06       15.6746931       349.557892
             3515   114.982216E+06   -57.434752E+06   -57.435612E+06   344.822048E+06  -3.16817041E+03  -2.20887549E+03
             3516   114.941536E+06   -57.471136E+06   -57.471248E+06    344.82752E+06      -610.346924      -165.072159
             3517   114.945768E+06   -57.468216E+06   -57.469072E+06    344.82768E+06       93.8051834       750.991089
             3518   114.946064E+06   -57.469028E+06   -57.470672E+06   344.826016E+06   1.58232874E+03  -1.06862964E+03
             3519      114.943E+06   -57.470916E+06   -57.471264E+06   344.828096E+06      -185.892334      -112.634773
             3520   114.942272E+06    -57.47134E+06   -57.471408E+06   344.827936E+06      -131.303619      -8.65845394
             3521   114.942296E+06   -57.471016E+06   -57.470808E+06   344.828032E+06      -353.476898       253.114822
             3522   114.920688E+06   -57.490768E+06    -57.49466E+06   344.837984E+06  -1.65818384E+03   1.85748169E+03
             3523    114.95536E+06    -57.46448E+06   -57.465896E+06    344.82496E+06   2.94178271E+03      -297.785889
             3524   114.943208E+06   -57.471008E+06   -57.471092E+06   344.827712E+06      -352.057312      -147.168488
             3525   114.942864E+06   -57.470632E+06   -57.471064E+06   344.828224E+06      -23.7771034       105.517838
             3526   114.935944E+06   -57.475376E+06   -57.476016E+06   344.826464E+06   1.07547632E+03       340.430542
             3527   114.942296E+06   -57.471456E+06    -57.47126E+06    344.82816E+06       94.7504730       185.341156
             3528    114.94208E+06   -57.471032E+06   -57.471328E+06   344.828352E+06       750.215881       749.055054
             3529    114.93288E+06   -57.485192E+06   -57.484384E+06     344.8344E+06   4.50045605E+03       17.5472717
             3530   114.942648E+06   -57.470232E+06    -57.46978E+06   344.827392E+06      -54.6102371       7.95923901
             3531   114.934376E+06   -57.472344E+06   -57.472912E+06    344.82944E+06  -2.14935083E+03      -496.578613
             3532   114.927296E+06   -57.471308E+06   -57.472676E+06   344.821568E+06  -4.90007373E+03   1.61997534E+03
             3533   114.943952E+06   -57.469792E+06    -57.47162E+06   344.827328E+06      -975.366455  -1.65788623E+03
             3534    114.94812E+06   -57.474952E+06   -57.469296E+06   344.833568E+06   2.56365894E+03      -373.840027
             3535   114.942512E+06   -57.473596E+06   -57.472768E+06   344.827584E+06       399.630707      -147.998672
             3536   114.942336E+06    -57.47026E+06      -57.471E+06    344.82896E+06       269.193268       113.553055
             3537     114.9366E+06   -57.469688E+06   -57.469588E+06   344.824064E+06       438.629211   1.18775830E+03
             3538   114.941808E+06   -57.471872E+06   -57.471604E+06   344.826304E+06       35.8814659       181.528152
             3539   114.980496E+06    -57.44844E+06   -57.448472E+06   344.824192E+06       643.080994   2.07595386E+03
             3540   114.955616E+06   -57.462656E+06    -57.46324E+06   344.827968E+06   1.82509814E+03      -758.124756
             3541    114.93436E+06   -57.479968E+06   -57.478988E+06   344.830496E+06   3.65749463E+03      -168.762115
             3542   114.943088E+06   -57.470312E+06   -57.471744E+06   344.827712E+06       518.060547      -430.827087
             3543   114.941344E+06   -57.475528E+06   -57.474792E+06   344.826976E+06      -148.263611      -44.5450249
             3544   114.943136E+06   -57.471368E+06   -57.471128E+06   344.827776E+06       203.636810       100.340034
             3545   114.943728E+06   -57.471056E+06   -57.470184E+06   344.827936E+06      -661.666199      -389.065002
             3546   114.943848E+06   -57.469676E+06   -57.469912E+06   344.827584E+06       647.801086       102.691025
             3547   114.947504E+06   -57.467208E+06   -57.467708E+06   344.829664E+06  -1.01099756E+03      -520.899902
             3548   114.924304E+06   -57.492544E+06   -57.494404E+06   344.837728E+06   8.06109961E+03       737.973999
             3549   114.948072E+06     -57.4666E+06   -57.467248E+06    344.83088E+06  -1.60336255E+03       74.0149689
             3550   114.942144E+06   -57.470204E+06   -57.471224E+06   344.827264E+06      -182.275970      -416.171173
             3551   114.943008E+06   -57.473304E+06   -57.472836E+06   344.828256E+06      -338.233093      -408.116089
             3552   114.945008E+06   -57.468724E+06   -57.468804E+06   344.827072E+06      -274.796875       54.0564156
             3553   114.942448E+06   -57.480472E+06   -57.477148E+06    344.83232E+06  -8.67501660E+03   1.06552161E+03
             3554   114.944192E+06   -57.468828E+06    -57.46984E+06    344.82752E+06       79.4821167      -202.915802
             3555   114.942008E+06   -57.471184E+06   -57.471844E+06    344.82816E+06      -168.154526      -524.049377
             3556   114.942616E+06   -57.471192E+06    -57.47136E+06   344.828064E+06       20.2178478      -48.2677536
             3557   114.942912E+06   -57.470896E+06   -57.471216E+06   344.828032E+06       43.4602394       94.3295059
             3558   114.795168E+06   -57.584408E+06   -57.577048E+06    344.82992E+06   5.88509131E+03       616.970337
             3559   114.945664E+06   -57.469456E+06   -57.470928E+06   344.827904E+06       13.0489082      -478.902557
             3560    114.94508E+06   -57.471504E+06   -57.471056E+06   344.828544E+06      -564.175659      -396.243744
             3561   114.944232E+06     -57.4688E+06   -57.470004E+06   344.828416E+06   1.26895825E+03       574.579529
             3562   115.037344E+06    -57.40468E+06   -57.405808E+06   344.825344E+06  -5.05041992E+03   1.30261182E+03
             3563   114.942928E+06   -57.461496E+06   -57.462728E+06   344.820928E+06  -9.15836621E+03   3.86770483E+03
             3564   114.943224E+06    -57.46926E+06   -57.465844E+06   344.822976E+06  -2.29912695E+03       306.828491
             3565   114.931048E+06   -57.486208E+06   -57.486704E+06   344.836416E+06   8.65170117E+03  -1.11758960E+03
             3566   114.941936E+06   -57.472552E+06   -57.472104E+06   344.828224E+06      -89.1287231       328.778503
             3567   114.940568E+06   -57.470916E+06   -57.470292E+06   344.826112E+06      -561.360535      -470.676392
             3568   114.930848E+06    -57.47988E+06   -57.477872E+06    344.82976E+06       508.958374      -334.287140
             3569   114.940424E+06   -57.465928E+06   -57.465956E+06   344.824896E+06  -6.24784814E+03      -314.961945
             3570   114.930912E+06   -57.483176E+06   -57.481896E+06   344.833664E+06   1.10575488E+03       57.6953011
             3571   114.947568E+06   -57.467928E+06   -57.468304E+06   344.828928E+06  -2.40576855E+03      -473.584595
             3572   114.961944E+06   -57.462456E+06    -57.45722E+06   344.826144E+06       477.913818  -1.40816211E+03
             3573   114.954208E+06   -57.467696E+06   -57.470256E+06   344.825248E+06   3.90958984E+03   6.67934863E+03
             3574   114.944976E+06   -57.470608E+06     -57.4696E+06   344.827776E+06       216.342026       19.8783417
             3575   114.949248E+06   -57.471484E+06   -57.470256E+06   344.833664E+06  -1.18718176E+03      -172.026199
             3576    114.94188E+06   -57.476976E+06   -57.477064E+06   344.827136E+06  -3.97405054E+03      -872.733032
             3577   114.941512E+06   -57.471916E+06   -57.471708E+06    344.82944E+06       976.267883   1.17713184E+03
             3578   114.927536E+06   -57.478564E+06   -57.477396E+06   344.820416E+06       520.056152  -1.67909326E+03
             3579   114.940552E+06     -57.4703E+06   -57.470276E+06   344.825344E+06       647.774170       900.199463
             3580   114.942624E+06   -57.471236E+06   -57.471384E+06   344.828032E+06      -10.6512985      -5.09666443
             3581   114.942288E+06   -57.471624E+06   -57.472232E+06   344.827872E+06      -699.963257      -273.406708
             3582   114.942176E+06   -57.470728E+06   -57.471656E+06    344.82816E+06      -176.056030      -185.089966
             3583   114.938344E+06   -57.476832E+06   -57.474096E+06   344.827456E+06       65.0826263      -353.491821
             3584   114.931888E+06   -57.482388E+06   -57.482792E+06   344.829248E+06      -5.42523956   1.10669690E+03
             3585    114.93428E+06    -57.46882E+06    -57.47292E+06   344.826432E+06   5.51003809E+03  -1.73579663E+03
             3586   114.942696E+06   -57.471136E+06   -57.471208E+06   344.827328E+06       431.038971       126.330292
             3587   114.912176E+06   -57.492716E+06   -57.493788E+06   344.832864E+06  -6.91080371E+03       83.7617035
             3588   114.932208E+06   -57.470256E+06   -57.471616E+06   344.828608E+06   1.41488904E+03  -3.67838184E+03
             3589   114.979328E+06   -57.441088E+06    -57.43704E+06   344.815872E+06   4.48868945E+03  -1.99801965E+03
             3590   114.938144E+06   -57.475448E+06   -57.475904E+06   344.829408E+06       768.134399      -599.455933
             3591   114.942552E+06   -57.471312E+06   -57.472368E+06   344.828224E+06      -34.8135986       48.7203979
             3592   114.931288E+06    -57.47806E+06   -57.477948E+06   344.825856E+06      -554.020264  -1.55952832E+03
             3593    114.94132E+06   -57.472184E+06   -57.472688E+06   344.827712E+06       6.14710236  -1.14030725E+03
             3594   114.944544E+06   -57.469016E+06   -57.469184E+06   344.826304E+06      -735.395752      -99.9112015
             3595   114.947872E+06   -57.467256E+06   -57.468088E+06    344.83072E+06  -3.27554004E+03       563.926880
             3596   114.937992E+06   -57.474552E+06   -57.475028E+06   344.828288E+06   1.41796289E+03      -98.4381104
             3597   114.942928E+06   -57.470588E+06   -57.470732E+06    344.82784E+06       209.112564       226.962189
             3598   114.942736E+06   -57.471328E+06     -57.4711E+06   344.828096E+06       184.254852       79.2210922
             3599   114.942632E+06   -57.471468E+06   -57.471592E+06   344.827904E+06       856.166626      -391.700134
             3600   114.942504E+06   -57.470864E+06   -57.471852E+06    344.82864E+06      -835.085815      -350.265930
             3601   114.936992E+06   -57.467524E+06   -57.470444E+06    344.82512E+06       224.412354  -1.74049316E+03
             3602    114.94044E+06   -57.472356E+06   -57.475264E+06    344.83312E+06       81.2083130  -1.72860608E+03
             3603    114.93916E+06   -57.474456E+06   -57.473912E+06   344.829248E+06  -1.41301611E+03      -409.343079
             3604   114.942896E+06   -57.471124E+06   -57.471396E+06    344.82784E+06       78.1786880      -88.3745422
             3605   114.944944E+06    -57.47112E+06   -57.470904E+06   344.829952E+06      -763.309082       431.327209
             3606    114.94256E+06   -57.470796E+06   -57.471068E+06   344.828128E+06      -7.04014015      -25.7226486
             3607   114.924328E+06   -57.482212E+06   -57.482004E+06   344.827712E+06   2.17523047E+03  -2.20071313E+03
             3608     114.9496E+06     -57.4696E+06   -57.469416E+06   344.826912E+06  -1.06600293E+03      -325.995300
             3609   114.942936E+06   -57.471136E+06   -57.471296E+06   344.828032E+06       90.8706207       85.4407196
             3610   114.942768E+06   -57.470124E+06   -57.470748E+06   344.827264E+06       470.968353      -336.376923
             3611    114.94264E+06   -57.471408E+06    -57.47136E+06   344.827776E+06       6.24431896      -155.520721
             3612   114.942896E+06   -57.471536E+06   -57.471128E+06      344.828E+06       240.282684       74.1280670
             3613   114.944192E+06   -57.469772E+06   -57.469328E+06   344.827456E+06       353.636169      -267.188599
             3614   114.926896E+06   -57.473424E+06   -57.476012E+06   344.821216E+06  -4.04661279E+03  -1.81132300E+03
             3615   114.937936E+06   -57.475724E+06   -57.476376E+06   344.826688E+06      -495.815643      -194.663269
             3616     114.9522E+06   -57.461208E+06   -57.468232E+06   344.830496E+06      -892.792969  -3.28555469E+03
             3617    114.93832E+06    -57.47808E+06    -57.47706E+06    344.83136E+06   1.96908386E+03       206.161545
             3618   114.941928E+06   -57.469048E+06      -57.473E+06    344.82864E+06       291.722412      -301.426941
             3619   114.939176E+06     -57.4721E+06     -57.4667E+06   344.823424E+06       434.918274      -706.811035
             3620   114.937496E+06   -57.477248E+06   -57.474688E+06   344.828288E+06       473.657349       403.443909
             3621     114.9456E+06   -57.469868E+06    -57.46924E+06   344.827424E+06       128.465271      -268.289490
             3622   114.943792E+06   -57.470232E+06   -57.470824E+06   344.827584E+06      -273.674164      -146.476746
             3623   114.941208E+06   -57.472428E+06    -57.47126E+06   344.827136E+06  -659.339905E-03      -30.0333099


  Minimum           114.795168E+06   -57.584408E+06   -57.577048E+06    344.81024E+06  -18.8647773E+03  -5.28146631E+03
       At Element             3558             3558             3558             2116             1118             3343

  Maximum           115.037344E+06    -57.40468E+06   -57.405808E+06    344.84544E+06   11.7674424E+03   6.67934863E+03
       At Element             3562             3562             3562             2700             2236             3573

            Total   416.437082E+09  -208.218646E+09  -208.218677E+09   1.24931181E+12   58.8734479E+03   8.12106564E+03


