********************************************************************************
Field Output Report, written Sun Jan 13 14:52:35 2019

Source 1
---------

   ODB: C:/AbaqusTemp/Job-flatsheet_local_dir_NO.odb
   Step: Step-1
   Frame: Increment      1: Step Time =    1.000

Loc 1 : Nodal values at shell < MATERIAL-1 > < 5 section points > from source 1 : SNEG, (fraction = -1.0)
Loc 2 : Nodal values at shell < MATERIAL-1 > < 5 section points > from source 1 : SPOS, (fraction = 1.0)

Output sorted by column "Node Label".

Field Output reported at nodes for part: PART-1-1
   Computation algorithm: EXTRAPOLATE_COMPUTE_AVERAGE
   Averaged at nodes
   Averaging regions: ODB_REGIONS

       Node Label            S.S11            S.S11            S.S22            S.S22            S.S33            S.S33            S.S12            S.S12
                            @Loc 1           @Loc 2           @Loc 1           @Loc 2           @Loc 1           @Loc 2           @Loc 1           @Loc 2
----------------------------------------------------------------------------------------------------------------------------------------------------------
                1   -10.241561E+06   -10.241561E+06    160.04144E+06    160.04144E+06               0.               0.   340.565984E+06   340.565984E+06
                2   -10.241561E+06   -10.241561E+06    160.04144E+06    160.04144E+06               0.               0.   340.565984E+06   340.565984E+06
                3   -10.241561E+06   -10.241561E+06    160.04144E+06    160.04144E+06               0.               0.   340.565984E+06   340.565984E+06
                4   -10.241561E+06   -10.241561E+06    160.04144E+06    160.04144E+06               0.               0.   340.565984E+06   340.565984E+06
                5   -10.241561E+06   -10.241561E+06    160.04144E+06    160.04144E+06               0.               0.   340.565984E+06   340.565984E+06
                6   -10.241561E+06   -10.241561E+06    160.04144E+06    160.04144E+06               0.               0.   340.565984E+06   340.565984E+06
                7   -10.241561E+06   -10.241561E+06    160.04144E+06    160.04144E+06               0.               0.   340.565984E+06   340.565984E+06
                8   -10.241561E+06   -10.241561E+06    160.04144E+06    160.04144E+06               0.               0.   340.565984E+06   340.565984E+06
                9   -10.241561E+06   -10.241561E+06    160.04144E+06    160.04144E+06               0.               0.   340.565984E+06   340.565984E+06
               10   -10.241561E+06   -10.241561E+06    160.04144E+06    160.04144E+06               0.               0.   340.565984E+06   340.565984E+06
               11   -10.241561E+06   -10.241561E+06    160.04144E+06    160.04144E+06               0.               0.   340.565984E+06   340.565984E+06
               12   -10.241561E+06   -10.241561E+06    160.04144E+06    160.04144E+06               0.               0.   340.565984E+06   340.565984E+06
               13   -10.241561E+06   -10.241561E+06    160.04144E+06    160.04144E+06               0.               0.   340.565984E+06   340.565984E+06
               14   -10.241561E+06   -10.241561E+06    160.04144E+06    160.04144E+06               0.               0.   340.565984E+06   340.565984E+06
               15   -10.241561E+06   -10.241561E+06    160.04144E+06    160.04144E+06               0.               0.   340.565984E+06   340.565984E+06
               16   -10.241561E+06   -10.241561E+06    160.04144E+06    160.04144E+06               0.               0.   340.565984E+06   340.565984E+06
               17   -10.241561E+06   -10.241561E+06    160.04144E+06    160.04144E+06               0.               0.   340.565984E+06   340.565984E+06
               18   -10.241561E+06   -10.241561E+06    160.04144E+06    160.04144E+06               0.               0.   340.565984E+06   340.565984E+06
               19   -10.241561E+06   -10.241561E+06    160.04144E+06    160.04144E+06               0.               0.   340.565984E+06   340.565984E+06
               20   -10.241561E+06   -10.241561E+06    160.04144E+06    160.04144E+06               0.               0.   340.565984E+06   340.565984E+06
               21   -10.241561E+06   -10.241561E+06    160.04144E+06    160.04144E+06               0.               0.   340.565984E+06   340.565984E+06
               22   -10.241561E+06   -10.241561E+06    160.04144E+06    160.04144E+06               0.               0.   340.565984E+06   340.565984E+06
               23   -10.241561E+06   -10.241561E+06    160.04144E+06    160.04144E+06               0.               0.   340.565984E+06   340.565984E+06
               24   -10.241561E+06   -10.241561E+06    160.04144E+06    160.04144E+06               0.               0.   340.565984E+06   340.565984E+06
               25   -10.241561E+06   -10.241561E+06    160.04144E+06    160.04144E+06               0.               0.   340.565984E+06   340.565984E+06
               26   -10.241561E+06   -10.241561E+06    160.04144E+06    160.04144E+06               0.               0.   340.565984E+06   340.565984E+06
               27   -10.241561E+06   -10.241561E+06    160.04144E+06    160.04144E+06               0.               0.   340.565984E+06   340.565984E+06
               28   -10.241561E+06   -10.241561E+06    160.04144E+06    160.04144E+06               0.               0.   340.565984E+06   340.565984E+06
               29   -10.241561E+06   -10.241561E+06    160.04144E+06    160.04144E+06               0.               0.   340.565984E+06   340.565984E+06
               30   -10.241561E+06   -10.241561E+06    160.04144E+06    160.04144E+06               0.               0.   340.565984E+06   340.565984E+06
               31   -10.241561E+06   -10.241561E+06    160.04144E+06    160.04144E+06               0.               0.   340.565984E+06   340.565984E+06
               32   -10.241561E+06   -10.241561E+06    160.04144E+06    160.04144E+06               0.               0.   340.565984E+06   340.565984E+06
               33   -10.241561E+06   -10.241561E+06    160.04144E+06    160.04144E+06               0.               0.   340.565984E+06   340.565984E+06
               34   -10.241561E+06   -10.241561E+06    160.04144E+06    160.04144E+06               0.               0.   340.565984E+06   340.565984E+06
               35   -10.241561E+06   -10.241561E+06    160.04144E+06    160.04144E+06               0.               0.   340.565984E+06   340.565984E+06
               36   -10.241561E+06   -10.241561E+06    160.04144E+06    160.04144E+06               0.               0.   340.565984E+06   340.565984E+06
               37   -10.241561E+06   -10.241561E+06    160.04144E+06    160.04144E+06               0.               0.   340.565984E+06   340.565984E+06
               38   -10.241561E+06   -10.241561E+06    160.04144E+06    160.04144E+06               0.               0.   340.565984E+06   340.565984E+06
               39   -10.241561E+06   -10.241561E+06    160.04144E+06    160.04144E+06               0.               0.   340.565984E+06   340.565984E+06
               40   -10.241561E+06   -10.241561E+06    160.04144E+06    160.04144E+06               0.               0.   340.565984E+06   340.565984E+06
               41   -10.241561E+06   -10.241561E+06    160.04144E+06    160.04144E+06               0.               0.   340.565984E+06   340.565984E+06
               42   -10.241561E+06   -10.241561E+06    160.04144E+06    160.04144E+06               0.               0.   340.565984E+06   340.565984E+06
               43   -10.241561E+06   -10.241561E+06    160.04144E+06    160.04144E+06               0.               0.   340.565984E+06   340.565984E+06
               44   -10.241561E+06   -10.241561E+06    160.04144E+06    160.04144E+06               0.               0.   340.565984E+06   340.565984E+06
               45   -10.241561E+06   -10.241561E+06    160.04144E+06    160.04144E+06               0.               0.   340.565984E+06   340.565984E+06
               46   -10.241561E+06   -10.241561E+06    160.04144E+06    160.04144E+06               0.               0.   340.565984E+06   340.565984E+06
               47   -10.241561E+06   -10.241561E+06    160.04144E+06    160.04144E+06               0.               0.   340.565984E+06   340.565984E+06
               48   -10.241561E+06   -10.241561E+06    160.04144E+06    160.04144E+06               0.               0.   340.565984E+06   340.565984E+06
               49   -10.241561E+06   -10.241561E+06    160.04144E+06    160.04144E+06               0.               0.   340.565984E+06   340.565984E+06
               50   -10.241561E+06   -10.241561E+06    160.04144E+06    160.04144E+06               0.               0.   340.565984E+06   340.565984E+06
               51   -10.241561E+06   -10.241561E+06    160.04144E+06    160.04144E+06               0.               0.   340.565984E+06   340.565984E+06
               52   -10.241561E+06   -10.241561E+06    160.04144E+06    160.04144E+06               0.               0.   340.565984E+06   340.565984E+06
               53   -10.241561E+06   -10.241561E+06    160.04144E+06    160.04144E+06               0.               0.   340.565984E+06   340.565984E+06
               54   -10.241561E+06   -10.241561E+06    160.04144E+06    160.04144E+06               0.               0.   340.565984E+06   340.565984E+06
               55   -10.241561E+06   -10.241561E+06    160.04144E+06    160.04144E+06               0.               0.   340.565984E+06   340.565984E+06
               56   -10.241561E+06   -10.241561E+06    160.04144E+06    160.04144E+06               0.               0.   340.565984E+06   340.565984E+06
               57   -10.241561E+06   -10.241561E+06    160.04144E+06    160.04144E+06               0.               0.   340.565984E+06   340.565984E+06
               58   -10.241561E+06   -10.241561E+06    160.04144E+06    160.04144E+06               0.               0.   340.565984E+06   340.565984E+06
               59   -10.241561E+06   -10.241561E+06    160.04144E+06    160.04144E+06               0.               0.   340.565984E+06   340.565984E+06
               60   -10.241561E+06   -10.241561E+06    160.04144E+06    160.04144E+06               0.               0.   340.565984E+06   340.565984E+06
               61   -10.241561E+06   -10.241561E+06    160.04144E+06    160.04144E+06               0.               0.   340.565984E+06   340.565984E+06
               62   -10.241561E+06   -10.241561E+06    160.04144E+06    160.04144E+06               0.               0.   340.565984E+06   340.565984E+06
               63   -10.241561E+06   -10.241561E+06    160.04144E+06    160.04144E+06               0.               0.   340.565984E+06   340.565984E+06
               64   -10.241561E+06   -10.241561E+06    160.04144E+06    160.04144E+06               0.               0.   340.565984E+06   340.565984E+06
               65   -10.241561E+06   -10.241561E+06    160.04144E+06    160.04144E+06               0.               0.   340.565984E+06   340.565984E+06
               66   -10.241561E+06   -10.241561E+06    160.04144E+06    160.04144E+06               0.               0.   340.565984E+06   340.565984E+06


  Minimum           -10.241561E+06   -10.241561E+06    160.04144E+06    160.04144E+06               0.               0.   340.565984E+06   340.565984E+06
          At Node               66               66               66               66               66               66               66               66

  Maximum           -10.241561E+06   -10.241561E+06    160.04144E+06    160.04144E+06               0.               0.   340.565984E+06   340.565984E+06
          At Node               66               66               66               66               66               66               66               66

            Total  -675.943026E+06  -675.943026E+06   10.5627350E+09   10.5627350E+09               0.               0.   22.4773549E+09   22.4773549E+09


