********************************************************************************
Field Output Report, written Mon Jan 14 00:39:46 2019

Source 1
---------

   ODB: C:/AbaqusTemp/SolidSphere_linear.odb
   Step: Step-1
   Frame: Increment      1: Step Time =    1.000

Loc 1 : Centroidal values from source 1

Output sorted by column "Element Label".

Field Output reported at element centroid for part: PART-1-1

          Element            S.S11            S.S22            S.S33            S.S12            S.S13            S.S23
            Label           @Loc 1           @Loc 1           @Loc 1           @Loc 1           @Loc 1           @Loc 1
------------------------------------------------------------------------------------------------------------------------
                1    114.94312E+06   -57.470672E+06   -57.470732E+06   344.827904E+06       41.3244629       70.0651932
                2   114.943528E+06    -57.47048E+06   -57.470468E+06   344.827872E+06       31.4370899       89.5310593
                3   114.942696E+06    -57.47104E+06   -57.471216E+06    344.82784E+06       39.3748589       56.8752594
                4   114.942656E+06    -57.47142E+06   -57.471536E+06    344.82816E+06      -18.7610035       33.5639191
                5   114.944288E+06   -57.469636E+06    -57.46994E+06      344.828E+06       61.1191940      -19.5256100
                6    114.94312E+06   -57.471084E+06     -57.4712E+06    344.82816E+06       59.6372147       19.2073135
                7   114.942832E+06   -57.470804E+06   -57.471228E+06    344.82784E+06       252.262161      -6.80490685
                8    114.94804E+06   -57.464892E+06   -57.465144E+06   344.826784E+06       377.276825      -365.744232
                9   114.944152E+06   -57.469112E+06   -57.470272E+06    344.82848E+06       64.0280609       12.1198454
               10   114.944384E+06   -57.469136E+06   -57.469788E+06    344.82784E+06       24.1512108      -132.717056
               11    114.94436E+06   -57.469004E+06   -57.469624E+06   344.827648E+06       238.389282       48.7111816
               12    114.94304E+06   -57.470252E+06   -57.470948E+06   344.827808E+06       49.2691841       142.069366
               13   114.952608E+06   -57.455068E+06   -57.456104E+06   344.821184E+06  -5.02043604E+03      -502.286652
               14   114.943368E+06   -57.470184E+06    -57.47084E+06      344.828E+06      -53.9811630      -33.4882622
               15   114.946272E+06   -57.468592E+06   -57.468144E+06   344.826944E+06      -91.8341446      -184.568573
               16   114.942968E+06   -57.472748E+06    -57.47186E+06   344.827552E+06      -127.874268      -160.899765
               17    114.94476E+06    -57.46936E+06   -57.469376E+06   344.827488E+06       59.5007095       36.2228508
               18   114.941992E+06   -57.471796E+06   -57.471996E+06   344.828032E+06       4.60741329      -123.642944
               19   114.944576E+06   -57.468868E+06   -57.468984E+06    344.82816E+06       119.285515       161.944260
               20   114.942192E+06   -57.472092E+06   -57.471932E+06   344.828288E+06      -4.57515430      -200.996841
               21   114.937592E+06    -57.47854E+06    -57.47812E+06   344.832032E+06   2.60623682E+03       320.773224
               22    114.94336E+06   -57.471712E+06    -57.47152E+06   344.827424E+06       621.465088       484.348785
               23   114.945832E+06   -57.468336E+06   -57.467788E+06   344.827328E+06       90.6978760  -1.12439880E+03
               24   114.939128E+06   -57.474692E+06   -57.474004E+06   344.828448E+06      -108.675446      -180.741516
               25   114.943072E+06   -57.471672E+06   -57.470792E+06   344.827104E+06      -312.588745       41.3378410
               26   114.942144E+06   -57.472004E+06   -57.471956E+06   344.828096E+06       75.8299103       200.361649
               27   114.937416E+06    -57.47576E+06   -57.475212E+06   344.828064E+06       279.077454      -91.5332794
               28   114.944032E+06    -57.46986E+06   -57.469988E+06   344.827648E+06       60.8496246      -105.584839
               29    114.94624E+06   -57.468856E+06   -57.468496E+06    344.82704E+06      -203.376877      -126.320137
               30   114.947784E+06    -57.46862E+06   -57.468404E+06   344.829632E+06      -590.508423       130.386368
               31   114.942736E+06   -57.471328E+06   -57.471276E+06   344.827744E+06       79.3774567       52.2601929
               32    114.94288E+06   -57.471364E+06    -57.47132E+06   344.827936E+06       95.9810638       39.3474617
               33   114.942208E+06     -57.4715E+06   -57.471344E+06   344.827872E+06       255.850525      -24.2262993
               34   114.940416E+06   -57.473236E+06   -57.472672E+06   344.827968E+06      -266.870026      -57.1769066
               35   114.941432E+06   -57.472452E+06   -57.472296E+06    344.82784E+06      -89.4334183      -150.150940
               36     114.9446E+06   -57.469224E+06    -57.46886E+06   344.827392E+06      -391.730530      -10.2580891
               37    114.94116E+06   -57.472384E+06   -57.472268E+06   344.827904E+06       91.9483109      -24.2927361
               38   114.934416E+06    -57.47724E+06   -57.477304E+06    344.82784E+06      -78.7026062      -103.299225
               39   114.942712E+06   -57.471204E+06   -57.470844E+06   344.827936E+06      -259.424042      -28.1948547
               40     114.9432E+06   -57.470904E+06   -57.470704E+06   344.827744E+06       396.834686       344.376617
               41   114.943272E+06   -57.470224E+06   -57.470676E+06   344.827904E+06      -11.9200773       155.492264
               42   114.943712E+06   -57.470056E+06   -57.470044E+06    344.82768E+06       146.972641       189.844040
               43   114.943176E+06   -57.470832E+06   -57.470844E+06   344.827808E+06       76.4015808       30.7575932
               44   114.943784E+06     -57.4699E+06   -57.470388E+06   344.827872E+06      -87.1150131       103.130478
               45   114.943424E+06   -57.470736E+06   -57.470696E+06   344.827872E+06      -16.2053547      -88.6243057
               46   114.943248E+06   -57.470884E+06    -57.47094E+06   344.828096E+06       108.591942      -2.62848234
               47   114.943688E+06   -57.470404E+06   -57.470484E+06   344.827904E+06      -30.0308304      -128.339996
               48   114.942592E+06   -57.471552E+06   -57.471496E+06    344.82784E+06       46.2222214      -48.3638458
               49   114.943264E+06   -57.470736E+06   -57.470832E+06   344.828096E+06       123.229752       27.8346405
               50   114.942008E+06    -57.47076E+06    -57.47168E+06   344.828256E+06      -173.412338      -65.7310867
               51   114.947016E+06   -57.465332E+06   -57.466104E+06   344.826624E+06      -445.122742      -60.3419456
               52   114.942632E+06    -57.47092E+06   -57.471124E+06   344.827712E+06       43.1925621       64.1451645
               53   114.938816E+06   -57.473288E+06    -57.47306E+06   344.827808E+06       109.115547       459.464905
               54   114.943208E+06   -57.470236E+06    -57.47026E+06   344.827168E+06       77.5798340       18.2920456
               55   114.947424E+06    -57.46398E+06   -57.465444E+06    344.82768E+06   1.41126587E+03   1.95901978E+03
               56   114.932248E+06   -57.478392E+06   -57.477428E+06   344.826592E+06      -735.640015       336.758911
               57   114.972664E+06   -57.451948E+06   -57.450356E+06   344.828192E+06   1.93052893E+03       112.966118
               58   114.943096E+06   -57.468976E+06   -57.470132E+06   344.827424E+06      -162.678040       493.908813
               59   114.943856E+06   -57.470296E+06   -57.470232E+06    344.82816E+06       139.577133       287.117828
               60   114.937112E+06   -57.474424E+06   -57.474496E+06   344.828608E+06       379.681305      -255.192947
               61   114.940568E+06   -57.472536E+06     -57.4744E+06   344.828544E+06       755.699280       290.126038
               62   114.938624E+06   -57.473404E+06   -57.473696E+06    344.82848E+06       656.784180      -410.850342
               63    114.94332E+06   -57.470776E+06   -57.470892E+06   344.828128E+06       20.3173752       16.4909286
               64   114.942872E+06   -57.471324E+06   -57.471364E+06   344.828192E+06       21.2285252       12.0025635
               65   114.942648E+06     -57.4715E+06   -57.471632E+06   344.828192E+06      -29.4081173  -251.888931E-03
               66   114.942792E+06   -57.471276E+06   -57.471492E+06   344.828256E+06      -20.7537193       114.339798
               67    114.94024E+06   -57.473352E+06   -57.473548E+06   344.828512E+06       263.412476      -19.6172886
               68   114.943056E+06   -57.470464E+06   -57.470848E+06   344.828256E+06      -135.070358      -44.9736710
               69    114.94288E+06   -57.470784E+06   -57.471128E+06   344.828256E+06      -48.9181862      -46.7406273
               70    114.94316E+06   -57.470644E+06    -57.47106E+06    344.82832E+06       144.343430       110.975357
               71   114.942832E+06   -57.471248E+06   -57.471428E+06   344.828256E+06      -14.1432123       40.6501999
               72   114.944728E+06   -57.468504E+06   -57.468984E+06   344.827424E+06       60.1565285       2.41127419
               73   114.942856E+06    -57.47124E+06   -57.471504E+06    344.82816E+06       123.679291      -35.1309738
               74   114.942248E+06   -57.471524E+06   -57.471964E+06    344.82832E+06      -85.9867554      -45.7331047
               75   114.943256E+06   -57.470212E+06    -57.47104E+06   344.828224E+06      -14.4362164       68.6757965
               76   114.943352E+06   -57.470392E+06   -57.470852E+06   344.828192E+06      -44.1463509       84.4946060
               77   114.942832E+06   -57.471232E+06    -57.47132E+06   344.828128E+06      -43.1209641       31.2930565
               78   114.944552E+06   -57.469072E+06   -57.469796E+06   344.828128E+06       143.899246      -22.2543335
               79   114.943184E+06   -57.470328E+06    -57.47114E+06   344.828288E+06   63.9207289E-03       65.5009918
               80   114.943576E+06    -57.47038E+06   -57.470404E+06   344.828064E+06       197.622574      -160.868362
               81   114.941112E+06   -57.472764E+06   -57.473388E+06   344.827776E+06       499.476563      -75.4522858
               82   114.946136E+06   -57.467784E+06   -57.466936E+06   344.827616E+06       729.782166      -601.587646
               83    114.94172E+06    -57.47276E+06   -57.472548E+06   344.828128E+06       425.007935      -151.206284
               84   114.942832E+06   -57.472248E+06   -57.471492E+06   344.828384E+06      -51.2394638      -228.657059
               85   114.940608E+06    -57.47472E+06   -57.474144E+06    344.82848E+06       217.393784       74.7372131
               86   114.943168E+06   -57.472468E+06   -57.471744E+06   344.828512E+06       665.301697       53.2491455
               87   114.944368E+06    -57.46942E+06    -57.46958E+06   344.827552E+06       90.7722244       6.60249138
               88   114.942824E+06   -57.471632E+06   -57.471364E+06      344.828E+06       88.8086777      -104.953369
               89   114.942904E+06   -57.473692E+06   -57.472072E+06   344.828576E+06      -395.395935      -414.020020
               90   114.942728E+06   -57.471272E+06    -57.47122E+06   344.828224E+06      -5.27912235      -52.6098747
               91    114.94396E+06   -57.469728E+06   -57.470208E+06   344.828384E+06       75.0288773       125.247948
               92   114.944016E+06   -57.469828E+06   -57.469388E+06   344.828032E+06      -59.3249626      -3.18254495
               93   114.943752E+06   -57.470336E+06    -57.47042E+06      344.828E+06       2.97741318      -80.2245789
               94   114.942808E+06   -57.470996E+06   -57.471492E+06   344.828032E+06       37.5730438      -158.936111
               95   114.944168E+06   -57.469756E+06   -57.469852E+06   344.827904E+06       158.323898      -89.3434219
               96   114.942696E+06   -57.471316E+06   -57.471396E+06   344.828128E+06       94.6455307       32.0732803
               97    114.94324E+06   -57.470796E+06   -57.470968E+06    344.82816E+06       206.254669      -20.8794899
               98   114.943584E+06   -57.470284E+06   -57.470412E+06      344.828E+06       112.499092      -79.6259460
               99   114.937936E+06   -57.474844E+06    -57.47478E+06      344.828E+06       15.0690336      -139.438812
              100   114.942816E+06   -57.470764E+06   -57.471096E+06   344.828128E+06      -64.1480484      -30.0335541
              101   114.946024E+06   -57.469648E+06   -57.469684E+06    344.82896E+06       755.949219       176.158005
              102     114.9428E+06   -57.470688E+06     -57.4714E+06   344.828352E+06       17.0554962      -54.5764351
              103   114.942248E+06    -57.47168E+06   -57.472056E+06   344.828352E+06       81.6553040       8.58091164
              104   114.943408E+06   -57.470696E+06   -57.470708E+06   344.828096E+06       166.581177      -24.3966599
              105   114.942384E+06   -57.471408E+06    -57.47166E+06   344.828256E+06      -96.5620346      -120.100471
              106   114.946664E+06   -57.467188E+06   -57.467292E+06   344.827744E+06       565.256592      -16.4979534
              107   114.940696E+06    -57.47358E+06   -57.474972E+06   344.829568E+06      -275.079865       619.213013
              108   114.941552E+06   -57.472864E+06   -57.473656E+06    344.82944E+06      -322.397858       512.427979
              109   114.946992E+06   -57.466948E+06   -57.467416E+06     344.8288E+06       125.357933       356.510284
              110   114.945648E+06   -57.468012E+06   -57.466768E+06   344.828576E+06       184.408112       376.579895
              111    114.94352E+06    -57.47052E+06   -57.470024E+06   344.827936E+06       37.8512459      -151.938965
              112   114.943632E+06   -57.470088E+06   -57.470112E+06    344.82864E+06       289.183441       669.463379
              113   114.943568E+06   -57.470148E+06   -57.470364E+06   344.828832E+06       991.102295       325.322235
              114   114.953328E+06   -57.462208E+06     -57.4623E+06     344.8296E+06       814.619934       681.580322
              115   114.950904E+06   -57.464284E+06    -57.46398E+06   344.828736E+06   1.03408032E+03       865.676392
              116   114.945016E+06   -57.469652E+06    -57.46964E+06   344.828384E+06       6.54247427  -288.857162E-03
              117   114.942768E+06   -57.471368E+06   -57.471276E+06   344.828064E+06       115.089523       33.6365356
              118   114.943744E+06     -57.4699E+06   -57.470076E+06   344.827776E+06       375.845642       24.4137383
              119   114.942912E+06   -57.470648E+06   -57.470752E+06      344.828E+06       181.377930      -13.7575178
              120   114.943912E+06   -57.469204E+06   -57.469492E+06   344.827936E+06      -15.0408478      -236.663864
              121   114.938976E+06   -57.474084E+06   -57.474032E+06   344.828224E+06      -109.756989      -139.222412
              122     114.9414E+06     -57.4724E+06     -57.4722E+06   344.827968E+06      -267.672577      -546.798218
              123    114.94328E+06   -57.470496E+06   -57.469908E+06   344.827776E+06      -84.4961548      -520.609009
              124   114.943784E+06    -57.47016E+06   -57.470116E+06   344.827872E+06       70.0784988      -55.4175529
              125    114.94312E+06   -57.470772E+06   -57.470788E+06   344.827936E+06       219.135757      -42.2365570
              126   114.942896E+06   -57.470784E+06    -57.47126E+06   344.827936E+06       276.905853      -26.0302143
              127   114.944152E+06   -57.469216E+06   -57.469384E+06   344.827776E+06       35.1162605      -77.0608139
              128   114.943064E+06   -57.470588E+06   -57.470804E+06   344.827712E+06       281.123627       161.477921
              129   114.943472E+06   -57.470116E+06    -57.47022E+06   344.827744E+06       315.614136       107.510513
              130   114.942984E+06    -57.47102E+06    -57.47126E+06   344.827808E+06       359.826447       311.043823
              131   114.940416E+06    -57.47232E+06   -57.473148E+06   344.827936E+06       817.406189       190.087402
              132   114.940368E+06     -57.4718E+06   -57.473008E+06   344.828448E+06       910.881958       445.318756
              133    114.94352E+06    -57.47034E+06    -57.47072E+06    344.82816E+06       72.2053909      -85.7492752
              134     114.9422E+06   -57.471412E+06   -57.471684E+06   344.827968E+06       479.499146       103.116997
              135   114.940696E+06   -57.472892E+06   -57.472624E+06   344.827872E+06      -50.2113380       32.7679367
              136   114.942304E+06   -57.471336E+06   -57.471508E+06   344.827904E+06       395.418915       21.1859722
              137   114.942872E+06   -57.471268E+06   -57.471068E+06   344.828096E+06       801.066162       445.003418
              138   114.943408E+06    -57.46984E+06   -57.470036E+06   344.827936E+06       672.064941       604.799683
              139    114.94168E+06   -57.472152E+06    -57.47212E+06      344.828E+06       273.505798       163.682587
              140   114.942528E+06   -57.471136E+06   -57.471336E+06   344.828064E+06       217.281143       106.892479
              141   114.943224E+06   -57.470132E+06   -57.471012E+06   344.827808E+06      -30.0305748       3.93334913
              142   114.942656E+06   -57.470928E+06   -57.471192E+06   344.827904E+06      -186.991531      -73.9397736
              143     114.9434E+06   -57.470308E+06   -57.470788E+06      344.828E+06      -153.373337      -7.75369596
              144   114.940736E+06   -57.473508E+06   -57.473452E+06   344.829056E+06      -396.062378      -2.93029642
              145   114.940544E+06   -57.474164E+06   -57.473428E+06   344.827968E+06      -365.935699       441.811523
              146   114.942304E+06   -57.469184E+06   -57.470728E+06   344.827776E+06       451.708527       262.399811
              147   114.940056E+06   -57.472844E+06   -57.473788E+06   344.827968E+06       337.682434       41.8980598
              148    114.94288E+06   -57.470808E+06   -57.471376E+06   344.828288E+06       28.6666946       75.2236786
              149   114.942616E+06   -57.471188E+06   -57.471432E+06   344.828224E+06      -69.6299744      -87.5795364
              150    114.94284E+06   -57.470504E+06   -57.471352E+06   344.828224E+06      -64.5007477      -156.818283
              151   114.942392E+06    -57.47138E+06   -57.471928E+06    344.82816E+06      -11.2058134       65.5737228
              152   114.943952E+06   -57.469752E+06   -57.470084E+06   344.827808E+06       193.568527       120.851837
              153    114.94304E+06   -57.470428E+06   -57.471096E+06    344.82832E+06       28.7091694      -70.1193314
              154   114.942784E+06    -57.47074E+06   -57.471296E+06   344.828096E+06      -19.2597141      -150.887772
              155   114.944216E+06    -57.47034E+06   -57.470112E+06   344.828128E+06       151.960266       159.180405
              156   114.943632E+06   -57.470128E+06   -57.470076E+06   344.827616E+06      -55.0473442       2.31762838
              157   114.942728E+06    -57.47162E+06   -57.471468E+06   344.827936E+06       28.1361179       8.46981335
              158   114.943392E+06   -57.470592E+06   -57.470748E+06   344.828064E+06       60.3751945      -72.0673676
              159    114.94368E+06   -57.470396E+06   -57.470492E+06      344.828E+06       16.1717510       11.4358749
              160   114.945416E+06     -57.4685E+06   -57.468584E+06   344.827072E+06      -377.622559       141.403717
              161   114.942888E+06   -57.471184E+06   -57.471204E+06   344.828064E+06       142.731705       57.9415703
              162   114.943208E+06   -57.471356E+06   -57.471464E+06   344.828064E+06       259.611023       102.889519
              163   114.942664E+06   -57.471468E+06   -57.471596E+06   344.828224E+06       100.937889   483.644247E-03
              164   114.942632E+06    -57.47128E+06   -57.471744E+06   344.828224E+06      -94.6277313       90.3687973
              165   114.942136E+06    -57.47162E+06   -57.471584E+06   344.827808E+06       92.6077423      -12.8511639
              166   114.938672E+06   -57.474792E+06   -57.474968E+06   344.828032E+06       92.5533524       230.218994
              167   114.939976E+06   -57.473604E+06   -57.473992E+06   344.828512E+06       546.201355       485.113037
              168   114.942792E+06   -57.470856E+06   -57.471052E+06   344.828544E+06      -370.683350      -141.476395
              169   114.942456E+06   -57.472104E+06   -57.471616E+06   344.827904E+06      -12.6499958       178.061035
              170    114.94284E+06     -57.4711E+06   -57.470852E+06   344.827936E+06       44.9008141       87.8680191
              171   114.943088E+06   -57.470968E+06   -57.470784E+06   344.828032E+06       22.1748295       17.8964348
              172   114.942944E+06   -57.471124E+06   -57.470944E+06   344.827904E+06      -116.535133       231.781174
              173   114.943424E+06    -57.47066E+06   -57.470496E+06   344.827744E+06       114.187767       86.2372208
              174   114.942352E+06   -57.471564E+06   -57.471584E+06   344.828128E+06       90.4938431      -43.9249191
              175   114.945968E+06   -57.466708E+06   -57.467548E+06    344.82752E+06      -33.6776276      -266.493195
              176   114.937488E+06    -57.47514E+06   -57.475356E+06   344.828928E+06       376.404541      -339.085236
              177   114.944632E+06    -57.46966E+06   -57.469684E+06   344.827968E+06      -231.042160      -70.4381104
              178   114.942288E+06   -57.471528E+06   -57.471528E+06   344.828224E+06      -348.800262       145.000519
              179   114.942376E+06   -57.471248E+06   -57.471116E+06   344.828032E+06       137.193558       157.654419
              180   114.937592E+06   -57.475376E+06   -57.475348E+06   344.828704E+06       398.964844      -487.510803
              181   114.943744E+06   -57.469268E+06    -57.47032E+06   344.829216E+06      -569.952209  -1.10310669E+03
              182    114.95012E+06   -57.462028E+06   -57.463372E+06   344.829376E+06  -1.37394751E+03  -1.92193005E+03
              183   114.943688E+06    -57.47054E+06   -57.469972E+06    344.82752E+06       215.957169      -72.1885681
              184   114.941608E+06   -57.473076E+06   -57.472636E+06   344.827488E+06      -568.016296      -25.1614685
              185   114.944544E+06   -57.467916E+06   -57.469044E+06   344.826912E+06       313.834717       414.067932
              186      114.947E+06   -57.465584E+06   -57.465912E+06   344.826912E+06      -182.845154  -1.24966638E+03
              187   114.948648E+06   -57.465512E+06   -57.465068E+06   344.826368E+06       342.840942      -247.071671
              188   114.943104E+06   -57.470936E+06   -57.471092E+06   344.828224E+06       1.29674280       11.6444073
              189   114.941704E+06   -57.472356E+06   -57.472184E+06    344.82784E+06       102.494934       33.6689568
              190   114.942032E+06    -57.47184E+06    -57.47168E+06   344.828288E+06       245.258148       64.8071671
              191   114.943744E+06    -57.47016E+06   -57.469704E+06   344.828064E+06      -80.8225784       43.8826942
              192   114.942712E+06   -57.470976E+06   -57.470996E+06    344.82816E+06       157.008987       89.1029205
              193   114.943152E+06   -57.471024E+06   -57.470932E+06    344.82784E+06      -6.90594006       103.162590
              194    114.94396E+06    -57.47018E+06   -57.470476E+06   344.827968E+06       26.2655411      -103.806740
              195   114.942936E+06   -57.471348E+06    -57.47126E+06   344.828032E+06       45.2478981      -25.7366829
              196   114.943136E+06   -57.471228E+06   -57.471104E+06      344.828E+06       34.8985519      -34.7663536
              197   114.943104E+06   -57.470456E+06   -57.470408E+06   344.827584E+06       214.988815      -204.604095
              198   114.945152E+06   -57.468992E+06   -57.469108E+06   344.827936E+06      -116.527672      -267.108582
              199   114.939624E+06   -57.474052E+06   -57.474636E+06   344.827968E+06       258.023987      -87.7471085
              200   114.941776E+06    -57.47206E+06   -57.471696E+06   344.827808E+06       67.4914703      -258.747681
              201     114.9432E+06   -57.470892E+06   -57.470884E+06   344.828192E+06       33.9202652       445.751556
              202   114.941584E+06   -57.472556E+06   -57.472684E+06   344.828224E+06       160.528305      -272.394775
              203   114.943184E+06   -57.470708E+06   -57.470868E+06   344.828224E+06       21.3222218      -111.530174
              204    114.94304E+06   -57.470988E+06    -57.47108E+06   344.828128E+06       94.3186417      -22.0815468
              205   114.942736E+06   -57.471164E+06   -57.471516E+06      344.828E+06       24.3412361      -92.6082916
              206   114.945232E+06   -57.462228E+06    -57.46422E+06     344.8272E+06   1.21263354E+03   1.65291431E+03
              207   114.943216E+06   -57.470876E+06   -57.470984E+06    344.82816E+06       110.625870       35.5227852
              208   114.943664E+06   -57.472084E+06   -57.470284E+06    344.82688E+06       13.1947184       779.456543
              209   114.931736E+06   -57.478764E+06    -57.48052E+06   344.830816E+06  -3.47488208E+03       928.738831
              210    114.90528E+06   -57.502252E+06    -57.50188E+06   344.833152E+06   1.21638940E+03   1.48976904E+03
              211    114.93156E+06   -57.477644E+06    -57.47864E+06   344.827136E+06      -722.058960       546.860413
              212   114.950144E+06   -57.465716E+06   -57.465852E+06   344.827712E+06      -616.894714       732.314270
              213   114.961024E+06    -57.45152E+06    -57.45128E+06   344.824256E+06  -6.74621631E+03  -1.49602026E+03
              214   114.935024E+06    -57.47384E+06   -57.473968E+06    344.82656E+06      -733.974731       66.6121521
              215    114.94312E+06   -57.470884E+06   -57.471176E+06   344.828096E+06      -166.994324      -166.392014
              216   114.943016E+06   -57.471276E+06     -57.4711E+06   344.827904E+06       47.9175987       65.4597244
              217   114.941296E+06    -57.47266E+06   -57.472724E+06   344.828128E+06      -120.316086       444.540253
              218      114.934E+06    -57.48024E+06    -57.48002E+06    344.82848E+06  -1.45224072E+03       79.8208466
              219   114.942992E+06    -57.47108E+06   -57.471068E+06   344.827808E+06       97.0826797       63.6769142
              220    114.94272E+06   -57.471292E+06    -57.47146E+06   344.827904E+06       15.6601143       68.0746613
              221   114.944464E+06    -57.46922E+06    -57.46928E+06   344.827744E+06      -62.3595467       150.650208
              222   114.942336E+06   -57.471304E+06    -57.47154E+06   344.827936E+06       504.221680       107.659531
              223   114.945664E+06    -57.46812E+06   -57.468952E+06   344.827616E+06       745.207581      -50.8678207
              224   114.943976E+06   -57.469272E+06   -57.470356E+06   344.827904E+06       230.113541      -281.283112
              225     114.9434E+06   -57.470032E+06   -57.470844E+06   344.828192E+06      -46.2673950      -44.5472031
              226   114.943136E+06   -57.470464E+06   -57.471072E+06   344.828224E+06      -74.9571381      -33.8055038
              227   114.943232E+06   -57.470324E+06   -57.470852E+06   344.828064E+06      -65.1614914      -147.051193
              228   114.943416E+06   -57.470612E+06    -57.47036E+06   344.828064E+06      -374.252747      -92.5350494
              229   114.937856E+06   -57.476208E+06   -57.474792E+06   344.827584E+06      -139.969376      -20.2032757
              230   114.941592E+06    -57.47098E+06    -57.47048E+06    344.82704E+06       96.7664642       454.372070
              231    114.94232E+06   -57.471132E+06   -57.472352E+06   344.828288E+06       465.650787      -390.082306
              232     114.9412E+06   -57.472752E+06   -57.472688E+06   344.827744E+06      -23.6531143      -300.138458
              233   114.953496E+06   -57.459868E+06   -57.460252E+06   344.826304E+06      -497.915985       421.186981
              234   114.940464E+06   -57.473412E+06    -57.47366E+06   344.828736E+06       560.746948      -79.0181198
              235   114.942648E+06   -57.470824E+06   -57.471736E+06   344.828096E+06       239.910034      -319.348938
              236    114.94416E+06   -57.469792E+06   -57.470028E+06   344.828064E+06      -65.7738037       59.0052605
              237    114.94412E+06   -57.469504E+06    -57.47022E+06   344.828384E+06       88.0036240       100.245354
              238    114.94728E+06   -57.467688E+06   -57.463216E+06   344.830976E+06      -215.075302  -1.12849963E+03
              239   114.944584E+06    -57.46896E+06   -57.469536E+06   344.828288E+06       82.8603363       162.653885
              240   114.943632E+06   -57.470364E+06   -57.470472E+06      344.828E+06      -6.96499062       98.9416580
              241   114.941312E+06   -57.473148E+06     -57.4734E+06    344.82848E+06      -25.8725700       99.1447830
              242    114.94172E+06   -57.472524E+06   -57.472596E+06   344.828608E+06       87.0991974       219.345230
              243    114.94388E+06   -57.470028E+06   -57.470128E+06    344.82784E+06       25.2499046       90.5057755
              244   114.965712E+06   -57.454204E+06   -57.452428E+06   344.829312E+06      -81.8383026       386.381500
              245     114.9422E+06   -57.471572E+06   -57.472068E+06   344.828128E+06      -103.988678      -498.875275
              246   114.942672E+06   -57.471468E+06   -57.471684E+06   344.828224E+06       1.28374243       93.1094894
              247   114.944576E+06   -57.468948E+06   -57.469008E+06   344.827744E+06      -178.001709      -82.5548172
              248   114.942416E+06   -57.471652E+06    -57.47152E+06   344.827936E+06       92.0895767       40.4946289
              249    114.94384E+06   -57.469848E+06    -57.47046E+06   344.828032E+06      -88.4488144      -4.33221436
              250   114.942968E+06   -57.470804E+06   -57.470784E+06    344.82784E+06       115.320137      -381.756073
              251   114.943416E+06   -57.470164E+06   -57.470168E+06   344.827648E+06       174.090240      -191.311829
              252   114.944368E+06    -57.47082E+06   -57.470176E+06   344.828064E+06       453.924194      -70.6798859
              253   114.943952E+06   -57.470516E+06   -57.470476E+06   344.827968E+06       177.662796       91.0623932
              254   114.945848E+06    -57.46892E+06     -57.4685E+06    344.82848E+06       427.079529       260.380890
              255   114.944088E+06   -57.470228E+06   -57.470196E+06    344.82752E+06       911.444092      -67.2371979
              256   114.943864E+06   -57.470144E+06   -57.470204E+06   344.827616E+06       161.341385       87.1283722
              257     114.9426E+06   -57.471252E+06   -57.471576E+06   344.828192E+06      -67.4039688      -30.7191525
              258   114.943048E+06   -57.470376E+06   -57.471076E+06   344.828256E+06      -87.9216690       46.1327133
              259    114.93836E+06    -57.47384E+06    -57.47506E+06   344.827328E+06      -750.815674      -581.591187
              260   114.943696E+06   -57.470468E+06    -57.47054E+06   344.827936E+06      -212.895874      -24.2739754
              261   114.942368E+06   -57.471832E+06   -57.471732E+06   344.828032E+06       17.4756432       50.0697403
              262   114.942856E+06   -57.470928E+06   -57.471152E+06   344.828192E+06      -3.52086878       9.37261295
              263   114.942912E+06   -57.471216E+06   -57.471328E+06   344.828032E+06      -151.491364      -44.2713776
              264   114.942856E+06   -57.470496E+06   -57.470828E+06   344.827872E+06       88.1676178       232.899017
              265   114.941272E+06   -57.471864E+06   -57.472804E+06   344.828224E+06      -493.767273      -78.7070541
              266   114.945632E+06   -57.467828E+06    -57.46838E+06   344.827232E+06      -20.4965992       51.0785446
              267   114.943264E+06    -57.47044E+06    -57.47068E+06   344.828128E+06      -31.0081444       51.5639114
              268   114.944096E+06   -57.469408E+06    -57.47016E+06   344.827904E+06       49.7009163      -144.022476
              269   114.942784E+06   -57.471092E+06   -57.471504E+06   344.828032E+06      -42.3930359       204.184555
              270   114.943288E+06   -57.470196E+06   -57.470764E+06   344.827904E+06      -129.319534      -82.0686874
              271   114.943664E+06    -57.47038E+06   -57.470452E+06   344.828096E+06       167.803146      -8.96471596
              272   114.942808E+06   -57.470684E+06   -57.471044E+06   344.827872E+06       101.108047       88.5760956
              273   114.943456E+06   -57.470364E+06   -57.470884E+06   344.828032E+06      -92.7194366       101.142868
              274   114.943016E+06   -57.471016E+06   -57.471272E+06   344.828128E+06      -17.4318676       106.049385
              275   114.942824E+06   -57.471612E+06     -57.4708E+06   344.827648E+06      -481.400726      -145.316116
              276   114.942912E+06   -57.471088E+06   -57.471016E+06   344.827808E+06       9.54904461      -16.3039074
              277   114.942888E+06    -57.47074E+06   -57.471292E+06   344.828256E+06      -35.0997047      -123.521675
              278   114.943824E+06   -57.469672E+06   -57.470276E+06      344.828E+06      -7.01407480      -68.9443817
              279   114.942568E+06   -57.470704E+06    -57.47122E+06   344.827936E+06      -200.668518       28.6967258
              280   114.943024E+06   -57.471012E+06   -57.471048E+06   344.828064E+06      -212.061295      -176.879303
              281   114.942816E+06   -57.470964E+06   -57.471104E+06    344.82816E+06      -70.0616837      -79.1920624
              282   114.942992E+06     -57.4705E+06   -57.470996E+06   344.828128E+06      -51.0722160      -71.9166336
              283   114.943256E+06    -57.47018E+06   -57.470584E+06   344.828096E+06      -94.5868835      -97.2698669
              284   114.942984E+06   -57.470832E+06   -57.471012E+06   344.828096E+06       62.1444016      -342.346466
              285    114.94404E+06   -57.469464E+06   -57.470236E+06   344.828128E+06       67.4070053      -60.8115845
              286   114.943288E+06   -57.470408E+06    -57.47094E+06   344.828384E+06      -186.273941      -144.377197
              287   114.942224E+06    -57.47114E+06   -57.471492E+06   344.828224E+06      -156.818146      -48.4333267
              288   114.942184E+06   -57.471392E+06   -57.471636E+06   344.827968E+06       17.1498871      -120.143791
              289   114.946864E+06    -57.46728E+06   -57.467064E+06   344.826464E+06      -433.942383      -373.637970
              290   114.944592E+06    -57.46948E+06   -57.469588E+06    344.82768E+06       57.1802368      -146.524002
              291   114.943608E+06   -57.470448E+06   -57.470476E+06   344.827936E+06       133.389648      -91.5108643
              292      114.941E+06   -57.472908E+06   -57.472808E+06   344.828288E+06      -187.262787      -10.5518122
              293   114.888136E+06   -57.521328E+06     -57.5212E+06   344.835968E+06   8.09986035E+03      -126.159622
              294   114.942128E+06   -57.471696E+06   -57.471964E+06    344.82816E+06      -21.3457413      -12.4482079
              295    114.94368E+06   -57.470528E+06   -57.470692E+06   344.827744E+06       32.7914238       74.0036850
              296    114.94384E+06   -57.469796E+06   -57.469896E+06   344.827808E+06       119.989288       26.0567131
              297   114.945104E+06   -57.469104E+06   -57.469204E+06   344.827776E+06       204.831253      -150.018814
              298   114.941304E+06    -57.47264E+06   -57.472776E+06   344.828192E+06       16.1687984       1.43527055
              299    114.94168E+06   -57.472472E+06    -57.47272E+06   344.828384E+06      -471.417847      -62.5549126
              300   114.943264E+06   -57.470688E+06   -57.470916E+06   344.827744E+06      -84.0119324      -225.188736
              301   114.942496E+06   -57.471596E+06     -57.4717E+06   344.827936E+06      -13.2398062   71.6649145E-03
              302   114.943816E+06    -57.47012E+06   -57.470208E+06   344.828032E+06      -105.663780      -158.998199
              303    114.94308E+06    -57.47104E+06   -57.471116E+06    344.82784E+06       55.3322983       38.0538483
              304   114.943408E+06     -57.4703E+06   -57.470284E+06   344.827712E+06      -1.09712255      -9.45492458
              305   114.942432E+06   -57.471504E+06   -57.471288E+06    344.82784E+06       17.8823490       41.3878555
              306    114.94272E+06   -57.471412E+06    -57.47128E+06   344.828128E+06      -1.23413098      -39.9646568
              307   114.942544E+06   -57.471732E+06   -57.471668E+06   344.827488E+06      -329.024475       80.9999466
              308   114.943936E+06   -57.470336E+06   -57.470236E+06      344.828E+06       278.470276       303.816956
              309    114.94336E+06   -57.470776E+06   -57.470892E+06      344.828E+06       115.843498       64.2486801
              310   114.942704E+06     -57.4714E+06    -57.47146E+06    344.82816E+06       14.7044106       33.8131409
              311     114.9422E+06     -57.4717E+06   -57.471632E+06   344.827776E+06       200.052734       89.0048828
              312   114.943456E+06    -57.47068E+06   -57.470768E+06      344.828E+06       120.220467       68.5071564
              313   114.942624E+06   -57.471144E+06   -57.471448E+06   344.828032E+06       357.001373      -32.0513687
              314   114.943544E+06   -57.470348E+06   -57.470284E+06   344.827648E+06  -1.29854114E+03      -63.4191818
              315   114.942928E+06    -57.47196E+06   -57.471676E+06   344.828512E+06       115.536308       288.290436
              316   114.943432E+06   -57.472072E+06   -57.470988E+06    344.82784E+06  -113.002330E-03       287.299957
              317   114.957696E+06    -57.45284E+06    -57.45344E+06   344.824288E+06      -471.397186      -899.005371
              318   114.942296E+06   -57.472032E+06   -57.472216E+06   344.828672E+06       250.616959       100.766266
              319    114.94404E+06   -57.469876E+06   -57.470324E+06   344.828256E+06      -52.1271935       40.2995758
              320   114.942808E+06   -57.471332E+06   -57.471712E+06    344.82832E+06      -29.3842678      -45.7238159
              321   114.942744E+06   -57.471352E+06   -57.471264E+06   344.827872E+06       148.831635       60.3669815
              322    114.94428E+06   -57.469992E+06   -57.470072E+06   344.828352E+06       273.430420       177.724609
              323   114.942248E+06   -57.471852E+06   -57.472032E+06   344.828288E+06       324.572540      -47.7580872
              324    114.94464E+06   -57.469972E+06    -57.46998E+06   344.828608E+06      -56.9371109       37.4714737
              325    114.94328E+06   -57.470632E+06   -57.470812E+06   344.827936E+06      -92.3996277      -33.3765335
              326   114.943952E+06   -57.470168E+06     -57.4704E+06    344.82784E+06       43.8657188       18.9826584
              327   114.944296E+06     -57.4694E+06   -57.469716E+06   344.827616E+06  -361.639440E-03      -148.914169
              328   114.942504E+06   -57.471792E+06   -57.471588E+06   344.827904E+06       1.74290633      -46.4645233
              329   114.942864E+06    -57.47146E+06     -57.4713E+06   344.827968E+06       13.6449623      -29.0233078
              330   114.942776E+06   -57.471256E+06   -57.471264E+06   344.828064E+06       39.4146652       128.655502
              331   114.937992E+06   -57.473136E+06   -57.473272E+06   344.826272E+06  -3.85191089E+03       565.286072
              332   114.946728E+06   -57.466436E+06     -57.4656E+06   344.827488E+06      -939.358276       439.191803
              333   114.941848E+06   -57.472924E+06   -57.471464E+06   344.827904E+06  -1.27865845E+03      -19.6771774
              334   114.953104E+06   -57.458744E+06    -57.45954E+06    344.82384E+06   1.95003235E+03      -361.919250
              335   114.940536E+06   -57.474084E+06    -57.47306E+06   344.828736E+06  -1.10909119E+03      -174.705795
              336   114.942384E+06    -57.47124E+06   -57.470856E+06   344.827968E+06       122.544334      -174.292145
              337   114.942032E+06   -57.471808E+06   -57.471136E+06   344.827744E+06       147.967178       162.123260
              338   114.941968E+06   -57.472044E+06   -57.471692E+06   344.828224E+06      -155.904221       166.433899
              339   114.943664E+06     -57.4697E+06   -57.469884E+06     344.8272E+06      -178.462799       28.5942497
              340   114.941408E+06   -57.471644E+06   -57.471576E+06   344.827584E+06       3.86732149       139.599792
              341   114.940968E+06    -57.47268E+06   -57.472596E+06      344.828E+06      -180.130524       163.156464
              342    114.94092E+06   -57.472764E+06    -57.47266E+06   344.827936E+06       119.377739       84.4754868
              343   114.943008E+06   -57.471016E+06   -57.471108E+06   344.828128E+06       92.0874557      -22.4812679
              344    114.94296E+06    -57.47098E+06    -57.47128E+06   344.828128E+06       110.381699      -20.5277920
              345   114.943336E+06    -57.47072E+06   -57.470868E+06    344.82816E+06       117.212578   955.413759E-03
              346   114.942464E+06   -57.471856E+06   -57.471772E+06   344.828192E+06       22.9826260       103.455460
              347    114.94372E+06   -57.470352E+06   -57.470428E+06   344.828128E+06       33.6571312      -52.5133476
              348    114.94388E+06   -57.470548E+06   -57.470592E+06   344.828192E+06       27.3878250       14.8663912
              349    114.94264E+06     -57.4713E+06   -57.471488E+06   344.828256E+06       103.434502       69.8544617
              350   114.942728E+06   -57.471004E+06   -57.471068E+06   344.827808E+06       290.236633       22.3593502
              351   114.942472E+06   -57.471016E+06   -57.471552E+06   344.827904E+06       169.338760      -7.54886246
              352   114.943176E+06   -57.471268E+06   -57.470428E+06    344.82752E+06       242.173233      -88.0416107
              353   114.940992E+06   -57.472612E+06   -57.473036E+06   344.828128E+06       190.065903      -51.6745224
              354   114.941696E+06   -57.471876E+06   -57.473056E+06   344.827872E+06      -376.893402       282.931885
              355   114.942816E+06   -57.471272E+06   -57.471116E+06   344.827744E+06       119.504013       64.8943863
              356      114.944E+06   -57.470172E+06   -57.469888E+06   344.827712E+06       139.349869       330.051056
              357   114.942144E+06   -57.472588E+06    -57.47138E+06   344.827744E+06       301.120148       45.0435333
              358    114.94612E+06    -57.47076E+06    -57.46926E+06   344.827904E+06      -386.275970      -699.902039
              359   114.942752E+06   -57.472836E+06   -57.472412E+06   344.827072E+06      -458.877838      -550.375061
              360   114.920104E+06   -57.496096E+06    -57.49452E+06   344.834048E+06      -377.682861      -52.4306030
              361   114.942896E+06   -57.472548E+06   -57.471584E+06   344.828096E+06       825.315186   534.222066E-03
              362   114.943744E+06   -57.469672E+06   -57.470348E+06   344.828128E+06       31.8168793      -29.9308186
              363    114.94328E+06   -57.470908E+06   -57.470984E+06   344.828128E+06       158.322296       41.9399605
              364   114.938312E+06   -57.477212E+06   -57.477536E+06    344.82896E+06       956.177307      -608.950989
              365   114.941832E+06   -57.470848E+06     -57.4705E+06    344.82768E+06      -5.17904377      -370.846771
              366   114.943256E+06   -57.472276E+06    -57.47222E+06   344.828352E+06       550.662537      -384.431335
              367   114.942992E+06    -57.47118E+06   -57.471376E+06    344.82816E+06      -74.3636627      -190.166183
              368   114.943264E+06   -57.471364E+06    -57.47122E+06   344.828096E+06       123.169571       103.437416
              369   114.943152E+06   -57.470972E+06   -57.471052E+06      344.828E+06      -26.8719501      -53.3033676
              370    114.94316E+06   -57.470816E+06   -57.470824E+06    344.82784E+06       155.836761       118.680519
              371    114.94292E+06   -57.471128E+06    -57.47116E+06   344.828064E+06       41.0213165       101.462395
              372   114.942712E+06   -57.471376E+06   -57.471264E+06   344.828096E+06       18.5879459       67.5808640
              373   114.944144E+06   -57.469576E+06   -57.469732E+06   344.827968E+06       120.879074      -122.146233
              374   114.943376E+06   -57.470132E+06    -57.47062E+06   344.827968E+06       82.5248489       178.855881
              375   114.942128E+06   -57.471884E+06   -57.471824E+06   344.828064E+06       11.0394945      -28.0491905
              376    114.94316E+06    -57.47084E+06    -57.47096E+06   344.828064E+06       2.71866822      -44.6540375
              377   114.942728E+06   -57.471052E+06   -57.471292E+06   344.828224E+06       5.99518967       3.39292860
              378   114.942936E+06   -57.470648E+06    -57.47112E+06   344.827744E+06       134.635117      -2.03725672
              379      114.944E+06   -57.469568E+06   -57.470332E+06   344.828256E+06      -176.054276      -122.788841
              380   114.946264E+06   -57.469944E+06   -57.465968E+06   344.828032E+06  -1.22117529E+03   1.57498950E+03
              381   114.935856E+06   -57.479384E+06    -57.47574E+06   344.829312E+06   1.35849927E+03      -126.675743
              382   114.944248E+06   -57.468968E+06   -57.469124E+06    344.82736E+06       193.890976      -24.1920929
              383   114.951432E+06    -57.46484E+06   -57.462708E+06   344.825856E+06       637.111145       26.1262569
              384   114.942608E+06   -57.471308E+06   -57.471764E+06   344.828288E+06      -186.263565      -176.404236
              385   114.942688E+06   -57.471624E+06    -57.47158E+06   344.827968E+06       26.4278545      -38.6691246
              386   114.939736E+06   -57.473392E+06    -57.47406E+06   344.828544E+06      -30.8498878       296.535065
              387   114.944144E+06   -57.470308E+06   -57.470088E+06   344.827904E+06      -7.84754038      -138.585251
              388   114.943952E+06    -57.46982E+06   -57.469884E+06   344.827712E+06      -7.99578285       252.726181
              389   114.943024E+06   -57.471484E+06   -57.471464E+06   344.828128E+06      -245.325409       37.8130836
              390   114.942688E+06    -57.47146E+06   -57.471744E+06   344.828288E+06      -147.110992      -54.2551765
              391   114.940504E+06   -57.472984E+06   -57.473232E+06   344.828128E+06      -15.4606905       406.956848
              392    114.94748E+06     -57.4678E+06   -57.467836E+06   344.828512E+06      -808.385193      -55.6185837
              393   114.944488E+06   -57.469184E+06    -57.46952E+06    344.82768E+06      -542.873108       43.8520927
              394   114.943096E+06   -57.469992E+06   -57.470688E+06   344.828032E+06       140.789673       34.9518890
              395   114.942384E+06   -57.471632E+06   -57.471548E+06      344.828E+06      -555.780579       140.476639
              396    114.94388E+06   -57.470656E+06   -57.469656E+06   344.827424E+06      -122.066071       243.587128
              397   114.944368E+06    -57.46866E+06    -57.47004E+06   344.828224E+06       638.790894       343.850708
              398   114.941496E+06   -57.473128E+06   -57.472488E+06   344.827776E+06       354.139130       409.445404
              399   114.925432E+06    -57.48808E+06   -57.487804E+06   344.832544E+06   1.66230371E+03      -408.857391
              400    114.94288E+06   -57.471248E+06   -57.471316E+06   344.827744E+06       346.784851       417.849091
              401    114.94044E+06   -57.473556E+06   -57.473804E+06   344.828224E+06      -53.9376411       421.438019
              402   114.942696E+06   -57.471364E+06   -57.471288E+06    344.82784E+06       103.232040       165.714310
              403   114.942368E+06   -57.471648E+06   -57.473032E+06    344.82784E+06       804.276611       380.687622
              404   114.939648E+06    -57.47314E+06   -57.474092E+06   344.827936E+06       301.323364       20.4173985
              405   114.943064E+06   -57.470776E+06   -57.470916E+06   344.828096E+06       259.218475       179.566772
              406   114.943408E+06   -57.470828E+06    -57.47074E+06   344.827872E+06      -58.0906410       38.1462898
              407    114.94244E+06   -57.471044E+06   -57.471456E+06   344.828128E+06       78.2535248       78.5731888
              408   114.941048E+06     -57.4729E+06    -57.47308E+06   344.828352E+06      -332.743530       77.8822403
              409    114.94188E+06   -57.472304E+06   -57.472128E+06   344.827904E+06       129.178146       81.3490448
              410   114.941448E+06   -57.472092E+06   -57.472224E+06   344.827712E+06       214.453583       113.641731
              411   114.942352E+06    -57.47136E+06   -57.471768E+06    344.82816E+06       6.88236046       33.1312714
              412   114.943048E+06    -57.47082E+06   -57.470968E+06   344.827872E+06      -116.547249      -33.2937546
              413   114.942672E+06   -57.471028E+06   -57.471496E+06   344.828352E+06       10.5920687       29.6075993
              414   114.942872E+06   -57.470856E+06    -57.47104E+06   344.828128E+06       8.13798714       47.0918884
              415   114.941768E+06   -57.471844E+06   -57.471816E+06    344.82784E+06      -28.0001163       21.0707111
              416   114.943976E+06   -57.469312E+06   -57.468852E+06   344.827584E+06      -117.443123      -189.048126
              417    114.94256E+06   -57.471276E+06   -57.471224E+06   344.827744E+06       226.169022       7.31684637
              418    114.94376E+06   -57.469544E+06   -57.470252E+06   344.827456E+06      -197.470230       76.8334808
              419     114.9438E+06   -57.470196E+06   -57.470016E+06   344.827744E+06      -13.5132675      -81.5051346
              420    114.94572E+06   -57.468348E+06   -57.467656E+06   344.827552E+06       152.768066      -419.006775
              421    114.94304E+06   -57.471512E+06   -57.471376E+06   344.827936E+06       185.032288       150.452606
              422    114.94248E+06   -57.471932E+06    -57.47168E+06   344.828032E+06      -9.84165096       202.926056
              423   114.942896E+06    -57.47128E+06   -57.471124E+06   344.828032E+06       10.5547943       50.7140388
              424   114.943296E+06   -57.471056E+06   -57.470884E+06   344.828064E+06       20.2322979       29.1043625
              425   114.937856E+06   -57.477412E+06   -57.477832E+06   344.830048E+06   2.58419019E+03      -558.817810
              426   114.956408E+06   -57.453164E+06   -57.456408E+06    344.82208E+06       762.614807      -87.9159393
              427   114.947416E+06   -57.466724E+06   -57.466472E+06   344.826944E+06       484.662506      -66.7343140
              428   114.947128E+06   -57.466364E+06   -57.466724E+06   344.827392E+06       219.105179      -443.224243
              429   114.944336E+06     -57.4697E+06   -57.469556E+06   344.827904E+06       81.8580170       90.9626923
              430   114.940232E+06   -57.473232E+06   -57.473052E+06    344.82784E+06       652.882690       15.2041855
              431   114.942592E+06   -57.471528E+06    -57.47138E+06   344.828096E+06   311.390251E-03       33.3399086
              432   114.939296E+06   -57.473992E+06   -57.474144E+06   344.828448E+06      -274.612518       86.1400528
              433   114.943096E+06   -57.470844E+06   -57.470872E+06   344.828192E+06       177.409821      -33.3622055
              434    114.94236E+06   -57.471168E+06   -57.470964E+06   344.827744E+06      -416.912201      -64.9034271
              435   114.935352E+06   -57.477212E+06   -57.477452E+06   344.829184E+06       142.735535      -139.451218
              436    114.94236E+06   -57.471588E+06   -57.471592E+06   344.828064E+06       26.1866760      -5.83962345
              437    114.94248E+06   -57.472276E+06   -57.472136E+06   344.828192E+06      -60.2006989       39.4488716
              438    114.94172E+06   -57.471752E+06   -57.472552E+06   344.828704E+06      -389.884491       208.504669
              439     114.9436E+06    -57.46992E+06   -57.470332E+06   344.828128E+06      -280.795593      -207.030579
              440     114.9442E+06   -57.469644E+06   -57.469608E+06    344.82816E+06       44.3190727      -169.243408
              441   114.941648E+06   -57.472208E+06   -57.472956E+06   344.828608E+06      -57.0864449       196.462692
              442   114.940488E+06   -57.473344E+06   -57.473568E+06   344.828576E+06      -395.364624      -20.9386292
              443   114.939288E+06    -57.47408E+06   -57.475516E+06   344.829216E+06      -608.132874       477.700378
              444   114.938704E+06    -57.47622E+06   -57.475384E+06   344.828864E+06       155.579437      -452.857910
              445     114.9424E+06   -57.471124E+06    -57.47102E+06      344.828E+06      -103.353432       151.342606
              446   114.943512E+06   -57.469848E+06   -57.470268E+06   344.828096E+06       117.124992       93.4117813
              447   114.941288E+06   -57.472156E+06   -57.472324E+06   344.828448E+06       216.351990      -165.422287
              448   114.942912E+06   -57.471368E+06   -57.470996E+06   344.828224E+06      -65.9319382      -214.483948
              449   114.941992E+06   -57.472628E+06   -57.472388E+06   344.828544E+06       87.4452057      -260.016083
              450   114.944992E+06   -57.467628E+06   -57.468456E+06    344.82768E+06      -14.8245115      -270.250977
              451   114.945544E+06   -57.471292E+06    -57.46958E+06   344.828448E+06  -1.44727051E+03       912.305115
              452   114.948368E+06   -57.469588E+06    -57.46574E+06   344.828896E+06       912.135193       258.830780
              453     114.9432E+06   -57.471016E+06   -57.471124E+06   344.827968E+06       296.564148       248.960663
              454    114.94324E+06   -57.471448E+06   -57.471836E+06      344.828E+06       97.3231812       351.169067
              455   114.941232E+06    -57.47254E+06   -57.473104E+06   344.827968E+06      -433.451477       100.310806
              456   114.937376E+06   -57.479624E+06   -57.476608E+06   344.831136E+06   1.54971704E+03      -506.806366
              457   114.949168E+06    -57.46588E+06    -57.46636E+06   344.828384E+06      -825.410400       205.206726
              458    114.94304E+06   -57.470696E+06   -57.470668E+06    344.82752E+06       212.155685       72.0882111
              459    114.94196E+06     -57.4723E+06   -57.472708E+06   344.828096E+06       243.329666       236.170670
              460   114.949152E+06   -57.462788E+06    -57.46566E+06   344.828032E+06  -1.77084680E+03       50.4376411
              461   114.937176E+06   -57.474424E+06   -57.475528E+06   344.830528E+06  -1.26450977E+03       771.237732
              462   114.944944E+06   -57.469728E+06   -57.469596E+06   344.827968E+06       218.789932       109.584564
              463   114.942208E+06   -57.473592E+06   -57.472072E+06   344.828256E+06       34.3354874       601.050476
              464   114.943456E+06   -57.470316E+06   -57.470832E+06   344.827968E+06       21.7420406      -63.5448418
              465   114.943248E+06   -57.470348E+06   -57.470632E+06   344.828096E+06      -96.4355011      -53.5492783
              466   114.941664E+06   -57.472036E+06   -57.472112E+06   344.827968E+06      -28.9607067      -22.3675499
              467   114.941984E+06   -57.472004E+06    -57.47176E+06   344.828032E+06      -257.645630       40.2494926
              468   114.943656E+06   -57.470512E+06   -57.470808E+06   344.828032E+06      -197.802872       48.7056236
              469   114.942504E+06    -57.47134E+06   -57.471496E+06   344.828064E+06       45.1110153      -65.4686508
              470   114.943224E+06   -57.470572E+06   -57.470696E+06   344.828128E+06      -122.008011      -69.5585861
              471   114.941968E+06    -57.47212E+06    -57.47244E+06   344.828352E+06      -142.648132  -363.893777E-03
              472    114.94296E+06   -57.471264E+06   -57.471072E+06   344.828032E+06       97.7746429       96.4501266
              473   114.942616E+06   -57.471608E+06     -57.4711E+06   344.828064E+06      -145.995865       56.6304359
              474   114.943992E+06   -57.470276E+06    -57.46986E+06    344.82784E+06      -60.9734993      -49.6568794
              475   114.944464E+06   -57.470172E+06   -57.469944E+06   344.828288E+06       384.640839      -67.2947769
              476   114.942752E+06    -57.47084E+06   -57.470952E+06   344.828224E+06       296.243835       400.874146
              477    114.94068E+06    -57.47326E+06   -57.473188E+06   344.828192E+06       50.1404572       114.145607
              478   114.942584E+06   -57.471832E+06   -57.471632E+06   344.828032E+06       50.1832275      -96.6821136
              479   114.942944E+06   -57.471232E+06    -57.47128E+06   344.828256E+06       107.921043       3.96149492
              480    114.94148E+06    -57.47364E+06   -57.473244E+06   344.828448E+06       193.186157       15.4535933
              481    114.94292E+06   -57.471068E+06   -57.471264E+06   344.828128E+06       156.652496       14.7386284
              482   114.943096E+06   -57.470636E+06   -57.470756E+06   344.827776E+06       222.927048      -10.2593222
              483     114.9444E+06    -57.46964E+06   -57.470208E+06    344.82864E+06       243.495148      -24.0734329
              484    114.93996E+06   -57.473052E+06   -57.473392E+06   344.827904E+06      -138.552109      -46.5703201
              485   114.950368E+06   -57.463048E+06   -57.464396E+06     344.8272E+06      -657.905457       177.707016
              486    114.94336E+06   -57.471276E+06   -57.470788E+06    344.82784E+06       303.898834       119.932419
              487   114.952824E+06   -57.463524E+06   -57.463336E+06   344.826976E+06       265.015961       60.8730164
              488   114.941184E+06   -57.473072E+06   -57.473004E+06   344.828672E+06       155.553726      -7.28581619
              489    114.94396E+06   -57.470216E+06   -57.469932E+06   344.827744E+06       18.9851131       121.371780
              490   114.944912E+06   -57.470216E+06   -57.469788E+06   344.827808E+06       41.4754372      -38.7335663
              491   114.943216E+06    -57.47082E+06    -57.47064E+06   344.828256E+06       34.1125565       55.6492996
              492   114.945992E+06    -57.46832E+06     -57.4683E+06      344.828E+06       174.617249      -82.1043015
              493    114.94356E+06   -57.470068E+06     -57.4707E+06   344.828384E+06      -111.840286      -68.2323532
              494   114.941544E+06   -57.472176E+06   -57.472256E+06   344.828032E+06       2.27834105      -105.410576
              495   114.942688E+06   -57.471012E+06   -57.471268E+06   344.828128E+06       5.46520138      -104.928207
              496   114.941848E+06   -57.470604E+06   -57.471232E+06      344.828E+06       113.674614       287.669189
              497   114.943112E+06   -57.470476E+06    -57.47116E+06   344.828288E+06      -39.0772552      -25.8407326
              498   114.943648E+06   -57.470224E+06   -57.470632E+06   344.828352E+06       24.5834904       15.8294544
              499   114.943544E+06   -57.470064E+06   -57.470716E+06   344.828384E+06      -129.748764      -80.4645920
              500    114.94188E+06    -57.47134E+06   -57.471756E+06      344.828E+06      -370.047272      -406.680023
              501    114.94292E+06   -57.470816E+06   -57.471008E+06   344.828448E+06      -203.770584      -167.932541
              502    114.94292E+06   -57.470936E+06   -57.471092E+06   344.828096E+06      -154.067291      -118.133041
              503   114.941728E+06    -57.47196E+06      -57.472E+06      344.828E+06       7.80664587      -75.7988663
              504   114.942592E+06     -57.4712E+06   -57.471432E+06    344.82816E+06      -88.5367737      -102.909042
              505   114.943208E+06    -57.47026E+06     -57.4702E+06   344.827872E+06      -135.064865      -208.969162
              506   114.946768E+06   -57.467868E+06   -57.467872E+06   344.828096E+06      -464.585327      -206.890396
              507   114.939248E+06   -57.473732E+06   -57.474172E+06   344.828384E+06      -26.7481728       5.01022339
              508   114.946496E+06   -57.469128E+06   -57.469148E+06   344.828704E+06       148.729080       70.3156052
              509   114.942656E+06   -57.470676E+06   -57.471088E+06    344.82768E+06       28.3611889      -83.5384979
              510   114.940392E+06   -57.472776E+06   -57.472968E+06   344.827968E+06      -79.8399658       164.297745
              511   114.940928E+06   -57.472308E+06   -57.472388E+06   344.827936E+06      -171.050400       136.339630
              512   114.942824E+06   -57.471388E+06   -57.471488E+06   344.827744E+06       96.5974045       26.8389492
              513   114.942576E+06   -57.471324E+06   -57.471456E+06    344.82768E+06       241.256088      -76.6891785
              514    114.94348E+06   -57.470468E+06   -57.470944E+06   344.828384E+06      -31.7940083      -40.9682083
              515   114.943224E+06    -57.47088E+06   -57.470808E+06    344.82768E+06       10.1461344       34.6073647
              516   114.945216E+06   -57.469168E+06   -57.469084E+06   344.827616E+06       119.904678       115.190529
              517   114.941912E+06   -57.472056E+06   -57.471896E+06   344.827712E+06      -122.006104      -27.7044582
              518   114.942944E+06   -57.471072E+06   -57.471184E+06    344.82816E+06      -48.2785721       7.29239750
              519     114.9432E+06   -57.470084E+06   -57.470472E+06   344.828096E+06       37.1732941      -51.4263382
              520   114.942664E+06     -57.4715E+06   -57.471356E+06   344.827584E+06       154.311661       76.2973557
              521   114.942928E+06   -57.470944E+06   -57.470936E+06   344.827968E+06      -48.2817841      -115.412460
              522   114.942472E+06     -57.4712E+06   -57.471636E+06   344.828224E+06      -11.1375084      -71.8571625
              523   114.943888E+06   -57.470496E+06     -57.4702E+06   344.827616E+06       101.343063       169.278595
              524   114.942984E+06   -57.471152E+06   -57.471216E+06   344.828192E+06       135.847168       11.3064556
              525   114.943304E+06   -57.470876E+06   -57.471188E+06    344.82848E+06       135.157059       174.951019
              526   114.943744E+06   -57.470292E+06   -57.470376E+06   344.828032E+06       58.2723808       18.3973026
              527   114.943104E+06   -57.470804E+06   -57.471016E+06   344.828192E+06      -32.9465065      -140.852173
              528   114.943328E+06   -57.471008E+06   -57.471064E+06   344.827808E+06      -34.6117401      -33.1608734
              529   114.944688E+06   -57.469904E+06   -57.469356E+06   344.827584E+06       141.568558       77.4559021
              530   114.942856E+06    -57.47138E+06   -57.471392E+06   344.827712E+06      -8.46586704      -32.3662033
              531    114.93932E+06   -57.475332E+06   -57.473568E+06   344.828352E+06  -1.54394519E+03  -1.15619653E+03
              532   114.955104E+06    -57.45968E+06   -57.461892E+06   344.831072E+06  -1.22925720E+03       65.4298935
              533    114.95272E+06   -57.462576E+06    -57.46182E+06    344.82608E+06       183.557114      -405.035522
              534    114.94604E+06   -57.472308E+06     -57.4708E+06   344.827808E+06       761.513184   1.45873340E+03
              535   114.946536E+06   -57.467808E+06   -57.467316E+06    344.82816E+06      -346.597412       15.2465639
              536    114.94108E+06   -57.471288E+06   -57.470924E+06   344.827168E+06      -141.117447       984.676758
              537   114.938984E+06   -57.475712E+06   -57.474972E+06   344.827872E+06  -1.23418286E+03      -476.122498
              538   114.942592E+06    -57.47198E+06   -57.471492E+06    344.82832E+06       262.217621      -68.3784409
              539     114.9434E+06   -57.472568E+06   -57.470988E+06   344.827616E+06       143.983261  -1.16853308E+03
              540    114.94344E+06   -57.472296E+06   -57.471856E+06   344.827968E+06      -710.911743       287.694397
              541   114.943576E+06    -57.47008E+06   -57.470252E+06   344.828128E+06      -189.139191      -144.549789
              542   114.941568E+06   -57.472444E+06   -57.473048E+06   344.828992E+06       322.001251      -150.750641
              543   114.943976E+06   -57.469348E+06   -57.469912E+06   344.827584E+06       221.171783       18.3624382
              544   114.945112E+06   -57.467916E+06   -57.468772E+06    344.82832E+06       276.541199      -80.7316666
              545   114.941272E+06   -57.472744E+06   -57.473184E+06   344.828416E+06      -409.816162      -340.041962
              546   114.941928E+06    -57.47244E+06   -57.471848E+06    344.82832E+06       35.4153099      -138.073029
              547   114.943032E+06    -57.47024E+06   -57.471012E+06   344.829216E+06      -570.817749      -907.843018
              548   114.941768E+06   -57.472424E+06    -57.47194E+06   344.827488E+06       229.215561       195.927597
              549   114.944024E+06   -57.469952E+06   -57.470312E+06   344.828288E+06      -16.0965805       110.945442
              550   114.942424E+06   -57.471544E+06   -57.472068E+06   344.828416E+06      -193.138596      -114.370155
              551   114.942176E+06   -57.471664E+06    -57.47228E+06   344.828096E+06       96.7478333      -471.336151
              552   114.942312E+06   -57.471148E+06   -57.471428E+06   344.828256E+06       40.1662216      -12.1226149
              553   114.943304E+06   -57.469096E+06   -57.469772E+06   344.827488E+06       44.9670906       99.7157364
              554   114.942456E+06   -57.471064E+06   -57.471176E+06    344.82784E+06       23.2462196       240.214096
              555   114.942184E+06   -57.471484E+06   -57.471844E+06    344.82832E+06      -38.4884415       67.1669388
              556   114.943224E+06   -57.473192E+06   -57.472368E+06   344.829312E+06       32.9071465      -408.915649
              557   114.943744E+06   -57.469016E+06   -57.469796E+06   344.828032E+06       29.9576492       23.0004845
              558   114.943272E+06    -57.47034E+06   -57.470256E+06      344.828E+06       201.770309       324.593231
              559   114.945072E+06   -57.467172E+06   -57.468112E+06   344.827264E+06       349.774841       649.884888
              560   114.941624E+06   -57.470708E+06   -57.471432E+06   344.827616E+06      -79.2972412       433.782043
              561   114.944672E+06   -57.468952E+06   -57.470288E+06    344.82736E+06       129.259384       86.3256989
              562   114.976432E+06   -57.440816E+06   -57.442272E+06    344.82448E+06      -732.789307       807.150879
              563   114.943584E+06   -57.470032E+06   -57.471704E+06    344.82768E+06       855.822021       351.275116
              564   114.936768E+06   -57.477772E+06     -57.4803E+06   344.830048E+06   1.32709448E+03      -317.052307
              565   114.943392E+06   -57.469996E+06   -57.470032E+06   344.828352E+06       240.354416       244.169617
              566   114.943648E+06   -57.470412E+06    -57.47038E+06   344.827872E+06      -299.906067      -287.296265
              567    114.94308E+06   -57.471324E+06   -57.471204E+06   344.828352E+06       72.2742462       193.540100
              568   114.945168E+06   -57.467808E+06   -57.468408E+06   344.827776E+06       748.099548       333.306915
              569   114.943152E+06    -57.47102E+06   -57.471128E+06   344.827904E+06      -285.819153      -219.343582
              570   114.946568E+06    -57.46736E+06   -57.466576E+06   344.827776E+06   1.07404309E+03       438.570770
              571    114.94232E+06   -57.471804E+06   -57.471028E+06   344.827488E+06       326.750153      -96.2691193
              572   114.943808E+06   -57.469992E+06   -57.470368E+06   344.828032E+06       141.891266       27.4063683
              573    114.94368E+06     -57.4693E+06   -57.470388E+06   344.828096E+06       11.1599321      -413.128510
              574   114.945088E+06   -57.468448E+06   -57.468428E+06   344.827712E+06      -92.5500717      -74.2458420
              575   114.951584E+06    -57.46052E+06    -57.46272E+06   344.828928E+06       76.3369217       604.924927
              576   114.943136E+06   -57.472304E+06   -57.472112E+06   344.828384E+06      -649.242065      -290.892426
              577    114.94604E+06    -57.46748E+06    -57.46814E+06   344.828224E+06      -27.6128464       150.280991
              578    114.94436E+06    -57.46836E+06    -57.46964E+06   344.828512E+06      -522.159546      -208.966629
              579   114.943272E+06   -57.470404E+06   -57.470904E+06    344.82816E+06      -166.889389      -146.645889
              580   114.942936E+06   -57.470652E+06   -57.471264E+06   344.828256E+06      -65.3623810      -38.0753021
              581   114.942312E+06   -57.472152E+06   -57.472076E+06   344.828352E+06       3.36482954       92.4790115
              582    114.94256E+06   -57.471716E+06   -57.471876E+06   344.828256E+06      -50.2258148      -255.182709
              583   114.942192E+06   -57.471748E+06   -57.471944E+06   344.828608E+06      -18.0821896       184.743073
              584   114.944456E+06   -57.469944E+06   -57.470336E+06   344.828896E+06       354.131714       200.328705
              585   114.983064E+06   -57.443888E+06   -57.441224E+06   344.824224E+06   3.42690601E+03   1.83275952E+03
              586   114.944272E+06   -57.470072E+06   -57.470004E+06   344.828032E+06      -449.876129       3.46310973
              587   114.932448E+06   -57.481268E+06   -57.480936E+06   344.829088E+06   8.43515723E+03       83.0063171
              588   114.944024E+06    -57.46982E+06   -57.469928E+06   344.828576E+06       232.728638       438.075104
              589   114.943352E+06   -57.470772E+06   -57.471068E+06   344.828096E+06      -101.384224      -29.8897209
              590    114.94292E+06   -57.471072E+06   -57.471156E+06   344.828096E+06       116.772614      -19.6946659
              591   114.939192E+06   -57.475436E+06   -57.473324E+06   344.826592E+06  -1.44794751E+03      -317.742889
              592    114.94188E+06   -57.472872E+06   -57.471792E+06      344.828E+06       79.0191193       95.0338058
              593   114.949448E+06   -57.466476E+06   -57.466344E+06   344.828096E+06       983.069763       14.0861225
              594   114.949488E+06   -57.463196E+06   -57.464192E+06   344.826496E+06   8.53339160E+03      -34.1905975
              595   114.944144E+06   -57.469076E+06   -57.469868E+06      344.828E+06      -215.964066      -237.645691
              596   114.941296E+06   -57.471756E+06   -57.471976E+06   344.828064E+06      -835.770752       601.100708
              597    114.94308E+06   -57.469492E+06    -57.47038E+06   344.827424E+06      -211.876694       530.157715
              598   114.942736E+06   -57.470768E+06   -57.471096E+06   344.827616E+06      -7.76472473      -58.9640732
              599     114.9438E+06   -57.470692E+06     -57.4701E+06   344.826848E+06      -489.662323       383.458557
              600   114.946112E+06   -57.468048E+06   -57.466856E+06   344.826784E+06       185.138367       678.010071
              601   114.947152E+06   -57.467496E+06   -57.466512E+06   344.826304E+06  -1.78440015E+03       265.843964
              602    114.94596E+06    -57.46924E+06   -57.468804E+06   344.827424E+06       392.766479       370.115570
              603   114.941136E+06   -57.470576E+06    -57.47038E+06   344.826592E+06  -1.58866187E+03  -1.41248499E+03
              604   114.926104E+06   -57.491564E+06   -57.494144E+06   344.829664E+06  -1.29186365E+03   1.64491687E+03
              605   114.968528E+06   -57.451116E+06    -57.45078E+06   344.825248E+06       551.515015       69.2048798
              606   114.947464E+06   -57.462664E+06   -57.466876E+06   344.826976E+06  -2.59845483E+03   1.63786719E+03
              607   114.884272E+06   -57.515516E+06   -57.516328E+06   344.827776E+06   1.71654407E+03      -83.7501907
              608   114.944984E+06   -57.473104E+06   -57.470308E+06   344.826272E+06      -223.017136       276.870850
              609   114.941464E+06    -57.47262E+06   -57.472852E+06   344.827968E+06      -318.274811      -528.424133
              610   114.945304E+06   -57.467984E+06   -57.469108E+06   344.828192E+06      -349.514984      -301.336334
              611    114.94536E+06     -57.4694E+06   -57.469512E+06   344.828256E+06       309.063995       24.7739277
              612   114.942592E+06   -57.471828E+06   -57.471976E+06   344.828544E+06       183.926804       35.3267975
              613   114.948144E+06   -57.467004E+06   -57.467672E+06     344.8288E+06       781.381653       862.305847
              614   114.943144E+06   -57.470688E+06   -57.471456E+06     344.8288E+06       62.2649384       260.225494
              615    114.94172E+06   -57.471152E+06   -57.472364E+06   344.828864E+06       396.824799       678.918335
              616    114.94208E+06   -57.471332E+06   -57.471744E+06    344.82832E+06      -206.832047      -29.4707069
              617   114.950568E+06   -57.463944E+06   -57.464296E+06    344.82704E+06      -389.662262       122.895439
              618   114.942952E+06   -57.471924E+06    -57.47136E+06   344.827968E+06       404.064117      -267.986572
              619   114.944608E+06   -57.468724E+06   -57.468876E+06   344.827488E+06       179.663971      -627.250427
              620   114.941832E+06   -57.471656E+06   -57.471544E+06    344.82784E+06       220.543655      -94.9251480
              621   114.941056E+06   -57.472448E+06    -57.47276E+06   344.827872E+06       341.798248      -122.287689
              622   114.942312E+06   -57.470196E+06    -57.47014E+06    344.82768E+06       319.737793      -423.028320
              623   114.942344E+06   -57.471504E+06   -57.471804E+06   344.827808E+06      -67.5375519      -337.215393
              624    114.94208E+06   -57.472244E+06   -57.472564E+06   344.828256E+06       393.173462       98.6261978
              625   114.942912E+06   -57.471716E+06   -57.471684E+06   344.828672E+06       42.2088127       29.1481895
              626   114.943184E+06   -57.470672E+06   -57.470404E+06   344.827744E+06       220.414780       18.5448494
              627   114.943312E+06   -57.470932E+06   -57.471056E+06   344.828064E+06       185.210785       230.377090
              628   114.942584E+06   -57.472064E+06   -57.471896E+06   344.827936E+06       143.380615       81.7288055
              629   114.943152E+06   -57.470992E+06   -57.470792E+06   344.827872E+06       26.2527027   281.477153E-03
              630   114.943752E+06     -57.4714E+06   -57.470732E+06   344.828032E+06       396.760468      -117.234207
              631   114.943496E+06    -57.47084E+06   -57.470736E+06   344.827936E+06      -24.3720226       27.9713287
              632    114.94308E+06    -57.47074E+06    -57.47084E+06      344.828E+06      -106.526711       5.86270237
              633   114.944056E+06   -57.469988E+06   -57.470116E+06   344.827968E+06       74.6260300      -14.6122017
              634   114.942608E+06   -57.471144E+06    -57.47126E+06      344.828E+06      -58.4121666       21.4554482
              635   114.941008E+06   -57.472348E+06     -57.4723E+06   344.827744E+06       80.1681213      -38.2123795
              636   114.942888E+06   -57.471088E+06   -57.471236E+06      344.828E+06      -91.3648148      -81.0322800
              637   114.942888E+06   -57.471576E+06   -57.471468E+06   344.828064E+06      -14.8655281      -66.5444565
              638   114.943744E+06   -57.469888E+06   -57.470272E+06   344.827904E+06       17.5291672       179.193588
              639    114.94256E+06   -57.471424E+06   -57.471616E+06   344.828032E+06       158.021103      -24.0216503
              640   114.944984E+06   -57.469356E+06   -57.469272E+06   344.827712E+06       251.684052       205.908905
              641   114.945048E+06   -57.468872E+06    -57.46892E+06    344.82752E+06      -42.3952484      -18.3892040
              642   114.943072E+06   -57.470364E+06   -57.470772E+06   344.827936E+06       371.931671       13.1664276
              643   114.943304E+06   -57.470592E+06    -57.47098E+06   344.828352E+06       107.665855       115.459724
              644    114.94328E+06   -57.470828E+06   -57.470564E+06   344.827968E+06      -4.44152689       59.4113808
              645   114.942456E+06   -57.471512E+06   -57.471832E+06      344.828E+06      -70.1203384       27.9016972
              646    114.94236E+06   -57.471196E+06    -57.47072E+06   344.827936E+06      -108.650726       350.001373
              647   114.942384E+06   -57.471296E+06   -57.471356E+06   344.827936E+06       285.198456       232.154953
              648    114.94444E+06    -57.46956E+06   -57.469432E+06   344.827808E+06      -253.217651      -80.9517136
              649   114.942392E+06   -57.471104E+06   -57.471668E+06    344.82832E+06      -42.9872627      -323.202820
              650   114.944144E+06   -57.470388E+06   -57.470348E+06   344.828192E+06       51.0692787      -5.57422781
              651   114.942328E+06   -57.472556E+06   -57.472608E+06   344.828896E+06      -179.336624       277.991821
              652    114.94332E+06   -57.470436E+06   -57.470528E+06   344.827744E+06       49.5060081       292.191498
              653   114.942264E+06   -57.472136E+06   -57.471756E+06   344.827776E+06       134.288986      -72.9622650
              654   114.942968E+06     -57.4713E+06   -57.471232E+06      344.828E+06      -66.8631287       42.5027466
              655   114.942408E+06    -57.47104E+06   -57.471236E+06   344.828064E+06      -141.999405       69.8321152
              656     114.9434E+06   -57.470668E+06   -57.470908E+06   344.828096E+06       112.551079      -50.9224129
              657   114.942688E+06   -57.472352E+06     -57.4719E+06   344.827584E+06       85.4455414      -361.642212
              658   114.942664E+06    -57.47176E+06   -57.471732E+06   344.828192E+06      -11.4757423      -255.084351
              659   114.942448E+06   -57.471512E+06   -57.471792E+06      344.828E+06      -369.206848      -156.169174
              660   114.940392E+06    -57.47286E+06    -57.47286E+06   344.827872E+06      -20.7088680      -199.033859
              661   114.922456E+06   -57.490944E+06   -57.488628E+06   344.829792E+06   1.24738171E+03      -70.7306137
              662   114.943496E+06   -57.470524E+06   -57.470172E+06   344.827584E+06      -451.216339       6.50424099
              663   114.946056E+06   -57.467948E+06   -57.466672E+06   344.827456E+06      -28.6872120      -57.2589760
              664    114.93992E+06   -57.476648E+06   -57.473604E+06   344.828256E+06       207.111893      -194.328766
              665   114.943312E+06   -57.471152E+06   -57.471232E+06   344.828224E+06      -184.909760       178.366684
              666    114.94276E+06   -57.471352E+06   -57.471196E+06   344.827776E+06       35.9672508       118.021263
              667   114.943088E+06    -57.47058E+06    -57.47032E+06   344.827776E+06      -99.3033295       55.8568001
              668   114.942512E+06    -57.47164E+06   -57.471792E+06   344.828128E+06      -7.38112450       86.4650574
              669   114.943744E+06   -57.469888E+06   -57.470048E+06   344.827744E+06       72.7247925       203.741562
              670   114.943776E+06   -57.470252E+06   -57.470284E+06    344.82816E+06       61.1062737      -36.2707939
              671   114.942096E+06   -57.471908E+06   -57.471552E+06   344.827744E+06       104.529594       177.953903
              672   114.943224E+06   -57.471224E+06   -57.471244E+06   344.828064E+06      -18.7957802      -19.7934875
              673   114.942928E+06   -57.471084E+06   -57.471068E+06   344.828064E+06       26.9287777       92.8089294
              674   114.923416E+06   -57.494216E+06   -57.493268E+06   344.834848E+06   4.58716943E+03       30.5490417
              675   114.942104E+06   -57.472272E+06   -57.471824E+06   344.827872E+06       61.8522148       80.9839783
              676   114.942224E+06    -57.47202E+06   -57.471776E+06   344.827968E+06       74.5324707       234.188492
              677   114.942168E+06   -57.471324E+06   -57.471684E+06   344.828288E+06       60.0634117      -2.94430089
              678   114.942416E+06    -57.47088E+06   -57.471564E+06    344.82816E+06       131.719070       9.79768753
              679   114.937624E+06   -57.475336E+06   -57.475616E+06   344.828736E+06      -353.704865      -2.85745072
              680     114.9438E+06    -57.47012E+06   -57.470284E+06   344.827808E+06       111.669090       138.474655
              681   114.945064E+06   -57.468636E+06   -57.468784E+06   344.828096E+06       102.477577      -269.182861
              682   114.943712E+06   -57.470684E+06   -57.470408E+06   344.828064E+06       86.2285614      -56.7791443
              683   114.941792E+06    -57.47306E+06   -57.473328E+06   344.828704E+06       701.509888      -28.5625229
              684   114.943448E+06    -57.47058E+06   -57.470756E+06    344.82816E+06       111.296028      -7.70631266
              685   114.942448E+06   -57.471424E+06   -57.471516E+06   344.828032E+06       91.2999954      -56.1148987
              686   114.943992E+06   -57.470004E+06   -57.470012E+06   344.828064E+06       42.6862831       93.9081345
              687   114.942912E+06   -57.471088E+06   -57.471248E+06   344.828128E+06       70.8581390       31.6849003
              688   114.943744E+06    -57.47074E+06   -57.470836E+06   344.828192E+06       257.831543      -55.0182915
              689   114.942864E+06   -57.471356E+06     -57.4713E+06   344.828096E+06       71.6634903       69.4546127
              690      114.944E+06   -57.470224E+06   -57.470108E+06   344.828192E+06       208.972229      -13.8518858
              691   114.942256E+06   -57.471728E+06    -57.47204E+06   344.828288E+06      -37.6580963      -39.5631752
              692    114.94176E+06   -57.471644E+06   -57.471796E+06   344.827968E+06      -42.1628799       5.07143450
              693   114.942952E+06   -57.470712E+06   -57.470816E+06   344.827872E+06      -1.61117506       220.039337
              694   114.942376E+06   -57.471132E+06   -57.471668E+06   344.828288E+06      -89.8151398       14.0928926
              695    114.94312E+06     -57.4704E+06   -57.471236E+06   344.828224E+06       57.0268784      -54.5760269
              696   114.918776E+06   -57.489892E+06    -57.49022E+06   344.831104E+06   2.25833545E+03  -1.01884869E+03
              697   114.944728E+06   -57.469144E+06   -57.469536E+06   344.828064E+06       177.487000      -105.955238
              698   114.942424E+06   -57.470936E+06   -57.471476E+06   344.828192E+06      -147.659912  -220.513567E-03
              699   114.943112E+06   -57.470452E+06   -57.471008E+06   344.828096E+06       10.5705471      -96.8466721
              700   114.942992E+06   -57.470516E+06   -57.470824E+06   344.828288E+06      -244.344498      -24.6355801
              701   114.943168E+06   -57.470992E+06    -57.47092E+06   344.828064E+06       3.56210852      -65.3859177
              702   114.943232E+06    -57.47084E+06   -57.470716E+06    344.82784E+06      -56.6398239      -97.6021576
              703   114.943448E+06    -57.47058E+06   -57.470716E+06   344.828192E+06      -6.95320654      -54.4714317
              704   114.943032E+06   -57.470888E+06   -57.471104E+06    344.82816E+06       84.1075745      -39.0544586
              705   114.942864E+06   -57.471132E+06   -57.471096E+06   344.828128E+06       7.70534706      -12.8820200
              706   114.943488E+06   -57.469784E+06   -57.470304E+06   344.828032E+06       255.732651      -20.9738808
              707    114.94312E+06   -57.470944E+06    -57.47104E+06   344.828096E+06       46.9174156      -105.548553
              708   114.944592E+06    -57.47226E+06    -57.47042E+06   344.828608E+06  -1.41651685E+03       928.341187
              709   114.945072E+06   -57.469052E+06   -57.469332E+06    344.82784E+06       152.156128      -69.0556107
              710   114.942928E+06   -57.471688E+06   -57.471712E+06   344.827936E+06      -9.46339703      -106.306816
              711   114.942768E+06   -57.471096E+06   -57.471188E+06   344.827936E+06       116.858734       154.433075
              712    114.94576E+06   -57.468292E+06   -57.468728E+06   344.827648E+06       890.028870      -86.7203751
              713   114.946848E+06   -57.466788E+06   -57.466936E+06   344.827232E+06       26.8135471      -644.379700
              714   114.941712E+06   -57.472116E+06   -57.472172E+06   344.828096E+06      -6.37098598      -131.621567
              715   114.940528E+06   -57.472868E+06   -57.472796E+06   344.827904E+06      -264.442780      -155.102966
              716   114.946816E+06   -57.468256E+06    -57.46812E+06   344.828352E+06       355.370697       463.475342
              717    114.94452E+06   -57.469952E+06   -57.469508E+06    344.82768E+06       187.106552      -108.558594
              718   114.942152E+06   -57.473016E+06    -57.47326E+06   344.828256E+06   1.00083630E+03      -433.137451
              719   114.944264E+06   -57.469948E+06   -57.469932E+06   344.828672E+06       73.1965485       71.4947662
              720    114.94188E+06   -57.472988E+06    -57.47248E+06   344.829024E+06   1.22807629E+03       343.228943
              721   114.941536E+06    -57.47352E+06     -57.4734E+06   344.828736E+06      -452.166077       120.328590
              722   114.946424E+06   -57.468584E+06   -57.469356E+06   344.829024E+06      -216.608658       195.172684
              723   114.942296E+06   -57.471536E+06   -57.471256E+06   344.827648E+06       118.220375       195.784897
              724   114.942152E+06   -57.472516E+06   -57.472132E+06   344.827968E+06       10.9251146       133.970505
              725    114.94232E+06   -57.471592E+06    -57.47142E+06   344.827776E+06       129.708755       101.814613
              726   114.943808E+06   -57.470732E+06   -57.470888E+06      344.828E+06      -148.966522       231.768677
              727   114.942408E+06    -57.47226E+06    -57.47214E+06   344.828192E+06      -206.703247       137.957993
              728   114.943336E+06   -57.470484E+06   -57.470728E+06      344.828E+06      -123.694817       70.6350784
              729   114.941744E+06   -57.471208E+06   -57.471912E+06   344.827808E+06      -333.447479      -54.3791237
              730   114.941848E+06   -57.471936E+06   -57.472336E+06   344.828224E+06      -54.4339752      -72.2105637
              731   114.945384E+06   -57.468608E+06   -57.468696E+06    344.82784E+06      -304.065491       159.461304
              732   114.942496E+06    -57.47142E+06   -57.471788E+06   344.828448E+06      -67.5017242      -126.531967
              733   114.943168E+06   -57.470608E+06   -57.470936E+06   344.827936E+06       68.7780457      -80.1152878
              734   114.942528E+06   -57.471336E+06   -57.471316E+06   344.827648E+06      -109.600365      -76.9203262
              735   114.943648E+06   -57.470248E+06   -57.470308E+06   344.828224E+06       44.3585854      -36.2633705
              736    114.94316E+06   -57.469864E+06   -57.469108E+06   344.827616E+06       844.699097       274.142731
              737     114.9416E+06   -57.469276E+06   -57.471984E+06   344.830592E+06      -984.481995  -1.25660510E+03
              738   114.937736E+06   -57.473708E+06   -57.474796E+06    344.82832E+06      -608.796143       58.0568161
              739   114.941696E+06   -57.472524E+06     -57.4713E+06   344.827232E+06       242.538025      -194.869217
              740   114.946304E+06   -57.467144E+06    -57.46768E+06   344.828096E+06   1.07153625E+03       188.810059
              741   114.942072E+06   -57.472456E+06   -57.472204E+06   344.828032E+06       71.1688156       58.6693954
              742   114.940704E+06   -57.473564E+06   -57.472932E+06   344.827552E+06       139.340073      -301.914185
              743   114.938464E+06   -57.475096E+06   -57.475444E+06   344.828736E+06      -194.134109      -99.2226563
              744   114.945384E+06   -57.469972E+06   -57.468956E+06    344.82784E+06      -381.032776      -205.798492
              745   114.955032E+06   -57.458812E+06   -57.457772E+06   344.827072E+06      -598.662781  -2.72318115E+03
              746   114.946184E+06   -57.467796E+06   -57.466956E+06   344.827904E+06   1.03962891E+03       179.778397
              747   114.942232E+06    -57.47194E+06   -57.471644E+06   344.828448E+06       868.614197       899.185059
              748   114.941248E+06   -57.472848E+06   -57.472748E+06    344.82832E+06      -164.939224      -40.9504623
              749   114.942768E+06   -57.470468E+06    -57.47066E+06   344.827776E+06       50.5739098       176.225876
              750   114.944016E+06   -57.468908E+06   -57.468556E+06   344.827488E+06       101.762619   1.09914624E+03
              751   114.922472E+06   -57.490048E+06   -57.489268E+06   344.830336E+06  -1.49879663E+03       516.209717
              752   114.954368E+06   -57.464868E+06   -57.466264E+06    344.82848E+06   1.24663232E+03      -358.408264
              753    114.94836E+06    -57.46902E+06    -57.46926E+06    344.82864E+06      -291.285461       511.201477
              754   114.951056E+06    -57.46544E+06   -57.465912E+06    344.82976E+06  -1.46310315E+03      -24.8218746
              755   114.906368E+06   -57.505672E+06   -57.502716E+06   344.836576E+06  -1.87949316E+03       824.809143
              756   114.947944E+06   -57.466604E+06   -57.463776E+06   344.828192E+06   1.24941833E+03   1.19326501E+03
              757   114.942032E+06   -57.472096E+06   -57.472096E+06    344.82832E+06       571.704590       5.15172672
              758   114.954272E+06   -57.458184E+06   -57.458268E+06   344.827392E+06   1.31178235E+03   1.37618250E+03
              759   114.930288E+06   -57.479528E+06   -57.480648E+06   344.827104E+06      -5.42664480      -94.0648956
              760   114.943384E+06   -57.470504E+06   -57.469824E+06    344.82672E+06       824.454956       793.998901
              761   114.952144E+06   -57.460844E+06   -57.459072E+06   344.825824E+06   4.16588135E+03      -29.8552227
              762    114.93952E+06   -57.474252E+06   -57.474192E+06   344.828192E+06       995.769226       119.630821
              763     114.9412E+06   -57.466412E+06   -57.467992E+06   344.827872E+06   1.23057593E+03   1.77221179E+03
              764   114.941456E+06   -57.474232E+06   -57.474376E+06   344.829376E+06       722.058167       340.133240
              765    114.95004E+06   -57.463896E+06   -57.463072E+06   344.827072E+06       466.932281      -106.447472
              766   114.948192E+06   -57.465928E+06   -57.463864E+06   344.826848E+06  -3.12186353E+03   1.26058643E+03
              767   114.934856E+06   -57.481416E+06   -57.481752E+06   344.828544E+06  -4.11417871E+03  -1.57232764E+03
              768   114.944432E+06   -57.471064E+06   -57.469836E+06   344.829216E+06       182.083359       164.693069
              769    114.91956E+06   -57.484912E+06   -57.485496E+06   344.824224E+06  -1.05364502E+03      -375.581573
              770   114.944208E+06    -57.47012E+06   -57.470184E+06   344.828736E+06       507.383820       324.229797
              771   114.947384E+06   -57.466544E+06   -57.467168E+06   344.828736E+06       337.061768       677.051208
              772   114.943864E+06   -57.469092E+06   -57.469152E+06   344.828544E+06      -236.891754       403.226563
              773   114.944672E+06   -57.469892E+06   -57.469816E+06   344.828512E+06       13.5089045       223.631638
              774   114.948144E+06   -57.466604E+06   -57.466976E+06   344.828928E+06       393.762421       687.736755
              775   114.940144E+06   -57.476104E+06    -57.47492E+06   344.828992E+06      -8.16366673       136.076279
              776   114.949472E+06   -57.465152E+06   -57.467896E+06   344.831008E+06      -703.143127      -167.049103
              777   114.956256E+06   -57.458104E+06   -57.458668E+06   344.824512E+06  -1.22190186E+03       495.643860
              778    114.97888E+06    -57.44378E+06   -57.440564E+06    344.82272E+06  -1.14370813E+03      -352.537811
              779   114.950752E+06   -57.465368E+06   -57.459712E+06    344.82816E+06   1.15734558E+03      -348.106293
              780   114.943568E+06   -57.470452E+06   -57.470688E+06   344.827776E+06      -418.269379      -161.580597
              781   114.939304E+06    -57.47694E+06    -57.47588E+06   344.828288E+06      -309.538910   1.03785291E+03
              782   114.931584E+06   -57.480364E+06   -57.477696E+06   344.826272E+06      -881.349060  -1.50766406E+03
              783   114.943088E+06   -57.472984E+06   -57.472344E+06   344.827936E+06      -326.414093       158.959198
              784   114.939096E+06   -57.474296E+06    -57.47382E+06   344.828032E+06       299.622559       134.324036
              785    114.94308E+06   -57.470976E+06   -57.471192E+06   344.828224E+06      -24.9956036      -13.2826376
              786   114.941448E+06   -57.472652E+06   -57.472544E+06   344.827872E+06       91.0995789       8.49739742
              787   114.943328E+06   -57.471232E+06   -57.471024E+06   344.827904E+06       5.64739656       77.3504562
              788   114.942352E+06    -57.47208E+06   -57.472052E+06   344.828096E+06      -130.040314      -43.8778954
              789   114.943912E+06    -57.47014E+06   -57.470056E+06    344.82752E+06      -30.1199760       103.095207
              790   114.943656E+06   -57.470168E+06   -57.470276E+06   344.828224E+06       51.7292747       46.4798851
              791    114.94232E+06     -57.4714E+06   -57.471604E+06   344.828128E+06       106.895859       11.0813513
              792    114.94228E+06    -57.47174E+06   -57.471536E+06   344.827936E+06      -17.0927696   505.242586E-03
              793    114.93568E+06    -57.47954E+06   -57.479808E+06   344.829536E+06       774.995056       46.0793457
              794   114.943136E+06   -57.471292E+06   -57.471356E+06   344.828064E+06      -34.1115570  -937.002003E-03
              795   114.941848E+06   -57.472364E+06   -57.472424E+06   344.827936E+06      -206.811493       223.420319
              796   114.943144E+06    -57.47046E+06   -57.470092E+06   344.827616E+06      -437.831207      -60.6640015
              797   114.943992E+06    -57.47066E+06   -57.470192E+06   344.827712E+06       174.749039       7.74134827
              798   114.943984E+06   -57.470524E+06   -57.470628E+06   344.827712E+06      -157.602615      -84.7989044
              799     114.9418E+06    -57.47204E+06   -57.471868E+06   344.828224E+06       28.0767803      -137.989975
              800   114.941736E+06   -57.472408E+06   -57.472132E+06    344.82784E+06       79.4708862       244.314301
              801   114.942648E+06   -57.471308E+06    -57.47112E+06   344.827712E+06       79.7430344       162.122910
              802   114.943248E+06   -57.470836E+06   -57.470516E+06   344.827744E+06       90.2876663       87.5905685
              803    114.86668E+06    -57.52626E+06   -57.527456E+06   344.826752E+06   5.52670459E+03       990.519409
              804   114.943192E+06   -57.471368E+06   -57.471704E+06   344.828032E+06      -37.7888260       29.8929005
              805   114.942328E+06    -57.47172E+06   -57.471488E+06      344.828E+06      -56.0097046      -20.9878426
              806   114.942824E+06   -57.471012E+06   -57.471156E+06   344.828224E+06      -179.713425      -30.8072739
              807    114.94288E+06   -57.471184E+06   -57.471384E+06   344.828192E+06       280.022125      -88.3998032
              808   114.943864E+06   -57.469864E+06   -57.470212E+06   344.828448E+06       15.4866581      -80.8426819
              809   114.941968E+06   -57.472144E+06   -57.472156E+06   344.828096E+06       120.527580       21.4064751
              810    114.94212E+06   -57.471256E+06   -57.471572E+06   344.828448E+06       322.694427       71.2234879
              811   114.941256E+06    -57.47202E+06   -57.472332E+06   344.828576E+06      -614.570862      -127.234863
              812     114.9428E+06   -57.471212E+06   -57.471156E+06   344.828288E+06      -1.48144400       39.0160599
              813   114.944456E+06   -57.469268E+06   -57.469172E+06   344.828352E+06      -124.871788      -269.171600
              814   114.946432E+06   -57.467844E+06   -57.468016E+06   344.827424E+06       249.209732      -56.7230568
              815    114.94792E+06    -57.46652E+06   -57.466496E+06    344.82784E+06      -533.544495      -211.866501
              816   114.943888E+06   -57.469676E+06   -57.470028E+06   344.827808E+06       291.332153       122.065094
              817    114.94848E+06   -57.466012E+06   -57.465796E+06    344.82736E+06      -590.234741      -138.687790
              818     114.9374E+06   -57.475376E+06   -57.475176E+06   344.828192E+06      -466.845215      -159.541260
              819   114.945024E+06   -57.468752E+06   -57.468916E+06      344.828E+06      -28.4414349       126.873093
              820   114.941368E+06   -57.471888E+06     -57.4721E+06   344.828032E+06       839.616455      -499.222992
              821   114.939928E+06   -57.473448E+06   -57.473928E+06   344.828256E+06      -586.535645      -43.8568268
              822   114.941952E+06     -57.4713E+06   -57.471896E+06   344.828096E+06       225.810944      -314.842804
              823   114.941872E+06   -57.471408E+06   -57.471232E+06   344.827936E+06      -51.0943604       224.779953
              824     114.9368E+06   -57.475804E+06   -57.476372E+06   344.829344E+06   5.68618457E+03        523.84375
              825   114.943112E+06    -57.47076E+06     -57.4708E+06   344.827712E+06      -139.280441       42.1508560
              826   114.944832E+06    -57.46954E+06   -57.469396E+06   344.828064E+06      -150.169418       82.5273514
              827    114.94244E+06   -57.471612E+06   -57.471632E+06    344.82816E+06       32.9513664      -67.2339706
              828   114.942736E+06   -57.470776E+06   -57.471008E+06   344.827904E+06      -35.4520721      -122.068466
              829     114.9422E+06   -57.471324E+06   -57.471452E+06   344.827968E+06      -107.522163       227.285736
              830      114.943E+06   -57.471108E+06   -57.471164E+06   344.828192E+06      -22.6189995       177.025360
              831   114.942872E+06   -57.471168E+06   -57.471148E+06   344.828096E+06       38.3273163      -16.3728123
              832    114.94264E+06   -57.467072E+06    -57.46806E+06   344.828544E+06      -77.2891998  -1.04184790E+03
              833   114.945032E+06   -57.464336E+06   -57.467012E+06   344.827776E+06      -70.5897980      -257.739777
              834   114.942688E+06   -57.470592E+06   -57.470952E+06   344.828128E+06       25.0447922       310.593781
              835   114.941672E+06    -57.47062E+06   -57.470104E+06   344.827488E+06      -190.289719       580.057922
              836   114.940568E+06   -57.478064E+06     -57.4768E+06   344.828448E+06       941.533569       485.310913
              837   114.931744E+06   -57.479376E+06   -57.484508E+06    344.83424E+06   3.66397949E+03   3.25302393E+03
              838   114.894576E+06   -57.518352E+06    -57.51656E+06   344.834528E+06   7.19012646E+03      -609.495911
              839    114.92928E+06   -57.489952E+06   -57.491244E+06   344.829504E+06   1.16067627E+03       45.0631866
              840   114.944904E+06   -57.468308E+06   -57.468684E+06    344.82736E+06      -54.8362999       46.2240143
              841    114.94324E+06   -57.470728E+06   -57.470988E+06   344.828384E+06       27.2946568      -34.5965004
              842   114.942376E+06   -57.471392E+06   -57.471304E+06    344.82768E+06       15.1123285       240.680008
              843   114.942976E+06   -57.470968E+06   -57.471112E+06   344.827904E+06       123.742355       119.631058
              844   114.942344E+06    -57.47154E+06   -57.472128E+06   344.828288E+06      -97.8281403       297.959351
              845   114.942792E+06    -57.47204E+06    -57.47108E+06   344.827712E+06       52.3734665      -85.9967041
              846   114.943128E+06    -57.47094E+06    -57.47092E+06   344.828352E+06       58.9165916      -39.9216766
              847   114.942824E+06   -57.470836E+06   -57.471356E+06   344.828192E+06       14.3217163       41.4479523
              848   114.943408E+06   -57.470476E+06   -57.470708E+06    344.82816E+06      -18.4501877       6.11161900
              849   114.941904E+06   -57.471748E+06   -57.472064E+06   344.828096E+06      -151.597153      -74.5811386
              850   114.943352E+06   -57.470608E+06   -57.470732E+06   344.828192E+06      -47.2226372      -98.0043488
              851   114.942864E+06   -57.470852E+06   -57.471256E+06    344.82816E+06      -26.7439823       46.1010208
              852   114.943328E+06   -57.470288E+06   -57.470508E+06   344.827904E+06      -51.7626457      -165.436920
              853   114.943088E+06   -57.470572E+06   -57.471232E+06   344.828288E+06      -205.508453      -151.714371
              854   114.942976E+06   -57.470448E+06    -57.47106E+06     344.8288E+06      -80.8346176       326.372589
              855   114.943912E+06     -57.4697E+06   -57.470624E+06   344.829056E+06  -1.03233643E+03      -271.217896
              856   114.944112E+06    -57.46916E+06   -57.470164E+06   344.828672E+06       89.3174896       105.132538
              857   114.943112E+06   -57.471344E+06   -57.471344E+06   344.828512E+06       351.577576       60.0358849
              858   114.942352E+06    -57.47224E+06    -57.47236E+06    344.82944E+06       412.721893      -61.1624947
              859   114.944264E+06   -57.470372E+06   -57.470492E+06   344.829056E+06       342.334595      -37.3561783
              860   114.942248E+06   -57.471716E+06    -57.47174E+06    344.82816E+06      -176.794403      -157.201385
              861   114.943952E+06   -57.469916E+06   -57.470036E+06    344.82784E+06       134.912552       38.9361610
              862    114.94432E+06   -57.469496E+06   -57.469516E+06   344.827776E+06      -96.8615723       41.8508759
              863   114.943128E+06   -57.470304E+06   -57.470588E+06      344.828E+06      -242.832657       192.607513
              864   114.940776E+06   -57.472992E+06   -57.473596E+06    344.82848E+06      -461.309998       148.157913
              865   114.943256E+06     -57.4705E+06   -57.470636E+06   344.828256E+06      -138.808319       63.5663681
              866   114.936616E+06   -57.476384E+06   -57.475368E+06   344.828032E+06  -1.66084875E+03      -722.140686
              867   114.944208E+06     -57.4693E+06   -57.470304E+06    344.82896E+06       539.247131       469.623932
              868   114.947104E+06    -57.46634E+06   -57.466552E+06   344.828704E+06       644.503479       476.276428
              869    114.94028E+06   -57.475256E+06   -57.474216E+06    344.82896E+06      -62.7469444      -808.342651
              870   114.942136E+06    -57.47206E+06   -57.472052E+06    344.82848E+06       2.87619519      -229.823090
              871   114.945616E+06   -57.468608E+06   -57.468776E+06     344.8272E+06       60.2822647      -107.932175
              872   114.940832E+06   -57.472468E+06   -57.471872E+06   344.828512E+06      -896.930237      -723.380310
              873   114.943384E+06   -57.468884E+06   -57.470084E+06   344.828224E+06       27.4409542      -218.686981
              874    114.93592E+06   -57.477764E+06   -57.477576E+06   344.828064E+06       850.517151   1.18444287E+03
              875   114.940408E+06    -57.47226E+06   -57.472304E+06   344.827264E+06      -995.781982      -34.3682823
              876   114.945312E+06   -57.469656E+06   -57.469444E+06   344.828416E+06       485.992310      -368.585236
              877   114.948016E+06   -57.463944E+06   -57.465936E+06   344.827872E+06      -228.911469      -612.479492
              878   114.942176E+06    -57.47168E+06    -57.47114E+06   344.828128E+06       724.628601   1.15191467E+03
              879   114.945224E+06   -57.468236E+06   -57.468128E+06    344.82736E+06       9.10902405      -111.088326
              880   114.943464E+06   -57.470268E+06   -57.470612E+06   344.828288E+06       7.50977230      -372.289063
              881   114.893872E+06   -57.522756E+06   -57.524928E+06   344.835968E+06   7.23325977E+03       81.7720413
              882    114.95108E+06    -57.45884E+06   -57.461716E+06    344.82512E+06      -923.270630   3.33103442E+03
              883   114.953816E+06   -57.449508E+06   -57.455876E+06   344.828448E+06   1.71134045E+03   1.57239832E+03
              884   114.948672E+06   -57.465492E+06    -57.46376E+06   344.828672E+06      -815.641846   1.82768738E+03
              885   114.944504E+06   -57.469264E+06   -57.469712E+06   344.827392E+06       128.788712      -163.813477
              886   114.945552E+06     -57.4691E+06   -57.469068E+06   344.828064E+06      -454.339325      -34.4144745
              887    114.95828E+06   -57.461688E+06   -57.461556E+06   344.825248E+06   1.60588452E+03   1.11665576E+03
              888    114.94264E+06   -57.471272E+06   -57.471324E+06   344.828032E+06       57.0864716       114.445465
              889   114.942648E+06   -57.471584E+06     -57.4715E+06   344.828096E+06       36.4567413      -247.036057
              890   114.944448E+06   -57.469144E+06   -57.469112E+06   344.827392E+06       141.151520      -133.049438
              891   114.945496E+06   -57.467984E+06   -57.468024E+06   344.828576E+06       168.198471       439.687683
              892    114.94352E+06   -57.470688E+06   -57.470708E+06   344.828064E+06      -77.6405411       107.752480
              893   114.946304E+06   -57.469152E+06   -57.468768E+06   344.829408E+06       464.798248       113.236855
              894   114.943544E+06   -57.470452E+06   -57.470456E+06   344.828064E+06       27.6927567      -107.799942
              895   114.942168E+06    -57.47186E+06   -57.472144E+06   344.828608E+06      -4.33561373       212.727448
              896   114.946584E+06   -57.468384E+06   -57.468776E+06   344.828736E+06       485.867828      -3.88575149
              897   114.941208E+06    -57.47366E+06   -57.473336E+06   344.828672E+06      -298.259979       36.6632385
              898   114.943056E+06   -57.471644E+06   -57.470812E+06   344.829056E+06       376.311188       123.737259
              899   114.933128E+06   -57.480144E+06   -57.481052E+06   344.829664E+06   3.09249268E+03  -1.01753259E+03
              900   114.954704E+06   -57.459128E+06   -57.460088E+06   344.825152E+06   1.67815845E+03      -955.779602
              901   114.937328E+06    -57.48108E+06   -57.478032E+06   344.828352E+06      -96.4935455       20.9355183
              902   114.972584E+06   -57.442728E+06   -57.445864E+06     344.8216E+06      -247.368576       377.257996
              903   114.938456E+06   -57.474184E+06   -57.476144E+06    344.82752E+06       653.414734   1.31059741E+03
              904    114.93296E+06   -57.478784E+06   -57.480752E+06   344.828672E+06      -933.236267       251.382034
              905     114.9442E+06   -57.470348E+06   -57.469968E+06   344.828128E+06      -194.997620       368.218353
              906   114.935448E+06   -57.482776E+06    -57.47872E+06   344.829024E+06      -841.833679      -106.301949
              907   114.934504E+06   -57.480496E+06   -57.478468E+06   344.829696E+06   1.26923035E+03      -961.140198
              908   114.941048E+06    -57.47004E+06   -57.471628E+06   344.828352E+06      -589.760315       557.319397
              909   114.943856E+06   -57.470212E+06   -57.470004E+06   344.827648E+06      -2.31566095      -156.274445
              910   114.942952E+06   -57.470456E+06    -57.47102E+06    344.82784E+06      -65.8381500       245.943329
              911    114.93408E+06   -57.481392E+06   -57.480052E+06   344.827744E+06       528.272888      -771.530884
              912   114.968192E+06   -57.453552E+06   -57.452532E+06   344.830464E+06   2.84627686E+03      -375.048004
              913   114.941856E+06   -57.473684E+06   -57.472796E+06   344.828096E+06      -2.05344892       123.446625
              914   114.942328E+06   -57.472228E+06    -57.47156E+06    344.82752E+06      -385.686279      -277.806915
              915   114.939104E+06    -57.47564E+06   -57.473024E+06   344.826368E+06   1.26009448E+03       581.444397
              916   114.944736E+06   -57.467144E+06   -57.469668E+06    344.82816E+06      -151.979019      -434.075256
              917   114.940512E+06   -57.474584E+06   -57.473916E+06   344.829248E+06       357.358887      -263.288788
              918   114.940736E+06    -57.47468E+06   -57.473904E+06    344.82784E+06       42.2866211      -271.129517
              919   114.943464E+06   -57.470212E+06   -57.470984E+06   344.828512E+06      -255.365005      -137.327484
              920   114.942568E+06     -57.4711E+06   -57.471572E+06    344.82832E+06      -27.3534412      -154.736282
              921   114.942368E+06   -57.471012E+06   -57.471464E+06   344.828288E+06      -85.7556992      -34.8969727
              922   114.944888E+06    -57.46824E+06   -57.469212E+06   344.828672E+06      -318.144287      -190.962875
              923   114.942896E+06   -57.470636E+06   -57.471168E+06    344.82816E+06      -40.5244179      -2.55394650
              924   114.941784E+06     -57.4718E+06     -57.4719E+06   344.827968E+06      -52.0114326      -65.3875885
              925    114.94084E+06   -57.472732E+06   -57.472452E+06   344.827712E+06      -331.918488      -529.155334
              926   114.942792E+06   -57.469284E+06   -57.468948E+06   344.827552E+06      -106.160942       842.764160
              927   114.907368E+06   -57.499276E+06   -57.499124E+06   344.830912E+06   2.10967505E+03   1.96978943E+03
              928   114.941848E+06   -57.472428E+06   -57.472772E+06   344.828192E+06      -293.953766       437.648804
              929    114.94624E+06   -57.469304E+06   -57.469256E+06    344.82816E+06      -155.095337       175.487503
              930   114.948576E+06   -57.467424E+06    -57.46774E+06   344.827872E+06      -525.549194       287.593201
              931   114.941648E+06   -57.471732E+06   -57.471892E+06    344.82768E+06       41.3199043      -11.3014221
              932   114.945272E+06   -57.468468E+06   -57.468096E+06   344.827648E+06      -568.412842       68.4400787
              933   114.939016E+06   -57.473068E+06     -57.4726E+06   344.826848E+06      -947.813354      -196.374084
              934   114.944688E+06    -57.46904E+06   -57.467796E+06   344.826816E+06  -1.78850378E+03  -1.04281909E+03
              935   114.945768E+06   -57.471384E+06   -57.471468E+06   344.830816E+06  -1.43248889E+03      -596.357910
              936   114.947712E+06   -57.464216E+06   -57.465788E+06   344.827104E+06      -338.048676   1.13982239E+03
              937   114.943232E+06   -57.472576E+06    -57.47112E+06   344.827424E+06       276.544525       173.620148
              938   114.963056E+06   -57.457416E+06     -57.4584E+06    344.82736E+06       225.231522   1.47762024E+03
              939   114.944736E+06   -57.469416E+06   -57.469268E+06   344.827712E+06       61.1459312      -111.020432
              940   114.943008E+06   -57.471164E+06   -57.471076E+06   344.828128E+06       25.7286587      -38.0038567
              941   114.950224E+06   -57.464016E+06   -57.464388E+06   344.828864E+06   1.39723340E+03      -43.0778580
              942   114.943168E+06   -57.470916E+06   -57.470796E+06    344.82816E+06      -48.8540878       56.4250374
              943    114.94316E+06    -57.47128E+06   -57.471068E+06   344.827904E+06       24.6827354       39.6385231
              944   114.941624E+06   -57.471928E+06   -57.472016E+06   344.828192E+06       178.305893       4.30506706
              945   114.943192E+06   -57.471208E+06   -57.471036E+06      344.828E+06       6.62133598       114.756325
              946   114.944096E+06   -57.470356E+06   -57.470544E+06   344.828064E+06       15.2722960       17.5306778
              947   114.944448E+06   -57.469748E+06   -57.469752E+06   344.828032E+06      -130.027496       111.101639
              948    114.94612E+06    -57.46896E+06   -57.468424E+06   344.827488E+06      -17.7129917       92.9654312
              949   114.944568E+06   -57.469324E+06    -57.46884E+06   344.827648E+06      -546.959656       129.779434
              950    114.94376E+06    -57.47028E+06   -57.470424E+06      344.828E+06      -228.809280       228.213318
              951   114.944448E+06   -57.469688E+06   -57.469732E+06   344.828128E+06      -430.196136       146.962296
              952   114.945048E+06   -57.469528E+06   -57.469824E+06   344.828352E+06      -238.950043       75.4084091
              953   114.941432E+06    -57.47182E+06   -57.473284E+06   344.828576E+06      -447.976196      -901.604858
              954   114.943144E+06   -57.470424E+06   -57.471608E+06   344.828256E+06       794.416260      -841.418762
              955   114.953696E+06    -57.45866E+06   -57.460104E+06   344.824032E+06  -1.00219025E+03  -1.06059668E+03
              956   114.949312E+06   -57.462132E+06   -57.463528E+06    344.82832E+06   1.51877759E+03       536.514099
              957   114.943704E+06   -57.470936E+06   -57.470768E+06   344.828096E+06      -197.421356       43.5710411
              958   114.937464E+06   -57.477548E+06   -57.476536E+06   344.828384E+06      -269.893219      -20.9185925
              959   114.942624E+06    -57.47132E+06   -57.470516E+06    344.82784E+06      -130.919403       570.510925
              960     114.9406E+06   -57.473232E+06   -57.473396E+06   344.828224E+06      -281.729340      -340.923462
              961   114.943312E+06   -57.471024E+06   -57.471064E+06   344.828224E+06       68.9801102       11.3696890
              962   114.943056E+06   -57.470096E+06   -57.470304E+06   344.828032E+06       191.844070      -157.649185
              963   114.944312E+06   -57.469344E+06   -57.470004E+06   344.828352E+06       247.376801       149.873474
              964   114.944928E+06   -57.467608E+06   -57.469056E+06   344.828416E+06       225.731598      -178.826096
              965   114.942856E+06   -57.470644E+06   -57.471004E+06    344.82816E+06      -13.1996708   831.440151E-03
              966   114.940504E+06   -57.473156E+06   -57.473816E+06   344.828224E+06       309.877869      -74.1916656
              967   114.943368E+06   -57.469712E+06    -57.47032E+06   344.827968E+06       170.652039      -103.549881
              968   114.938472E+06   -57.477388E+06   -57.477476E+06    344.82928E+06   1.16368860E+03      -277.430298
              969   114.945792E+06   -57.468944E+06     -57.4697E+06   344.829312E+06      -471.852081       50.8268814
              970   114.937944E+06   -57.476248E+06   -57.476768E+06   344.827008E+06  -1.19347131E+03      -365.351013
              971   114.946496E+06   -57.467068E+06   -57.469008E+06   344.826496E+06  -3.36064331E+03      -954.088135
              972   114.944656E+06   -57.467188E+06   -57.466608E+06    344.82768E+06       395.310760   1.01007599E+03
              973   114.942336E+06   -57.471464E+06   -57.471476E+06   344.827904E+06      -265.573547      -75.7442856
              974   114.942312E+06   -57.470504E+06   -57.471588E+06    344.82816E+06      -34.4352074       74.9669952
              975   114.943216E+06   -57.470448E+06   -57.470864E+06   344.828256E+06      -42.5775909       23.2258472
              976   114.942144E+06   -57.472216E+06    -57.47192E+06   344.828096E+06      -52.8366432      -105.558563
              977   114.942936E+06   -57.471216E+06   -57.471384E+06    344.82832E+06       316.027618      -87.1370697
              978    114.94276E+06   -57.471284E+06   -57.471412E+06   344.828064E+06       151.851379       65.6921082
              979   114.959272E+06   -57.451892E+06     -57.4523E+06   344.825888E+06  -1.02623389E+03  -2.70567017E+03
              980   114.944112E+06   -57.469496E+06   -57.470108E+06    344.82832E+06       530.416443       264.230530
              981   114.943144E+06   -57.470796E+06    -57.47086E+06   344.828032E+06      -206.958069      -137.818207
              982   114.943336E+06   -57.470064E+06   -57.471068E+06    344.82832E+06      -47.1195221      -167.862137
              983   114.943928E+06   -57.469776E+06   -57.469996E+06   344.828128E+06       413.268799       161.963638
              984     114.9438E+06   -57.470048E+06   -57.470308E+06   344.828288E+06       3.29722810       21.2870350
              985   114.941392E+06   -57.473052E+06    -57.47304E+06   344.828128E+06      -318.673767      -495.541534
              986   114.941936E+06   -57.471668E+06   -57.472148E+06   344.827904E+06       56.3880692       96.1085052
              987   114.943344E+06   -57.469884E+06   -57.470476E+06   344.827904E+06       131.391281       66.7282410
              988    114.95632E+06     -57.4571E+06   -57.460192E+06   344.829632E+06       497.418182       773.637939
              989   114.942464E+06   -57.471436E+06   -57.471708E+06   344.828512E+06       308.576385       141.190598
              990   114.943168E+06    -57.47194E+06    -57.47126E+06   344.828224E+06      -128.439316      -261.686218
              991   114.941432E+06   -57.471572E+06   -57.472416E+06   344.828352E+06       257.366608      -212.513138
              992   114.942912E+06   -57.471172E+06   -57.471424E+06   344.828224E+06       95.0709839      -29.8160172
              993   114.942712E+06   -57.470968E+06   -57.471508E+06    344.82832E+06       64.2492828      -235.328354
              994    114.94304E+06    -57.47118E+06   -57.470916E+06   344.827872E+06       11.1236172       14.5520620
              995   114.939416E+06   -57.473132E+06   -57.474556E+06   344.829024E+06       217.660110      -454.870453
              996   114.940224E+06   -57.475728E+06    -57.47588E+06   344.828896E+06       247.890320      -240.134735
              997   114.943592E+06   -57.469828E+06   -57.470532E+06    344.82816E+06       433.141876      -257.293030
              998   114.940328E+06   -57.473428E+06   -57.473064E+06   344.828512E+06      -52.3771782      -334.047394
              999   114.943024E+06   -57.470896E+06   -57.470964E+06   344.828128E+06       14.9613733      -36.0319901
             1000   114.943408E+06   -57.470484E+06   -57.470568E+06   344.827776E+06      -32.1534691      -20.3499966
             1001     114.9438E+06   -57.469396E+06   -57.469488E+06      344.828E+06       197.206482      -343.475677
             1002    114.94332E+06   -57.470848E+06   -57.471184E+06    344.82848E+06       387.490234       94.3825378
             1003   114.943368E+06   -57.470152E+06   -57.470588E+06   344.828064E+06       27.7231178      -109.990601
             1004   114.939384E+06   -57.476368E+06   -57.478056E+06   344.830752E+06       44.0887260       791.077148
             1005   114.940704E+06   -57.473292E+06    -57.47364E+06    344.82816E+06      -183.219849       198.937637
             1006   114.940824E+06   -57.474008E+06   -57.473044E+06   344.828576E+06       436.082489      -169.576874
             1007    114.94216E+06   -57.471844E+06   -57.471812E+06   344.828416E+06       22.2805519      -37.0040627
             1008   114.943072E+06   -57.470624E+06    -57.47036E+06   344.828064E+06       191.352661       571.749084
             1009   114.941232E+06   -57.473112E+06   -57.471848E+06   344.827616E+06      -71.9358063      -123.748116
             1010   114.944776E+06     -57.4686E+06   -57.468828E+06    344.82736E+06       32.1463051       177.978775
             1011   114.939352E+06   -57.474672E+06   -57.473508E+06   344.827584E+06       38.1401558       35.1407013
             1012   114.943656E+06   -57.470376E+06    -57.47048E+06   344.828064E+06       58.1172409       24.0470715
             1013   114.942904E+06   -57.471664E+06   -57.470556E+06   344.827712E+06       311.710114       200.617599
             1014    114.94064E+06   -57.472612E+06   -57.472256E+06   344.828032E+06       195.090744       690.374207
             1015   114.943736E+06   -57.473116E+06   -57.472308E+06   344.828416E+06       187.992722       308.240967
             1016   114.939144E+06   -57.473356E+06   -57.473028E+06    344.82768E+06       323.650757       237.905365
             1017   114.942392E+06   -57.470836E+06   -57.472108E+06   344.828448E+06       214.305878      -528.082153
             1018   114.943712E+06   -57.471244E+06   -57.470856E+06   344.828608E+06      -317.740387       84.5678024
             1019    114.94216E+06   -57.470704E+06   -57.471396E+06   344.828224E+06      -125.996223      -85.5811234
             1020   114.948088E+06   -57.464476E+06    -57.46464E+06   344.827232E+06   1.99693127E+03   2.15271167E+03
             1021   114.944112E+06   -57.469644E+06   -57.469288E+06   344.828256E+06       87.7973251       592.982605
             1022   114.947736E+06    -57.46798E+06   -57.467012E+06   344.828288E+06      -148.618271      -344.183716
             1023   114.940152E+06   -57.472968E+06   -57.471904E+06   344.826816E+06       615.105530   1.39139307E+03
             1024   114.943776E+06   -57.470596E+06   -57.470764E+06   344.828192E+06      -10.3853397      -18.5779438
             1025   114.943664E+06   -57.472864E+06   -57.470836E+06   344.828736E+06       138.456589  -1.18454346E+03
             1026   114.949696E+06   -57.461024E+06   -57.460608E+06   344.825696E+06  -2.95585449E+03       884.922363
             1027   114.940752E+06   -57.474056E+06   -57.473528E+06   344.828384E+06       428.210541       41.9514313
             1028   114.944648E+06    -57.46938E+06   -57.465688E+06   344.829792E+06   3.34068604E+03       321.685028
             1029   114.986064E+06    -57.43868E+06   -57.435616E+06   344.831424E+06   1.00964410E+03       785.915955
             1030    114.95916E+06    -57.45592E+06   -57.457964E+06   344.828736E+06  -1.63402893E+03  -1.70858435E+03
             1031   114.935408E+06   -57.474252E+06   -57.473244E+06    344.82448E+06   1.10483313E+03       514.261047
             1032   114.941584E+06   -57.471412E+06    -57.47166E+06   344.827936E+06      -414.770020       252.459534
             1033    114.94144E+06   -57.472384E+06   -57.472424E+06   344.828288E+06      -189.186661      -112.209137
             1034   114.945792E+06    -57.46762E+06   -57.469016E+06    344.82512E+06      -773.161316      -346.883148
             1035   114.952208E+06   -57.464652E+06   -57.465592E+06   344.830528E+06  -10.0480918E+03  -1.35080566E+03
             1036   114.945312E+06   -57.467172E+06   -57.467828E+06   344.828064E+06      -255.521225      -6.83090973
             1037   114.940968E+06   -57.471904E+06   -57.472632E+06   344.827968E+06  -1.05617383E+03      -208.196487
             1038   114.939024E+06   -57.474472E+06     -57.4756E+06    344.82912E+06      -645.118530       386.521515
             1039   114.949232E+06   -57.463504E+06   -57.464408E+06   344.828768E+06      -939.735718       883.725647
             1040   114.950128E+06   -57.462064E+06    -57.46528E+06    344.82992E+06      -307.783508       889.192627
             1041   114.947568E+06   -57.465824E+06   -57.466692E+06    344.82848E+06      -634.138489      -501.549896
             1042    114.94288E+06   -57.471704E+06    -57.47196E+06    344.82864E+06      -172.028519       141.731781
             1043   114.946128E+06   -57.466628E+06   -57.467444E+06    344.82752E+06       51.7401352      -656.993958
             1044   114.942992E+06   -57.470088E+06   -57.470716E+06   344.828192E+06      -404.067688      -531.806519
             1045    114.93648E+06     -57.4772E+06    -57.47718E+06   344.828896E+06      -188.224213       31.5954285
             1046    114.94452E+06   -57.468812E+06    -57.46898E+06   344.827552E+06       162.608139      -769.557068
             1047   114.945992E+06    -57.47016E+06     -57.4701E+06   344.830144E+06   1.88584595E+03      -648.006653
             1048    114.95896E+06   -57.462004E+06   -57.461728E+06   344.831232E+06      -691.585693      -242.805832
             1049   114.943216E+06   -57.470248E+06   -57.470704E+06   344.827552E+06      -68.5547409       269.393616
             1050   114.943232E+06   -57.470832E+06    -57.47064E+06   344.827808E+06       78.6247559       116.731834
             1051    114.94336E+06    -57.47068E+06   -57.470496E+06   344.827776E+06       69.1233368       133.879425
             1052   114.942432E+06   -57.471864E+06   -57.471296E+06    344.82784E+06       117.877785       22.8231220
             1053    114.94284E+06   -57.473204E+06   -57.474788E+06   344.830048E+06      -300.272247      -945.296631
             1054   114.942064E+06   -57.471816E+06   -57.471952E+06   344.828224E+06       43.6915283      -101.311081
             1055   114.943704E+06   -57.470812E+06   -57.470524E+06   344.828032E+06       103.817413       131.331696
             1056   114.942152E+06   -57.470436E+06   -57.471792E+06   344.828448E+06       545.443848       346.970795
             1057   114.945336E+06     -57.4701E+06    -57.47022E+06   344.827296E+06      -123.534370       338.942444
             1058   114.932768E+06     -57.4802E+06    -57.48068E+06   344.828736E+06       340.118408       911.758118
             1059   114.944152E+06   -57.467044E+06   -57.469568E+06   344.830496E+06  -1.26682471E+03  -1.31868396E+03
             1060   114.940488E+06   -57.470476E+06   -57.471156E+06   344.827904E+06      -803.000305       345.738556
             1061   114.946584E+06   -57.470628E+06   -57.469208E+06   344.826048E+06      -469.068665       882.203491
             1062   114.940584E+06   -57.473788E+06   -57.473528E+06   344.827584E+06      -33.6416473       342.915192
             1063   114.941736E+06   -57.472976E+06   -57.472688E+06     344.8288E+06       465.075989      -404.197571
             1064   114.911504E+06   -57.496332E+06    -57.49696E+06   344.828992E+06  -2.83319531E+03      -179.623932
             1065    114.94492E+06   -57.469156E+06   -57.469248E+06   344.828704E+06       327.746674      -727.886963
             1066   114.943432E+06   -57.469552E+06   -57.469332E+06   344.827936E+06       387.239288       101.502792
             1067   114.929696E+06   -57.482752E+06   -57.482904E+06   344.830816E+06       160.172501      -762.124695
             1068   114.943528E+06    -57.47098E+06   -57.471028E+06   344.828992E+06       542.585693      -281.332245
             1069   114.945856E+06   -57.467648E+06    -57.46916E+06   344.828032E+06       106.093338       227.617783
             1070   114.944264E+06   -57.468332E+06   -57.469252E+06   344.826688E+06       310.037811       309.825409
             1071   114.943056E+06   -57.470356E+06   -57.470428E+06   344.828704E+06      -807.541016       214.720566
             1072   114.942768E+06   -57.471636E+06   -57.471244E+06   344.828032E+06      -13.4335651      -143.976273
             1073    114.94428E+06   -57.469976E+06   -57.469224E+06   344.827648E+06      -117.633865      -349.879028
             1074   114.942832E+06   -57.470912E+06   -57.471648E+06   344.828352E+06       460.921814       81.7835846
             1075   114.942136E+06    -57.47232E+06   -57.472008E+06   344.828096E+06      -1.49875176      -203.042023
             1076   114.942848E+06   -57.471116E+06   -57.471412E+06   344.828192E+06       49.4740295      -71.7435684
             1077   114.942016E+06   -57.472412E+06   -57.472152E+06   344.828128E+06      -19.2578239      -192.108353
             1078   114.943504E+06   -57.470484E+06   -57.470828E+06   344.828224E+06       61.7932739      -96.9901810
             1079    114.94288E+06   -57.470832E+06   -57.471112E+06   344.828032E+06      -81.6240158       59.4290962
             1080   114.942496E+06   -57.471916E+06    -57.47132E+06   344.827712E+06       16.3172207      -107.399567
             1081   114.942512E+06    -57.47094E+06   -57.471428E+06   344.828288E+06  -919.925809E-03       73.7719955
             1082   114.943464E+06   -57.470436E+06   -57.470332E+06   344.827904E+06       18.8712368      -137.314606
             1083   114.943136E+06    -57.47094E+06   -57.470992E+06   344.827968E+06      -14.2448826      -53.3300095
             1084    114.94268E+06   -57.471288E+06   -57.471704E+06   344.828672E+06      -375.424988       56.7905197
             1085   114.942584E+06   -57.471332E+06    -57.47142E+06    344.82816E+06      -69.5975571       20.3764172
             1086      114.941E+06   -57.472572E+06   -57.472492E+06   344.827872E+06       361.855042       241.119568
             1087   114.940976E+06   -57.472748E+06   -57.472368E+06   344.828448E+06      -301.271271       21.3143959
             1088   114.941984E+06   -57.472588E+06   -57.472244E+06   344.828192E+06      -235.841766      -85.8701019
             1089   114.941376E+06     -57.4723E+06   -57.472364E+06   344.828192E+06       38.0326424      -118.826088
             1090   114.942352E+06   -57.472124E+06    -57.47122E+06   344.827776E+06       17.7773781      -167.032715
             1091   114.943112E+06   -57.470768E+06   -57.471052E+06    344.82784E+06       270.471771      -10.2129850
             1092   114.943824E+06   -57.469404E+06   -57.469592E+06   344.827808E+06      -73.6698151       79.2657471
             1093    114.94284E+06   -57.471208E+06    -57.47108E+06   344.828128E+06       50.5895729      -2.17139912
             1094   114.943576E+06   -57.470576E+06   -57.470436E+06   344.827744E+06      -214.238602       198.139130
             1095   114.941776E+06   -57.471936E+06   -57.471536E+06   344.827904E+06      -590.443909       169.860016
             1096   114.941312E+06   -57.472252E+06   -57.472024E+06   344.827744E+06      -340.796448       21.3130455
             1097   114.942096E+06   -57.471892E+06   -57.472064E+06   344.828256E+06      -85.5712204      -10.1401730
             1098   114.943024E+06   -57.470316E+06   -57.470792E+06    344.82816E+06       57.2492142       21.6522884
             1099   114.949752E+06   -57.465588E+06   -57.465692E+06   344.827712E+06       8.07172489       115.703064
             1100    114.94352E+06   -57.469736E+06   -57.469692E+06   344.827648E+06       72.0609360       217.841263
             1101   114.942592E+06   -57.471468E+06   -57.471292E+06   344.827808E+06      -123.117088       123.927589
             1102   114.943512E+06   -57.470704E+06    -57.47072E+06   344.828032E+06       37.6367455       12.3494530
             1103   114.942568E+06   -57.471556E+06   -57.471564E+06   344.828192E+06       19.7763710       69.7773361
             1104   114.942784E+06   -57.471388E+06   -57.471144E+06   344.828128E+06       42.3189240       12.0777035
             1105   114.943032E+06   -57.471524E+06    -57.47142E+06   344.828032E+06      -16.1150322      -109.750084
             1106   114.943384E+06   -57.470648E+06   -57.470384E+06   344.828096E+06       27.5058308       23.0923233
             1107    114.94376E+06    -57.47084E+06   -57.470584E+06   344.827936E+06       58.1260185      -211.296768
             1108   114.938888E+06   -57.474328E+06   -57.475024E+06   344.828736E+06      -291.886414       32.0085182
             1109   114.942104E+06     -57.4718E+06   -57.471892E+06    344.82816E+06       168.905945      -142.201355
             1110   114.941128E+06   -57.472308E+06   -57.472224E+06   344.827808E+06       710.582397      -35.7944794
             1111   114.941864E+06   -57.471992E+06   -57.472484E+06   344.827872E+06       707.961548       443.369232
             1112     114.9444E+06   -57.470364E+06   -57.470388E+06    344.82816E+06       12.4513597      -234.405823
             1113   114.942624E+06   -57.471228E+06   -57.471116E+06   344.827872E+06       340.604919       904.886108
             1114   114.945072E+06    -57.46838E+06   -57.468316E+06   344.828064E+06       45.0071373       115.225014
             1115   114.941608E+06   -57.472284E+06   -57.471936E+06   344.828032E+06      -533.511047      -127.634712
             1116   114.941288E+06   -57.472044E+06   -57.472272E+06   344.827808E+06       74.5085678      -37.9281616
             1117      114.942E+06   -57.471652E+06   -57.471868E+06   344.827936E+06       6.97719765      -142.840973
             1118   114.972664E+06   -57.453488E+06   -57.450992E+06    344.82944E+06  -9.79749316E+03       300.386444
             1119   114.942824E+06   -57.471388E+06     -57.4711E+06   344.828064E+06      -78.5584106       19.6127224
             1120   114.942432E+06   -57.471828E+06   -57.471844E+06   344.828192E+06      -163.699234      -102.165932
             1121   114.942592E+06   -57.471124E+06   -57.471136E+06   344.827904E+06       37.6097717       62.1223831
             1122    114.94256E+06   -57.471672E+06   -57.471872E+06   344.827744E+06      -9.49852467       9.60772038
             1123   114.940056E+06   -57.476008E+06   -57.473804E+06   344.828448E+06      -355.050201       474.408569
             1124   114.942856E+06   -57.471416E+06     -57.4712E+06   344.827776E+06      -74.9987946      -8.69849300
             1125    114.94368E+06   -57.470132E+06   -57.470412E+06   344.828032E+06       291.957977      -57.0825691
             1126   114.938936E+06   -57.474516E+06   -57.474632E+06   344.828224E+06      -348.027405       12.7690945
             1127     114.9426E+06   -57.471056E+06   -57.471564E+06   344.828224E+06       18.0793228       42.4702873
             1128   114.943648E+06   -57.470532E+06   -57.470944E+06   344.828128E+06      -245.295670      -84.3644638
             1129   114.938752E+06   -57.474784E+06    -57.47478E+06   344.828512E+06      -321.099609      -29.9647217
             1130   114.946264E+06   -57.465944E+06      -57.467E+06   344.827136E+06       77.4424591       563.999695
             1131   114.944056E+06   -57.469784E+06   -57.470156E+06   344.828128E+06      -12.3290768      -454.321930
             1132   114.946136E+06   -57.464632E+06   -57.464316E+06   344.827104E+06   1.19199011E+03      -934.268433
             1133   114.949032E+06   -57.465448E+06   -57.465184E+06   344.827136E+06       234.664719      -336.395050
             1134   114.951224E+06   -57.458676E+06   -57.459604E+06   344.826048E+06   1.29047107E+03       78.8262558
             1135   114.950968E+06   -57.463036E+06    -57.46436E+06   344.829696E+06  -2.09863306E+03       537.588074
             1136   114.943568E+06   -57.470288E+06   -57.470692E+06   344.828352E+06       30.6712990       12.7881851
             1137   114.962232E+06   -57.459144E+06   -57.457976E+06   344.832576E+06   1.99295679E+03       60.9405975
             1138    114.92716E+06   -57.482084E+06   -57.482272E+06    344.83104E+06   1.62249268E+03       735.331726
             1139    114.94568E+06    -57.46902E+06   -57.468708E+06    344.82848E+06       251.992432      -122.175102
             1140   114.937792E+06   -57.475428E+06   -57.476236E+06   344.828672E+06       870.160645      -411.124390
             1141   114.945368E+06    -57.46646E+06   -57.468572E+06   344.828864E+06       51.4436378       596.147217
             1142   114.947952E+06   -57.467024E+06   -57.467632E+06   344.827904E+06       757.481445       439.020081
             1143   114.946312E+06   -57.468164E+06    -57.46864E+06   344.828096E+06       922.611694       269.980164
             1144    114.95016E+06    -57.46554E+06   -57.465464E+06      344.828E+06       247.578415       75.4023438
             1145     114.9398E+06   -57.474848E+06   -57.474008E+06   344.828352E+06       205.669052       624.785828
             1146   114.943624E+06   -57.470516E+06   -57.470408E+06    344.82784E+06       37.7079277       151.301071
             1147    114.94324E+06   -57.471452E+06   -57.472284E+06    344.82784E+06       178.128250      -2.45994020
             1148    114.94996E+06   -57.465504E+06   -57.466596E+06   344.827136E+06      -866.056458      -566.176697
             1149   114.945648E+06   -57.469016E+06    -57.46802E+06   344.827232E+06      -75.6368637       117.256454
             1150   114.942424E+06   -57.473088E+06    -57.47178E+06   344.827872E+06      -18.0367565       137.260788
             1151   114.943376E+06   -57.470772E+06   -57.470968E+06   344.828096E+06      -110.683838      -173.566742
             1152    114.94464E+06   -57.470076E+06   -57.469892E+06    344.82816E+06      -85.4865341      -214.621704
             1153   114.941208E+06   -57.473128E+06   -57.472964E+06   344.828288E+06       458.980133       65.1609726
             1154   114.949608E+06   -57.464156E+06   -57.462992E+06   344.826816E+06       65.2325745      -399.122498
             1155   114.943592E+06   -57.469908E+06   -57.470992E+06   344.828064E+06       171.923615      -138.468735
             1156   114.945968E+06   -57.466672E+06   -57.468628E+06   344.828288E+06       541.170654       117.467735
             1157   114.945816E+06   -57.467892E+06   -57.468744E+06    344.82768E+06      -94.4753342      -117.564674
             1158   114.943536E+06   -57.471448E+06   -57.471124E+06   344.827584E+06       215.405258       359.968475
             1159    114.94076E+06   -57.472688E+06   -57.473944E+06   344.829376E+06       407.493652      -227.200531
             1160   114.945448E+06   -57.468596E+06   -57.468256E+06   344.827648E+06      -285.166809      -252.586044
             1161   114.942808E+06   -57.470908E+06   -57.470976E+06   344.828032E+06      -75.2828674      -277.276031
             1162    114.94364E+06   -57.470472E+06   -57.470512E+06      344.828E+06       38.1508064       8.55281830
             1163    114.94288E+06   -57.470896E+06   -57.471072E+06   344.827808E+06       6.86819792      -1.86829925
             1164   114.943832E+06   -57.470444E+06   -57.470196E+06   344.827328E+06      -192.158386      -1.43173265
             1165   114.944336E+06   -57.469852E+06   -57.470124E+06      344.828E+06      -68.6665344       96.4746094
             1166   114.943808E+06   -57.470176E+06   -57.470164E+06   344.828032E+06      -30.9028187       42.8782730
             1167   114.943056E+06   -57.471092E+06    -57.47116E+06   344.828128E+06       41.1015892       146.392380
             1168   114.942704E+06     -57.4714E+06   -57.471432E+06   344.828096E+06      -11.5277987       22.1765327
             1169   114.942872E+06   -57.471172E+06   -57.471068E+06   344.828128E+06      -2.81605411       104.940163
             1170   114.942536E+06     -57.4733E+06   -57.472492E+06   344.827968E+06       434.688507       561.539673
             1171   114.943712E+06   -57.470152E+06    -57.47026E+06   344.827936E+06      -110.646965      -208.634125
             1172   114.942656E+06   -57.470948E+06   -57.471008E+06   344.827872E+06      -63.1014023       149.744690
             1173   114.942792E+06     -57.4711E+06   -57.470768E+06   344.827872E+06       229.755005      -37.4263725
             1174   114.947728E+06   -57.466948E+06   -57.466576E+06    344.82832E+06   1.10294031E+03       273.319092
             1175    114.94272E+06   -57.471048E+06   -57.471068E+06   344.828032E+06       179.837509      -170.416977
             1176    114.94192E+06   -57.472184E+06   -57.471928E+06   344.828416E+06      -201.267105      -51.1924667
             1177   114.941944E+06    -57.47154E+06   -57.471912E+06   344.827936E+06       41.6080093       137.987473
             1178   114.941736E+06   -57.471876E+06   -57.472204E+06   344.827968E+06       27.7935314       97.3762512
             1179    114.94308E+06   -57.472276E+06   -57.472628E+06   344.829952E+06       974.931335       711.585632
             1180   114.943152E+06   -57.470868E+06   -57.470844E+06    344.82752E+06      -293.992493      -141.710510
             1181   114.942848E+06   -57.470364E+06    -57.47152E+06   344.827808E+06      -272.672607      -213.143631
             1182   114.950128E+06   -57.467384E+06    -57.46618E+06   344.828864E+06   2.35940161E+03      -825.703674
             1183    114.93656E+06   -57.476228E+06   -57.476148E+06   344.830144E+06  -1.40080029E+03  -3.31239282E+03
             1184   114.943008E+06   -57.470432E+06   -57.470328E+06   344.827232E+06      -66.1130829       282.677765
             1185   114.949056E+06   -57.464296E+06   -57.463584E+06   344.828608E+06   1.70451453E+03   1.46423157E+03
             1186   114.943936E+06    -57.47062E+06   -57.471128E+06   344.829792E+06   2.69003979E+03   2.58689722E+03
             1187   114.961008E+06   -57.457072E+06   -57.460476E+06    344.82448E+06  -2.89883423E+03       285.256378
             1188   114.941296E+06   -57.472808E+06   -57.472752E+06   344.828448E+06       51.9685669       35.6871452
             1189    114.94112E+06   -57.474544E+06    -57.47352E+06    344.82704E+06      -608.381165  -1.42356409E+03
             1190   114.944984E+06    -57.47378E+06   -57.474016E+06   344.829344E+06  -1.24790503E+03  -1.42971411E+03
             1191   114.945144E+06   -57.468736E+06   -57.468544E+06   344.829024E+06   2.16904834E+03   1.50131213E+03
             1192    114.94108E+06   -57.473028E+06   -57.472936E+06   344.828352E+06       403.889496      -397.765076
             1193   114.916848E+06    -57.49412E+06   -57.493028E+06   344.825824E+06  -1.17526160E+03  -1.62802368E+03
             1194   114.943112E+06   -57.470584E+06   -57.470884E+06      344.828E+06       379.978638       27.8119469
             1195   114.945272E+06   -57.468908E+06   -57.469396E+06    344.82736E+06      -158.710175      -295.700317
             1196   114.946336E+06   -57.467488E+06   -57.468052E+06   344.827488E+06       756.021790       309.747406
             1197    114.94392E+06   -57.469068E+06   -57.467612E+06   344.827776E+06   1.34602783E+03       388.131958
             1198   114.944144E+06   -57.469784E+06   -57.469492E+06   344.826848E+06       245.032486      -582.198669
             1199   114.942696E+06    -57.47082E+06    -57.47234E+06   344.828384E+06      -394.302551      -998.272095
             1200   114.946432E+06   -57.469332E+06   -57.469232E+06    344.82784E+06      -764.603760      -378.881866
             1201   114.940424E+06   -57.472264E+06   -57.472924E+06   344.827936E+06      -32.9092369       25.9671974
             1202   114.942856E+06   -57.470484E+06   -57.471084E+06    344.82816E+06      -649.288635      -236.317429
             1203   114.943152E+06   -57.472208E+06   -57.472012E+06   344.828384E+06      -597.917664      -323.432037
             1204   114.944432E+06    -57.46988E+06    -57.46984E+06   344.827744E+06       7.30698633       24.8389168
             1205    114.94164E+06   -57.471928E+06   -57.472232E+06      344.828E+06      -256.223358      -162.172501
             1206    114.94168E+06    -57.47224E+06   -57.472496E+06   344.828096E+06      -733.824463      -130.458954
             1207    114.94396E+06   -57.470068E+06   -57.469988E+06   344.827872E+06      -132.774612       17.7632580
             1208    114.94364E+06   -57.470724E+06    -57.47148E+06   344.828832E+06       133.639206       374.086151
             1209   114.939536E+06   -57.473012E+06   -57.472644E+06      344.828E+06      -389.043884      -37.4640160
             1210      114.942E+06   -57.472148E+06   -57.472248E+06      344.828E+06      -105.518501      -32.9142418
             1211   114.943544E+06    -57.47112E+06   -57.471476E+06      344.828E+06      -39.3438606       62.5831223
             1212   114.945184E+06   -57.469136E+06   -57.469364E+06    344.82784E+06      -52.9313850       202.497192
             1213   114.945824E+06    -57.46868E+06   -57.468512E+06    344.82752E+06       7.18546629      -123.255798
             1214   114.941968E+06   -57.471836E+06   -57.472064E+06      344.828E+06      -644.531616      -170.654968
             1215   114.944696E+06   -57.468804E+06    -57.47046E+06   344.829152E+06      -460.885681      -92.2575684
             1216   114.948888E+06    -57.46392E+06   -57.466228E+06   344.829536E+06       282.046051       599.038086
             1217   114.944928E+06   -57.468976E+06    -57.46952E+06   344.828288E+06       186.988602      -25.0562134
             1218   114.942104E+06    -57.47276E+06    -57.47294E+06     344.8288E+06      -4.19511461       160.419250
             1219   114.943808E+06   -57.471356E+06   -57.469936E+06   344.827616E+06       204.900574       175.329865
             1220   114.942744E+06   -57.471128E+06   -57.471336E+06   344.828128E+06      -137.717041       33.5858421
             1221   114.943008E+06   -57.470844E+06   -57.470848E+06   344.828128E+06      -60.1644402       42.4315872
             1222   114.943104E+06    -57.47114E+06   -57.470932E+06   344.828096E+06      -23.5930920      -77.6826935
             1223   114.942792E+06   -57.471292E+06   -57.471344E+06    344.82816E+06       20.3646049      -109.435699
             1224   114.943448E+06   -57.469948E+06   -57.470368E+06      344.828E+06       135.144791       186.720795
             1225   114.942608E+06   -57.471288E+06   -57.471348E+06      344.828E+06      -70.0551605      -163.561401
             1226   114.941904E+06   -57.471996E+06    -57.47196E+06   344.828416E+06       15.4552603       50.5430870
             1227   114.943504E+06   -57.470864E+06   -57.470996E+06   344.828192E+06      -95.3995972       35.8940697
             1228   114.943056E+06   -57.471068E+06   -57.471112E+06    344.82816E+06      -17.7597103      -113.894516
             1229   114.943216E+06   -57.471088E+06    -57.47102E+06   344.828064E+06       49.2203827       68.3053970
             1230   114.939344E+06   -57.475492E+06   -57.474624E+06   344.827968E+06       665.681152      -596.826721
             1231   114.941288E+06   -57.472272E+06   -57.472548E+06   344.828224E+06      -406.794098      -29.5022907
             1232   114.941984E+06    -57.47154E+06    -57.47198E+06   344.828064E+06       149.734116       187.234619
             1233   114.943424E+06     -57.4685E+06   -57.469564E+06   344.827744E+06      -398.643677      -305.259155
             1234   114.945528E+06   -57.468884E+06   -57.468652E+06   344.827936E+06       471.621216       78.9341278
             1235     114.9434E+06   -57.470272E+06   -57.470616E+06   344.828288E+06      -215.174805      -28.2081776
             1236   114.943328E+06    -57.47058E+06   -57.470772E+06   344.828256E+06      -150.629074       18.5774803
             1237   114.943232E+06   -57.470348E+06   -57.470252E+06   344.827712E+06      -7.28710079       223.011902
             1238   114.943096E+06   -57.470908E+06   -57.470884E+06   344.828256E+06       205.334717       93.0937729
             1239    114.94292E+06   -57.471376E+06    -57.47102E+06    344.82816E+06      -5.12302303      -9.51239014
             1240    114.94252E+06   -57.471824E+06   -57.471688E+06   344.828256E+06       36.3580589      -100.938843
             1241   114.943592E+06   -57.470584E+06   -57.470136E+06   344.828032E+06      -9.34471035       56.9070244
             1242    114.94256E+06   -57.471568E+06   -57.471556E+06   344.827968E+06      -165.698990      -173.885452
             1243   114.943192E+06   -57.470156E+06   -57.470068E+06   344.827872E+06       367.371796       322.798157
             1244   114.943056E+06    -57.46894E+06    -57.47096E+06   344.828416E+06      -129.830154       11.5412178
             1245   114.944416E+06   -57.468932E+06   -57.468932E+06   344.827744E+06       176.374390       158.893219
             1246    114.94564E+06   -57.467484E+06   -57.469444E+06   344.828768E+06      -184.980469      -134.590363
             1247   114.942504E+06   -57.470148E+06   -57.470364E+06   344.827456E+06       59.7497215      -303.969116
             1248   114.961488E+06   -57.460028E+06   -57.460036E+06   344.831648E+06       366.733582      -47.7892647
             1249   114.951808E+06   -57.468684E+06   -57.466804E+06   344.828736E+06   2.64928198E+03       148.848267
             1250   114.954352E+06    -57.46472E+06    -57.46332E+06   344.828672E+06   2.12187964E+03       293.603607
             1251   114.942456E+06    -57.47158E+06   -57.471796E+06   344.827936E+06      -10.6405687       35.0387497
             1252   114.944728E+06   -57.469424E+06   -57.469564E+06   344.828032E+06      -724.841980      -263.885437
             1253    114.94496E+06   -57.469392E+06   -57.468024E+06    344.82736E+06      -248.459808      -148.954865
             1254   114.944664E+06   -57.469488E+06   -57.469924E+06   344.828128E+06      -9.57417965       184.313644
             1255   114.943184E+06   -57.470972E+06   -57.470944E+06   344.827872E+06      -439.601318      -107.530655
             1256   114.942104E+06     -57.4723E+06   -57.472232E+06   344.827968E+06      -341.795959      -385.389709
             1257     114.9434E+06   -57.470444E+06   -57.470744E+06    344.82784E+06      -148.299377      -38.0730400
             1258    114.94556E+06   -57.469492E+06    -57.46862E+06   344.827456E+06       167.200821      -64.2635193
             1259    114.94364E+06   -57.470432E+06   -57.470188E+06   344.827776E+06      -6.07802534      -90.4184113
             1260   114.944288E+06   -57.470416E+06   -57.470284E+06   344.828064E+06       59.2006874       125.556412
             1261   114.942112E+06   -57.471196E+06     -57.4716E+06   344.828032E+06      -35.8348045       93.5933456
             1262    114.94232E+06   -57.471776E+06   -57.471556E+06   344.828096E+06       10.6361771      -57.7563095
             1263   114.941392E+06   -57.471148E+06   -57.472692E+06   344.828832E+06      -157.222305       291.268677
             1264   114.943624E+06   -57.470228E+06   -57.470348E+06   344.827168E+06       129.167007       438.400146
             1265   114.943168E+06   -57.471156E+06    -57.47074E+06   344.827936E+06      -113.863548       114.731827
             1266   114.947256E+06   -57.467164E+06   -57.467024E+06   344.827296E+06       568.302124       216.678818
             1267   114.940376E+06   -57.472316E+06   -57.472884E+06   344.827936E+06      -571.908813      -170.373215
             1268   114.934552E+06   -57.475532E+06   -57.476408E+06      344.828E+06      -828.015747       178.055664
             1269   114.939536E+06   -57.474888E+06   -57.476744E+06    344.82912E+06      -932.550232  -1.08517712E+03
             1270     114.9428E+06   -57.471028E+06   -57.471392E+06   344.828256E+06       461.809692       62.9346046
             1271   114.942944E+06   -57.471004E+06   -57.470992E+06   344.828128E+06       115.866135       61.1363678
             1272    114.94324E+06   -57.470808E+06   -57.470908E+06   344.828032E+06       110.238953      -36.2199287
             1273    114.94248E+06    -57.47108E+06   -57.472328E+06   344.828352E+06       535.551575      -275.151550
             1274   114.940936E+06   -57.472424E+06   -57.472288E+06   344.827712E+06       46.5988617      -9.55693913
             1275   114.943536E+06   -57.470376E+06   -57.470272E+06    344.82768E+06      -86.4708176      -87.1146622
             1276   114.943688E+06   -57.470188E+06   -57.469884E+06   344.827616E+06       44.7379303       22.0525112
             1277   114.943656E+06   -57.470388E+06   -57.470508E+06   344.828096E+06       124.723724      -5.09546328
             1278   114.944016E+06   -57.470324E+06   -57.470584E+06   344.828576E+06       252.034302      -47.3472786
             1279    114.94356E+06    -57.47044E+06   -57.470752E+06   344.828384E+06       96.3775635       175.679581
             1280   114.950256E+06   -57.465096E+06   -57.465948E+06   344.829888E+06  -1.83531641E+03       426.487549
             1281   114.943256E+06    -57.47046E+06   -57.470672E+06   344.828032E+06      -137.073669      -31.4941292
             1282   114.940184E+06   -57.473812E+06   -57.473364E+06   344.827712E+06       239.616730      -22.5094166
             1283   114.946056E+06   -57.466844E+06   -57.467312E+06   344.828832E+06      -403.994812       319.324219
             1284   114.945448E+06   -57.467496E+06   -57.469468E+06   344.829024E+06       71.5849991      -54.1695824
             1285   114.943232E+06    -57.47238E+06    -57.47096E+06    344.82768E+06      -85.2089462       273.591125
             1286    114.94184E+06   -57.472316E+06   -57.472348E+06   344.828576E+06      -14.9324541       168.341019
             1287   114.938152E+06   -57.473388E+06   -57.474824E+06   344.829632E+06       194.574768       134.092987
             1288    114.94112E+06     -57.4717E+06   -57.472488E+06    344.82832E+06      -640.013123      -642.496216
             1289    114.94332E+06   -57.469924E+06    -57.47078E+06   344.828576E+06      -28.8289700       51.0670929
             1290   114.940312E+06   -57.474636E+06   -57.476476E+06   344.831488E+06   2.74985059E+03   1.04698022E+03
             1291   114.932824E+06    -57.47814E+06   -57.477368E+06    344.82704E+06      -341.252747       161.876572
             1292   114.942376E+06   -57.472104E+06   -57.472404E+06    344.82848E+06       93.6239700      -469.218018
             1293   114.941552E+06   -57.471904E+06   -57.471336E+06   344.827616E+06       94.3475342       70.0439987
             1294    114.94296E+06   -57.471312E+06   -57.471392E+06   344.827872E+06       805.314819       175.920105
             1295   114.943456E+06     -57.4705E+06   -57.470424E+06   344.828256E+06      -570.618530      -192.827927
             1296   114.941352E+06   -57.472432E+06   -57.472244E+06   344.827648E+06       525.699097      -8.87470436
             1297   114.944224E+06   -57.470248E+06   -57.470316E+06    344.82784E+06       642.996399       135.349945
             1298   114.938496E+06   -57.473756E+06   -57.473544E+06      344.828E+06       253.479462      -364.841797
             1299   114.942312E+06   -57.471036E+06   -57.471096E+06   344.827904E+06       310.131897       13.9545069
             1300   114.942968E+06   -57.470652E+06   -57.471104E+06    344.82816E+06       47.1549034      -6.48463202
             1301    114.94972E+06    -57.46406E+06   -57.464648E+06   344.826816E+06      -417.437592      -220.533447
             1302   114.943264E+06   -57.470688E+06   -57.470868E+06   344.828192E+06       164.466614       13.1761875
             1303   114.944144E+06   -57.469796E+06   -57.469832E+06   344.827968E+06      -108.483902      -69.7543259
             1304   114.942712E+06   -57.471128E+06   -57.471104E+06   344.827776E+06      -300.628784       75.0957642
             1305   114.941488E+06   -57.472524E+06   -57.473252E+06   344.828096E+06      -552.912964      -150.461258
             1306   114.942328E+06    -57.47124E+06   -57.471432E+06   344.828416E+06      -96.4820480       7.79889154
             1307    114.94296E+06   -57.471052E+06   -57.471104E+06   344.828672E+06      -256.217743       32.3151283
             1308    114.92436E+06    -57.48658E+06   -57.486608E+06   344.829888E+06       675.900513      -27.5240173
             1309    114.94208E+06    -57.47168E+06   -57.471628E+06    344.82832E+06      -14.7817917      -42.3667297
             1310   114.943392E+06   -57.470636E+06   -57.471144E+06    344.82848E+06       86.8118286       17.1892738
             1311   114.949872E+06   -57.460228E+06   -57.459552E+06   344.824256E+06      -14.3885756   1.20615088E+03
             1312    114.94168E+06   -57.473792E+06   -57.471812E+06   344.827616E+06       272.727051       714.143677
             1313   114.929216E+06   -57.479504E+06   -57.480528E+06   344.827552E+06   2.06769507E+03       794.290161
             1314   114.944048E+06    -57.46934E+06   -57.467692E+06   344.825344E+06       93.9469376       418.560730
             1315   114.942848E+06   -57.470792E+06   -57.471368E+06   344.828352E+06      -75.0818710      -25.0929604
             1316   114.942008E+06   -57.472588E+06   -57.472416E+06   344.828288E+06       18.3291054      -332.367859
             1317   114.941552E+06   -57.475532E+06   -57.475536E+06     344.8296E+06      -186.535263   2.80152197E+03
             1318   114.942896E+06     -57.4706E+06   -57.470884E+06   344.828672E+06       360.849701      -89.0459366
             1319   114.944448E+06   -57.470404E+06   -57.469688E+06   344.827904E+06      -23.9106941   1.77743591E+03
             1320   114.940672E+06   -57.473364E+06   -57.473256E+06      344.828E+06       322.134949       233.795471
             1321   114.942664E+06   -57.470548E+06   -57.470888E+06    344.82784E+06       344.154236       150.014633
             1322   114.942344E+06     -57.4714E+06   -57.471768E+06   344.828192E+06      -51.2333031      -103.741676
             1323   114.943336E+06    -57.47044E+06   -57.470652E+06   344.827904E+06       32.4297295      -110.563736
             1324   114.941496E+06   -57.471764E+06   -57.472084E+06   344.827968E+06       139.087616   612.650394E-03
             1325   114.955592E+06   -57.454888E+06   -57.455416E+06   344.828544E+06   1.47522900E+03   2.24438599E+03
             1326   114.963208E+06    -57.45766E+06   -57.457452E+06   344.824192E+06   1.69285510E+03      -156.299301
             1327   114.964736E+06   -57.453388E+06   -57.455164E+06    344.82864E+06  -1.72866431E+03       499.994415
             1328   114.952232E+06    -57.45814E+06   -57.458828E+06   344.828544E+06       445.000427   1.43695410E+03
             1329   114.951944E+06   -57.463068E+06     -57.4645E+06   344.826816E+06      -897.609192      -360.861359
             1330   114.967512E+06   -57.452112E+06   -57.449308E+06   344.825088E+06  -1.57413586E+03      -878.237854
             1331   114.949208E+06   -57.467364E+06   -57.466732E+06   344.826624E+06      -644.251099       249.877502
             1332   114.942416E+06   -57.471544E+06   -57.471664E+06   344.828032E+06       109.361389       149.437408
             1333   114.946984E+06     -57.4685E+06   -57.468568E+06   344.828544E+06       635.960327       162.761261
             1334   114.942096E+06   -57.472296E+06   -57.472312E+06   344.828288E+06       457.707306       86.0919571
             1335   114.943392E+06   -57.470812E+06    -57.47056E+06   344.827936E+06       5.93855858      -99.2748260
             1336   114.943184E+06   -57.471092E+06   -57.470892E+06    344.82816E+06   503.093421E-03      -48.4296494
             1337   114.944872E+06   -57.469368E+06   -57.468992E+06   344.828128E+06       390.298645       208.358871
             1338   114.943024E+06    -57.47096E+06   -57.470796E+06   344.827968E+06       2.59148240       70.1954117
             1339   114.941112E+06   -57.473116E+06   -57.472224E+06   344.827744E+06      -124.987488      -185.877365
             1340   114.943064E+06    -57.47514E+06   -57.472136E+06    344.82672E+06      -479.487671      -514.278748
             1341   114.942424E+06   -57.470992E+06    -57.47112E+06   344.828192E+06      -3.99988317       257.274658
             1342   114.943032E+06   -57.470888E+06   -57.470452E+06   344.827776E+06       235.620819       142.193634
             1343   114.942944E+06   -57.472384E+06   -57.473236E+06   344.829824E+06      -266.731842      -863.186890
             1344   114.946248E+06   -57.467092E+06   -57.468956E+06   344.828416E+06      -637.174377       100.775330
             1345    114.97432E+06    -57.44848E+06   -57.448852E+06   344.826528E+06  -1.34055945E+03      -242.291199
             1346   114.944968E+06   -57.471832E+06   -57.472516E+06   344.827104E+06      -108.364738       392.722351
             1347   114.904536E+06   -57.498036E+06   -57.497892E+06   344.827296E+06   1.84367395E+03      -366.618378
             1348   114.943512E+06    -57.47024E+06   -57.469944E+06   344.827264E+06       67.1401367      -204.414902
             1349   114.943488E+06   -57.470596E+06   -57.470672E+06      344.828E+06       71.7505188       18.8473454
             1350   114.933768E+06   -57.483724E+06   -57.480176E+06   344.828928E+06       513.603210       634.743774
             1351    114.94272E+06   -57.472552E+06    -57.46968E+06   344.827808E+06  -1.48449731E+03  -1.46939514E+03
             1352    114.94104E+06   -57.472968E+06   -57.471756E+06   344.830176E+06      -775.558960      -612.064758
             1353   114.939472E+06   -57.474304E+06    -57.47444E+06    344.82832E+06   1.22737866E+03       218.314804
             1354   114.942504E+06    -57.47322E+06   -57.473588E+06    344.82912E+06       187.870361       720.485657
             1355     114.9416E+06   -57.471572E+06    -57.47296E+06   344.829312E+06       301.964630       222.877045
             1356   114.934504E+06   -57.474552E+06    -57.47364E+06   344.828352E+06  -1.41939319E+03  -1.69244263E+03
             1357   114.942048E+06   -57.472044E+06   -57.471692E+06    344.82784E+06       164.073563       9.06237984
             1358   114.939272E+06   -57.473836E+06   -57.473932E+06   344.828096E+06      -428.870209      -22.3456364
             1359   114.942496E+06    -57.47164E+06   -57.471132E+06   344.827904E+06       2.12819791      -204.774109
             1360   114.940352E+06   -57.473988E+06   -57.473188E+06    344.82768E+06      -7.28097153       184.223007
             1361   114.942104E+06   -57.471584E+06   -57.471424E+06   344.828032E+06       46.2429810      -113.130844
             1362   114.942696E+06   -57.471236E+06   -57.471132E+06      344.828E+06       7.03401089      -271.753723
             1363   114.958088E+06   -57.446996E+06   -57.451176E+06    344.82496E+06   1.79129761E+03  -1.18067346E+03
             1364   114.958432E+06     -57.4614E+06   -57.458644E+06   344.829344E+06  -1.70889929E+03  -1.06410522E+03
             1365   114.932312E+06   -57.480664E+06   -57.480812E+06   344.829472E+06  -1.28780579E+03      -49.3419418
             1366    115.01088E+06   -57.411032E+06   -57.412028E+06      344.816E+06  -3.51983057E+03   1.44823401E+03
             1367   114.940136E+06   -57.474368E+06   -57.476264E+06   344.825664E+06       992.347900  -1.04494104E+03
             1368   114.914992E+06    -57.48808E+06   -57.485008E+06   344.824192E+06   4.78523730E+03   2.40728125E+03
             1369   114.935032E+06    -57.47694E+06   -57.475936E+06   344.826112E+06      -429.637421      -525.257385
             1370    114.93948E+06   -57.473768E+06   -57.474904E+06    344.82816E+06      -741.014893      -178.530563
             1371   114.947144E+06   -57.467012E+06   -57.466592E+06    344.82704E+06      -214.784790      -409.109100
             1372     114.9416E+06    -57.47226E+06   -57.473528E+06   344.828576E+06  -1.86529346E+03      -294.908722
             1373   114.941912E+06   -57.472444E+06   -57.473948E+06   344.828064E+06  -1.11112073E+03       54.8289375
             1374   114.883608E+06   -57.513152E+06   -57.511576E+06      344.832E+06  -2.60174146E+03      -263.943848
             1375   114.943328E+06    -57.47056E+06   -57.470452E+06   344.827328E+06       911.646301      -79.6711197
             1376   114.949672E+06   -57.466112E+06   -57.466584E+06   344.827552E+06      -13.6846399       422.623993
             1377   114.951096E+06   -57.462124E+06     -57.4641E+06   344.826976E+06       514.375305      -142.408127
             1378   114.958048E+06   -57.453808E+06   -57.457548E+06   344.824192E+06      -963.831665   1.06412622E+03
             1379   114.934376E+06   -57.482948E+06    -57.48496E+06    344.82832E+06       215.578415      -888.950806
             1380   114.952696E+06   -57.463112E+06   -57.462328E+06   344.827008E+06       356.891632  -1.48617993E+03
             1381   114.939032E+06   -57.473804E+06   -57.473648E+06    344.82784E+06       680.729980       56.8097610
             1382   114.943184E+06   -57.470908E+06    -57.47066E+06      344.828E+06       24.8453274      -1.46631420
             1383   114.942672E+06   -57.470532E+06   -57.470684E+06   344.827904E+06       110.692825       210.787460
             1384   114.945264E+06   -57.468916E+06   -57.469508E+06   344.828544E+06      -389.151947      -3.56722450
             1385   114.943656E+06   -57.470072E+06   -57.469712E+06     344.8272E+06       68.1423645      -169.746460
             1386   114.941216E+06   -57.472296E+06   -57.471712E+06   344.827968E+06       445.215149      -422.981903
             1387    114.94308E+06   -57.470036E+06   -57.470476E+06   344.827552E+06       60.8201408       28.1613617
             1388    114.94268E+06   -57.471404E+06   -57.471304E+06   344.827616E+06       182.980576       98.3560333
             1389   114.950144E+06   -57.464092E+06    -57.46162E+06   344.828608E+06  -1.15511536E+03   2.19463647E+03
             1390   114.942968E+06   -57.470368E+06   -57.470676E+06   344.827424E+06       88.6952667       116.696861
             1391   114.944584E+06   -57.470152E+06   -57.470068E+06   344.828032E+06       329.185669       130.975586
             1392   114.942096E+06   -57.471672E+06   -57.471636E+06      344.828E+06       293.599335       88.7603226
             1393   114.941392E+06   -57.472308E+06   -57.472308E+06   344.828128E+06       386.733521       94.5824280
             1394    114.94124E+06   -57.473212E+06   -57.473332E+06      344.828E+06       277.651520  -1.28131653E+03
             1395   114.934712E+06   -57.476708E+06   -57.480332E+06   344.827904E+06      -452.361298       608.965210
             1396   114.942152E+06   -57.472024E+06   -57.471996E+06   344.827744E+06      -25.1071091      -131.772400
             1397   114.944776E+06   -57.469408E+06     -57.4693E+06   344.827776E+06       267.815002      -51.5059433
             1398   114.942816E+06   -57.471252E+06   -57.471048E+06    344.82768E+06       22.2655735      -184.872513
             1399    114.94164E+06   -57.473068E+06   -57.472472E+06    344.82832E+06       424.166809      -120.645020
             1400   114.943128E+06    -57.47106E+06   -57.470868E+06   344.828032E+06      -16.1194382       42.4864349
             1401   114.944176E+06   -57.470272E+06   -57.470052E+06   344.827904E+06       90.1962509       24.0487061
             1402   114.942912E+06   -57.471532E+06   -57.471276E+06   344.827968E+06       66.6871567       152.393967
             1403   114.943536E+06   -57.470664E+06   -57.470812E+06      344.828E+06       9.25437069       70.7344589
             1404   114.942664E+06   -57.471632E+06   -57.471196E+06      344.828E+06      -103.029984       200.398788
             1405   114.942752E+06   -57.471688E+06   -57.471852E+06   344.828128E+06       6.52082205       14.3465872
             1406   114.943928E+06   -57.470252E+06   -57.470344E+06   344.828224E+06       2.23920202       95.2807236
             1407   114.942936E+06    -57.47048E+06   -57.470976E+06   344.827648E+06      -34.7144775       42.6816101
             1408   114.951736E+06   -57.460392E+06    -57.45834E+06    344.82992E+06  -1.08697083E+03  -1.05882910E+03
             1409    114.94512E+06   -57.469368E+06   -57.469844E+06   344.828256E+06       493.149139       478.275452
             1410   114.942784E+06   -57.470732E+06    -57.47062E+06      344.828E+06       44.3929825       19.7165318
             1411   114.942416E+06   -57.471624E+06    -57.47146E+06   344.828064E+06      -58.0943298       12.2604446
             1412   114.942464E+06   -57.471104E+06   -57.470996E+06      344.828E+06       103.964287       91.3285828
             1413    114.94332E+06    -57.47174E+06   -57.471868E+06   344.828352E+06      -261.640900       149.140396
             1414   114.943192E+06   -57.471132E+06    -57.47144E+06   344.828128E+06      -153.280151      -154.885681
             1415   114.943656E+06   -57.470888E+06   -57.470756E+06   344.827904E+06       40.8800583      -64.2398071
             1416   114.942832E+06   -57.471632E+06   -57.471756E+06   344.828096E+06       21.7509270      -2.66624761
             1417   114.944224E+06    -57.47024E+06    -57.46996E+06   344.827872E+06       180.887009       129.401047
             1418   114.942384E+06   -57.470132E+06     -57.4712E+06   344.827808E+06      -162.022736      -93.8996048
             1419   114.942096E+06   -57.470516E+06   -57.471716E+06   344.828096E+06      -171.250534       40.4521599
             1420   114.941696E+06   -57.471372E+06   -57.471988E+06   344.827488E+06       319.260498      -29.6637135
             1421   114.941448E+06   -57.471252E+06   -57.471624E+06   344.827392E+06       367.235992       81.1860123
             1422   114.941472E+06   -57.471228E+06   -57.471532E+06   344.827456E+06       897.671692       83.7951126
             1423   114.913336E+06   -57.497268E+06   -57.496844E+06    344.83024E+06   9.19549316E+03       158.213150
             1424    114.94548E+06   -57.468112E+06   -57.468108E+06   344.828224E+06       452.593445      -111.152710
             1425   114.943928E+06   -57.470448E+06   -57.470104E+06   344.828192E+06       655.918396      -19.1566677
             1426     114.9438E+06   -57.471704E+06   -57.471336E+06   344.829344E+06   2.24104687E+03      -91.8713608
             1427   114.944848E+06   -57.468748E+06   -57.469352E+06   344.828192E+06       336.317322       109.458801
             1428   114.943408E+06   -57.470348E+06   -57.470596E+06   344.827904E+06       235.558472       8.38967800
             1429   114.931976E+06    -57.48028E+06   -57.483312E+06    344.83056E+06  -1.67052502E+03  -2.22954639E+03
             1430   114.890032E+06   -57.509968E+06   -57.508768E+06   344.830496E+06  -4.70347900E+03      -416.241699
             1431   114.941192E+06   -57.472672E+06   -57.472516E+06   344.828768E+06       29.8428860      -146.330002
             1432   114.937144E+06   -57.475508E+06   -57.476316E+06   344.828736E+06       451.229706      -102.811081
             1433   114.932328E+06   -57.482788E+06   -57.484336E+06   344.829888E+06   1.98069153E+03  -1.93386304E+03
             1434    115.01128E+06   -57.422552E+06   -57.423656E+06   344.826432E+06   1.58162415E+03      -374.649780
             1435   114.945384E+06    -57.46934E+06    -57.47078E+06   344.829984E+06       552.898499  -3.31841528E+03
             1436   114.952512E+06   -57.460268E+06   -57.462416E+06   344.826848E+06       556.319702      -322.170776
             1437   114.942248E+06   -57.471384E+06   -57.471536E+06   344.827712E+06       80.2233963      -73.5782166
             1438   114.943472E+06   -57.470136E+06   -57.470828E+06   344.828224E+06       124.739700      -38.1170616
             1439   114.938016E+06   -57.474788E+06    -57.47714E+06   344.830848E+06   2.23747876E+03       580.533936
             1440   114.939504E+06   -57.476012E+06    -57.47436E+06   344.828352E+06       313.044403      -129.769089
             1441   114.943792E+06    -57.46982E+06   -57.470672E+06   344.828416E+06      -286.495300      -176.075195
             1442   114.943288E+06   -57.470676E+06   -57.470764E+06    344.82848E+06       36.5225716       68.2637405
             1443   114.949888E+06   -57.464912E+06   -57.464908E+06   344.826816E+06      -704.024597       55.2272835
             1444   114.938984E+06   -57.476116E+06   -57.475592E+06   344.827264E+06   1.31461365E+03       723.426758
             1445   114.946224E+06   -57.470804E+06   -57.467228E+06    344.82768E+06       831.939453      -215.414780
             1446   114.950248E+06   -57.463244E+06    -57.46416E+06   344.827936E+06      -249.667206       469.419952
             1447     114.9378E+06   -57.477252E+06   -57.478328E+06   344.828384E+06       655.042358   2.63869263E+03
             1448   114.941352E+06   -57.473668E+06      -57.474E+06   344.828736E+06       507.435638       291.996124
             1449   114.942608E+06   -57.471852E+06   -57.471688E+06   344.828608E+06       58.6027107       165.450943
             1450   114.929816E+06   -57.482528E+06   -57.481628E+06   344.829824E+06   1.08644385E+03       433.065063
             1451   114.948896E+06   -57.463944E+06   -57.466404E+06   344.827648E+06       713.058411      -446.310242
             1452   114.951616E+06    -57.46198E+06    -57.46432E+06   344.827168E+06      -186.350037      -767.413391
             1453   114.945816E+06   -57.468864E+06   -57.470028E+06   344.827008E+06      -30.7439461      -478.719635
             1454   114.946136E+06    -57.46936E+06   -57.469384E+06   344.828736E+06       65.6934433      -77.0404816
             1455   114.944224E+06   -57.470512E+06   -57.470744E+06    344.82864E+06       4.18054104       4.08712101
             1456   114.942728E+06   -57.471052E+06   -57.471268E+06   344.827776E+06       3.73562646       249.223297
             1457    114.94356E+06   -57.470884E+06   -57.471016E+06   344.828608E+06       286.771729      -70.8830032
             1458   114.946152E+06   -57.469328E+06   -57.469852E+06    344.82896E+06       67.1345901      -39.0313988
             1459   114.940528E+06   -57.475196E+06   -57.474164E+06   344.828384E+06       233.010468       500.057770
             1460    114.94388E+06   -57.470452E+06   -57.470572E+06   344.828096E+06      -87.2657394      -89.8563156
             1461    114.94308E+06   -57.471288E+06    -57.47134E+06   344.828704E+06      -51.5815392      -79.6382370
             1462   114.942208E+06   -57.471428E+06    -57.47198E+06   344.827968E+06      -64.3165359       123.119789
             1463   114.943128E+06   -57.469888E+06   -57.470964E+06   344.828064E+06      -233.391983       118.154938
             1464   114.943952E+06   -57.470108E+06   -57.470656E+06    344.82768E+06      -921.502014      -360.511475
             1465   114.943256E+06   -57.471044E+06    -57.47126E+06   344.828288E+06       356.836456      -27.5070972
             1466   114.943016E+06   -57.471084E+06   -57.470964E+06   344.827776E+06      -55.6554794       11.8161221
             1467   114.943752E+06    -57.47084E+06   -57.470292E+06   344.827968E+06       227.363358       23.9258404
             1468   114.945176E+06   -57.469532E+06   -57.469564E+06   344.827904E+06       134.057526       1.69781113
             1469   114.929112E+06   -57.486928E+06   -57.482548E+06   344.831904E+06  -1.14354016E+03  -1.43569446E+03
             1470   114.942152E+06   -57.472024E+06   -57.471708E+06   344.828128E+06      -100.815269       22.5058994
             1471   114.941704E+06   -57.470852E+06    -57.47184E+06   344.828032E+06       15.3993340       299.575958
             1472    114.94308E+06   -57.470884E+06    -57.47112E+06   344.828096E+06       42.6388779      -2.12053251
             1473   114.947032E+06   -57.465668E+06   -57.467788E+06   344.824736E+06  -1.95694910E+03      -742.110107
             1474     114.9418E+06     -57.4735E+06   -57.476248E+06   344.827008E+06   2.41687695E+03   1.36835364E+03
             1475   114.964296E+06    -57.45808E+06   -57.456088E+06   344.827712E+06   1.58569238E+03       123.587669
             1476   114.942912E+06   -57.472908E+06   -57.472996E+06   344.828704E+06      -134.529709       636.504272
             1477   114.944632E+06   -57.468836E+06   -57.470256E+06   344.827392E+06       592.120728       396.518066
             1478   114.943232E+06   -57.470588E+06   -57.470068E+06    344.82752E+06      -261.048584      -220.230576
             1479   114.933952E+06   -57.477824E+06    -57.47918E+06   344.829952E+06      -718.836243       113.809166
             1480   114.943512E+06   -57.470952E+06    -57.47072E+06   344.828256E+06      -562.182495      -205.666122
             1481    114.94488E+06   -57.469676E+06   -57.469304E+06   344.828192E+06      -370.962738      -113.101196
             1482   114.942608E+06   -57.470616E+06   -57.472864E+06   344.828896E+06       663.035156       304.980957
             1483    114.94624E+06    -57.46536E+06    -57.46746E+06   344.828384E+06      -116.082611      -140.463669
             1484      114.938E+06   -57.477432E+06   -57.476192E+06     344.8288E+06       959.763550      -833.343628
             1485   114.946096E+06   -57.473168E+06    -57.47132E+06   344.828064E+06       575.404907       965.168640
             1486   114.940968E+06    -57.47342E+06   -57.472632E+06   344.827872E+06       372.597107       854.175659
             1487   114.941128E+06   -57.473488E+06   -57.472552E+06    344.82704E+06      -96.1249466       624.342407
             1488    114.94788E+06   -57.467244E+06   -57.467936E+06    344.82848E+06      -126.362930  -1.15923718E+03
             1489   114.954976E+06   -57.460232E+06   -57.460208E+06    344.82752E+06      -695.636169      -510.785339
             1490   114.939592E+06   -57.470936E+06    -57.47264E+06   344.826016E+06      -449.493042  -1.08289795E+03
             1491   114.949064E+06   -57.466008E+06   -57.465852E+06   344.828352E+06       120.116699      -394.995575
             1492   114.945128E+06   -57.468992E+06   -57.469508E+06   344.828384E+06       247.092560      -158.167236
             1493   114.944712E+06   -57.471512E+06   -57.469784E+06   344.828896E+06      -493.001587      -238.046265
             1494   114.944264E+06   -57.470184E+06   -57.470692E+06    344.82848E+06       102.186386       78.9956360
             1495   114.939288E+06   -57.474196E+06   -57.474132E+06    344.82864E+06      -89.2948380      -28.1046543
             1496   114.943568E+06      -57.469E+06    -57.46882E+06   344.824704E+06       24.0578671      -425.338470
             1497   114.944056E+06    -57.47078E+06   -57.472136E+06    344.82912E+06  -37.1829942E-03       293.181122
             1498   114.942688E+06    -57.47134E+06   -57.471316E+06      344.828E+06       17.8364067       186.675262
             1499   114.943288E+06   -57.470004E+06   -57.470732E+06   344.827808E+06      -751.034485      -257.738708
             1500   114.939368E+06   -57.473472E+06    -57.47336E+06   344.827936E+06      -394.610779       157.873322
             1501   114.942544E+06   -57.471056E+06    -57.47088E+06   344.827648E+06       215.855301      -1.32307458
             1502    114.93836E+06   -57.475888E+06   -57.475752E+06    344.82928E+06       55.4058685      -349.935455
             1503   114.940096E+06   -57.473692E+06     -57.4734E+06    344.82864E+06       66.8134537       4.66603661
             1504   114.942176E+06   -57.472064E+06    -57.47198E+06    344.82832E+06       42.8149643       54.2045746
             1505    114.94248E+06    -57.47126E+06   -57.471568E+06      344.828E+06       96.2769623      -108.520828
             1506   114.943264E+06   -57.471632E+06   -57.471204E+06   344.827808E+06      -88.1555099       34.7527466
             1507   114.946856E+06   -57.461664E+06   -57.461308E+06   344.820704E+06  -4.08485156E+03   1.23891296E+03
             1508   114.942984E+06   -57.470228E+06       -57.47E+06     344.8272E+06      -692.994690      -289.598907
             1509       114.95E+06   -57.462852E+06   -57.462512E+06   344.827872E+06   1.42288306E+03       813.244385
             1510   114.944304E+06   -57.473376E+06    -57.47322E+06   344.828384E+06      -104.326820       970.194214
             1511    114.92992E+06   -57.477392E+06    -57.47854E+06   344.821248E+06  -6.75369580E+03      -155.937759
             1512   114.945032E+06    -57.46776E+06    -57.46896E+06   344.828192E+06      -959.602051      -200.071457
             1513   114.943312E+06   -57.471016E+06   -57.471196E+06   344.828256E+06      -528.401306       282.702362
             1514   114.990176E+06   -57.435868E+06   -57.434536E+06    344.82736E+06   2.96726074E+03      -225.614029
             1515   114.943184E+06   -57.470576E+06   -57.470984E+06    344.82832E+06       52.0409317      -131.499588
             1516   114.946704E+06   -57.466288E+06   -57.467056E+06   344.827488E+06       664.398621      -376.422546
             1517   114.944456E+06   -57.469052E+06   -57.469616E+06   344.827968E+06       89.7821655      -166.907410
             1518   114.942184E+06    -57.47134E+06   -57.471604E+06   344.827584E+06       453.767914       23.9468594
             1519   114.946912E+06   -57.468956E+06   -57.468188E+06   344.828256E+06       657.533386       169.935669
             1520   114.942264E+06   -57.478492E+06   -57.475492E+06    344.82848E+06       212.871185  -2.76362622E+03
             1521    114.94276E+06   -57.470572E+06   -57.471404E+06   344.827168E+06       987.170288       55.6888046
             1522   114.942488E+06   -57.473436E+06   -57.473144E+06    344.82768E+06       665.428589      -307.305054
             1523   114.934048E+06   -57.478236E+06   -57.478224E+06     344.8288E+06      -692.598083      -211.474823
             1524   114.942896E+06   -57.471968E+06     -57.4715E+06   344.827904E+06      -25.0608349      -114.490463
             1525   114.943648E+06   -57.471392E+06     -57.4711E+06      344.828E+06       62.3234444       37.4326897
             1526   114.941416E+06   -57.472256E+06    -57.47288E+06    344.82784E+06      -182.495148       18.3544407
             1527   114.940728E+06   -57.474448E+06   -57.473464E+06   344.828288E+06      -238.677628       119.062164
             1528   114.944792E+06   -57.469316E+06   -57.469332E+06   344.827776E+06       113.110161      -93.4917908
             1529   114.944472E+06    -57.46956E+06   -57.469632E+06   344.827712E+06      -45.6827812      -97.2325211
             1530   114.942288E+06    -57.47134E+06    -57.47146E+06   344.827712E+06      -195.115295      -50.7546272
             1531   114.942496E+06    -57.47108E+06   -57.471292E+06   344.828064E+06       155.979797       13.7786169
             1532   114.940872E+06   -57.472652E+06   -57.472852E+06   344.828352E+06       71.7961960       115.830040
             1533   114.936544E+06   -57.475152E+06   -57.476056E+06   344.828736E+06       795.967468       124.159660
             1534   114.942928E+06   -57.469596E+06    -57.47148E+06   344.828352E+06       151.828445       254.509888
             1535   114.941208E+06   -57.474572E+06   -57.474752E+06    344.82784E+06   1.45372534E+03      -21.0891285
             1536   114.959664E+06   -57.452588E+06   -57.455112E+06    344.82512E+06      -124.295189       625.891479
             1537   114.936248E+06   -57.477008E+06   -57.476736E+06   344.827808E+06       756.576843       939.530273
             1538   114.938264E+06   -57.474588E+06    -57.47456E+06   344.827648E+06       348.642029       20.9119949
             1539   114.960344E+06   -57.452296E+06   -57.456968E+06   344.822144E+06  -2.00285266E+03      -358.632629
             1540   114.943136E+06    -57.47084E+06   -57.470828E+06   344.828032E+06      -149.249481      -100.271599
             1541   114.942832E+06    -57.47068E+06   -57.470784E+06   344.827776E+06      -98.5146027      -70.6876907
             1542   114.942632E+06    -57.47096E+06   -57.471172E+06   344.827872E+06      -140.845322      -34.1411400
             1543   114.942944E+06   -57.471048E+06   -57.470916E+06   344.827712E+06       108.464813       98.6433868
             1544    114.94004E+06   -57.474008E+06   -57.475248E+06   344.828608E+06      -379.082611      -695.825989
             1545   114.943408E+06   -57.470208E+06   -57.470836E+06   344.828384E+06       55.5055199      -56.7687874
             1546    114.94696E+06    -57.46476E+06   -57.466216E+06    344.82816E+06      -428.955750  -1.08496973E+03
             1547   114.945048E+06   -57.469824E+06   -57.469156E+06   344.827424E+06      -152.154648       183.914063
             1548   114.944552E+06   -57.468812E+06    -57.46946E+06   344.828192E+06      -178.642776       48.6946220
             1549   114.942896E+06   -57.472028E+06   -57.470956E+06   344.827968E+06      -327.706512       4.39361477
             1550   114.942528E+06   -57.471564E+06   -57.471424E+06   344.827936E+06       71.6394730       25.7928448
             1551   114.943192E+06   -57.470736E+06   -57.470544E+06   344.827552E+06       117.277733       135.706619
             1552   114.944656E+06   -57.468468E+06   -57.469132E+06   344.827648E+06      -95.9635315      -278.916870
             1553   114.940352E+06   -57.474016E+06   -57.474476E+06   344.828384E+06       460.924591       658.289063
             1554   114.942384E+06   -57.471472E+06   -57.471944E+06   344.828192E+06       207.934525       13.8502398
             1555   114.942864E+06   -57.470408E+06   -57.471252E+06   344.827808E+06      -615.877747      -75.2953949
             1556   114.944256E+06   -57.470384E+06   -57.470216E+06   344.828064E+06       268.045105       102.779572
             1557   114.944112E+06    -57.47004E+06   -57.470288E+06    344.82848E+06      -20.2475376       40.7231255
             1558   114.942888E+06   -57.470868E+06   -57.470788E+06   344.827744E+06      -41.0937729       33.7738304
             1559   114.942312E+06   -57.471532E+06   -57.471788E+06      344.828E+06      -129.896500      -46.0206451
             1560   114.942984E+06   -57.471284E+06   -57.470984E+06    344.82784E+06      -16.2538815       1.07054269
             1561   114.943768E+06   -57.471232E+06   -57.470836E+06   344.828384E+06       349.253906       339.568054
             1562    114.94524E+06   -57.469588E+06   -57.468736E+06   344.827456E+06       388.973602       59.9505692
             1563   114.941176E+06   -57.471004E+06   -57.472252E+06   344.827904E+06      -321.760773      -55.0013618
             1564    114.94532E+06   -57.468768E+06   -57.469568E+06    344.82848E+06       93.6823807       166.283386
             1565    114.94276E+06    -57.47076E+06   -57.471092E+06   344.827936E+06      -53.7148247       70.0929184
             1566   114.941952E+06   -57.471596E+06   -57.471784E+06   344.828096E+06      -140.799500       85.8137131
             1567   114.942696E+06   -57.471172E+06   -57.471188E+06   344.828064E+06      -120.131691       227.074799
             1568   114.942384E+06   -57.471556E+06   -57.471532E+06   344.827808E+06      -102.625298      -34.9735222
             1569   114.942056E+06   -57.471892E+06   -57.472112E+06   344.828096E+06      -56.4973145      -129.256317
             1570   114.942544E+06   -57.471556E+06   -57.472124E+06   344.828416E+06       59.7002563       28.7344189
             1571    114.94452E+06   -57.470292E+06    -57.47022E+06   344.827648E+06       144.175812       39.3482704
             1572   114.944112E+06   -57.469216E+06   -57.469688E+06   344.828128E+06      -531.208496      -573.007629
             1573   114.942632E+06   -57.471364E+06   -57.471684E+06   344.828288E+06      -179.682053       92.6005249
             1574   114.944184E+06   -57.468204E+06   -57.470116E+06   344.828928E+06      -67.5925446       120.877319
             1575   114.938136E+06   -57.476724E+06    -57.47566E+06      344.828E+06      -224.245071       240.901260
             1576   114.927952E+06   -57.487064E+06    -57.48562E+06   344.827872E+06       481.902039   2.60695166E+03
             1577   114.941472E+06   -57.472448E+06   -57.472368E+06    344.82832E+06      -35.8529930      -94.8970108
             1578    114.92144E+06   -57.498308E+06   -57.497764E+06   344.832864E+06  -1.84917358E+03  -2.11584375E+03
             1579    114.93716E+06   -57.477372E+06   -57.474352E+06   344.828064E+06   1.79520422E+03       611.573669
             1580   114.951416E+06   -57.463632E+06   -57.463792E+06   344.825664E+06  -1.04353992E+03       169.279022
             1581   114.944872E+06   -57.470292E+06   -57.468372E+06   344.827936E+06  -1.41757507E+03      -583.248779
             1582   114.945504E+06   -57.470396E+06   -57.471672E+06   344.828864E+06      -213.513077      -895.136353
             1583   114.940408E+06   -57.472684E+06   -57.472416E+06     344.8288E+06      -310.345245      -480.411072
             1584   114.945344E+06    -57.46802E+06   -57.468536E+06   344.827616E+06      -245.859222      -355.078888
             1585   114.942928E+06   -57.471508E+06   -57.471352E+06   344.828416E+06       284.957184       6.11078215
             1586   114.944976E+06   -57.468816E+06    -57.46772E+06   344.827424E+06       491.474121      -685.857056
             1587   114.943752E+06    -57.46808E+06    -57.47062E+06     344.8296E+06      -457.524231       511.934601
             1588   114.943032E+06   -57.470576E+06   -57.471028E+06    344.82816E+06       85.7937012      -101.375565
             1589   114.946144E+06   -57.465984E+06   -57.468436E+06   344.828256E+06      -335.100922       676.402832
             1590   114.953448E+06   -57.462364E+06   -57.463472E+06   344.829152E+06       243.671280       400.768555
             1591   114.942848E+06   -57.470668E+06    -57.47116E+06   344.828256E+06      -41.6464653       63.4814034
             1592    114.94344E+06    -57.46766E+06   -57.468968E+06   344.828672E+06       756.472778      -228.254242
             1593   114.944768E+06   -57.469096E+06     -57.4687E+06   344.827872E+06      -378.090820  -639.288068E-03
             1594   114.926888E+06   -57.480668E+06   -57.479396E+06   344.824928E+06   2.21548340E+03      -437.740936
             1595   114.942768E+06    -57.46936E+06   -57.469172E+06     344.8272E+06      -4.62665462      -209.400818
             1596   114.936952E+06    -57.47912E+06   -57.479356E+06   344.831584E+06  -1.28320007E+03       726.418152
             1597    114.94532E+06   -57.467672E+06    -57.46896E+06    344.82896E+06       953.513733       444.762756
             1598   114.935248E+06    -57.47236E+06   -57.471004E+06   344.824512E+06  -1.12055090E+03       894.474609
             1599   114.940496E+06    -57.47306E+06   -57.473284E+06    344.82752E+06       352.879028      -254.752228
             1600    114.93944E+06   -57.474036E+06   -57.474316E+06    344.82848E+06       47.1265602       185.351364
             1601    114.93864E+06   -57.476144E+06   -57.476636E+06    344.82848E+06       346.504730       394.361084
             1602    114.94268E+06    -57.47114E+06   -57.471128E+06   344.828096E+06       62.6457634       39.1221237
             1603   114.943512E+06   -57.469916E+06   -57.470252E+06   344.828096E+06      -33.0782013       59.2063103
             1604    114.94216E+06   -57.471812E+06    -57.47224E+06   344.827296E+06      -669.526123      -94.5115662
             1605   114.941248E+06    -57.47284E+06   -57.472848E+06   344.828032E+06       13.0080547      -128.969528
             1606   114.944384E+06    -57.46968E+06   -57.470272E+06   344.828384E+06      -86.4755783      -282.221161
             1607   114.942632E+06   -57.470716E+06   -57.472988E+06   344.829216E+06      -429.297729      -493.596191
             1608   114.940776E+06   -57.472272E+06   -57.472532E+06    344.82832E+06       210.638306       162.935287
             1609   114.942976E+06   -57.469988E+06   -57.470284E+06   344.827936E+06       297.537659       31.7638283
             1610   114.943384E+06   -57.471156E+06   -57.470732E+06    344.82752E+06       151.728439       21.8880253
             1611   114.944104E+06    -57.46682E+06    -57.46738E+06   344.828192E+06  -2.21221069E+03      -362.985443
             1612   114.943168E+06   -57.469924E+06   -57.470948E+06   344.829088E+06      -484.612488       112.557800
             1613   114.940896E+06   -57.470104E+06    -57.47008E+06   344.823808E+06  -2.61119971E+03      -104.234932
             1614    114.94112E+06   -57.473672E+06    -57.47332E+06   344.828352E+06      -349.631470      -349.822296
             1615   114.946408E+06   -57.466884E+06     -57.4679E+06   344.828128E+06      -218.828964   1.55558191E+03
             1616   114.944072E+06   -57.470976E+06   -57.469976E+06   344.829024E+06      -141.861450      -315.349243
             1617    114.94352E+06   -57.470916E+06    -57.47116E+06    344.82864E+06       289.340302      -88.7053757
             1618    114.94232E+06   -57.472248E+06    -57.47236E+06   344.828448E+06       41.7740173      -397.027008
             1619   114.942408E+06   -57.471348E+06   -57.471108E+06   344.828128E+06      -6.38088369      -144.457321
             1620   114.942096E+06    -57.47178E+06   -57.471716E+06      344.828E+06       149.477661      -235.135162
             1621   114.937936E+06   -57.474872E+06   -57.474664E+06    344.82784E+06       41.3844986       40.5046730
             1622   114.904856E+06   -57.505732E+06   -57.502324E+06   344.835904E+06  -1.81835449E+03   2.10564209E+03
             1623   114.950144E+06   -57.464384E+06   -57.464432E+06   344.826656E+06      -23.7579918      -34.6588440
             1624   114.942512E+06   -57.471276E+06   -57.471216E+06    344.82816E+06      -4.83441973      -120.293877
             1625   114.942008E+06   -57.472404E+06   -57.471596E+06   344.827456E+06       82.3953171       148.985153
             1626   114.942912E+06   -57.470676E+06    -57.47062E+06   344.828064E+06       14.9531536      -132.706192
             1627   114.944352E+06   -57.469704E+06   -57.470316E+06      344.828E+06      -161.404465       99.0768204
             1628   114.917304E+06   -57.493308E+06   -57.493072E+06   344.833504E+06      -712.943542       766.052673
             1629   114.945552E+06    -57.46852E+06   -57.468508E+06   344.826816E+06      -46.9053841      -199.379410
             1630   114.947184E+06   -57.467212E+06   -57.467128E+06   344.827072E+06       655.684998       53.0817108
             1631   115.021104E+06   -57.411216E+06   -57.408864E+06   344.824224E+06  -5.75732471E+03      -427.655304
             1632   114.942768E+06   -57.470728E+06     -57.4706E+06   344.827616E+06      -83.8202286       233.459991
             1633   114.943536E+06   -57.470408E+06    -57.47056E+06      344.828E+06       297.785553      -139.396851
             1634   114.958944E+06   -57.460144E+06   -57.458712E+06   344.825664E+06      -512.052490      -670.050476
             1635   114.942752E+06   -57.471076E+06   -57.471148E+06   344.827872E+06       181.033661      -170.434052
             1636   114.940672E+06   -57.473768E+06   -57.472996E+06    344.82752E+06       114.937271       25.8829880
             1637   114.942264E+06      -57.472E+06   -57.472112E+06   344.828064E+06       41.4223251       104.320641
             1638   114.941104E+06    -57.47276E+06   -57.472252E+06    344.82784E+06      -395.994446      -126.527283
             1639     114.9412E+06   -57.472352E+06   -57.472128E+06    344.82768E+06       93.0476303      -32.3816147
             1640   114.942624E+06   -57.474136E+06   -57.473664E+06   344.831552E+06  -1.40923047E+03       319.908691
             1641   114.939144E+06   -57.474516E+06   -57.473636E+06   344.825984E+06  -1.64758582E+03       21.3444347
             1642   114.949008E+06   -57.465288E+06   -57.465644E+06   344.827552E+06       409.410248      -159.382217
             1643   114.939496E+06   -57.474788E+06    -57.47468E+06   344.828864E+06      -658.366455       32.8573799
             1644   114.944168E+06   -57.469252E+06   -57.469436E+06   344.828128E+06      -12.6280375      -129.575745
             1645   114.941184E+06   -57.473184E+06   -57.472812E+06   344.827456E+06      -207.284119       5.00781631
             1646    114.94184E+06    -57.47226E+06   -57.472196E+06   344.827968E+06      -88.5480042       139.793823
             1647   114.941912E+06   -57.471704E+06   -57.471684E+06   344.827712E+06       231.435318      -7.33142567
             1648   114.926056E+06    -57.48914E+06   -57.487592E+06   344.829024E+06       10.7478285      -740.172852
             1649   114.943568E+06   -57.470328E+06    -57.47084E+06   344.828768E+06      -300.674622      -199.483551
             1650   114.942832E+06   -57.472096E+06   -57.471728E+06   344.828512E+06      -27.2529049       281.846436
             1651   114.958008E+06   -57.461972E+06   -57.460996E+06   344.827424E+06  -2.50306177E+03      -771.492798
             1652       114.93E+06   -57.482892E+06   -57.482972E+06   344.825536E+06       135.185104      -761.228882
             1653     114.9432E+06   -57.471144E+06   -57.470764E+06   344.827776E+06       193.046143       140.998093
             1654   114.943232E+06    -57.47078E+06   -57.470832E+06    344.82784E+06      -85.9037628  -46.8272902E-03
             1655   114.953184E+06     -57.4618E+06   -57.462856E+06     344.8264E+06  -2.23471777E+03      -275.424561
             1656   114.943248E+06   -57.470764E+06   -57.470836E+06   344.827936E+06      -31.6495132       32.0762901
             1657   114.943776E+06   -57.470176E+06     -57.4706E+06   344.828224E+06      -24.8878059       70.5647812
             1658   114.940344E+06   -57.473236E+06   -57.473512E+06   344.827584E+06       576.448730      -170.678986
             1659   114.953768E+06    -57.46334E+06   -57.463148E+06   344.828928E+06   1.32221582E+03       133.521820
             1660   114.875808E+06   -57.525372E+06   -57.526376E+06   344.831808E+06  -4.88867725E+03  -1.66992126E+03
             1661     114.9434E+06   -57.471284E+06   -57.471752E+06   344.828672E+06      -129.768204      -20.3851032
             1662   114.944528E+06    -57.47084E+06   -57.470512E+06   344.828224E+06      -475.608429      -375.781006
             1663   114.932608E+06   -57.479564E+06   -57.479304E+06   344.828448E+06      -46.8851852      -101.891251
             1664    114.96584E+06   -57.456816E+06   -57.455056E+06    344.82544E+06       601.108032      -568.823120
             1665   114.951232E+06   -57.464564E+06    -57.46526E+06   344.825536E+06      -421.322968  -1.33304175E+03
             1666   114.953912E+06   -57.465372E+06   -57.464488E+06   344.829952E+06      -635.997009      -179.791611
             1667    114.94856E+06    -57.47334E+06   -57.470956E+06   344.829184E+06       771.924377       567.252930
             1668   114.943152E+06   -57.470448E+06   -57.470664E+06   344.827968E+06       135.426956       32.0529900
             1669    114.94512E+06   -57.467872E+06   -57.469528E+06    344.82912E+06      -82.5326920       261.301941
             1670   114.933536E+06   -57.477588E+06   -57.479304E+06   344.829376E+06      -459.184326      -517.485168
             1671   114.941832E+06   -57.470696E+06   -57.471588E+06   344.828224E+06      -585.097778      -508.210052
             1672    114.94432E+06   -57.468716E+06   -57.469124E+06   344.827808E+06      -42.8780022      -482.333466
             1673   114.942336E+06   -57.471264E+06   -57.472448E+06   344.829184E+06      -827.425049      -245.496063
             1674   114.942512E+06   -57.471156E+06   -57.471312E+06   344.828256E+06       251.261230       164.940323
             1675   114.945272E+06   -57.469312E+06   -57.469472E+06    344.82784E+06      -35.5243607      -118.199814
             1676   114.943152E+06   -57.470576E+06     -57.4704E+06   344.827776E+06       306.152466      -51.7186661
             1677    114.94248E+06    -57.47138E+06    -57.47108E+06    344.82784E+06       130.202698      -94.4369354
             1678   114.944176E+06    -57.46976E+06   -57.469768E+06   344.828064E+06      -7.70720720      -37.8153267
             1679   114.949352E+06   -57.466228E+06   -57.465484E+06   344.827808E+06      -267.455902      -231.519958
             1680   114.946176E+06    -57.46588E+06   -57.464848E+06   344.827168E+06       395.390472      -176.740570
             1681   114.936264E+06    -57.47704E+06   -57.476972E+06     344.8288E+06       142.963364      -79.5362167
             1682   114.944696E+06   -57.469268E+06   -57.469232E+06   344.827456E+06      -5.92101049      -40.4437561
             1683   114.940608E+06     -57.4723E+06   -57.474748E+06   344.828352E+06  -1.41968103E+03      -525.686096
             1684   114.941712E+06   -57.471632E+06   -57.471556E+06   344.827712E+06      -88.0888977      -83.3571243
             1685   114.942288E+06   -57.471328E+06   -57.471372E+06   344.828096E+06       82.8571548      -65.8021317
             1686   114.943752E+06   -57.470352E+06   -57.470644E+06   344.828416E+06      -407.745331      -302.208527
             1687   114.943016E+06    -57.47104E+06   -57.471328E+06   344.827904E+06       38.8968773      -98.5550003
             1688   114.937104E+06   -57.477052E+06   -57.477228E+06   344.829376E+06       339.806366      -94.2632675
             1689   114.937208E+06   -57.477368E+06   -57.477488E+06   344.829056E+06       747.474060       54.1958084
             1690   114.942664E+06   -57.471184E+06   -57.471312E+06    344.82832E+06      -111.819389       7.30496311
             1691   114.944944E+06   -57.469388E+06   -57.469328E+06   344.827744E+06      -239.289337      -134.672546
             1692   114.944496E+06   -57.469828E+06   -57.469852E+06   344.827776E+06      -190.892242      -103.726280
             1693   114.944048E+06   -57.469708E+06   -57.469732E+06     344.8272E+06       607.385559       86.5178452
             1694   114.945864E+06   -57.467992E+06   -57.468096E+06   344.826976E+06       419.250519      -17.3997097
             1695   114.961792E+06   -57.453296E+06   -57.455488E+06   344.829728E+06       290.962097       745.939697
             1696     114.9448E+06   -57.469268E+06   -57.469352E+06   344.827424E+06      -644.869751       82.7804489
             1697   114.892264E+06    -57.51064E+06   -57.510884E+06   344.829632E+06      -324.874268  -1.62723853E+03
             1698   114.940368E+06   -57.473124E+06   -57.473492E+06   344.827872E+06      -204.894028       137.189590
             1699   114.939144E+06    -57.47464E+06   -57.473196E+06   344.828576E+06      -763.013672       134.003296
             1700   114.943464E+06   -57.474848E+06   -57.477828E+06   344.828128E+06   1.92680115E+03      -999.691772
             1701   114.944184E+06   -57.470012E+06   -57.470028E+06   344.827776E+06       20.8316765       30.9539852
             1702   114.988392E+06   -57.432484E+06   -57.429504E+06   344.817536E+06   3.34987720E+03  -2.04298792E+03
             1703   114.914472E+06   -57.487932E+06    -57.49032E+06   344.827168E+06      -54.2553711       509.859741
             1704   114.941344E+06   -57.472476E+06   -57.472516E+06   344.828384E+06       149.036392       57.4459114
             1705   114.950096E+06   -57.463424E+06    -57.46058E+06   344.826976E+06   2.31985571E+03  -1.86705139E+03
             1706   114.942776E+06   -57.471196E+06    -57.47122E+06   344.828192E+06      -194.318359      -29.0579872
             1707   114.943704E+06   -57.470336E+06    -57.47028E+06   344.828032E+06      -56.2296295       6.80968952
             1708   114.942648E+06   -57.471436E+06   -57.471528E+06    344.82816E+06      -171.620575      -78.2716217
             1709   114.944216E+06    -57.46938E+06    -57.46992E+06   344.828256E+06       141.161865      -172.510239
             1710   114.944248E+06    -57.46932E+06   -57.469536E+06   344.827328E+06      -417.165039       86.1576462
             1711   114.940072E+06   -57.474564E+06   -57.474252E+06   344.828576E+06      -967.058533       58.8074837
             1712   114.943104E+06   -57.471008E+06   -57.471156E+06   344.828032E+06      -146.285614      -118.352707
             1713   114.939408E+06   -57.472708E+06   -57.474228E+06   344.829824E+06       374.206238       122.688889
             1714   114.902488E+06     -57.5084E+06   -57.506244E+06   344.827392E+06  -3.10831299E+03  -2.95226880E+03
             1715   114.941432E+06   -57.473892E+06   -57.473576E+06   344.828928E+06      -131.682663       153.479858
             1716   114.898656E+06   -57.509708E+06   -57.509568E+06   344.832448E+06   10.5370703E+03       138.173553
             1717   114.943208E+06     -57.4711E+06   -57.470636E+06   344.827744E+06       45.8008423       80.5465164
             1718   114.945808E+06   -57.469888E+06   -57.469648E+06   344.828672E+06       539.096619      -70.6162109
             1719   114.911296E+06   -57.493096E+06   -57.493984E+06   344.826784E+06   3.26756787E+03      -364.311096
             1720   114.944688E+06   -57.470288E+06   -57.470068E+06   344.828032E+06       632.686768      -103.326828
             1721   114.945208E+06   -57.468316E+06    -57.46896E+06   344.828288E+06       257.567596       251.889816
             1722   114.965848E+06   -57.456036E+06   -57.454192E+06   344.827136E+06   1.62418005E+03      -534.973572
             1723   114.944992E+06   -57.469556E+06   -57.469512E+06   344.827968E+06      -8.53745747       191.212982
             1724    114.97844E+06   -57.446012E+06   -57.445068E+06   344.828896E+06   3.64578638E+03      -242.290482
             1725   114.941112E+06   -57.472888E+06   -57.473012E+06    344.82832E+06      -387.435944       3.00917625
             1726   114.943728E+06   -57.470816E+06   -57.470696E+06   344.827936E+06       52.1503906      -37.4607544
             1727   114.949704E+06   -57.466288E+06   -57.466328E+06   344.827744E+06  -1.08552087E+03       93.6922302
             1728   114.945864E+06   -57.474156E+06   -57.471068E+06   344.826624E+06   1.07982019E+03  -1.10067761E+03
             1729   114.939904E+06   -57.473532E+06   -57.473456E+06   344.828256E+06      -204.599045       80.4253464
             1730   114.942704E+06   -57.470836E+06   -57.471192E+06   344.827328E+06       208.935486      -117.241974
             1731   114.943216E+06   -57.470188E+06   -57.470568E+06   344.828064E+06      -111.614822       120.530365
             1732   114.939448E+06   -57.473816E+06   -57.473736E+06   344.828288E+06      -60.4437561      -134.577042
             1733   114.944584E+06    -57.47006E+06   -57.470324E+06   344.827872E+06      -348.021301       139.232040
             1734   114.941176E+06   -57.471816E+06   -57.472552E+06   344.828352E+06      -125.973755       62.5465927
             1735   114.942968E+06   -57.471648E+06   -57.471748E+06   344.828768E+06      -76.3005371      -83.1950912
             1736   114.948496E+06    -57.46706E+06   -57.467128E+06   344.828576E+06       343.109100      -35.8844299
             1737   114.942616E+06   -57.471128E+06   -57.471324E+06   344.828192E+06      -465.312073      -6.06773090
             1738   114.939928E+06   -57.474396E+06   -57.474276E+06   344.828608E+06       545.507141      -160.984879
             1739    114.94008E+06   -57.473948E+06   -57.473604E+06   344.827712E+06      -996.187683       151.514969
             1740   114.942056E+06   -57.469204E+06   -57.471456E+06   344.830336E+06   1.88466187E+03      -744.527222
             1741   114.951328E+06   -57.464788E+06   -57.464148E+06   344.826272E+06   6.12775244E+03      -402.246429
             1742   114.945208E+06    -57.46908E+06    -57.46914E+06   344.827584E+06       397.261261       176.736481
             1743   114.949376E+06   -57.464856E+06    -57.46446E+06   344.826688E+06       589.816528      -216.887634
             1744   114.940216E+06   -57.473152E+06   -57.473332E+06   344.827744E+06      -235.376358      -142.952896
             1745   114.943336E+06   -57.469472E+06   -57.469236E+06   344.827712E+06       21.8733654       520.441650
             1746   114.937224E+06   -57.476972E+06   -57.476288E+06   344.828288E+06      -352.106873      -377.077759
             1747   114.942432E+06     -57.4717E+06   -57.471788E+06   344.828096E+06       110.212662      -218.894058
             1748   114.942104E+06    -57.47298E+06   -57.472816E+06   344.829216E+06      -683.853149      -85.3799591
             1749   114.935536E+06   -57.479744E+06   -57.481676E+06   344.829056E+06      -221.593826   1.17476965E+03
             1750   114.943816E+06   -57.470248E+06   -57.470588E+06   344.828032E+06       181.538864      -39.3462334
             1751    114.94348E+06   -57.470508E+06   -57.470624E+06   344.827616E+06      -25.6275578      -19.3394470
             1752   114.944016E+06   -57.469932E+06   -57.469912E+06   344.827008E+06       2.01138997      -212.065353
             1753   114.940224E+06   -57.472524E+06   -57.473288E+06   344.829664E+06       653.034912       470.604523
             1754   114.943008E+06   -57.471164E+06    -57.47098E+06      344.828E+06       33.6200905       107.310684
             1755   114.939496E+06    -57.47714E+06   -57.477212E+06   344.828096E+06       202.473465      -235.292114
             1756   114.942288E+06   -57.471576E+06    -57.47222E+06   344.828832E+06      -116.869774       167.469528
             1757   114.942608E+06     -57.4718E+06   -57.471436E+06   344.828096E+06      -49.2148972      -23.6117706
             1758   114.940904E+06    -57.47274E+06   -57.472968E+06   344.828864E+06       173.425415      -299.105530
             1759   114.943056E+06   -57.470572E+06   -57.471236E+06   344.828064E+06      -38.0012016      -93.1269226
             1760   114.974336E+06   -57.446384E+06   -57.445404E+06   344.824992E+06  -5.31248779E+03       785.945190
             1761   114.943952E+06   -57.470236E+06   -57.470204E+06   344.828288E+06       726.430664      -134.856400
             1762    114.93272E+06   -57.485344E+06   -57.484504E+06   344.832928E+06   1.91186914E+03      -313.702698
             1763   114.983696E+06   -57.450012E+06   -57.442596E+06   344.822912E+06  -4.73468994E+03  -1.96807568E+03
             1764   114.942064E+06   -57.474288E+06   -57.472608E+06   344.827456E+06      -46.9257545       299.716095
             1765   114.942584E+06   -57.471624E+06   -57.471564E+06   344.828224E+06       11.1769190       168.388107
             1766     114.9438E+06   -57.470008E+06    -57.47036E+06   344.827648E+06       132.513855      -58.4237900
             1767   114.945664E+06   -57.469036E+06   -57.468812E+06   344.827552E+06       116.847580      -70.2004471
             1768     115.0128E+06   -57.418272E+06    -57.42146E+06   344.832288E+06  -1.41936206E+03  -1.01281299E+03
             1769   114.942504E+06   -57.471116E+06   -57.470996E+06   344.827648E+06      -35.6430779      -114.519287
             1770     114.9428E+06   -57.470764E+06    -57.47056E+06   344.827808E+06      -68.1915741      -126.387215
             1771   114.938336E+06   -57.474276E+06   -57.474368E+06    344.82784E+06       351.160126       80.9236221
             1772    114.96596E+06    -57.45528E+06   -57.454884E+06   344.824064E+06  -2.65841553E+03  -1.94030042E+03
             1773   114.944488E+06   -57.470076E+06   -57.469852E+06   344.827808E+06      -635.207703      -29.7406578
             1774   114.934312E+06   -57.484208E+06   -57.483324E+06   344.833568E+06      -680.269653       81.0372009
             1775   114.943944E+06   -57.470068E+06   -57.470084E+06   344.827424E+06      -328.314148       84.4240036
             1776   114.943728E+06   -57.470624E+06     -57.4704E+06    344.82752E+06       316.361603       44.7316666
             1777   114.943328E+06   -57.470844E+06    -57.47084E+06    344.82864E+06      -230.395279      -85.5704727
             1778   114.947112E+06   -57.468284E+06   -57.468412E+06   344.828512E+06      -154.241608      -135.340530
             1779    114.94772E+06   -57.468164E+06   -57.468092E+06   344.828672E+06       294.746552       64.9233475
             1780    114.94108E+06   -57.473004E+06    -57.47316E+06   344.828704E+06       142.571396       16.6606808
             1781    114.93576E+06   -57.476068E+06   -57.476812E+06   344.828864E+06       748.070496       119.923691
             1782   114.927576E+06    -57.49216E+06   -57.490028E+06   344.830656E+06       568.387817   1.89590039E+03
             1783   114.953312E+06   -57.468736E+06   -57.465624E+06   344.827776E+06      -3.30005455      -295.910278
             1784   114.935336E+06   -57.476508E+06   -57.476308E+06   344.827648E+06       879.359924       108.707451
             1785   114.942416E+06   -57.471144E+06   -57.471148E+06   344.827584E+06       139.707504       11.5877695
             1786   114.949416E+06   -57.466348E+06   -57.466012E+06   344.827872E+06       107.348625       14.1615152
             1787   114.940608E+06    -57.47282E+06   -57.473292E+06   344.828416E+06      -397.067474       36.6839371
             1788    114.94712E+06   -57.468636E+06   -57.468464E+06     344.8288E+06       85.5672531       57.8170204
             1789   114.946672E+06   -57.468532E+06   -57.468896E+06   344.827584E+06       806.710632      -185.304260
             1790   114.943672E+06    -57.47004E+06   -57.470188E+06   344.827872E+06      -17.1227589       11.7547255
             1791    114.94724E+06   -57.468136E+06   -57.467972E+06   344.828224E+06       957.432312      -54.2641678
             1792   114.943392E+06   -57.471108E+06    -57.47128E+06    344.82832E+06      -291.085419       91.9923325
             1793   114.945144E+06   -57.468828E+06   -57.468692E+06   344.827232E+06      -238.614288      -2.81145239
             1794   114.941248E+06    -57.47256E+06   -57.472656E+06    344.82848E+06  -2.46193994E+03       25.0115070
             1795   114.881456E+06   -57.521484E+06   -57.522652E+06    344.82816E+06   4.42241846E+03  -2.14562744E+03
             1796    114.93992E+06   -57.473556E+06   -57.473572E+06    344.82816E+06      -163.635651       22.7729149
             1797   114.943376E+06   -57.470128E+06    -57.47012E+06    344.82704E+06       500.260193       96.9328384
             1798   114.943848E+06   -57.467912E+06   -57.468208E+06   344.825664E+06       101.098022      -353.358673
             1799   114.942776E+06   -57.471108E+06   -57.471044E+06   344.827968E+06       28.1154804       60.3077126
             1800    114.93424E+06   -57.479432E+06   -57.479256E+06    344.82928E+06      -152.353729       66.2783508
             1801   114.946408E+06   -57.466076E+06   -57.466832E+06    344.82672E+06      -525.041260       38.9760933
             1802   114.938264E+06   -57.474476E+06    -57.47496E+06   344.828672E+06       535.055054       157.700531
             1803   114.965528E+06   -57.454984E+06     -57.4558E+06   344.828896E+06   1.53100903E+03      -985.677246
             1804    114.95476E+06   -57.464072E+06     -57.4637E+06    344.83024E+06      -792.454346      -324.609039
             1805   114.945248E+06   -57.468912E+06   -57.468936E+06   344.827712E+06       167.162766       354.249451
             1806   114.942232E+06   -57.474368E+06   -57.472636E+06   344.829088E+06       414.705170       598.009827
             1807   114.944584E+06    -57.46994E+06   -57.470228E+06   344.828192E+06      -197.348038      -37.7251396
             1808   114.944288E+06    -57.47034E+06   -57.470312E+06   344.827904E+06      -84.6495743      -26.3057899
             1809   114.942808E+06   -57.471416E+06    -57.47154E+06   344.828192E+06      -57.1130676      -90.4345169
             1810   114.943248E+06   -57.470696E+06   -57.470976E+06   344.827936E+06      -140.921677      -123.996460
             1811    114.94424E+06   -57.470156E+06   -57.470244E+06   344.828032E+06      -112.457726      -57.0560265
             1812   114.944392E+06   -57.469276E+06   -57.469724E+06   344.828192E+06       340.949249       140.646149
             1813      114.947E+06   -57.467588E+06   -57.467232E+06   344.827744E+06       470.684845   479.274750E-03
             1814   114.939104E+06   -57.473944E+06   -57.473936E+06   344.827808E+06      -402.252747       13.7535248
             1815   114.943664E+06   -57.470232E+06    -57.47068E+06   344.828032E+06      -77.5912552      -234.336517
             1816   114.943496E+06    -57.47098E+06   -57.471212E+06   344.828032E+06      -213.678848       22.7049274
             1817   114.944888E+06   -57.468976E+06   -57.469252E+06   344.828064E+06       274.441681      -146.064713
             1818   114.943376E+06   -57.473348E+06   -57.472844E+06   344.828128E+06      -656.011047      -879.978455
             1819   114.944904E+06   -57.469496E+06   -57.469412E+06   344.827744E+06       109.857613       10.0222006
             1820   114.942296E+06   -57.472004E+06   -57.472036E+06    344.82848E+06      -578.378540      -14.4683037
             1821   114.947056E+06   -57.468424E+06   -57.468592E+06   344.827648E+06       668.674255         -296.125
             1822   114.945928E+06   -57.465712E+06    -57.46774E+06   344.828064E+06       140.095673      -393.441162
             1823   114.949608E+06   -57.465448E+06   -57.465448E+06   344.827552E+06      -827.784424       12.9916487
             1824    114.95028E+06   -57.466832E+06   -57.465032E+06    344.82608E+06   2.62227295E+03       395.032745
             1825   114.938016E+06   -57.473792E+06   -57.475152E+06   344.828672E+06      -264.590607      -113.287567
             1826   114.939336E+06   -57.476988E+06   -57.475912E+06    344.82768E+06      -302.102570       219.805237
             1827   114.924648E+06   -57.486848E+06   -57.486576E+06    344.82976E+06       624.334351       64.1151962
             1828   114.944328E+06   -57.469236E+06   -57.469228E+06   344.828352E+06      -115.699173      -441.904968
             1829   114.943152E+06   -57.470844E+06   -57.470776E+06    344.82784E+06       681.591248       9.53290081
             1830    114.94172E+06   -57.472692E+06   -57.472408E+06   344.828032E+06      -51.9612274      -90.2979660
             1831   114.942256E+06   -57.471976E+06   -57.471304E+06   344.828256E+06      -610.749634      -66.1678009
             1832   114.946032E+06   -57.469136E+06   -57.469156E+06   344.828544E+06      -421.293823      -11.6039724
             1833   114.943232E+06   -57.470212E+06    -57.47016E+06   344.827072E+06       92.7126541       89.0441895
             1834   114.945096E+06   -57.468748E+06   -57.469016E+06    344.82784E+06      -142.930405       9.39169788
             1835   114.928648E+06    -57.48174E+06   -57.481896E+06    344.82768E+06  -4.04977515E+03      -55.3018494
             1836     114.9388E+06   -57.475772E+06   -57.475968E+06     344.8288E+06       171.140472      -336.042450
             1837   114.938488E+06     -57.4747E+06   -57.476264E+06     344.8296E+06      -479.085541      -590.839478
             1838   114.944616E+06   -57.470268E+06   -57.468432E+06    344.82688E+06       995.789368      -20.7429447
             1839   114.940504E+06    -57.47252E+06    -57.47252E+06   344.827456E+06       360.790833       13.0639391
             1840   114.940904E+06    -57.47284E+06   -57.473612E+06    344.83008E+06       985.463562       995.634766
             1841   114.937144E+06   -57.475752E+06   -57.475544E+06   344.828288E+06      -542.556885      -60.2650185
             1842   114.941968E+06   -57.472384E+06   -57.472288E+06   344.828192E+06       8.40317249      -149.915787
             1843   114.942064E+06    -57.47138E+06   -57.471504E+06   344.827968E+06      -81.2506409       12.5818357
             1844    114.94312E+06   -57.471552E+06   -57.471584E+06   344.828064E+06      -173.637741      -21.6318359
             1845   114.943656E+06   -57.470024E+06   -57.470208E+06    344.82784E+06      -38.2543106      -13.6691456
             1846   115.027792E+06   -57.403584E+06   -57.400596E+06    344.81936E+06   6.66173145E+03  -1.15872449E+03
             1847    115.03804E+06   -57.395636E+06   -57.393384E+06   344.822912E+06  -12.5674053E+03       241.205887
             1848   114.962336E+06   -57.455068E+06   -57.454932E+06   344.826688E+06   2.67141309E+03      -122.746582
             1849    114.94176E+06    -57.47206E+06   -57.472224E+06    344.82784E+06      -55.1768684      -75.2590866
             1850   114.941312E+06   -57.471792E+06   -57.471776E+06   344.827872E+06      -64.2896729       12.7276373
             1851   114.927424E+06   -57.483212E+06   -57.481848E+06   344.825568E+06   1.34373560E+03      -12.4479036
             1852   114.935312E+06   -57.471784E+06   -57.474064E+06   344.827648E+06  -7.13556494E+03      -824.073730
             1853    114.94504E+06   -57.469836E+06   -57.469704E+06   344.827808E+06       234.744385      -204.118210
             1854   114.984016E+06   -57.449608E+06     -57.4422E+06    344.82288E+06  -4.35504150E+03  -1.50432605E+03
             1855    114.94216E+06   -57.472236E+06   -57.471652E+06   344.827744E+06      -85.7114105      -58.4242058
             1856   114.971536E+06   -57.450756E+06   -57.450524E+06   344.823808E+06  -3.00657178E+03  -1.99926501E+03
             1857    114.89176E+06   -57.507728E+06   -57.508644E+06   344.825056E+06   6.74363184E+03   1.69807825E+03
             1858      114.942E+06   -57.471676E+06   -57.471564E+06   344.828032E+06       44.4833107      -86.7059479
             1859   114.942712E+06    -57.47142E+06   -57.471852E+06    344.82832E+06       68.6249542       241.908585
             1860   114.942688E+06   -57.470872E+06   -57.470712E+06   344.827584E+06      -8.61419582      -88.5519485
             1861     114.9428E+06   -57.471364E+06   -57.471272E+06   344.827808E+06      -22.4446487      -146.863754
             1862   114.912968E+06   -57.496648E+06   -57.497952E+06    344.83392E+06  -2.80772437E+03      -512.543640
             1863   114.942016E+06     -57.4714E+06   -57.471488E+06   344.828448E+06       135.940948      -267.253784
             1864   114.938872E+06   -57.474796E+06   -57.474412E+06   344.827648E+06       861.681824       102.021156
             1865   114.942856E+06   -57.470692E+06   -57.470536E+06   344.827552E+06      -15.3278513      -84.4452209
             1866   114.911296E+06   -57.495868E+06   -57.494308E+06   344.827552E+06   8.14522070E+03       560.423828
             1867   114.941656E+06    -57.47246E+06   -57.471752E+06   344.827744E+06      -58.8473167       757.664917
             1868   114.938536E+06   -57.474608E+06     -57.4745E+06    344.82784E+06       117.121620       4.51945782
             1869   114.945528E+06   -57.468144E+06   -57.468216E+06   344.829216E+06  -1.28349231E+03      -92.0872269
             1870   114.943712E+06   -57.470084E+06   -57.470052E+06   344.827872E+06      -102.970596      -144.108978
             1871   114.943976E+06   -57.469952E+06   -57.469504E+06   344.827904E+06      -90.8401642      -401.102600
             1872    114.94304E+06   -57.471176E+06   -57.470688E+06   344.827552E+06      -30.2171764      -2.80665636
             1873   114.947744E+06   -57.468216E+06   -57.468148E+06     344.8288E+06      -349.514343       38.6337929
             1874   114.943376E+06   -57.470288E+06   -57.470324E+06   344.827168E+06       110.839500       295.087189
             1875     114.9032E+06     -57.4994E+06   -57.500008E+06   344.827744E+06   1.65471155E+03      -940.102966
             1876   114.953544E+06   -57.465616E+06   -57.463292E+06   344.826144E+06  -1.44210022E+03      -351.983734
             1877     114.9368E+06    -57.47902E+06   -57.477644E+06   344.829312E+06       515.389648       245.577911
             1878   114.937296E+06   -57.475464E+06   -57.475496E+06   344.827968E+06       391.925812      -4.10923624
             1879     114.9388E+06   -57.474612E+06   -57.474456E+06   344.828384E+06      -295.423187       282.969818
             1880   114.943168E+06   -57.470316E+06   -57.470124E+06    344.82768E+06       245.191833       248.489578
             1881    114.94224E+06   -57.471568E+06   -57.470964E+06   344.827616E+06      -2.59905553      -153.206268
             1882    114.93816E+06   -57.479964E+06   -57.478988E+06   344.831584E+06   4.77492188E+03      -225.367371
             1883   114.950224E+06   -57.464304E+06   -57.464108E+06   344.826496E+06       915.388672      -45.6941528
             1884   114.940304E+06   -57.472472E+06   -57.472588E+06   344.828288E+06       173.079971      -18.3172169
             1885   114.911712E+06    -57.50322E+06   -57.501648E+06   344.833024E+06  -9.28411328E+03       379.829681
             1886   114.939976E+06   -57.468636E+06   -57.465224E+06   344.816128E+06  -13.0287119E+03  -1.75165369E+03
             1887    114.94312E+06   -57.470588E+06   -57.470904E+06   344.828224E+06       47.9864120      -332.302399
             1888    114.94316E+06   -57.470116E+06   -57.469916E+06   344.827296E+06       207.698380       81.9008102
             1889     114.9438E+06   -57.470068E+06    -57.46982E+06    344.82768E+06       82.8312759       48.4809608
             1890    114.94228E+06   -57.471648E+06   -57.471524E+06   344.828128E+06      -280.615143       61.6833076
             1891   114.942432E+06   -57.471464E+06   -57.471624E+06   344.828256E+06       35.6538963      -86.2786713
             1892   114.946728E+06   -57.467204E+06     -57.4677E+06   344.828992E+06       398.652222      -558.684937
             1893     114.9432E+06    -57.47042E+06   -57.470364E+06   344.827456E+06      -307.652344      -75.1700974
             1894   114.943288E+06   -57.470272E+06   -57.470572E+06   344.828096E+06      -82.9194031      -38.0546722
             1895   114.942592E+06   -57.470844E+06   -57.470692E+06   344.827648E+06       242.636444      -30.3053989
             1896   114.941856E+06   -57.471908E+06    -57.47198E+06   344.827872E+06      -222.372208      -271.349457
             1897   114.941936E+06    -57.47144E+06   -57.470936E+06   344.827872E+06       72.1225281      -321.020996
             1898   114.942712E+06   -57.471856E+06   -57.472288E+06   344.830432E+06  -2.41608960E+03       413.315216
             1899   114.938832E+06   -57.475096E+06    -57.47846E+06   344.829248E+06   1.61353613E+03   1.39237915E+03
             1900   114.925008E+06   -57.480152E+06    -57.48166E+06   344.828768E+06       185.572998  -1.61807971E+03
             1901   114.942032E+06   -57.471752E+06   -57.471404E+06   344.827904E+06      -440.394897      -171.012939
             1902   114.961296E+06    -57.46094E+06   -57.462308E+06   344.826048E+06       537.910645      -194.525467
             1903    114.93696E+06   -57.486416E+06   -57.484652E+06    344.83648E+06      -854.289490       130.147949
             1904   114.947592E+06   -57.467572E+06   -57.467588E+06   344.828672E+06   3.52931812E+03  -1.38534448E+03
             1905      114.981E+06   -57.444552E+06   -57.444528E+06     344.8296E+06  -5.42819531E+03       303.688965
             1906    114.94252E+06   -57.471504E+06    -57.47148E+06   344.827456E+06      -207.307220      -13.3879623
             1907   114.948168E+06   -57.473436E+06    -57.47368E+06   344.829312E+06      -439.638672      -173.634750
             1908   114.945536E+06   -57.469284E+06   -57.469104E+06   344.828224E+06       209.119904      -35.8957100
             1909   114.943144E+06   -57.470292E+06   -57.470828E+06   344.827968E+06      -195.255386      -187.190689
             1910    114.94436E+06    -57.46906E+06    -57.46906E+06   344.827296E+06       147.784317       466.724152
             1911   114.944056E+06   -57.470852E+06   -57.470996E+06   344.828576E+06       239.922836       22.9017963
             1912   114.942416E+06   -57.471864E+06    -57.47186E+06   344.828416E+06       405.693512       5.47893667
             1913   114.978256E+06   -57.443988E+06     -57.4424E+06     344.8264E+06   3.64764429E+03      -5.75782061
             1914   114.939176E+06   -57.474344E+06   -57.474908E+06    344.82912E+06       427.694580      -64.2045212
             1915   114.935992E+06   -57.476616E+06    -57.47628E+06   344.828896E+06  -1.85883972E+03      -395.217316
             1916    114.94336E+06   -57.470496E+06    -57.47052E+06    344.82768E+06      -24.3914776       90.7566376
             1917   114.944016E+06   -57.470912E+06   -57.470924E+06     344.8288E+06       542.417664      -14.0802689
             1918   114.939928E+06   -57.473156E+06   -57.473188E+06   344.827584E+06       135.484009      -2.01378822
             1919   114.943536E+06   -57.470644E+06   -57.470472E+06   344.827744E+06      -14.8507071       34.7463417
             1920   114.950552E+06   -57.464332E+06   -57.464424E+06   344.829088E+06   1.27286121E+03       449.648346
             1921   114.943928E+06   -57.470816E+06   -57.470604E+06    344.82784E+06      -42.3166885      -47.8102226
             1922   114.944032E+06    -57.47044E+06   -57.470164E+06   344.828224E+06       20.3983307       52.3802757
             1923    114.94352E+06   -57.470424E+06    -57.47066E+06   344.827936E+06       11.6048145      -27.3243866
             1924    114.94388E+06   -57.469292E+06     -57.4707E+06   344.828192E+06      -97.9567108      -34.9172859
             1925   114.943448E+06   -57.470972E+06   -57.471088E+06      344.828E+06      -20.9940109      -185.669571
             1926   114.940864E+06    -57.47326E+06   -57.473044E+06   344.828608E+06       331.712280       6.01668119
             1927   114.944376E+06    -57.47032E+06   -57.470276E+06   344.828608E+06       250.196518       1.02418435
             1928     114.9442E+06   -57.470144E+06   -57.470144E+06      344.828E+06       37.9885445       48.3320007
             1929   114.938232E+06   -57.474296E+06   -57.473796E+06   344.827744E+06       103.993340       276.567688
             1930   114.940136E+06   -57.472824E+06   -57.472768E+06   344.827712E+06      -116.309738      -90.0209427
             1931   114.994632E+06   -57.434056E+06   -57.430612E+06   344.824448E+06       960.388306       353.569702
             1932   114.948624E+06   -57.470392E+06   -57.469136E+06   344.829696E+06   1.65717688E+03       297.739777
             1933   114.942104E+06   -57.472136E+06   -57.472076E+06   344.828416E+06       32.6275406      -131.610184
             1934    114.94344E+06   -57.471228E+06   -57.470936E+06   344.827936E+06       67.3309708      -166.912460
             1935   114.941744E+06   -57.471896E+06   -57.471392E+06   344.827616E+06       238.112350       166.533524
             1936   114.943696E+06   -57.470264E+06   -57.470448E+06    344.82768E+06       107.150101       190.652176
             1937   114.943296E+06   -57.470988E+06   -57.470796E+06   344.828128E+06      -633.530273       110.836540
             1938   114.953584E+06   -57.462612E+06   -57.462016E+06    344.82672E+06      -719.989014  -1.23523621E+03
             1939   114.919576E+06   -57.495132E+06   -57.493232E+06   344.830304E+06   4.03951147E+03       212.366898
             1940   114.942976E+06   -57.470832E+06   -57.471044E+06   344.828128E+06      -414.114380      -30.2084446
             1941   114.937896E+06   -57.478772E+06   -57.478164E+06   344.829376E+06       29.2097225       415.500946
             1942   114.940312E+06   -57.473316E+06   -57.473372E+06    344.82848E+06      -130.416031       2.38039112
             1943   114.921728E+06   -57.496344E+06   -57.495072E+06   344.836032E+06  -2.07181592E+03       220.457291
             1944   114.936832E+06   -57.475844E+06    -57.47586E+06    344.82832E+06      -308.271515       67.1507416
             1945     114.9414E+06   -57.472176E+06   -57.472152E+06    344.82784E+06       270.910461      -16.1034241
             1946    114.94232E+06   -57.471924E+06   -57.470932E+06   344.827936E+06      -149.991272      -53.5933838
             1947   114.941896E+06   -57.472668E+06   -57.472524E+06   344.827936E+06       451.476196       398.586639
             1948   114.940184E+06   -57.472604E+06   -57.472932E+06   344.827808E+06      -102.186111      -129.140579
             1949    114.94024E+06   -57.471672E+06    -57.47118E+06   344.826144E+06  -2.59517212E+03       710.571167
             1950   114.941992E+06   -57.472864E+06   -57.473088E+06   344.827072E+06      -641.359009      -8.89840031
             1951   114.949856E+06   -57.465448E+06   -57.466684E+06   344.830016E+06       674.003174   1.19716870E+03
             1952   114.995048E+06   -57.418436E+06   -57.416552E+06     344.8128E+06   3.73445874E+03      -144.169769
             1953   114.948672E+06   -57.465044E+06    -57.46478E+06     344.8264E+06       376.325439      -90.1979599
             1954    114.94384E+06   -57.478972E+06   -57.477492E+06    344.83248E+06  -3.15353442E+03  -1.16394336E+03
             1955    114.93932E+06   -57.472376E+06   -57.472092E+06   344.826272E+06      -54.7715912       46.9750214
             1956   114.946112E+06    -57.46856E+06   -57.468288E+06   344.827936E+06      -421.379333      -88.1091309
             1957   114.935944E+06   -57.476872E+06   -57.476776E+06   344.828448E+06      -307.183105       60.9464035
             1958    114.94004E+06   -57.471372E+06   -57.472592E+06   344.829248E+06       367.256287      -4.32980680
             1959   114.944528E+06    -57.46184E+06   -57.461032E+06     344.8168E+06   7.91747119E+03       314.893982
             1960   114.940728E+06   -57.473408E+06   -57.473452E+06    344.82848E+06      -396.940979       102.720474
             1961   114.953824E+06   -57.467884E+06   -57.464388E+06   344.828288E+06   1.69001270E+03   1.04633313E+03
             1962   114.967368E+06   -57.454048E+06   -57.452096E+06    344.82624E+06   3.07286084E+03       251.622681
             1963     114.9388E+06   -57.474136E+06    -57.47358E+06   344.827808E+06      -178.866318       78.9434280
             1964   114.944528E+06   -57.469636E+06   -57.469748E+06   344.827648E+06      -277.337158      -14.3786612
             1965   114.942304E+06   -57.471604E+06   -57.471704E+06   344.828064E+06       565.109924       401.331970
             1966   114.940608E+06   -57.473124E+06   -57.471684E+06   344.828032E+06       730.979309       927.440735
             1967   114.919184E+06   -57.489628E+06   -57.490572E+06   344.830176E+06  -3.27657007E+03       223.666428
             1968   114.948904E+06   -57.464856E+06   -57.464612E+06   344.826432E+06       369.285034      -95.2197266
             1969   114.871072E+06   -57.526108E+06    -57.52804E+06   344.832864E+06  -8.23857910E+03  -1.45667749E+03
             1970   114.942696E+06    -57.47056E+06   -57.470772E+06   344.828096E+06       579.839600      -561.333923
             1971   114.943384E+06   -57.471028E+06   -57.469196E+06   344.828608E+06       444.220093       738.104614
             1972     114.9392E+06   -57.474848E+06    -57.47478E+06   344.829248E+06       683.388489       166.608353
             1973   114.975816E+06   -57.449044E+06   -57.445704E+06   344.824928E+06      -582.341919      -334.775116
             1974   114.943392E+06   -57.469936E+06    -57.46988E+06      344.828E+06      -132.159775  -628.840327E-03
             1975   114.944456E+06   -57.470292E+06   -57.470096E+06      344.828E+06       178.733978       91.8661804
             1976   114.941648E+06   -57.473012E+06    -57.47322E+06   344.828384E+06      -598.356934       252.433395
             1977    114.94276E+06   -57.471112E+06   -57.471352E+06    344.82816E+06       211.225586       50.4219322
             1978   114.942696E+06   -57.470516E+06   -57.470896E+06   344.827936E+06       27.0640240       45.7235870
             1979   114.931832E+06   -57.486364E+06   -57.484544E+06   344.830112E+06       712.449585   1.52198718E+03
             1980   114.942464E+06   -57.470828E+06   -57.471388E+06    344.82816E+06      -8.62267590       66.1999893
             1981   114.994464E+06    -57.43206E+06   -57.430136E+06   344.824896E+06   1.08252551E+03       439.249390
             1982   114.947832E+06   -57.466584E+06   -57.466508E+06   344.827808E+06      -560.956665      -218.602661
             1983   114.941816E+06   -57.471828E+06    -57.47162E+06   344.828064E+06       44.3475609      -85.2504120
             1984   114.934064E+06    -57.47824E+06    -57.47818E+06     344.8288E+06      -698.218689      -217.999374
             1985   114.943256E+06    -57.47134E+06   -57.471048E+06    344.82832E+06       18.1076450       141.394592
             1986    114.94688E+06   -57.468112E+06   -57.468376E+06   344.827776E+06      -184.217392      -82.2622070
             1987   114.945832E+06   -57.467788E+06   -57.467788E+06   344.826848E+06      -489.408661      -594.463074
             1988   114.944856E+06    -57.46788E+06     -57.4681E+06   344.827392E+06      -312.459595       247.945496
             1989   114.919784E+06   -57.488012E+06    -57.48874E+06   344.828064E+06   6.18561719E+03      -233.454269
             1990   114.943488E+06   -57.470804E+06    -57.47054E+06   344.828064E+06       130.479691      -21.6419067
             1991   114.942808E+06   -57.471444E+06     -57.4712E+06   344.828192E+06      -4.84676647      -71.8593445
             1992   114.946616E+06    -57.46806E+06   -57.466824E+06   344.827072E+06       332.517181       295.084808
             1993     114.9412E+06   -57.472356E+06     -57.4727E+06   344.828544E+06      -349.005920       64.2471848
             1994   114.939624E+06   -57.474192E+06   -57.474388E+06   344.829056E+06      -23.2731171       40.8404884
             1995    114.94492E+06   -57.466544E+06   -57.468212E+06   344.828448E+06       127.832062      -200.465622
             1996   114.946088E+06   -57.467916E+06   -57.468064E+06   344.827264E+06       167.214920      -790.673340
             1997     114.9416E+06   -57.471744E+06   -57.472028E+06   344.827968E+06       200.421982       214.279022
             1998    114.94512E+06   -57.465664E+06   -57.468432E+06   344.829344E+06       124.083374      -332.575653
             1999   114.948864E+06   -57.463556E+06   -57.464008E+06   344.826912E+06       36.1400795      -470.454041
             2000    114.94668E+06   -57.467788E+06   -57.469004E+06   344.827232E+06       295.373322   1.47794568E+03
             2001     114.9456E+06   -57.469992E+06    -57.46932E+06    344.82752E+06      -107.835449       132.296814
             2002    114.94452E+06    -57.46894E+06   -57.470696E+06   344.828896E+06       242.490051       447.326660
             2003   114.957544E+06   -57.457704E+06   -57.456728E+06   344.826816E+06   3.84402612E+03      -811.127502
             2004   114.905784E+06   -57.497672E+06   -57.496176E+06   344.827424E+06   4.03614258E+03      -392.370087
             2005    114.94492E+06   -57.469756E+06   -57.469808E+06   344.828224E+06       335.414581       268.382324
             2006   114.925456E+06   -57.485804E+06     -57.4865E+06    344.83072E+06  -6.50769873E+03      -379.892548
             2007   114.967472E+06   -57.451924E+06   -57.452336E+06    344.82768E+06   6.26023145E+03      -66.3097992
             2008   114.943888E+06   -57.476808E+06   -57.473712E+06   344.830848E+06      -253.486176       103.717377
             2009   114.947072E+06   -57.467456E+06   -57.467428E+06    344.82784E+06       576.255127       20.8734856
             2010   114.944264E+06   -57.469624E+06   -57.469456E+06   344.827552E+06       672.457153      -123.391136
             2011    114.94524E+06   -57.468912E+06   -57.468732E+06   344.828032E+06      -216.281204       3.04555297
             2012   114.979208E+06   -57.446132E+06   -57.444208E+06   344.825248E+06  -4.46303467E+03  -2.86056421E+03
             2013    114.94212E+06   -57.471916E+06   -57.472008E+06    344.82832E+06      -48.0994987      -32.9557571
             2014   114.942592E+06   -57.471052E+06   -57.471124E+06      344.828E+06      -228.426453      -149.944061
             2015   114.944264E+06    -57.46974E+06   -57.469604E+06    344.82736E+06       256.757996      -249.781052
             2016   114.942296E+06   -57.471608E+06   -57.471336E+06   344.827904E+06       192.538193       106.729103
             2017   114.941704E+06   -57.472328E+06   -57.472288E+06   344.827776E+06       12.9379616       308.701904
             2018   114.943856E+06   -57.469868E+06   -57.470324E+06   344.828288E+06      -10.7777834       44.7218513
             2019   114.946456E+06   -57.467816E+06   -57.468348E+06   344.827712E+06   1.05289197E+03       141.471054
             2020   114.946672E+06   -57.468344E+06   -57.468244E+06   344.828448E+06      -356.747437       235.508484
             2021   114.944024E+06   -57.469928E+06   -57.469632E+06   344.827904E+06      -229.931442       246.872772
             2022   114.942944E+06   -57.470832E+06   -57.470736E+06   344.827616E+06      -114.647194      -161.572723
             2023    114.94232E+06   -57.470956E+06   -57.470808E+06    344.82784E+06       47.8647766       204.300995
             2024   114.935896E+06    -57.47688E+06   -57.477412E+06   344.828832E+06       300.312988       119.369545
             2025   114.937088E+06   -57.474932E+06   -57.476964E+06   344.830656E+06      -571.433594       239.504440
             2026   114.939336E+06   -57.473524E+06    -57.47316E+06   344.827808E+06      -341.596252      -49.2253647
             2027   114.942792E+06   -57.471632E+06   -57.471648E+06   344.828256E+06       221.191635       109.038002
             2028   114.937504E+06   -57.476732E+06    -57.47692E+06   344.829376E+06       336.706635      -95.3562088
             2029   114.943032E+06    -57.47044E+06   -57.470624E+06   344.827904E+06      -14.1442442      -63.1010857
             2030   114.945992E+06   -57.468804E+06   -57.468488E+06    344.82784E+06       814.041626       343.171967
             2031   114.943256E+06   -57.470904E+06   -57.470324E+06   344.827648E+06       308.315704       113.441597
             2032   114.942376E+06   -57.471904E+06   -57.471332E+06   344.828128E+06      -168.052017       39.2885513
             2033   114.943408E+06   -57.470744E+06   -57.470504E+06   344.827936E+06      -49.0987434      -77.2023621
             2034    114.95104E+06   -57.463364E+06   -57.463896E+06   344.828416E+06  -1.93529736E+03       464.003571
             2035   114.942376E+06   -57.471304E+06   -57.471524E+06   344.827968E+06      -62.1298180       54.5870285
             2036   114.912704E+06   -57.499196E+06   -57.498896E+06   344.833888E+06       15.6846876       308.681183
             2037   114.943192E+06   -57.470856E+06    -57.47098E+06      344.828E+06       172.983322       25.3328018
             2038   114.948688E+06   -57.465748E+06   -57.464268E+06    344.82768E+06      -364.362000      -308.034851
             2039   114.958384E+06   -57.460544E+06    -57.46054E+06   344.830464E+06      -321.439972       121.659569
             2040   114.939616E+06   -57.472952E+06   -57.474276E+06   344.828864E+06      -953.630249      -402.313324
             2041   114.957312E+06   -57.457816E+06     -57.4583E+06   344.825632E+06      -29.3176327       161.461746
             2042   114.940288E+06    -57.47326E+06   -57.473724E+06    344.82848E+06       35.8844833       303.109924
             2043   114.941776E+06   -57.473908E+06   -57.475048E+06   344.832896E+06       585.634949       119.045357
             2044   114.938096E+06   -57.474812E+06   -57.475124E+06    344.82864E+06       561.957397       104.843170
             2045    114.93868E+06   -57.475972E+06   -57.477212E+06   344.829728E+06      -329.649628       284.396820
             2046   114.942472E+06   -57.471256E+06   -57.471744E+06   344.829536E+06      -361.219604       58.3524246
             2047   114.934632E+06   -57.477256E+06   -57.476992E+06   344.827808E+06       353.628845      -92.0520325
             2048   114.945176E+06   -57.469284E+06   -57.469172E+06   344.828224E+06       604.678589      -105.681091
             2049   114.942096E+06   -57.472124E+06    -57.47194E+06   344.828352E+06       188.932419      -10.0894670
             2050   114.958064E+06    -57.46198E+06   -57.462212E+06   344.826784E+06  -1.25561279E+03      -520.616577
             2051   114.952864E+06   -57.467284E+06   -57.465592E+06   344.830144E+06      -652.634888      -565.404968
             2052   114.943976E+06     -57.4692E+06   -57.469668E+06    344.82672E+06       294.099762       152.308762
             2053   114.937272E+06   -57.478984E+06   -57.479116E+06   344.831712E+06  -1.53400842E+03       284.143127
             2054   114.942544E+06   -57.476856E+06   -57.476292E+06   344.830752E+06       919.800171      -15.7167301
             2055      114.943E+06   -57.470912E+06   -57.470712E+06      344.828E+06      -416.571960      -91.5499344
             2056   114.901816E+06   -57.509228E+06   -57.509144E+06   344.834336E+06  -10.3213154E+03      -141.111938
             2057   114.942624E+06   -57.471576E+06   -57.471596E+06   344.828224E+06       297.950623      -42.8085060
             2058   114.943632E+06    -57.47058E+06    -57.47054E+06    344.82768E+06       70.1125946       39.0730476
             2059      114.937E+06   -57.476304E+06   -57.476068E+06   344.828544E+06       754.681274       330.882568
             2060   114.935528E+06     -57.4793E+06   -57.478908E+06   344.831392E+06  -1.34864343E+03       468.595062
             2061    114.94112E+06   -57.472308E+06   -57.472544E+06   344.827712E+06       254.735794      -36.3615532
             2062    114.93612E+06    -57.47622E+06   -57.476344E+06   344.828288E+06       772.170166       157.651215
             2063   114.943432E+06   -57.469764E+06   -57.470284E+06   344.827648E+06      -136.251846       622.690063
             2064     114.9432E+06   -57.472044E+06   -57.473368E+06   344.828704E+06       528.285950       920.578064
             2065   114.940432E+06   -57.473056E+06   -57.472612E+06   344.827808E+06       217.177841       331.117432
             2066   114.947528E+06   -57.467104E+06   -57.467048E+06    344.82928E+06   1.34923718E+03       98.7319336
             2067   114.942968E+06   -57.470964E+06   -57.470652E+06   344.827552E+06      -262.831818       253.382431
             2068   114.943496E+06   -57.470724E+06   -57.470832E+06   344.828064E+06       486.974152      -68.3667755
             2069    114.94044E+06   -57.473632E+06   -57.473612E+06    344.82848E+06       635.601318       45.8903427
             2070   114.943384E+06   -57.470844E+06   -57.470696E+06   344.828224E+06      -159.319473       120.955521
             2071   114.939632E+06   -57.473168E+06   -57.473004E+06   344.827488E+06       407.042725       3.75534034
             2072   114.942456E+06   -57.471856E+06   -57.472964E+06   344.827936E+06       176.637604   1.20153503E+03
             2073   114.952024E+06   -57.462772E+06   -57.462972E+06   344.820512E+06      -983.280212  -1.90619128E+03
             2074   114.941904E+06    -57.47236E+06   -57.471524E+06   344.828096E+06      -293.539825      -27.0401993
             2075   114.942192E+06    -57.47166E+06    -57.47168E+06   344.827488E+06      -101.614212       744.655701
             2076   114.943624E+06   -57.469968E+06    -57.47022E+06    344.82736E+06       508.810394      -46.2612572
             2077   114.942864E+06   -57.471088E+06    -57.47104E+06      344.828E+06       237.552551      -21.4462261
             2078   114.946088E+06    -57.46858E+06   -57.468484E+06   344.827904E+06      -221.422821      -13.1744213
             2079   114.939704E+06     -57.4746E+06   -57.474484E+06   344.828864E+06      -712.937256       13.6111937
             2080   114.942296E+06   -57.472444E+06    -57.47004E+06   344.827296E+06      -282.846985      -41.5488586
             2081   114.942232E+06    -57.47112E+06   -57.470948E+06   344.827776E+06      -52.9526596      -124.076599
             2082   114.942472E+06    -57.47092E+06   -57.470892E+06   344.827296E+06       73.5074005       129.548096
             2083   114.944888E+06   -57.470716E+06   -57.470404E+06   344.828672E+06      -578.096680       7.44278669
             2084   114.943288E+06   -57.470692E+06   -57.470332E+06   344.827776E+06      -210.838791      -348.286987
             2085   114.943384E+06   -57.470556E+06   -57.470664E+06   344.827776E+06       670.841125      -26.0093040
             2086    114.93888E+06   -57.475524E+06   -57.475476E+06   344.829248E+06      -489.292999       35.2053604
             2087   114.943232E+06   -57.470804E+06   -57.471104E+06   344.828288E+06      -17.4912930       67.8028488
             2088    114.94316E+06    -57.47062E+06   -57.470848E+06   344.828128E+06      -146.447922      -83.8692780
             2089    114.95024E+06   -57.465684E+06   -57.465944E+06   344.828064E+06      -197.011963      -84.6492310
             2090   114.943248E+06   -57.469908E+06    -57.46992E+06    344.82752E+06  -2.81779297E+03  -1.28240771E+03
             2091   114.943976E+06   -57.470448E+06   -57.470384E+06    344.82816E+06       499.933868  -927.352190E-03
             2092   114.942272E+06   -57.471144E+06   -57.471124E+06   344.827424E+06       53.9135094       24.1479435
             2093    114.94548E+06   -57.469144E+06   -57.469532E+06   344.828448E+06      -593.328674      -56.0640144
             2094   114.942408E+06      -57.472E+06   -57.471164E+06   344.827872E+06      -203.399643      -313.369049
             2095   114.943376E+06   -57.470976E+06   -57.471016E+06   344.828224E+06       50.4407043       9.32353115
             2096   114.944568E+06   -57.469912E+06    -57.46972E+06   344.827616E+06       78.0034180       102.532272
             2097   114.945184E+06   -57.469552E+06    -57.46944E+06   344.828544E+06      -189.582275      -31.1319332
             2098   114.946856E+06   -57.466092E+06   -57.466876E+06   344.827168E+06      -496.752350      -308.727783
             2099   114.934368E+06   -57.476808E+06   -57.476044E+06    344.82688E+06      -331.516449       160.972565
             2100   114.944992E+06   -57.469284E+06   -57.468712E+06   344.827456E+06      -296.761414      -173.534683
             2101   114.942736E+06   -57.470936E+06   -57.471252E+06   344.828128E+06      -55.2817574      -4.47798395
             2102      114.943E+06    -57.46994E+06   -57.470788E+06   344.828992E+06      -560.763672       113.437973
             2103   114.946608E+06   -57.468368E+06   -57.468864E+06     344.8288E+06       445.548615      -44.9347801
             2104   114.942488E+06   -57.471776E+06   -57.471488E+06    344.82816E+06       7.36319923       149.176193
             2105     114.9306E+06   -57.482804E+06   -57.483444E+06   344.832544E+06  -3.62908179E+03       451.554443
             2106   114.942728E+06   -57.471556E+06   -57.471448E+06   344.828096E+06      -107.117188      -136.697586
             2107   114.943264E+06   -57.470964E+06   -57.470724E+06   344.828064E+06       67.2932358      -70.8346558
             2108   114.935928E+06   -57.476828E+06   -57.477312E+06   344.828256E+06  -1.09283704E+03       153.083389
             2109   114.938088E+06   -57.475372E+06   -57.475028E+06   344.828448E+06      -417.117432       75.6489868
             2110   114.942288E+06    -57.47202E+06    -57.47182E+06   344.828256E+06       37.6494484       60.1350937
             2111   114.943624E+06   -57.470428E+06   -57.471256E+06   344.827648E+06      -17.8354874      -124.552635
             2112   114.943992E+06   -57.469608E+06   -57.469712E+06   344.827808E+06      -262.604370      -140.793167
             2113   114.931256E+06   -57.480716E+06   -57.480476E+06     344.8288E+06       570.418579       85.4563293
             2114   114.968944E+06   -57.443272E+06   -57.444464E+06      344.824E+06   11.7868955E+03   1.09666406E+03
             2115   114.942952E+06   -57.470748E+06   -57.470816E+06   344.828128E+06      -97.8985596      -6.85072994
             2116    115.02396E+06    -57.39508E+06   -57.393012E+06   344.806592E+06   2.96211182E+03  -2.92303491E+03
             2117   114.992824E+06   -57.433352E+06   -57.432568E+06   344.826592E+06   5.01741748E+03   1.06378503E+03
             2118   114.951424E+06   -57.461056E+06   -57.462328E+06   344.825568E+06       74.4250031       192.812668
             2119   114.954272E+06   -57.463556E+06   -57.462528E+06   344.824832E+06  -1.46449207E+03       375.714447
             2120    114.94104E+06   -57.472924E+06   -57.473224E+06   344.828352E+06      -348.605286       1.41078186
             2121   114.923824E+06   -57.492784E+06   -57.491644E+06   344.828896E+06  -2.97769458E+03   1.01489740E+03
             2122   114.933576E+06   -57.480356E+06   -57.480968E+06   344.831072E+06      -446.353333   1.97081201E+03
             2123   114.951112E+06   -57.462348E+06    -57.46372E+06   344.828768E+06      -139.905502       514.744629
             2124     114.9468E+06   -57.468636E+06     -57.4686E+06    344.82784E+06      -106.674042      -46.9278374
             2125   114.940832E+06     -57.4735E+06    -57.47256E+06   344.828064E+06       379.718445       260.016968
             2126   114.942328E+06   -57.471168E+06   -57.471052E+06   344.827808E+06       8.65645599      -131.359543
             2127      114.938E+06   -57.478336E+06   -57.477636E+06   344.830048E+06      -78.5621338   2.14929224E+03
             2128   114.944952E+06   -57.471268E+06    -57.47082E+06   344.829024E+06   2.22148633E+03      -41.8325691
             2129   114.895088E+06   -57.507728E+06   -57.508848E+06   344.831552E+06   1.57300793E+03   1.12517822E+03
             2130   114.963496E+06    -57.45678E+06   -57.454516E+06    344.82368E+06       223.640945  -1.24869836E+03
             2131   114.941032E+06    -57.47194E+06   -57.471948E+06    344.82816E+06       234.316223      -43.1812439
             2132   114.945888E+06   -57.468868E+06   -57.469556E+06   344.828224E+06       893.851318       408.759491
             2133   114.953848E+06   -57.459268E+06   -57.453236E+06    344.82608E+06   1.47431470E+03       742.870300
             2134    114.94416E+06   -57.471724E+06    -57.47206E+06   344.827296E+06   3.48936304E+03   1.28559229E+03
             2135     114.9412E+06     -57.4737E+06   -57.472916E+06   344.828096E+06      -505.440796      -54.9867058
             2136   114.935416E+06   -57.478508E+06   -57.478836E+06   344.830976E+06      -733.196533   1.79643677E+03
             2137   114.943296E+06   -57.470788E+06     -57.4705E+06   344.827648E+06      -52.4927139       97.2343369
             2138   114.949016E+06   -57.468228E+06   -57.466204E+06   344.829632E+06      -320.851776      -896.052856
             2139   114.941616E+06   -57.471864E+06   -57.472228E+06   344.827968E+06       33.8024559      -181.192139
             2140   114.944344E+06    -57.46692E+06   -57.463888E+06   344.822848E+06      -871.008972   1.28856104E+03
             2141   114.948768E+06   -57.468928E+06    -57.46704E+06   344.828192E+06   1.18389929E+03   2.23997388E+03
             2142   114.928432E+06   -57.482768E+06   -57.484264E+06   344.829856E+06       714.308838      -10.3134212
             2143   114.945936E+06   -57.466472E+06   -57.465756E+06   344.825344E+06       926.580322       194.013916
             2144   114.913592E+06   -57.496008E+06   -57.495156E+06   344.827904E+06  -6.18662256E+03       431.337952
             2145   114.942848E+06   -57.472336E+06   -57.471796E+06   344.827168E+06      -114.492332       179.665421
             2146   114.943144E+06   -57.470692E+06   -57.470796E+06   344.828384E+06      -83.0458527       117.256203
             2147   114.937384E+06   -57.475124E+06   -57.474956E+06      344.828E+06      -93.7246780       149.333267
             2148   114.940072E+06   -57.479828E+06   -57.476588E+06   344.828224E+06       280.999237       391.772125
             2149   114.931328E+06   -57.482256E+06   -57.481452E+06      344.828E+06      -276.093628       650.573547
             2150   114.941768E+06     -57.4718E+06   -57.471856E+06   344.827808E+06      -134.480423      -83.9999847
             2151   114.942848E+06   -57.469436E+06   -57.469952E+06   344.828224E+06  -1.55980371E+03      -768.884033
             2152   114.943032E+06   -57.470528E+06   -57.470664E+06      344.828E+06       193.555878      -12.4830999
             2153   114.940912E+06   -57.472608E+06   -57.473484E+06   344.827968E+06       108.790054      -100.688225
             2154    114.94368E+06    -57.46994E+06   -57.469896E+06   344.828128E+06      -77.5407181      -148.509827
             2155   114.942416E+06   -57.470664E+06   -57.471036E+06   344.827936E+06      -73.8614655      -148.347305
             2156   114.946008E+06   -57.466676E+06    -57.46692E+06   344.826816E+06       953.254456       455.315247
             2157   114.943288E+06   -57.470864E+06   -57.470704E+06   344.827488E+06       270.264465       153.870499
             2158   114.955872E+06    -57.46216E+06   -57.461856E+06   344.826816E+06   1.08010522E+03      -257.150970
             2159     114.9456E+06    -57.46918E+06   -57.469152E+06   344.828128E+06      -787.141052       33.1131630
             2160   114.940048E+06   -57.472696E+06   -57.472536E+06   344.827648E+06      -142.325439       155.258286
             2161    114.94648E+06   -57.466388E+06   -57.467588E+06    344.82736E+06       26.1294308      -158.238281
             2162   114.944256E+06   -57.469592E+06   -57.469676E+06   344.828064E+06       39.3482323       30.8191605
             2163   114.942128E+06   -57.471216E+06   -57.470688E+06   344.827584E+06      -442.643982      -322.747589
             2164   114.941888E+06   -57.471808E+06   -57.471604E+06    344.82784E+06      -214.271790      -326.438934
             2165   114.943992E+06     -57.4702E+06   -57.469952E+06      344.828E+06      -347.941772       53.3035088
             2166   114.939888E+06   -57.474392E+06   -57.475076E+06     344.8288E+06      -115.595734       79.7018204
             2167   114.940904E+06   -57.472636E+06   -57.472272E+06   344.827712E+06       162.250107       52.5987320
             2168   114.941632E+06   -57.472024E+06   -57.472436E+06   344.828256E+06      -161.749710      -106.435356
             2169   114.940888E+06   -57.472088E+06     -57.4721E+06   344.828224E+06      -379.778046      -297.128937
             2170   114.929928E+06   -57.480812E+06   -57.481744E+06   344.828992E+06   3.43979395E+03       115.494606
             2171   114.943016E+06   -57.470364E+06   -57.470952E+06   344.828256E+06      -460.938660      -636.877258
             2172    114.94432E+06    -57.47238E+06   -57.471596E+06   344.828192E+06      -23.0175915       925.382874
             2173   114.941328E+06   -57.472716E+06   -57.471976E+06   344.828352E+06      -765.267395      -45.4050255
             2174     114.9428E+06    -57.47138E+06    -57.47134E+06   344.828096E+06      -111.033798      -57.2150574
             2175   114.939984E+06   -57.475688E+06   -57.475208E+06     344.8312E+06   2.45653442E+03      -570.563660
             2176   114.943032E+06    -57.47126E+06   -57.471588E+06    344.82848E+06      -39.4045448       226.244736
             2177   114.944128E+06   -57.469956E+06   -57.469996E+06   344.827648E+06      -83.2651062      -284.675903
             2178   114.937552E+06   -57.474836E+06   -57.474804E+06   344.827968E+06       193.862396      -16.7481461
             2179     114.9552E+06   -57.456864E+06    -57.46036E+06   344.831104E+06   8.98173535E+03   1.08316553E+03
             2180   114.880472E+06    -57.51626E+06   -57.519732E+06   344.832064E+06  -6.69882080E+03   1.16408606E+03
             2181   114.941696E+06   -57.471908E+06   -57.472056E+06   344.828544E+06       216.123428      -47.4862022
             2182   114.948968E+06    -57.46688E+06   -57.467096E+06    344.82832E+06      -336.179413      -113.594368
             2183    114.94496E+06     -57.4698E+06   -57.469728E+06   344.828352E+06       310.257294       44.2840080
             2184    114.93916E+06   -57.474472E+06   -57.474344E+06   344.828704E+06      -216.828079       297.288605
             2185    114.93036E+06    -57.48236E+06   -57.477736E+06   344.826048E+06       323.854492   2.24088550E+03
             2186   114.926208E+06   -57.488032E+06   -57.483404E+06    344.82592E+06   1.25943909E+03  -1.39601196E+03
             2187   114.962208E+06   -57.458864E+06   -57.457708E+06    344.82496E+06   1.79867114E+03   2.10658618E+03
             2188   114.936296E+06       -57.48E+06   -57.479068E+06   344.829504E+06  -5.50851465E+03       745.915405
             2189    114.94856E+06   -57.466872E+06   -57.467028E+06   344.828288E+06      -216.658478      -123.267151
             2190   114.939664E+06   -57.473872E+06   -57.474176E+06   344.827776E+06       571.309509      -149.462814
             2191   114.938608E+06   -57.473788E+06   -57.474168E+06   344.823488E+06   1.33158459E+03      -96.7890701
             2192    114.94128E+06   -57.472712E+06   -57.472664E+06   344.828384E+06       158.863251      -2.24115229
             2193   114.958416E+06    -57.45824E+06    -57.45016E+06   344.826112E+06  -1.46587036E+03      -196.203720
             2194   114.931096E+06   -57.475928E+06   -57.476236E+06    344.82752E+06   4.92647803E+03  -1.42724963E+03
             2195   114.899456E+06   -57.502392E+06   -57.501448E+06    344.82864E+06      -322.917938      -791.934387
             2196    114.93856E+06   -57.475384E+06    -57.47558E+06   344.828512E+06       18.4476967       370.099945
             2197   114.951288E+06   -57.469164E+06   -57.467904E+06   344.829952E+06  -4.32606055E+03  -2.77954614E+03
             2198   114.948312E+06   -57.466756E+06   -57.467048E+06   344.828096E+06       235.285019       46.3825798
             2199   114.959872E+06   -57.459032E+06   -57.455068E+06   344.825696E+06      -26.5996017   1.63573950E+03
             2200   114.939656E+06   -57.473868E+06    -57.47414E+06   344.828448E+06      -662.898132       39.7521362
             2201    114.95364E+06   -57.462636E+06   -57.462932E+06   344.827424E+06       57.2400894      -166.110992
             2202   114.944384E+06   -57.469892E+06   -57.469668E+06    344.82768E+06      -303.600037       199.641129
             2203   114.942232E+06    -57.47196E+06   -57.471812E+06   344.827872E+06       162.818832       105.708786
             2204   114.936104E+06     -57.4778E+06   -57.476908E+06   344.827584E+06      -559.951355       299.978027
             2205    114.94416E+06   -57.470708E+06   -57.470616E+06      344.828E+06      -131.871689       4.28539705
             2206   114.942456E+06   -57.471496E+06   -57.471404E+06   344.827872E+06      -93.9234314       120.656189
             2207   114.928752E+06   -57.482456E+06   -57.483164E+06   344.830816E+06      -79.0085373      -599.080933
             2208   114.963672E+06   -57.457604E+06   -57.456372E+06   344.828544E+06  -6.85734521E+03       189.743530
             2209    114.94364E+06   -57.470424E+06   -57.470364E+06   344.827616E+06      -100.935249      -178.787735
             2210   114.942904E+06   -57.470876E+06   -57.470908E+06   344.827712E+06      -90.5706558       32.8952751
             2211   114.942224E+06   -57.472116E+06   -57.471436E+06    344.82736E+06       37.9805298      -243.923187
             2212   114.937104E+06   -57.475864E+06   -57.475492E+06   344.828608E+06       418.373444       211.711975
             2213   114.941736E+06   -57.471948E+06   -57.471768E+06   344.827872E+06      -91.6325912      -45.4243736
             2214   114.941384E+06   -57.471868E+06    -57.47184E+06   344.827488E+06       5.58277416      -16.0827923
             2215   114.933144E+06   -57.479232E+06   -57.485252E+06   344.826656E+06       556.365234       112.886116
             2216   114.942776E+06    -57.47098E+06   -57.470644E+06   344.827776E+06       211.366333       21.1826916
             2217   114.942584E+06   -57.471032E+06   -57.470804E+06    344.82784E+06       175.700180       27.7561932
             2218   114.943856E+06   -57.470644E+06   -57.470276E+06   344.827456E+06       146.520676       38.9325180
             2219   114.946288E+06   -57.467772E+06   -57.467848E+06   344.828544E+06       92.2540512      -438.477783
             2220   114.942544E+06    -57.47166E+06   -57.471284E+06   344.827584E+06      -458.520203       70.9117737
             2221   114.942336E+06   -57.470924E+06   -57.472244E+06   344.828352E+06       631.990417      -374.283203
             2222   114.943576E+06   -57.470436E+06   -57.470432E+06   344.828064E+06       205.160416      -160.873520
             2223   114.936136E+06   -57.479204E+06   -57.478276E+06   344.829472E+06       732.065735       173.997818
             2224   114.936328E+06   -57.476648E+06   -57.476576E+06   344.828256E+06       872.180908       92.3628006
             2225   114.949288E+06    -57.46294E+06   -57.463688E+06   344.823648E+06   1.03113818E+03  -1.01910437E+03
             2226   114.943496E+06   -57.469192E+06   -57.470424E+06   344.825536E+06  -1.57585559E+03   1.42996191E+03
             2227   114.912216E+06   -57.509056E+06   -57.503864E+06   344.833664E+06       809.865417   3.02749829E+03
             2228    114.94664E+06   -57.464028E+06   -57.463976E+06   344.826848E+06      -792.647522      -566.224243
             2229     114.9524E+06   -57.464168E+06     -57.4645E+06   344.828128E+06      -14.6653557      -142.736618
             2230   114.954648E+06   -57.460648E+06   -57.460952E+06   344.824832E+06      -516.366943   1.26303613E+03
             2231   114.943424E+06    -57.47108E+06   -57.470832E+06   344.827808E+06       27.0817947       123.925011
             2232   114.934432E+06   -57.480688E+06    -57.47794E+06   344.830784E+06   1.35177075E+03       902.911438
             2233   114.965864E+06   -57.448308E+06    -57.44824E+06     344.8224E+06  -1.64061914E+03      -275.748260
             2234   114.944944E+06   -57.468624E+06   -57.469132E+06   344.827328E+06       18.5242329      -62.4404106
             2235   114.943368E+06   -57.471664E+06   -57.471228E+06    344.82768E+06       82.3066254      -170.819977
             2236   114.961408E+06   -57.462612E+06    -57.45976E+06   344.828448E+06   3.48571143E+03      -8.16309738
             2237   114.939824E+06   -57.476044E+06   -57.478908E+06   344.831104E+06   1.53064185E+03       552.536499
             2238   114.929656E+06   -57.482472E+06   -57.482172E+06   344.829184E+06  -1.48848718E+03   1.23046033E+03
             2239   114.943232E+06   -57.470892E+06   -57.471584E+06   344.828672E+06       133.135483      -159.972137
             2240   114.941328E+06    -57.47326E+06   -57.473072E+06   344.828416E+06       364.276764      -713.515015
             2241   114.940632E+06   -57.472572E+06   -57.471448E+06    344.83008E+06      -808.608582      -402.715118
             2242    114.94584E+06   -57.469492E+06   -57.469684E+06   344.828032E+06      -225.353729       255.446213
             2243   114.942936E+06    -57.47052E+06   -57.470236E+06    344.82864E+06       295.502869  -1.97966809E+03
             2244   114.967216E+06   -57.442716E+06   -57.443732E+06   344.821472E+06       476.559845   1.05039209E+03
             2245   114.947128E+06   -57.469744E+06    -57.46834E+06     344.8272E+06       136.444595  -2.12682788E+03
             2246   114.915592E+06   -57.486484E+06   -57.486556E+06   344.825312E+06   3.78358936E+03  -1.36718372E+03
             2247   114.941616E+06   -57.472696E+06   -57.473292E+06   344.828384E+06      -461.428162       84.7260818
             2248   114.944752E+06   -57.469108E+06   -57.469024E+06   344.827584E+06      -188.794800      -145.210754
             2249   114.952568E+06   -57.459216E+06   -57.461012E+06   344.826496E+06  -2.09400122E+03       84.2654266
             2250   114.855448E+06   -57.544512E+06   -57.543308E+06     344.8328E+06   5.67959375E+03       937.282532
             2251   114.938712E+06    -57.47434E+06   -57.474232E+06   344.828544E+06       180.729401       51.0275803
             2252   114.943336E+06     -57.4702E+06   -57.470172E+06   344.827328E+06      -9.37943363      -16.0136948
             2253    114.96032E+06    -57.45816E+06   -57.459208E+06   344.828736E+06       787.809692       512.387024
             2254    114.94744E+06   -57.466948E+06   -57.466784E+06   344.827136E+06      -90.3702240      -24.3796902
             2255   114.947864E+06   -57.457268E+06    -57.46184E+06   344.824512E+06  -1.46637866E+03  -2.56823779E+03
             2256   114.949936E+06   -57.463076E+06   -57.463596E+06   344.826144E+06   2.49401758E+03   2.74371411E+03
             2257   114.932976E+06     -57.4736E+06   -57.474244E+06     344.8264E+06       417.772583  -1.33024451E+03
             2258   114.863672E+06   -57.528864E+06    -57.53156E+06   344.825088E+06      -7.22782326       439.459656
             2259   114.938552E+06   -57.472528E+06   -57.472208E+06   344.824448E+06       408.286438       112.051270
             2260    114.94336E+06   -57.471508E+06   -57.471656E+06   344.828704E+06       228.881638       19.2563457
             2261    114.92916E+06   -57.483356E+06   -57.479944E+06   344.825696E+06       98.9457626      -128.914856
             2262   114.942856E+06    -57.46664E+06   -57.465164E+06   344.826528E+06       256.495880   1.96649524E+03
             2263   114.944536E+06   -57.469532E+06   -57.469496E+06   344.827744E+06       153.184296      -8.72201633
             2264    114.94032E+06    -57.47348E+06   -57.473416E+06   344.827904E+06      -642.383850       148.231476
             2265   114.942312E+06   -57.471868E+06   -57.471728E+06   344.828032E+06      -29.1041412       66.7331161
             2266   114.965328E+06   -57.448124E+06    -57.44604E+06   344.823872E+06   2.67818726E+03  -1.31983167E+03
             2267   114.963984E+06   -57.452812E+06    -57.45244E+06    344.82224E+06   2.27523560E+03  -1.02460681E+03
             2268   114.941136E+06    -57.47358E+06   -57.473508E+06   344.828256E+06       128.543915      -276.343842
             2269   114.936296E+06   -57.478868E+06     -57.4774E+06   344.828448E+06      -323.789703  -1.15200024E+03
             2270   114.940232E+06   -57.472296E+06   -57.471932E+06     344.8272E+06      -379.041626      -33.5517616
             2271   114.941584E+06   -57.471388E+06   -57.473248E+06   344.825536E+06  -1.75586548E+03  -1.00515631E+03
             2272   114.946856E+06   -57.472688E+06   -57.469728E+06     344.8272E+06       516.468262       159.962830
             2273   114.943456E+06   -57.470564E+06    -57.47052E+06   344.827936E+06       60.0398369      -16.6098785
             2274   114.952144E+06    -57.45986E+06   -57.461396E+06   344.826272E+06  -3.84037549E+03      -5.24673796
             2275    114.93884E+06   -57.479192E+06   -57.476364E+06   344.828192E+06      -65.9019165       171.123611
             2276   114.973416E+06    -57.44776E+06   -57.447364E+06   344.822944E+06      -716.796265      -502.208923
             2277   114.922464E+06   -57.490636E+06   -57.489988E+06   344.830272E+06  -1.37710437E+03       317.657043
             2278    114.93556E+06   -57.473044E+06   -57.473148E+06   344.825216E+06   3.56224487E+03   2.07935278E+03
             2279   114.943504E+06   -57.470508E+06   -57.469812E+06   344.827456E+06       396.544586      -222.845337
             2280   114.944512E+06   -57.469152E+06   -57.469116E+06   344.827264E+06       259.189545       71.3211823
             2281   114.947128E+06    -57.47052E+06   -57.469572E+06   344.829248E+06   2.37850977E+03       100.088333
             2282    114.91684E+06   -57.497976E+06   -57.494644E+06   344.828192E+06  -1.82823303E+03       725.970764
             2283    114.95608E+06    -57.46158E+06   -57.461504E+06   344.829632E+06       618.491821       724.738098
             2284   114.944048E+06   -57.469668E+06   -57.469596E+06   344.827296E+06       82.0177460      -52.1743126
             2285   114.949864E+06   -57.467284E+06   -57.467996E+06   344.829728E+06   1.01558173E+03      -454.971832
             2286   114.941672E+06   -57.472336E+06     -57.4721E+06   344.828736E+06      -23.9625835      -148.325378
             2287   114.960792E+06   -57.460036E+06   -57.459264E+06   344.833888E+06  -1.10212891E+03       48.0291634
             2288   114.941648E+06   -57.472008E+06   -57.472384E+06   344.828064E+06      -20.2001019      -134.672150
             2289   114.951608E+06   -57.469236E+06    -57.46642E+06   344.827968E+06   1.43877954E+03       257.688385
             2290   114.916392E+06   -57.496908E+06   -57.495448E+06   344.834752E+06  -1.41519482E+03      -36.4735565
             2291   114.937904E+06   -57.474236E+06   -57.474432E+06   344.827616E+06      -327.461395      -38.5613632
             2292   114.943232E+06    -57.47046E+06   -57.470936E+06    344.82832E+06      -100.718781       81.4427185
             2293   114.943168E+06   -57.470944E+06    -57.47046E+06   344.827776E+06      -210.111908      -38.1261978
             2294   114.919272E+06   -57.496136E+06   -57.494612E+06   344.833632E+06      -15.2157955      -131.658051
             2295   114.924368E+06   -57.480732E+06   -57.482576E+06   344.828864E+06       230.648178  -1.50861743E+03
             2296    114.94148E+06   -57.473212E+06     -57.4731E+06   344.828576E+06      -184.848022       333.629089
             2297    114.94292E+06   -57.472136E+06     -57.4721E+06     344.8288E+06       176.703232       118.731216
             2298   114.943648E+06   -57.470308E+06   -57.470476E+06   344.827488E+06       389.526154      -227.001907
             2299   114.944328E+06   -57.469932E+06   -57.469312E+06   344.827456E+06       73.2999420      -159.059036
             2300   114.939992E+06    -57.47368E+06    -57.47332E+06   344.827296E+06       294.589630       373.904816
             2301   114.945176E+06    -57.46862E+06    -57.46878E+06   344.827776E+06       334.102844       307.520599
             2302   114.941344E+06   -57.475696E+06      -57.474E+06   344.828704E+06      -424.503754  -1.33481775E+03
             2303   114.963064E+06    -57.46254E+06   -57.461104E+06   344.833408E+06   4.60303223E+03       144.547028
             2304   114.942936E+06   -57.471024E+06   -57.470808E+06    344.82768E+06      -12.1974392      -96.9527817
             2305   114.940728E+06   -57.472128E+06   -57.472064E+06   344.827616E+06       412.850220      -78.0088348
             2306   114.943464E+06   -57.470904E+06   -57.470672E+06   344.828096E+06       221.546585      -16.4117832
             2307   114.946808E+06   -57.468168E+06    -57.46834E+06   344.827712E+06      -279.763367      -161.727432
             2308   114.946288E+06    -57.46754E+06   -57.468328E+06   344.827584E+06       515.617432       28.9490395
             2309    114.94276E+06   -57.471312E+06   -57.471284E+06      344.828E+06      -86.0442810      -404.889313
             2310   114.966784E+06    -57.45104E+06    -57.45032E+06   344.824512E+06       909.869751      -330.868439
             2311   114.943304E+06   -57.470804E+06   -57.470324E+06   344.828224E+06       62.9476051       95.6641998
             2312   114.942976E+06     -57.4711E+06   -57.471116E+06   344.827968E+06      -31.0739803      -42.8899345
             2313   114.943968E+06    -57.46938E+06   -57.470684E+06   344.829856E+06      -293.105957  -1.35413770E+03
             2314   114.942304E+06   -57.472104E+06   -57.471808E+06   344.827744E+06       318.075073       10.7576599
             2315   114.939656E+06    -57.47812E+06   -57.477456E+06   344.830432E+06   13.0857334E+03       946.625305
             2316   114.942632E+06   -57.470184E+06    -57.47186E+06   344.827168E+06   2.03035779E+03       583.896423
             2317   114.946528E+06   -57.468676E+06   -57.468552E+06   344.827712E+06       66.7466736       188.832611
             2318   114.899296E+06    -57.50544E+06   -57.505492E+06    344.82816E+06   7.64780176E+03       214.395340
             2319   114.925704E+06     -57.4843E+06     -57.4845E+06   344.830304E+06   3.07028662E+03      -13.2825975
             2320   114.938128E+06   -57.477208E+06   -57.474808E+06   344.829152E+06       50.6703949      -782.353455
             2321   114.945968E+06   -57.464972E+06   -57.467956E+06   344.823392E+06  -3.63614062E+03      -90.9971771
             2322   114.939376E+06   -57.474276E+06   -57.479152E+06   344.828096E+06       178.317505  -1.23174316E+03
             2323   114.928968E+06   -57.481336E+06    -57.48114E+06   344.826976E+06   4.99702002E+03      -227.341354
             2324   114.941608E+06    -57.47314E+06   -57.472128E+06   344.828224E+06      -478.175385       213.617111
             2325    114.94188E+06   -57.471856E+06   -57.472048E+06    344.82832E+06       124.274773       28.1731758
             2326   114.949536E+06   -57.468524E+06   -57.466492E+06   344.827968E+06   1.01492975E+03   2.61591577E+03
             2327   114.945072E+06   -57.469076E+06   -57.469108E+06   344.827296E+06      -642.196716       88.9626007
             2328   114.937248E+06   -57.479716E+06   -57.478592E+06   344.830656E+06   2.30932959E+03       630.432739
             2329   114.944168E+06    -57.46984E+06    -57.47016E+06   344.827872E+06      -57.8595123       84.3875046
             2330     114.9418E+06   -57.467448E+06   -57.469152E+06    344.82784E+06  -6.39822412E+03      -799.966797
             2331   114.945064E+06   -57.469116E+06    -57.46944E+06   344.828128E+06       93.1447296       6.62233925
             2332   114.940752E+06   -57.472984E+06   -57.473304E+06   344.828192E+06       105.613029       675.315063
             2333    114.94276E+06   -57.471212E+06   -57.470352E+06      344.828E+06       39.1419373       213.403030
             2334    114.94276E+06      -57.471E+06   -57.471328E+06   344.827968E+06      -22.8418751      -75.5431671
             2335   114.940096E+06   -57.473744E+06   -57.474284E+06   344.828512E+06      -19.6118908       154.617065
             2336   114.940384E+06   -57.474036E+06   -57.473908E+06   344.828768E+06       77.6568298      -157.592484
             2337   114.935344E+06   -57.478336E+06     -57.4784E+06   344.829248E+06      -297.606934       79.1444550
             2338   114.943312E+06   -57.471144E+06   -57.471168E+06   344.828384E+06       600.347351      -30.2360287
             2339   114.942752E+06   -57.471468E+06   -57.471224E+06   344.828192E+06       43.4596100       9.00563049
             2340   114.943704E+06   -57.470784E+06   -57.470456E+06   344.827904E+06      -72.7712708       104.828400
             2341   114.943112E+06   -57.472032E+06   -57.471152E+06    344.82816E+06      -242.073898       291.317810
             2342   114.942368E+06   -57.471588E+06   -57.471536E+06   344.828096E+06       85.7455902       107.424805
             2343   114.944352E+06   -57.470164E+06    -57.47012E+06   344.828224E+06       248.029648       3.30720997
             2344   114.941216E+06   -57.472332E+06   -57.472432E+06   344.827872E+06       135.345825  -34.7743966E-03
             2345   114.942688E+06   -57.470532E+06   -57.470864E+06   344.827936E+06      -67.4887390      -153.907303
             2346   114.942488E+06   -57.470808E+06   -57.471332E+06   344.827936E+06      -41.2802048      -166.086685
             2347   114.943768E+06    -57.46942E+06    -57.46924E+06   344.827008E+06      -127.135338       67.6519012
             2348   114.931744E+06   -57.479216E+06   -57.480552E+06   344.830272E+06       981.083374   1.19990857E+03
             2349   114.942728E+06    -57.47112E+06   -57.471372E+06    344.82832E+06      -20.8568878      -56.2537003
             2350   114.942864E+06   -57.471532E+06   -57.471108E+06   344.828096E+06      -68.4328156      -34.9856529
             2351   114.943184E+06   -57.470924E+06   -57.470768E+06   344.827872E+06      -19.5002766      -46.7604370
             2352   114.942824E+06   -57.471504E+06   -57.471276E+06   344.827872E+06       12.3875856       209.889038
             2353   114.955208E+06   -57.456208E+06   -57.454656E+06   344.824416E+06  -2.24735864E+03       531.195190
             2354     114.9404E+06   -57.474108E+06   -57.474156E+06   344.828896E+06      -5.18669653       55.2502174
             2355   114.948976E+06   -57.466492E+06   -57.466368E+06   344.827616E+06       487.493622       76.6430740
             2356   114.946656E+06    -57.47072E+06   -57.470056E+06   344.827424E+06   1.90237842E+03      -928.892273
             2357   114.935864E+06   -57.478728E+06   -57.477808E+06   344.830528E+06      -134.527100       212.515762
             2358   114.944968E+06   -57.468888E+06   -57.469752E+06   344.827616E+06       674.191406      -133.594269
             2359    114.94212E+06    -57.47098E+06   -57.471532E+06   344.828064E+06       179.495300       64.2376709
             2360   114.944008E+06   -57.470508E+06   -57.470492E+06   344.828288E+06      -362.605621      -56.4706459
             2361   114.881264E+06   -57.522968E+06     -57.5231E+06   344.836224E+06  -1.16520374E+03   1.82890564E+03
             2362   114.948424E+06   -57.473016E+06   -57.472828E+06   344.834464E+06  -6.59932861E+03  -1.83243433E+03
             2363    114.94244E+06   -57.471804E+06   -57.471524E+06   344.827776E+06       27.3566742       59.4820938
             2364    114.94876E+06   -57.463776E+06   -57.460156E+06   344.826368E+06   3.28753442E+03  -1.86360645E+03
             2365   114.942208E+06   -57.472692E+06   -57.471964E+06   344.828288E+06       233.913834  -546.789229E-03
             2366   114.935512E+06   -57.478872E+06      -57.479E+06   344.828224E+06  -3.78580493E+03      -885.437622
             2367   114.942496E+06    -57.47134E+06   -57.470924E+06   344.827456E+06       167.977371      -92.9334946
             2368    114.94172E+06    -57.47166E+06    -57.47146E+06   344.827872E+06      -233.343552      -189.263779
             2369   114.940712E+06    -57.47368E+06   -57.473048E+06   344.828896E+06      -79.7491150       489.735016
             2370   114.946104E+06   -57.464956E+06   -57.462868E+06   344.828352E+06   2.65431616E+03  -1.85166284E+03
             2371   114.943448E+06     -57.4711E+06   -57.471284E+06   344.828032E+06      -144.658554      -176.915527
             2372   114.956904E+06   -57.459536E+06    -57.45406E+06   344.829696E+06  -1.46998767E+03  -2.39139429E+03
             2373   114.944664E+06   -57.468872E+06    -57.46864E+06   344.827264E+06       57.3183479       80.0645599
             2374   114.946096E+06   -57.468744E+06   -57.471456E+06   344.830336E+06      -421.450623  -1.34375391E+03
             2375   114.938752E+06     -57.4747E+06   -57.474668E+06   344.828352E+06       345.724884      -39.7610016
             2376    114.94504E+06   -57.469476E+06   -57.469384E+06   344.827488E+06       5.03811264      -63.0487976
             2377   114.934096E+06   -57.479996E+06    -57.48294E+06    344.83024E+06  -1.01188580E+03      -936.291504
             2378   114.943736E+06   -57.470016E+06       -57.47E+06   344.828096E+06      -320.849365       27.1549606
             2379   114.942864E+06    -57.47132E+06   -57.470864E+06   344.828512E+06       43.2888336       32.2252655
             2380   114.944192E+06   -57.469676E+06   -57.469424E+06   344.827712E+06      -136.103638       56.7977638
             2381   114.948816E+06   -57.468992E+06   -57.473004E+06   344.830208E+06  -1.58081799E+03  -1.44848730E+03
             2382   114.940776E+06    -57.47286E+06   -57.472916E+06    344.82784E+06      -127.491379       35.6473618
             2383    114.94224E+06    -57.47202E+06   -57.471764E+06   344.827712E+06       95.8727646      -38.5035362
             2384   114.932344E+06   -57.480112E+06   -57.479868E+06   344.829056E+06      -564.278198       59.3040543
             2385   114.929936E+06   -57.486508E+06   -57.483572E+06   344.826752E+06      -345.824371       7.82609463
             2386   114.940392E+06   -57.473136E+06   -57.473148E+06    344.82832E+06       167.247650      -66.6520767
             2387   114.940824E+06   -57.473076E+06   -57.473032E+06   344.828288E+06      -190.265259      -81.6932907
             2388   114.943656E+06   -57.470304E+06   -57.470184E+06   344.827936E+06       81.3421783      -85.7173233
             2389   114.944616E+06     -57.4698E+06   -57.469796E+06   344.827808E+06      -657.735107      -210.734680
             2390    114.94008E+06   -57.473824E+06   -57.474068E+06   344.828192E+06      -96.2808685      -146.228806
             2391     114.9408E+06   -57.473096E+06   -57.472844E+06   344.828352E+06      -147.615631      -69.7302017
             2392   114.941216E+06   -57.471688E+06   -57.472088E+06   344.827264E+06      -225.410156       165.446808
             2393   114.940392E+06     -57.4733E+06   -57.473564E+06   344.828224E+06      -509.648712       20.0831661
             2394   114.958216E+06   -57.458848E+06   -57.461408E+06   344.829504E+06      -907.437744      -457.999786
             2395    114.95428E+06    -57.46158E+06   -57.459644E+06   344.827968E+06      -441.438141       300.405182
             2396    114.94108E+06   -57.472508E+06   -57.472556E+06   344.828544E+06      -155.434036       194.633347
             2397   114.943768E+06   -57.470188E+06   -57.470016E+06   344.827776E+06       551.415527      -2.20137644
             2398   114.941048E+06   -57.472464E+06   -57.472612E+06   344.827808E+06           -167.5      -203.881104
             2399   114.940416E+06   -57.475052E+06    -57.47662E+06   344.827616E+06  -1.99470459E+03      -125.678947
             2400   114.944112E+06   -57.467484E+06   -57.469224E+06   344.828576E+06       265.309601      -292.652374
             2401   114.943264E+06   -57.471024E+06      -57.471E+06   344.828224E+06       219.045380      -86.8083344
             2402   114.942864E+06   -57.471788E+06   -57.471592E+06   344.828672E+06       367.561951       93.8360672
             2403    114.94532E+06   -57.468196E+06   -57.468388E+06   344.827584E+06      -1.81511867       161.473877
             2404    114.96052E+06   -57.466152E+06   -57.461776E+06   344.827712E+06   1.52522595E+03       712.773682
             2405   114.939896E+06   -57.472924E+06   -57.473012E+06   344.827744E+06       278.753693       114.634109
             2406   114.933264E+06   -57.479856E+06   -57.479448E+06   344.828416E+06   1.37903625E+03       94.9185867
             2407   114.943184E+06   -57.470928E+06    -57.47086E+06   344.827968E+06      -221.245911      -77.8765182
             2408   114.948016E+06   -57.466424E+06    -57.46638E+06   344.827168E+06  -1.10947571E+03       3.49186873
             2409    114.94252E+06     -57.4717E+06   -57.471648E+06   344.828384E+06       418.297150       27.2866421
             2410   114.827696E+06   -57.567292E+06    -57.56508E+06   344.827168E+06   3.62380859E+03   1.79441467E+03
             2411   114.944176E+06   -57.474896E+06   -57.471036E+06   344.828128E+06   1.41068738E+03      -960.794800
             2412   114.942712E+06    -57.47092E+06   -57.470676E+06   344.827776E+06      -141.396515       32.5346947
             2413    114.93568E+06   -57.474744E+06   -57.476104E+06   344.828416E+06      -476.931488       410.618347
             2414   114.942952E+06   -57.470024E+06   -57.470624E+06    344.82768E+06       382.736450      -163.529419
             2415   114.940584E+06   -57.472532E+06   -57.472624E+06    344.82768E+06       21.3101254       61.6966743
             2416   114.943704E+06     -57.4699E+06   -57.470196E+06   344.827936E+06       213.326736       66.1454163
             2417   115.005304E+06   -57.404168E+06   -57.405244E+06   344.808128E+06  -8.90749902E+03   1.63701782E+03
             2418   114.937648E+06   -57.475996E+06    -57.47728E+06   344.828608E+06      -140.593414      -630.876648
             2419   114.943352E+06   -57.469152E+06   -57.469052E+06   344.826464E+06      -216.976135       56.3231735
             2420   114.965992E+06   -57.451592E+06   -57.450284E+06   344.824672E+06      -347.175140   1.17237512E+03
             2421   114.943456E+06   -57.470536E+06   -57.470368E+06   344.827648E+06      -91.3093185      -44.5003433
             2422   114.943848E+06   -57.470116E+06   -57.469248E+06   344.826784E+06        166.71875      -232.712997
             2423   114.952432E+06   -57.463468E+06   -57.464168E+06    344.83168E+06   4.84669727E+03   1.76515576E+03
             2424   114.942552E+06   -57.471032E+06   -57.471004E+06   344.827648E+06       461.613159       64.0108032
             2425   114.942688E+06   -57.471472E+06   -57.471456E+06   344.828096E+06      -15.9853973      -63.1576385
             2426   114.942816E+06   -57.471008E+06   -57.470964E+06   344.828032E+06      -61.4177895       49.6643333
             2427    114.94384E+06   -57.470104E+06   -57.470168E+06   344.828864E+06      -42.3765373      -393.432587
             2428   114.847976E+06   -57.544752E+06    -57.54576E+06      344.828E+06   5.62035107E+03   1.66601831E+03
             2429   114.940728E+06   -57.472332E+06   -57.472856E+06    344.82816E+06      -652.633423      -558.087280
             2430   114.942448E+06   -57.471152E+06   -57.471172E+06   344.827648E+06      -11.7008476       59.0096970
             2431    114.94364E+06   -57.470348E+06   -57.469936E+06   344.827776E+06      -363.497375      -93.0968170
             2432   114.943232E+06   -57.470584E+06    -57.47086E+06   344.827872E+06       151.115753      -67.5270844
             2433     114.9418E+06   -57.472168E+06   -57.471876E+06   344.827904E+06      -43.4275398       5.15709925
             2434   114.942728E+06     -57.4713E+06   -57.471408E+06    344.82768E+06      -32.9435654       65.3942566
             2435    114.94416E+06   -57.468664E+06   -57.469164E+06   344.828608E+06      -325.761993      -491.882111
             2436    114.94524E+06   -57.468788E+06    -57.46844E+06   344.827488E+06      -332.681213      -335.303192
             2437   114.943664E+06   -57.469464E+06   -57.470172E+06   344.828128E+06      -318.583557      -359.832825
             2438   114.944224E+06   -57.469636E+06   -57.469964E+06   344.828192E+06       252.992722       169.628799
             2439    114.94256E+06   -57.471296E+06   -57.471328E+06   344.827872E+06      -172.484955      -14.8096380
             2440   114.943248E+06   -57.470868E+06     -57.4703E+06   344.827776E+06      -159.806381      -319.879028
             2441   114.948144E+06   -57.467676E+06   -57.468548E+06   344.828384E+06      -18.9482574       215.578537
             2442   114.948872E+06    -57.46682E+06     -57.4669E+06   344.828256E+06  -1.35333252E+03       518.165161
             2443   114.941032E+06   -57.474036E+06     -57.4722E+06   344.827872E+06  -2.03591309E+03  -1.43209436E+03
             2444   114.945912E+06   -57.469076E+06     -57.4691E+06   344.827936E+06      -41.9883270      -148.428314
             2445   114.937968E+06   -57.476484E+06    -57.47554E+06    344.82784E+06      -91.4036560       370.952850
             2446    114.94424E+06   -57.469772E+06   -57.469888E+06   344.827424E+06       13.6076345      -167.687836
             2447   114.956536E+06   -57.462476E+06   -57.461324E+06   344.829856E+06      -814.121338  -1.03829004E+03
             2448   114.942656E+06   -57.471172E+06   -57.471404E+06   344.828192E+06      -48.6255493      -29.6722565
             2449   114.940488E+06    -57.47602E+06    -57.47504E+06   344.828448E+06   1.04407483E+03       386.756256
             2450   114.942488E+06   -57.471356E+06    -57.47128E+06    344.82784E+06      -205.520493       3.86141300
             2451   114.954272E+06   -57.459444E+06   -57.460288E+06   344.824704E+06       456.765869      -189.916336
             2452   114.955768E+06   -57.463476E+06    -57.46182E+06   344.827488E+06       745.354431   1.25298926E+03
             2453   114.943312E+06   -57.469184E+06     -57.4707E+06   344.828704E+06      -378.110931      -491.729401
             2454   114.936872E+06   -57.478568E+06   -57.477192E+06   344.828864E+06   1.56355908E+03      -419.316559
             2455   114.940568E+06   -57.474272E+06   -57.473772E+06   344.828544E+06      -156.068375      -85.5322647
             2456   114.943136E+06   -57.471352E+06   -57.471304E+06   344.828064E+06       91.4272766       74.1611481
             2457   114.942968E+06   -57.471036E+06   -57.471312E+06   344.828288E+06      -111.460823       170.991547
             2458   114.943976E+06   -57.470424E+06   -57.470164E+06   344.827968E+06       30.8321285       12.3380833
             2459   114.942456E+06    -57.47184E+06     -57.4719E+06   344.828352E+06       137.556824      -21.4835644
             2460    114.94344E+06   -57.470412E+06   -57.470564E+06   344.827904E+06       78.1241684      -65.6612701
             2461   114.942448E+06   -57.471408E+06   -57.471336E+06   344.827872E+06      -300.466034       1.14418590
             2462   114.941688E+06   -57.471864E+06    -57.47188E+06    344.82768E+06       405.614594       20.8925457
             2463   114.942568E+06   -57.471936E+06   -57.471752E+06    344.82896E+06       224.110229      -138.883408
             2464   114.944072E+06    -57.46978E+06   -57.469908E+06   344.827648E+06      -273.484894      -75.5851135
             2465   114.948072E+06   -57.464144E+06    -57.46582E+06   344.828768E+06       943.369446   1.25040833E+03
             2466   114.944112E+06   -57.469428E+06    -57.46938E+06   344.827072E+06       95.1832428       10.1385288
             2467   114.941344E+06   -57.471892E+06   -57.471932E+06   344.827808E+06       85.3144379      -8.23729706
             2468    114.95536E+06    -57.46224E+06   -57.462584E+06   344.829728E+06       102.889198      -251.587875
             2469   114.937936E+06   -57.474676E+06   -57.474972E+06   344.828544E+06       402.186096       169.691147
             2470   114.942928E+06    -57.47134E+06   -57.471464E+06   344.828192E+06      -1.32457685       108.432205
             2471     114.9406E+06      -57.473E+06   -57.473236E+06   344.828224E+06      -324.554962       44.5468178
             2472   114.944624E+06    -57.47014E+06   -57.469764E+06   344.827488E+06      -142.427811       109.107025
             2473    114.94124E+06   -57.472828E+06   -57.472624E+06   344.827904E+06       339.899780      -122.463554
             2474   114.943184E+06   -57.472732E+06    -57.47302E+06    344.82992E+06       70.4862289      -958.707153
             2475   114.950064E+06   -57.464372E+06   -57.464404E+06     344.8288E+06   1.29543152E+03      -96.7865295
             2476   114.944136E+06   -57.470748E+06   -57.470732E+06    344.82832E+06      -362.313477      -6.54440641
             2477   114.943752E+06   -57.470312E+06   -57.470364E+06      344.828E+06       91.0757751       93.1224365
             2478   114.943192E+06    -57.47058E+06    -57.47082E+06    344.82784E+06       59.7056160      -26.4234619
             2479   114.942712E+06   -57.473004E+06     -57.4695E+06     344.8272E+06   1.25681799E+03  -1.24579150E+03
             2480   114.942992E+06   -57.470804E+06   -57.471124E+06   344.827552E+06      -184.313553      -144.122025
             2481   114.943016E+06   -57.472636E+06   -57.471896E+06   344.828768E+06       859.132813      -96.2136612
             2482   114.947688E+06    -57.46714E+06   -57.466612E+06   344.827136E+06       297.090637      -220.952957
             2483   114.943032E+06   -57.471056E+06   -57.471156E+06   344.828096E+06      -21.0681648       42.3364334
             2484   114.945864E+06   -57.468012E+06   -57.468364E+06   344.828288E+06       466.700195       630.778748
             2485   114.943704E+06    -57.46986E+06   -57.469956E+06   344.827456E+06      -54.9196129       170.896515
             2486   114.942888E+06    -57.47114E+06   -57.471424E+06    344.82816E+06      -119.538223      -170.472122
             2487   114.941552E+06   -57.471772E+06   -57.471628E+06   344.827808E+06      -145.108643      -140.351379
             2488    114.94112E+06   -57.476092E+06   -57.475428E+06    344.82752E+06  -1.34276245E+03      -663.599487
             2489   114.949264E+06    -57.46624E+06   -57.466164E+06   344.828096E+06       227.930283       9.45123482
             2490     114.9426E+06   -57.471644E+06    -57.47156E+06   344.827872E+06       37.2950897      -35.1877136
             2491   114.937512E+06   -57.473804E+06   -57.475048E+06   344.828544E+06  -1.42093567E+03      -137.352356
             2492    114.93936E+06   -57.475152E+06   -57.472848E+06   344.827136E+06      -945.536194      -538.506592
             2493   114.930544E+06   -57.495204E+06   -57.491824E+06   344.838976E+06      -785.809021  -1.59758801E+03
             2494   114.944728E+06   -57.469116E+06    -57.46904E+06   344.827296E+06       194.865204       12.3286800
             2495   114.943824E+06   -57.469908E+06   -57.470656E+06   344.828352E+06       28.5610352      -663.121216
             2496   114.942344E+06   -57.471616E+06   -57.471508E+06   344.827296E+06       143.240540       4.48101807
             2497   114.942312E+06   -57.471392E+06   -57.472252E+06   344.828352E+06       121.792679       89.4227219
             2498   114.943488E+06   -57.470432E+06    -57.47002E+06   344.827936E+06      -226.900558      -146.251556
             2499    114.94292E+06   -57.470912E+06   -57.470656E+06   344.827776E+06      -425.253204       211.203888
             2500    114.94452E+06    -57.46862E+06    -57.46902E+06   344.828032E+06       499.327667       462.395721
             2501   114.935856E+06   -57.479352E+06   -57.476104E+06      344.824E+06   7.27176465E+03  -2.04053442E+03
             2502   114.900808E+06   -57.502236E+06   -57.503568E+06    344.82688E+06   3.66477539E+03       363.596527
             2503   114.941088E+06    -57.47216E+06   -57.472016E+06    344.82784E+06      -142.928345      -143.046158
             2504     114.9448E+06   -57.469764E+06   -57.469624E+06   344.828384E+06       613.393677      -83.4514389
             2505   114.950568E+06   -57.464788E+06    -57.46472E+06   344.827648E+06       345.968170      -77.6341095
             2506   114.943232E+06   -57.470372E+06    -57.47024E+06   344.828032E+06       52.6335793      -154.341660
             2507   114.942488E+06   -57.471164E+06   -57.471164E+06   344.828064E+06       126.039536      -84.5291367
             2508    114.94376E+06   -57.470524E+06   -57.470052E+06      344.828E+06       98.5161438       159.900452
             2509   114.943312E+06   -57.471112E+06   -57.470876E+06    344.82864E+06      -167.470535      -90.4080658
             2510   114.942184E+06   -57.471648E+06    -57.47156E+06   344.828224E+06       430.927124       10.0956001
             2511   114.945128E+06     -57.4699E+06   -57.470072E+06    344.82816E+06       211.911987       606.498596
             2512   114.943104E+06    -57.47052E+06   -57.470468E+06   344.827488E+06      -317.826477      -62.2244987
             2513   114.944664E+06   -57.469948E+06   -57.469824E+06   344.828032E+06      -14.4299116       219.449173
             2514   114.943632E+06   -57.470108E+06   -57.470052E+06   344.827808E+06      -47.2195244      -97.2722549
             2515   114.941896E+06   -57.471632E+06   -57.471292E+06    344.82768E+06       97.6660461      -91.4585571
             2516   114.915144E+06   -57.494632E+06   -57.494916E+06   344.828576E+06   2.57680151E+03  -1.43148645E+03
             2517   114.942632E+06    -57.47092E+06     -57.4721E+06    344.82864E+06      -679.566467  -1.07643896E+03
             2518   114.943104E+06   -57.470648E+06   -57.472924E+06   344.827648E+06       10.8688469      -342.582947
             2519   114.941216E+06   -57.472148E+06   -57.471936E+06    344.82784E+06       32.5123978      -54.5545044
             2520   114.947792E+06   -57.465444E+06     -57.4661E+06   344.828704E+06       170.933945      -298.539948
             2521   114.943664E+06   -57.470136E+06    -57.47016E+06   344.828128E+06       519.211121      -69.0145645
             2522   114.953512E+06   -57.462588E+06   -57.464428E+06   344.829376E+06  -1.10047900E+03      -166.605759
             2523   114.941328E+06   -57.472328E+06   -57.472148E+06   344.827904E+06      -143.101898      -35.7216263
             2524   114.941568E+06   -57.472388E+06   -57.472276E+06   344.828448E+06       183.821182       392.318024
             2525   114.942488E+06   -57.471964E+06   -57.469172E+06     344.8272E+06      -504.447968       420.057404
             2526    114.93692E+06   -57.477868E+06   -57.477548E+06   344.829248E+06      -170.503983      -634.441833
             2527    114.93972E+06   -57.473628E+06   -57.473544E+06   344.828544E+06      -556.447937       22.2189827
             2528   114.951512E+06   -57.466308E+06    -57.46428E+06   344.823968E+06       409.912598  -1.33698999E+03
             2529   114.944464E+06   -57.468456E+06   -57.468004E+06    344.82704E+06      -158.426910       237.947708
             2530   114.937344E+06   -57.478292E+06   -57.477888E+06   344.829248E+06      -232.957397      -751.493896
             2531   114.941984E+06   -57.471732E+06    -57.47188E+06   344.828384E+06       264.606537       2.67654634
             2532   114.935152E+06   -57.483392E+06     -57.4794E+06   344.828384E+06       746.449219       767.178528
             2533   114.943552E+06   -57.470004E+06   -57.470312E+06   344.828128E+06      -155.109955       62.0621910
             2534    114.94264E+06   -57.472396E+06   -57.471884E+06   344.827072E+06       157.710938       357.983429
             2535   114.944136E+06   -57.470744E+06   -57.470484E+06   344.828608E+06       379.519226      -376.859283
             2536   114.943536E+06   -57.470656E+06   -57.470564E+06   344.828096E+06      -82.6479721       12.5187397
             2537   114.943912E+06   -57.470028E+06   -57.470156E+06    344.82784E+06      -17.0262432       6.34491920
             2538   114.943648E+06    -57.47052E+06   -57.470428E+06   344.828128E+06       468.375397       210.708496
             2539   114.943424E+06   -57.470432E+06   -57.470304E+06   344.827296E+06      -667.839905       73.3088455
             2540   114.942464E+06    -57.47136E+06   -57.471028E+06    344.82768E+06      -6.22148991      -77.8959732
             2541   114.942416E+06   -57.471596E+06   -57.471568E+06   344.828256E+06      -60.2789612       60.4614601
             2542     114.9456E+06   -57.467288E+06   -57.469896E+06    344.82688E+06       636.455200      -563.647400
             2543   114.943544E+06   -57.470652E+06   -57.470604E+06   344.828128E+06      -2.56885004       129.514038
             2544    114.94264E+06    -57.47128E+06   -57.471472E+06   344.827712E+06      -28.5098667      -161.939407
             2545   114.938456E+06     -57.4728E+06   -57.473692E+06   344.828416E+06       12.1783943       187.306686
             2546   114.935624E+06   -57.475444E+06   -57.476252E+06   344.826336E+06      -499.991852      -200.645782
             2547   114.942408E+06   -57.471644E+06   -57.471656E+06   344.828288E+06      -173.940781       50.5201073
             2548   114.941504E+06    -57.47216E+06   -57.472084E+06   344.827808E+06      -202.925720       18.8924160
             2549   114.937464E+06   -57.475464E+06   -57.475356E+06   344.829248E+06       44.2443581      -451.744049
             2550   114.943464E+06   -57.470112E+06   -57.470184E+06    344.82784E+06       319.007690      -121.936455
             2551   114.943832E+06   -57.469596E+06   -57.470416E+06   344.827616E+06      -125.416946      -282.792053
             2552     114.9434E+06   -57.470724E+06   -57.470656E+06   344.827296E+06      -502.300415       192.694778
             2553   114.923824E+06   -57.482924E+06   -57.484612E+06    344.82352E+06       970.169067   2.67357642E+03
             2554   114.942864E+06   -57.471112E+06   -57.471396E+06   344.828128E+06      -160.245728      -167.450836
             2555   114.944368E+06   -57.469492E+06     -57.4694E+06   344.827264E+06      -191.695953       101.694832
             2556   114.943064E+06   -57.471368E+06    -57.47116E+06   344.827744E+06      -75.9302826      -20.1779842
             2557   114.938336E+06   -57.474308E+06   -57.474184E+06   344.827392E+06       212.148880       35.1416740
             2558   114.939688E+06   -57.473984E+06    -57.47358E+06   344.827872E+06      -337.569275       64.1422958
             2559   114.945256E+06   -57.469176E+06    -57.46878E+06   344.827232E+06      -32.8386612       16.7120094
             2560   114.960912E+06   -57.460324E+06    -57.46096E+06   344.833472E+06  -1.41765308E+03      -378.008759
             2561   114.940912E+06   -57.473488E+06     -57.4731E+06   344.828576E+06      -34.0759506       91.5419235
             2562    114.94848E+06    -57.46598E+06   -57.466508E+06    344.82752E+06       377.900940       170.941925
             2563   114.944656E+06   -57.468816E+06   -57.469348E+06   344.827904E+06      -210.848145      -49.8079796
             2564    114.94216E+06    -57.47142E+06    -57.47156E+06   344.828096E+06       279.877716       39.6582527
             2565   114.942704E+06   -57.470172E+06   -57.470944E+06   344.828128E+06       408.823364       264.589203
             2566   114.935048E+06   -57.478624E+06   -57.479176E+06    344.83088E+06   7.53122266E+03       480.221863
             2567   114.940016E+06   -57.473716E+06   -57.473444E+06   344.827968E+06      -153.008133       109.790230
             2568   114.944072E+06   -57.469816E+06   -57.469892E+06    344.82784E+06      -155.390518      -177.498993
             2569   114.944424E+06   -57.470576E+06   -57.470008E+06   344.828032E+06       254.557892      -354.290863
             2570    114.93596E+06   -57.478352E+06   -57.477368E+06   344.828288E+06       857.246643   1.04802539E+03
             2571   114.942896E+06    -57.47098E+06   -57.470844E+06   344.827648E+06       72.2086945      -126.989258
             2572    114.94252E+06    -57.47268E+06   -57.471832E+06   344.827808E+06      -82.8493423       29.7927799
             2573    114.94168E+06   -57.472928E+06    -57.47262E+06   344.828576E+06       399.358551       115.175285
             2574   114.941072E+06   -57.472444E+06   -57.472412E+06   344.827776E+06       699.678345       69.1047974
             2575    114.94572E+06   -57.470876E+06   -57.469708E+06   344.827808E+06       208.389008       338.242767
             2576   114.942736E+06   -57.470992E+06   -57.470616E+06   344.828064E+06      -45.2700500      -184.984344
             2577   114.904432E+06   -57.501092E+06   -57.501588E+06   344.828096E+06  -5.67200830E+03       166.209198
             2578   114.944632E+06   -57.470052E+06   -57.470516E+06    344.82784E+06       351.006714       269.626282
             2579   114.941608E+06   -57.472392E+06   -57.472516E+06   344.828064E+06      -282.776978      -134.771515
             2580   114.945024E+06   -57.468396E+06   -57.468608E+06   344.827232E+06       32.3034363       38.7075882
             2581   114.943936E+06    -57.47008E+06    -57.47018E+06   344.827584E+06       45.8964272       42.9858437
             2582   114.942568E+06   -57.471504E+06   -57.471396E+06   344.827616E+06       362.606293      -109.867340
             2583   114.943288E+06    -57.47056E+06   -57.471792E+06   344.827456E+06      -138.116043  -1.32470557E+03
             2584   114.944152E+06   -57.469788E+06   -57.470048E+06    344.82752E+06      -89.6375351      -58.2266808
             2585   114.946224E+06   -57.467972E+06   -57.468384E+06   344.827648E+06   1.04739380E+03       122.242668
             2586    114.96052E+06      -57.457E+06   -57.457248E+06    344.82608E+06  -3.91687964E+03      -230.934448
             2587   114.944304E+06   -57.470496E+06   -57.470436E+06   344.828032E+06       5.97070122       53.2446213
             2588    114.94116E+06   -57.472564E+06   -57.473264E+06   344.829984E+06       842.050171       346.918762
             2589   114.943208E+06    -57.47072E+06    -57.47092E+06   344.827872E+06       50.6508560      -203.963211
             2590   114.943432E+06   -57.470252E+06    -57.47038E+06   344.828064E+06       264.422363       12.5637808
             2591   114.971088E+06   -57.451448E+06   -57.452052E+06   344.832032E+06   11.3766406E+03       156.114517
             2592   114.951112E+06   -57.463496E+06   -57.464692E+06    344.82512E+06      -733.089417      -408.920807
             2593   114.942656E+06    -57.47116E+06   -57.471428E+06   344.828608E+06       206.546005      -54.5839081
             2594   114.941768E+06   -57.472052E+06   -57.473104E+06   344.828672E+06      -111.144653       113.086525
             2595   114.942296E+06     -57.4716E+06   -57.471556E+06   344.828096E+06      -105.758163       40.2478142
             2596   114.940632E+06    -57.47318E+06   -57.473324E+06   344.828608E+06      -370.583618       50.5190430
             2597    114.94192E+06   -57.471924E+06   -57.471856E+06   344.828096E+06      -107.518311       59.4371758
             2598   114.943464E+06   -57.470812E+06    -57.47076E+06   344.827968E+06       33.4162827      -30.6579533
             2599   114.942672E+06   -57.471644E+06   -57.471668E+06   344.828288E+06      -285.982666       22.2994614
             2600   114.943624E+06   -57.469596E+06   -57.470052E+06   344.827872E+06      -25.9438229      -39.1220322
             2601   114.942664E+06   -57.471416E+06   -57.471532E+06      344.828E+06      -32.7424088       101.643066
             2602   114.943832E+06   -57.470632E+06   -57.470624E+06   344.828224E+06       21.8337860       11.3192873
             2603   114.942704E+06   -57.471256E+06   -57.471468E+06    344.82816E+06      -214.608810      -129.117905
             2604   114.946384E+06   -57.467116E+06   -57.468128E+06    344.82768E+06      -122.609482      -16.7612419
             2605   114.943488E+06    -57.47084E+06   -57.470944E+06   344.828096E+06       398.803223      -66.9765625
             2606   114.941432E+06   -57.471732E+06   -57.471604E+06    344.82784E+06      -13.8421326       76.0084610
             2607   114.939456E+06   -57.474672E+06   -57.474664E+06    344.82896E+06      -115.681396       9.44896126
             2608   114.940992E+06   -57.473428E+06    -57.47362E+06   344.828032E+06       247.478180       231.092697
             2609     114.9452E+06   -57.469992E+06   -57.470036E+06    344.82864E+06      -79.1033478      -78.5371704
             2610   114.940376E+06   -57.472368E+06   -57.473852E+06   344.828544E+06      -444.978943      -229.636948
             2611   114.937912E+06   -57.473944E+06   -57.474924E+06   344.826592E+06   3.31726099E+03      -591.349976
             2612   114.942256E+06    -57.47122E+06   -57.471792E+06   344.828544E+06      -237.682770      -58.5253067
             2613   114.943552E+06   -57.471524E+06   -57.470912E+06    344.82832E+06       138.449036       430.848969
             2614   114.943744E+06   -57.470148E+06    -57.47014E+06   344.827552E+06      -51.6889305       31.4202690
             2615   114.942944E+06   -57.471556E+06   -57.471428E+06   344.828384E+06       847.877563      -40.8957939
             2616    114.93864E+06    -57.47552E+06   -57.475328E+06   344.829728E+06       794.580688       580.132446
             2617   114.942632E+06   -57.471872E+06   -57.471816E+06    344.82864E+06      -56.7675858      -5.99333906
             2618   114.936768E+06   -57.480844E+06   -57.477976E+06   344.829024E+06  -1.48599365E+03  -1.89952881E+03
             2619   114.942656E+06   -57.471636E+06   -57.471696E+06   344.828288E+06       92.6921997      -20.5412426
             2620   114.942728E+06   -57.471376E+06   -57.471328E+06   344.828128E+06       74.3976822       14.3220978
             2621    114.93824E+06   -57.475372E+06   -57.474968E+06   344.828096E+06      -30.7401066   757.897198E-03
             2622   114.948496E+06   -57.466484E+06    -57.46444E+06    344.82752E+06   1.33466101E+03       326.822235
             2623    114.94304E+06   -57.471628E+06   -57.470924E+06   344.828192E+06       598.243347   1.34921948E+03
             2624   114.937704E+06   -57.475808E+06   -57.475408E+06   344.828224E+06      -701.703186      -138.590439
             2625   114.944976E+06   -57.469684E+06   -57.469148E+06    344.82768E+06      -208.945892       202.573090
             2626   114.946104E+06   -57.465028E+06   -57.464576E+06   344.827328E+06       661.895020       761.151917
             2627   114.943696E+06   -57.469116E+06   -57.470476E+06   344.828416E+06       32.4192581      -267.511810
             2628   114.945832E+06   -57.468208E+06    -57.46924E+06   344.828672E+06       679.264771       379.118896
             2629    114.97752E+06    -57.44658E+06     -57.4454E+06   344.823104E+06  -1.12056470E+03  -2.26637769E+03
             2630   114.946712E+06   -57.468932E+06   -57.468812E+06   344.827744E+06      -671.729919      -420.488861
             2631   114.941576E+06   -57.471904E+06    -57.47246E+06   344.828192E+06      -140.532806       22.9715481
             2632   114.942992E+06   -57.470628E+06   -57.471452E+06   344.828384E+06       524.902588       220.373901
             2633   114.959376E+06   -57.459248E+06     -57.4591E+06   344.825856E+06   1.37869763E+03  -1.06595972E+03
             2634   114.954024E+06   -57.458492E+06   -57.459648E+06      344.824E+06       929.000488  -1.03018921E+03
             2635   114.943032E+06   -57.470628E+06   -57.471496E+06      344.828E+06       313.621002      -2.48027992
             2636    114.94556E+06   -57.469924E+06   -57.469756E+06    344.82816E+06       83.3170700       259.849854
             2637    114.98012E+06   -57.433968E+06   -57.434668E+06   344.820192E+06   7.91177051E+03      -204.211746
             2638   114.947464E+06   -57.467072E+06   -57.467552E+06   344.828288E+06       694.607849       56.9773216
             2639    114.90536E+06    -57.49834E+06   -57.498672E+06    344.82608E+06   4.10502441E+03      -24.9638824
             2640   114.942664E+06   -57.471504E+06   -57.471512E+06   344.828256E+06       76.3725281       26.2573147
             2641   114.942464E+06   -57.471476E+06    -57.47144E+06   344.827616E+06       166.642303       131.041779
             2642    114.94204E+06   -57.472232E+06   -57.471764E+06   344.827808E+06      -46.8812866      -117.790703
             2643   114.941272E+06   -57.472128E+06   -57.471868E+06   344.827872E+06      -233.594757      -81.9001160
             2644   114.941288E+06    -57.47266E+06   -57.472696E+06   344.828256E+06       71.6755142      -52.1636009
             2645   114.941528E+06   -57.475868E+06   -57.472632E+06   344.828416E+06      -337.119141  -1.48092883E+03
             2646   114.930304E+06   -57.487644E+06     -57.4865E+06   344.829024E+06       457.345886      -137.761490
             2647     114.9322E+06   -57.482084E+06   -57.482884E+06   344.829472E+06       90.3232727  -1.61157166E+03
             2648   114.936144E+06    -57.48264E+06   -57.482568E+06   344.832576E+06       254.204544       583.771240
             2649   114.941728E+06   -57.472144E+06    -57.47178E+06      344.828E+06       123.319069      -21.0681725
             2650   114.935632E+06   -57.479044E+06   -57.480964E+06   344.829664E+06  -1.12883911E+03       244.914795
             2651    114.94608E+06   -57.468744E+06   -57.468852E+06   344.828064E+06      -48.2405663       4.76192951
             2652   114.970008E+06   -57.447644E+06   -57.447672E+06   344.824384E+06   5.46198633E+03      -533.561707
             2653   114.920648E+06    -57.49612E+06    -57.49216E+06    344.83136E+06       197.679871  -1.74480518E+03
             2654   114.948608E+06   -57.468124E+06   -57.462804E+06   344.826944E+06  -1.53712866E+03       864.974121
             2655   114.946936E+06    -57.46814E+06    -57.46806E+06   344.828256E+06      -72.8360291       15.7327938
             2656   114.944392E+06     -57.4698E+06   -57.470032E+06    344.82784E+06       75.0085678      -177.307220
             2657   114.944088E+06   -57.472484E+06   -57.472492E+06    344.82656E+06      -502.839355       321.755066
             2658   114.948504E+06   -57.467536E+06   -57.467868E+06   344.828512E+06       72.8784180      -138.944748
             2659   114.936976E+06   -57.476624E+06   -57.476432E+06   344.829056E+06       284.577332      -58.4993668
             2660   114.943224E+06   -57.470412E+06   -57.470704E+06   344.827808E+06       103.501282       109.228722
             2661   114.919704E+06   -57.491344E+06   -57.490672E+06   344.830112E+06   2.34128174E+03      -838.864563
             2662   114.938888E+06   -57.474732E+06   -57.474628E+06   344.828736E+06      -193.439590       289.647278
             2663   114.950088E+06   -57.464752E+06    -57.46478E+06   344.827072E+06      -20.2451553      -54.1240311
             2664   114.946584E+06   -57.467356E+06   -57.467892E+06   344.827712E+06       39.5130768       929.001831
             2665   114.937544E+06   -57.475244E+06   -57.475268E+06   344.827936E+06       337.008057      -8.83958912
             2666   114.943568E+06   -57.470544E+06   -57.470492E+06    344.82784E+06       282.410522       18.1984673
             2667   114.940192E+06   -57.473352E+06    -57.47338E+06    344.82816E+06      -22.1185989      -3.82425094
             2668   114.946448E+06   -57.467792E+06   -57.467976E+06   344.827488E+06      -50.9839897      -10.0662556
             2669   114.939272E+06   -57.473772E+06   -57.473692E+06   344.828096E+06       32.0740547      -137.513443
             2670   114.943592E+06   -57.470704E+06   -57.470404E+06   344.827744E+06       50.7422447       108.552345
             2671   114.936048E+06    -57.47652E+06   -57.476444E+06   344.828064E+06       541.260559       16.7778969
             2672   114.941392E+06   -57.472636E+06   -57.471728E+06   344.828064E+06       22.4430161      -205.930298
             2673   114.941336E+06   -57.474064E+06   -57.473352E+06   344.828416E+06      -18.9815216       191.752396
             2674    114.95744E+06   -57.455368E+06   -57.452128E+06   344.825088E+06  -2.47551245E+03   1.59054236E+03
             2675   114.874632E+06    -57.51822E+06   -57.515276E+06   344.823008E+06   1.01550531E+03   1.61493945E+03
             2676   114.941096E+06   -57.477212E+06   -57.477416E+06    344.82992E+06       636.235718      -9.66129875
             2677    114.98004E+06    -57.43238E+06   -57.435132E+06    344.81936E+06       576.471863       487.831451
             2678      114.944E+06   -57.470388E+06   -57.470468E+06    344.82816E+06  -978.483498E-03       47.0244217
             2679   114.944592E+06   -57.469408E+06   -57.469136E+06   344.827488E+06       82.0682144      -76.5807266
             2680   114.964384E+06   -57.456196E+06   -57.452248E+06    344.82464E+06      -973.572144      -587.972717
             2681   114.943456E+06   -57.468792E+06   -57.470008E+06   344.824736E+06       652.193787       424.580994
             2682   114.935656E+06   -57.470264E+06   -57.473708E+06   344.825632E+06  -1.53971533E+03   1.24967639E+03
             2683   114.942672E+06   -57.471388E+06    -57.47118E+06    344.82784E+06       98.3957214       148.063980
             2684    114.93868E+06   -57.474252E+06     -57.4744E+06   344.828224E+06      -785.707397       227.692673
             2685   114.942624E+06   -57.471492E+06   -57.471244E+06   344.827968E+06      -261.855438       54.0620537
             2686   114.943272E+06   -57.470496E+06   -57.470472E+06   344.827552E+06       202.887634       5.76459169
             2687   114.930216E+06    -57.48276E+06   -57.478772E+06   344.830112E+06   3.04921313E+03  -1.14937390E+03
             2688   114.940656E+06    -57.47258E+06   -57.472712E+06   344.827744E+06      -16.7199364      -77.6805878
             2689   114.954872E+06   -57.464796E+06   -57.462676E+06   344.830624E+06       744.440063      -77.8896637
             2690    114.95388E+06   -57.456856E+06   -57.458056E+06   344.826112E+06  -2.13258887E+03       375.236908
             2691    114.92948E+06   -57.487108E+06   -57.484932E+06   344.826336E+06   2.14828198E+03  -1.91327979E+03
             2692   114.949864E+06    -57.46782E+06     -57.4675E+06    344.82784E+06   3.32156494E+03  -1.10740625E+03
             2693   114.944112E+06   -57.470064E+06   -57.469604E+06   344.827712E+06      -266.902008       181.870804
             2694   114.944544E+06    -57.46938E+06   -57.469216E+06   344.827744E+06      -125.697144      -183.811584
             2695    114.94092E+06   -57.471916E+06   -57.472964E+06   344.828768E+06      -54.7835541       462.989716
             2696   114.947656E+06   -57.467352E+06   -57.467136E+06   344.828096E+06      -343.929199      -56.1198692
             2697   114.949432E+06   -57.465356E+06   -57.465908E+06    344.82608E+06      -371.910156      -477.156006
             2698     114.9378E+06    -57.47884E+06   -57.477928E+06   344.830176E+06       997.923889       46.5033684
             2699   114.943304E+06    -57.47098E+06    -57.47078E+06    344.82832E+06      -85.0637207      -110.697968
             2700    114.95764E+06   -57.458628E+06   -57.459424E+06   344.830592E+06   3.78586743E+03   1.69790881E+03
             2701   114.935808E+06   -57.476232E+06   -57.476628E+06   344.827808E+06   1.52883044E+03       214.721603
             2702   114.944888E+06   -57.469932E+06   -57.469996E+06    344.82848E+06       269.968567      -108.774315
             2703   114.943784E+06   -57.470948E+06   -57.471112E+06   344.828704E+06       176.816330      -70.2909927
             2704    114.94236E+06   -57.471988E+06   -57.471952E+06   344.828416E+06      -35.2224617      -95.6967621
             2705   114.943248E+06    -57.47142E+06   -57.471136E+06   344.828352E+06       61.4210587       61.5758972
             2706   114.943352E+06   -57.470612E+06   -57.470368E+06   344.827776E+06       80.0938339       164.016968
             2707     114.9436E+06   -57.470312E+06   -57.470272E+06    344.82816E+06      -60.9124718       14.0539246
             2708   114.938792E+06   -57.473584E+06    -57.47382E+06   344.830688E+06      -440.017883      -848.241150
             2709   114.941128E+06   -57.474064E+06   -57.473228E+06    344.82768E+06       774.218872      -225.140656
             2710   114.939688E+06   -57.473472E+06   -57.474692E+06   344.827808E+06       218.344315   1.36556482E+03
             2711    114.93552E+06   -57.474736E+06   -57.474384E+06   344.824704E+06  -1.14590125E+03       85.6530228
             2712   114.941536E+06   -57.471808E+06   -57.472396E+06   344.828064E+06      -142.392776      -328.315918
             2713   114.927328E+06   -57.483436E+06   -57.482296E+06   344.825664E+06   1.10649011E+03      -182.281570
             2714   114.942808E+06   -57.471384E+06   -57.471184E+06    344.82816E+06       31.4538918  -431.387722E-03
             2715   114.951264E+06   -57.464572E+06    -57.46204E+06    344.82656E+06   1.09052417E+03       180.972931
             2716   114.943344E+06   -57.470844E+06     -57.4705E+06   344.828128E+06      -4.19644308       26.5735149
             2717    114.94428E+06   -57.472516E+06   -57.471532E+06    344.82704E+06  -1.93092871E+03      -724.094727
             2718   114.944104E+06   -57.469652E+06    -57.46924E+06   344.827776E+06      -111.482346      -198.326462
             2719   114.944288E+06   -57.469764E+06   -57.469508E+06   344.827904E+06       34.0086555       1.27763009
             2720   114.938944E+06    -57.47396E+06   -57.474316E+06    344.82816E+06       112.977570       20.9287758
             2721   114.943488E+06   -57.471096E+06   -57.469356E+06   344.828128E+06       912.054565       514.114136
             2722   114.944032E+06   -57.469612E+06   -57.469904E+06   344.827776E+06      -127.615158       10.9535418
             2723   114.945312E+06   -57.469536E+06   -57.469464E+06   344.828288E+06      -425.271851      -65.1692505
             2724   114.944792E+06   -57.468748E+06   -57.468932E+06   344.827712E+06       399.844910       160.498093
             2725   114.950616E+06   -57.464508E+06   -57.464424E+06   344.827264E+06      -391.311188      -63.2187576
             2726   114.927808E+06   -57.482872E+06   -57.481588E+06     344.8256E+06   1.32301428E+03      -28.7740040
             2727   114.943192E+06    -57.47144E+06    -57.47244E+06     344.8288E+06      -86.1948395       66.1023788
             2728     114.9406E+06     -57.4726E+06   -57.472744E+06   344.827712E+06       480.901978      -3.94116855
             2729   114.942224E+06   -57.471176E+06   -57.471172E+06   344.827616E+06      -12.9984179      -140.960709
             2730   114.943672E+06   -57.469456E+06   -57.469576E+06   344.827584E+06       62.5172043       183.017609
             2731   114.943368E+06   -57.474508E+06   -57.473436E+06   344.831808E+06       217.547119      -164.070450
             2732    114.94308E+06   -57.470476E+06   -57.470404E+06   344.827936E+06      -73.7658844      -228.904724
             2733   114.939176E+06   -57.477744E+06   -57.477504E+06     344.8288E+06       309.121552       618.194153
             2734   114.942624E+06    -57.47136E+06     -57.4715E+06   344.828096E+06       411.951080       352.385925
             2735   114.943424E+06   -57.470776E+06   -57.471368E+06   344.828736E+06       61.5028915       292.824646
             2736   114.944496E+06   -57.471652E+06   -57.471376E+06   344.828288E+06       587.902283      -464.001190
             2737   114.942992E+06   -57.471304E+06   -57.470956E+06   344.827904E+06      -75.0634003       149.012527
             2738    114.94056E+06    -57.47244E+06   -57.472932E+06    344.82816E+06       190.357635       257.873810
             2739   114.942424E+06   -57.471536E+06    -57.47148E+06   344.828032E+06      -634.817505      -8.25647640
             2740   114.941704E+06   -57.472288E+06   -57.472628E+06   344.829408E+06   1.15764160E+03   1.29529077E+03
             2741   114.943504E+06    -57.47022E+06   -57.470192E+06   344.827488E+06       119.439552      -16.3288212
             2742   114.945928E+06   -57.468564E+06    -57.46832E+06   344.827936E+06       316.000946       252.843842
             2743   114.937024E+06    -57.47936E+06    -57.47948E+06   344.828256E+06  -2.61588965E+03      -839.994446
             2744    114.93432E+06   -57.478496E+06   -57.480816E+06     344.8312E+06   1.93207178E+03       194.757919
             2745   114.939888E+06   -57.474732E+06   -57.474008E+06   344.828224E+06   1.46534143E+03       979.976196
             2746   114.978368E+06   -57.444476E+06   -57.443872E+06     344.8256E+06      -828.706238       690.347351
             2747     114.9316E+06   -57.487792E+06   -57.487428E+06   344.833824E+06      -944.871887       658.976257
             2748   114.942808E+06   -57.471432E+06    -57.47146E+06   344.828224E+06      -108.362350      -49.2105293
             2749   114.941784E+06   -57.472224E+06    -57.47214E+06   344.828288E+06       64.9633026       7.88639259
             2750   114.938072E+06   -57.481044E+06    -57.48014E+06   344.831744E+06   3.40132593E+03      -165.982971
             2751    114.95216E+06   -57.468744E+06   -57.466208E+06    344.82848E+06   2.54538525E+03       741.086975
             2752   114.956008E+06    -57.46608E+06   -57.462664E+06   344.829088E+06   1.09473352E+03      -178.235275
             2753   114.945296E+06   -57.471448E+06   -57.470464E+06    344.82864E+06      -568.683716       78.4852448
             2754    114.94564E+06    -57.46842E+06    -57.46792E+06   344.827424E+06      -641.826355      -557.818359
             2755   114.960688E+06   -57.463116E+06   -57.463288E+06   344.830688E+06      -770.183105      -270.822052
             2756   114.938536E+06   -57.473932E+06   -57.474092E+06   344.828128E+06      -142.403076      -351.134949
             2757    114.94292E+06    -57.47142E+06    -57.47126E+06   344.828288E+06       568.975586      -26.7832718
             2758   114.945192E+06    -57.46928E+06   -57.469256E+06   344.827872E+06      -179.411606       12.9576588
             2759   114.944248E+06    -57.46902E+06   -57.469276E+06   344.827712E+06      -288.103485       479.351471
             2760   114.946824E+06   -57.468476E+06   -57.468792E+06   344.828064E+06      -47.7650948       123.646576
             2761   114.938624E+06   -57.474244E+06     -57.4745E+06    344.82784E+06      -140.769409       36.1205978
             2762    114.94324E+06    -57.47098E+06   -57.471144E+06   344.828256E+06       238.015305       60.2926407
             2763   114.937288E+06   -57.475148E+06   -57.474968E+06   344.827776E+06      -615.302002       75.5613174
             2764     114.9546E+06   -57.456144E+06   -57.459076E+06   344.827904E+06      -708.207275      -533.254517
             2765     114.9676E+06   -57.453272E+06    -57.45208E+06   344.827168E+06   4.63083398E+03      -242.138870
             2766   114.942024E+06   -57.472344E+06   -57.473564E+06   344.830336E+06  -10.7033164E+03  -1.56015955E+03
             2767   114.942392E+06   -57.471956E+06   -57.471668E+06   344.827648E+06       230.846954      -14.1685724
             2768     114.9404E+06   -57.473268E+06   -57.473048E+06    344.82784E+06      -166.385941       195.831070
             2769   114.942392E+06   -57.470876E+06   -57.470928E+06   344.828096E+06      -10.5233164      -71.1893082
             2770   114.941424E+06   -57.473368E+06    -57.47322E+06   344.828928E+06       29.0407906       36.6946793
             2771   114.942264E+06   -57.471948E+06    -57.47148E+06   344.827776E+06  -1.06243811E+03       423.375793
             2772   114.940312E+06   -57.473436E+06   -57.473164E+06    344.82752E+06       296.938507       371.937378
             2773   114.944576E+06   -57.469052E+06   -57.469104E+06    344.82736E+06       8.90896130       138.205658
             2774   114.942264E+06   -57.471076E+06   -57.471264E+06   344.827936E+06       16.8889427      -64.2694016
             2775   114.942696E+06   -57.473048E+06   -57.474868E+06   344.829184E+06       101.139465      -921.169861
             2776    114.96108E+06    -57.45862E+06   -57.457288E+06   344.827744E+06  -4.26063477E+03       189.842010
             2777    114.98832E+06   -57.437708E+06   -57.437468E+06   344.828864E+06   1.86714624E+03       575.221924
             2778   114.982248E+06   -57.442368E+06   -57.440924E+06   344.827744E+06   7.21829102E+03      -125.093079
             2779    114.94264E+06   -57.471312E+06    -57.47132E+06   344.827968E+06      -129.074097       20.4896278
             2780   114.942752E+06   -57.471296E+06   -57.471236E+06    344.82816E+06       59.2265167       141.177719
             2781   114.950496E+06    -57.46368E+06   -57.464288E+06   344.828384E+06       202.601898      -761.393860
             2782   114.947896E+06    -57.46554E+06   -57.466228E+06   344.827744E+06      -52.8942070      -463.782745
             2783   114.940864E+06   -57.472448E+06    -57.47356E+06   344.828224E+06      -607.476074      -857.017151
             2784   114.957888E+06   -57.458656E+06   -57.459008E+06   344.828992E+06  -7.09395605E+03  -1.57431372E+03
             2785   114.939392E+06     -57.4732E+06   -57.472828E+06   344.828096E+06       56.0131912      -451.779236
             2786    114.94268E+06   -57.470136E+06   -57.469896E+06   344.827712E+06      -571.584167      -340.575684
             2787   114.976368E+06   -57.433664E+06   -57.432192E+06   344.814592E+06  -10.1975537E+03       558.449158
             2788   114.939384E+06   -57.473124E+06   -57.473136E+06   344.828288E+06      -231.139725      -431.593567
             2789   114.947504E+06   -57.467968E+06   -57.467192E+06   344.826976E+06       27.8969898      -119.682327
             2790   114.942176E+06    -57.47412E+06   -57.471372E+06   344.828384E+06      -762.468445      -312.801697
             2791   114.918392E+06   -57.495568E+06    -57.49396E+06   344.831904E+06   3.01084204E+03       505.068054
             2792   114.943128E+06   -57.469992E+06   -57.469012E+06   344.827552E+06      -630.199524      -89.7986221
             2793    114.93524E+06   -57.476544E+06   -57.478872E+06   344.829184E+06      -940.131042      -423.797668
             2794   114.944792E+06   -57.469208E+06   -57.469356E+06    344.82752E+06      -492.618866       116.657906
             2795   114.943712E+06   -57.470144E+06   -57.470216E+06   344.827744E+06      -222.897552       80.1242142
             2796   114.939824E+06   -57.473472E+06   -57.473656E+06   344.828384E+06       35.0054512      -298.809753
             2797    114.94336E+06   -57.470824E+06   -57.471036E+06    344.82816E+06      -151.017242      -342.227356
             2798   114.940448E+06   -57.474816E+06   -57.474484E+06    344.82896E+06      -475.231964       148.211700
             2799   114.943496E+06   -57.470416E+06   -57.470472E+06   344.828096E+06       209.412323      -160.777390
             2800    114.94272E+06   -57.470776E+06   -57.470344E+06   344.828192E+06      -81.3903427       268.669769
             2801   114.942864E+06   -57.470704E+06   -57.470348E+06   344.828256E+06      -102.795013       275.168030
             2802    114.94384E+06    -57.47008E+06   -57.470384E+06   344.828288E+06      -65.7116165       314.428375
             2803   114.937136E+06     -57.4759E+06    -57.47604E+06   344.828416E+06      -24.8766613       139.695313
             2804   114.944224E+06   -57.469788E+06    -57.47012E+06   344.827904E+06      -47.6031151       100.466400
             2805   114.943384E+06   -57.470656E+06   -57.470816E+06   344.827776E+06      -67.2837830       97.7292328
             2806   114.942928E+06   -57.470768E+06   -57.470968E+06   344.827776E+06      -167.539352      -27.6583939
             2807     114.9406E+06   -57.472848E+06   -57.472744E+06   344.828192E+06       366.408203      -105.489929
             2808   114.898016E+06   -57.515132E+06   -57.514632E+06   344.837408E+06       167.218140      -154.502014
             2809   114.943856E+06   -57.469892E+06     -57.4702E+06   344.827872E+06      -93.4084473       59.1042900
             2810   114.942008E+06   -57.471372E+06   -57.471368E+06   344.827456E+06       126.981659      -4.77627754
             2811   114.940592E+06   -57.474316E+06   -57.475064E+06   344.830176E+06   2.35909692E+03  -1.00400983E+03
             2812    114.94384E+06   -57.469892E+06   -57.470116E+06    344.82768E+06       107.026848       48.3808403
             2813   114.908664E+06   -57.493528E+06   -57.495944E+06    344.82848E+06   5.72997998E+03       636.088684
             2814      114.944E+06   -57.470528E+06    -57.47002E+06   344.827936E+06      -387.718201       85.7330704
             2815   114.953456E+06   -57.461136E+06    -57.46284E+06   344.826944E+06       237.458725       117.477692
             2816   114.916992E+06   -57.493884E+06   -57.492184E+06   344.827136E+06   8.40954883E+03       196.391083
             2817   114.946216E+06     -57.4676E+06   -57.467756E+06   344.827072E+06       4.86825991       138.389832
             2818    114.94184E+06   -57.472828E+06   -57.472184E+06   344.828064E+06   577.054799E-03      -147.811508
             2819   114.944312E+06   -57.469676E+06   -57.469868E+06   344.828032E+06      -238.818390       45.4757729
             2820    114.98872E+06   -57.441152E+06   -57.438952E+06   344.829856E+06   5.89136963E+03       483.700928
             2821    114.94128E+06   -57.472796E+06   -57.472676E+06    344.82832E+06      -117.172890       1.39808846
             2822   114.938952E+06     -57.4769E+06   -57.476872E+06   344.828032E+06       296.967346      -844.400208
             2823   114.942464E+06   -57.472124E+06   -57.471648E+06    344.82848E+06      -974.152344       62.5129242
             2824    114.94256E+06   -57.471304E+06   -57.470808E+06    344.82784E+06      -319.360321      -766.194580
             2825   114.943656E+06   -57.470124E+06   -57.469492E+06    344.82768E+06      -103.296944      -414.837097
             2826   114.943792E+06   -57.471036E+06   -57.470636E+06   344.827616E+06       362.479034       360.996857
             2827   114.940888E+06   -57.472864E+06   -57.473264E+06   344.828416E+06       139.308517      -348.244507
             2828   114.943736E+06   -57.470488E+06   -57.470048E+06   344.828128E+06       62.4908333       77.0301819
             2829   114.942904E+06    -57.47108E+06   -57.471076E+06   344.827968E+06      -71.0721512       81.8801117
             2830    114.94236E+06   -57.471564E+06   -57.471212E+06    344.82832E+06      -277.130798       26.2161961
             2831   114.944024E+06    -57.47012E+06   -57.470288E+06   344.827872E+06      -148.167419       174.716507
             2832   114.938056E+06   -57.475312E+06   -57.475108E+06   344.828608E+06      -99.6720505      -30.0357628
             2833    114.94284E+06   -57.471236E+06   -57.470092E+06    344.82784E+06       70.4878159       477.181488
             2834   114.927224E+06   -57.487024E+06   -57.486124E+06   344.831232E+06       300.320435  -1.18270935E+03
             2835   114.944144E+06   -57.469868E+06   -57.469672E+06   344.827808E+06       485.187744      -25.2537441
             2836   114.944264E+06    -57.46986E+06   -57.469908E+06   344.827392E+06       221.088867       102.540649
             2837   114.939592E+06   -57.473432E+06   -57.473028E+06   344.828416E+06      -234.619492       259.348602
             2838   114.942328E+06    -57.47214E+06   -57.471072E+06   344.827456E+06       17.0339451       88.8432846
             2839   115.009984E+06   -57.423816E+06   -57.425136E+06    344.82528E+06  -4.64806299E+03      -163.413803
             2840    114.92128E+06     -57.4968E+06   -57.493868E+06    344.83312E+06   6.08447266E+03       186.807251
             2841    114.94148E+06   -57.472356E+06   -57.472408E+06   344.827648E+06      -459.784271      -172.887894
             2842   114.938232E+06   -57.474584E+06   -57.474624E+06    344.82816E+06      -24.6715908       331.938995
             2843   114.939488E+06    -57.47404E+06   -57.474164E+06    344.82816E+06       98.8806381       122.462471
             2844   114.942656E+06   -57.470864E+06   -57.470796E+06   344.827712E+06       192.861160      -45.2884483
             2845   114.942784E+06   -57.470616E+06   -57.470284E+06   344.827616E+06       410.764618       78.8648987
             2846   114.930168E+06   -57.487248E+06   -57.486316E+06   344.832768E+06   2.95781030E+03      -252.348938
             2847   114.936312E+06   -57.479724E+06   -57.479408E+06   344.832192E+06       140.418335      -573.702454
             2848   114.946528E+06   -57.468176E+06   -57.468144E+06   344.827872E+06      -16.3194904      -5.01538086
             2849   114.902472E+06   -57.502496E+06   -57.503232E+06   344.829056E+06   7.44852881E+03      -222.722916
             2850   114.942528E+06      -57.471E+06   -57.471456E+06   344.828224E+06      -63.0156364       59.2395554
             2851    114.94084E+06   -57.472404E+06    -57.47256E+06    344.82832E+06       223.085312       21.1335793
             2852   114.937808E+06   -57.479016E+06   -57.480004E+06   344.831584E+06  -3.72996094E+03       934.324646
             2853   114.945128E+06   -57.469212E+06   -57.469148E+06   344.827296E+06      -130.942902       155.179855
             2854   114.945792E+06   -57.468532E+06   -57.467736E+06   344.826496E+06  -2.04526868E+03      -666.303040
             2855   114.938328E+06   -57.475616E+06   -57.477176E+06   344.828704E+06       489.631165      -400.133636
             2856    114.99096E+06   -57.437256E+06   -57.436588E+06   344.826528E+06  -1.46958484E+03      -225.813232
             2857   114.941928E+06     -57.4716E+06   -57.470644E+06   344.828224E+06  -1.17978589E+03      -17.0918846
             2858   114.943328E+06    -57.47208E+06    -57.47388E+06   344.828288E+06  -1.23088086E+03       433.456696
             2859    114.96828E+06   -57.443056E+06    -57.45106E+06   344.821184E+06   1.53783691E+03      -415.398865
             2860    114.94364E+06   -57.471592E+06   -57.470792E+06   344.827328E+06      -547.628418       281.934570
             2861   114.941232E+06   -57.477192E+06   -57.476556E+06    344.82816E+06      -137.337128      -409.750122
             2862   114.936672E+06   -57.475812E+06   -57.475576E+06   344.827776E+06       82.6073227      -82.3534393
             2863   114.938728E+06   -57.468728E+06   -57.468636E+06   344.826176E+06  -2.83436646E+03       551.938049
             2864    114.93504E+06   -57.480316E+06   -57.477528E+06   344.828864E+06   1.27166370E+03      -817.130920
             2865   114.952944E+06     -57.4588E+06   -57.457996E+06   344.824064E+06   2.71850952E+03   4.35959766E+03
             2866   114.967392E+06   -57.440872E+06    -57.44142E+06   344.819776E+06       386.205200   1.37355688E+03
             2867   114.949304E+06   -57.472268E+06   -57.468772E+06   344.827936E+06   1.41804211E+03       368.870850
             2868   114.929904E+06   -57.488188E+06   -57.484716E+06     344.8312E+06   2.00798572E+03       361.898590
             2869    114.94476E+06   -57.469304E+06   -57.469148E+06    344.82736E+06       191.157349      -88.7156677
             2870    114.94196E+06   -57.469652E+06   -57.467424E+06    344.82752E+06       274.750397  -1.26519495E+03
             2871   114.943816E+06     -57.4697E+06   -57.469676E+06   344.827776E+06       152.966354       126.105324
             2872   114.942592E+06    -57.47134E+06    -57.47092E+06   344.827424E+06      -93.5652390       18.0037632
             2873   114.948424E+06   -57.465036E+06   -57.466732E+06   344.826656E+06      -114.104965  -1.15049915E+03
             2874    114.94492E+06   -57.468864E+06   -57.466104E+06   344.825728E+06   1.17550098E+03      -162.886063
             2875   114.953504E+06   -57.456244E+06   -57.459912E+06      344.824E+06       702.014343      -503.812805
             2876   114.930696E+06   -57.478892E+06   -57.472452E+06   344.825856E+06      -854.049805      -434.458557
             2877   114.944432E+06   -57.469372E+06   -57.468472E+06   344.827392E+06  -1.36225964E+03      -1.18288219
             2878   114.942952E+06   -57.470864E+06    -57.47066E+06   344.828128E+06      -310.413147      -49.5081100
             2879   114.946048E+06   -57.468484E+06    -57.46806E+06    344.82704E+06      -283.546875      -330.725403
             2880   114.971584E+06    -57.45218E+06   -57.451104E+06   344.826624E+06      -910.290649   2.10567236E+03
             2881   114.942472E+06    -57.47142E+06   -57.471364E+06   344.827776E+06       151.539413       77.0455780
             2882   114.939536E+06   -57.473296E+06   -57.474008E+06   344.828896E+06      -690.749939       344.466766
             2883   114.940584E+06   -57.472592E+06   -57.472548E+06   344.828096E+06       154.640259       108.372231
             2884   114.939368E+06   -57.474428E+06   -57.474432E+06   344.828384E+06      -664.360046       91.3669968
             2885   114.937992E+06   -57.475952E+06   -57.475604E+06   344.828224E+06       126.982315       82.4644470
             2886   114.943088E+06   -57.470952E+06   -57.471116E+06   344.827616E+06      -71.8866959       71.1852951
             2887   114.937128E+06    -57.47726E+06   -57.476616E+06   344.828672E+06      -239.972336       460.524902
             2888   114.929488E+06    -57.48434E+06   -57.485456E+06    344.83248E+06      -525.751526       135.916702
             2889   114.943464E+06   -57.471032E+06   -57.471144E+06   344.827936E+06       61.8600616       61.8914566
             2890   114.941496E+06   -57.471904E+06    -57.47176E+06   344.827648E+06      -394.480713       47.5292130
             2891   114.951992E+06   -57.460068E+06   -57.460784E+06   344.826432E+06       52.6551323       861.723022
             2892   114.911776E+06   -57.498284E+06   -57.496836E+06    344.83584E+06      -159.934952  -2.18867871E+03
             2893   114.950568E+06   -57.465576E+06   -57.464896E+06    344.82816E+06   1.52870703E+03      -779.067749
             2894   114.980168E+06   -57.442904E+06   -57.440236E+06   344.824512E+06   5.75242676E+03      -570.324158
             2895    114.94648E+06   -57.468604E+06    -57.47016E+06   344.828576E+06   2.84974585E+03       553.975586
             2896    114.94584E+06   -57.470276E+06   -57.470892E+06   344.826464E+06       653.612793   2.47133716E+03
             2897   114.944496E+06   -57.470796E+06     -57.4697E+06   344.828768E+06      -165.990173      -463.569946
             2898    114.94604E+06    -57.46884E+06   -57.468596E+06   344.828096E+06      -5.15025759       40.0476112
             2899   114.948056E+06   -57.468192E+06   -57.465304E+06   344.829824E+06      -63.2719498      -545.585510
             2900   114.914784E+06      -57.493E+06   -57.496572E+06   344.830976E+06   8.08585010E+03       69.1812439
             2901   114.950176E+06   -57.465396E+06   -57.463164E+06   344.827488E+06      -843.024048       577.895813
             2902   114.905152E+06   -57.498044E+06   -57.499764E+06   344.829248E+06  -1.46823035E+03      -181.973648
             2903   114.955512E+06   -57.458328E+06    -57.45848E+06   344.827488E+06   1.87037976E+03       109.143227
             2904     115.0228E+06   -57.402436E+06   -57.402748E+06   344.818272E+06   7.87758789E+03   1.23192810E+03
             2905   114.857704E+06   -57.537416E+06    -57.54006E+06   344.831968E+06  -4.40688574E+03      -822.912964
             2906   114.937296E+06   -57.472888E+06    -57.47456E+06    344.82416E+06       806.353088   2.59346753E+03
             2907   114.943992E+06   -57.470572E+06   -57.470876E+06   344.827936E+06       91.5800552       438.736328
             2908   114.925664E+06   -57.477644E+06   -57.480844E+06   344.827168E+06  -4.88714258E+03      -430.839355
             2909   114.943528E+06   -57.470188E+06   -57.470868E+06   344.828704E+06       510.205383       267.286133
             2910   114.940712E+06     -57.4735E+06   -57.473208E+06   344.828192E+06       165.772842      -208.436340
             2911   114.942144E+06     -57.4714E+06    -57.47134E+06   344.828128E+06       184.769531       115.132957
             2912   114.943728E+06   -57.469904E+06   -57.470208E+06   344.827872E+06       84.5657501       197.103912
             2913   114.973024E+06   -57.451032E+06     -57.4478E+06   344.825184E+06  -1.25309900E+03       761.468506
             2914   114.943168E+06   -57.470996E+06    -57.47084E+06   344.827968E+06       23.0802250       122.183266
             2915   114.939416E+06    -57.47452E+06   -57.473884E+06   344.828512E+06       95.1909332       202.692291
             2916    114.93196E+06    -57.47994E+06   -57.479852E+06   344.827264E+06  -1.10491174E+03      -651.823914
             2917   114.942568E+06   -57.471732E+06   -57.471652E+06   344.828064E+06      -7.52330542       44.4464645
             2918   114.943272E+06   -57.470884E+06   -57.470876E+06   344.827648E+06       46.1516113       9.88853073
             2919   114.942624E+06    -57.47154E+06   -57.471336E+06   344.828064E+06       45.0152779       94.1063461
             2920   114.938648E+06   -57.475652E+06   -57.475752E+06   344.827616E+06      -439.607849       329.161652
             2921   114.941464E+06   -57.472864E+06    -57.47258E+06    344.82832E+06       286.068207      -464.546844
             2922   114.944536E+06   -57.469308E+06   -57.469084E+06   344.827552E+06      -348.072144       39.6978645
             2923   114.937216E+06    -57.47502E+06   -57.474564E+06   344.827072E+06       390.605774      -18.0938225
             2924   114.942488E+06    -57.47178E+06    -57.47134E+06   344.828512E+06       25.9142227      -531.470520
             2925    114.94244E+06   -57.471344E+06   -57.471324E+06   344.827744E+06       296.583099      -16.1472263
             2926   114.943464E+06   -57.470732E+06   -57.470732E+06   344.827936E+06       331.351715      -181.895126
             2927   114.944424E+06   -57.468744E+06   -57.469308E+06   344.828096E+06      -197.813522      -366.072754
             2928   114.937392E+06    -57.47568E+06   -57.475392E+06   344.829248E+06      -213.714035      -246.722610
             2929   114.940248E+06   -57.468896E+06   -57.472804E+06   344.825312E+06      -133.805222   1.15182605E+03
             2930    114.93288E+06   -57.482164E+06   -57.481024E+06   344.830464E+06     -2.94425E+03  -1.16158020E+03
             2931    114.94288E+06    -57.47058E+06   -57.470768E+06   344.828032E+06       528.988098       131.506287
             2932   114.949288E+06    -57.46626E+06     -57.4662E+06   344.828128E+06      -439.239594      -68.2659760
             2933   114.928128E+06   -57.482424E+06   -57.483048E+06   344.829248E+06  -6.60302637E+03      -166.194855
             2934   114.939968E+06   -57.472776E+06   -57.472668E+06   344.827072E+06      -907.862244       11.7331820
             2935   114.956608E+06   -57.460136E+06   -57.460124E+06   344.827456E+06   1.67959607E+03       79.9211349
             2936   114.934928E+06   -57.474724E+06     -57.4797E+06   344.830336E+06       807.659241  -3.74626001E+03
             2937   114.956872E+06   -57.450604E+06   -57.457576E+06   344.830944E+06   4.18960937E+03       974.358398
             2938   114.942376E+06    -57.47166E+06   -57.471644E+06   344.828064E+06   1.01905157E+03       64.0499344
             2939   114.936168E+06   -57.480832E+06   -57.479808E+06   344.829344E+06       829.436951       11.6733704
             2940   114.941792E+06   -57.472744E+06    -57.47276E+06    344.82896E+06       351.901520       39.8872566
             2941   114.947384E+06   -57.464364E+06   -57.464608E+06   344.828352E+06  -2.90315918E+03  -2.50080688E+03
             2942   114.938992E+06   -57.475548E+06   -57.473116E+06      344.832E+06  -1.14850916E+03       462.642670
             2943   114.947152E+06   -57.467576E+06    -57.46758E+06   344.827776E+06       549.670044       14.2176561
             2944   114.949552E+06   -57.465536E+06    -57.46542E+06    344.82736E+06       196.756165       1.91389322
             2945   114.944208E+06   -57.469964E+06   -57.469916E+06   344.827808E+06  -1.36675342E+03      -48.0621796
             2946      114.945E+06    -57.46996E+06   -57.469192E+06   344.827232E+06      -838.054321       255.695557
             2947   114.943904E+06   -57.470276E+06   -57.470252E+06    344.82784E+06       46.3004723       15.5734816
             2948   114.943072E+06   -57.471364E+06   -57.471048E+06   344.828352E+06      -440.918518      -312.315704
             2949    114.94104E+06   -57.473424E+06    -57.47098E+06    344.82976E+06       565.799683       326.991119
             2950   114.941152E+06    -57.47282E+06    -57.47302E+06   344.828736E+06       55.8077469      -50.4098167
             2951   114.934184E+06   -57.476476E+06   -57.475464E+06    344.83056E+06   1.52754724E+03       38.5118294
             2952   114.943128E+06    -57.47054E+06   -57.470928E+06   344.828128E+06      -25.1467419       77.8957748
             2953    114.94224E+06     -57.4718E+06   -57.472216E+06   344.828736E+06      -106.666405       295.946411
             2954   114.942168E+06   -57.469112E+06   -57.469252E+06   344.825024E+06  -1.10685852E+03       46.7118034
             2955   114.954392E+06   -57.461516E+06     -57.4617E+06   344.827072E+06       200.880981      -98.3842697
             2956   114.939456E+06     -57.4778E+06   -57.479136E+06    344.82992E+06      -749.509094   1.44898401E+03
             2957   114.940112E+06   -57.474632E+06     -57.4741E+06   344.828864E+06       138.192505      -233.429047
             2958   114.940224E+06    -57.47384E+06   -57.469684E+06   344.830272E+06  -1.23027100E+03  -1.93984583E+03
             2959     114.9426E+06   -57.471296E+06   -57.471456E+06   344.828224E+06      -46.1061516       8.56197548
             2960   114.941776E+06    -57.47222E+06   -57.471896E+06   344.827872E+06       129.408173      -67.8930893
             2961   114.998712E+06   -57.428336E+06   -57.426788E+06   344.824576E+06   3.85449170E+03      -801.242432
             2962   114.943032E+06   -57.470852E+06   -57.470404E+06   344.827744E+06       96.6716766       168.533081
             2963   114.946856E+06    -57.46734E+06   -57.467324E+06   344.827168E+06      -2.10749555      -58.6556854
             2964   114.943808E+06    -57.47106E+06   -57.470812E+06   344.828128E+06       16.8066216      -83.2121887
             2965   114.943296E+06   -57.470872E+06   -57.470836E+06   344.828256E+06       5.88234663       70.3572311
             2966   114.979264E+06   -57.438848E+06   -57.439128E+06   344.823424E+06  -1.23365222E+03       861.897461
             2967   114.942904E+06   -57.471204E+06   -57.471408E+06   344.828128E+06       2.18734455       123.360367
             2968    114.94388E+06    -57.47272E+06   -57.471984E+06    344.82848E+06      -908.024963      -190.991898
             2969   114.943224E+06    -57.47194E+06   -57.470872E+06    344.82752E+06      -322.958679       506.975830
             2970   114.947768E+06   -57.465544E+06   -57.465472E+06    344.82752E+06       148.362442      -235.884796
             2971   114.943656E+06   -57.469872E+06    -57.46996E+06   344.828096E+06       366.535583      -529.423218
             2972   114.944192E+06    -57.47048E+06   -57.468992E+06   344.827584E+06      -218.663666      -39.0935364
             2973    114.94236E+06   -57.471652E+06    -57.47132E+06      344.828E+06      -203.261902       54.6980820
             2974   114.943312E+06    -57.47052E+06   -57.471492E+06   344.828896E+06      -284.763580      -452.761719
             2975   114.943048E+06   -57.469988E+06   -57.470732E+06   344.827936E+06      -258.950592       96.3180466
             2976   114.955272E+06   -57.460012E+06    -57.45962E+06    344.82352E+06  -3.32706494E+03       979.104919
             2977   114.943696E+06    -57.47104E+06   -57.470596E+06   344.827648E+06       41.3678474       219.568100
             2978   114.942032E+06   -57.470908E+06   -57.471372E+06      344.828E+06      -390.020172      -539.458069
             2979   115.027008E+06    -57.39896E+06   -57.401524E+06   344.814912E+06   3.17209668E+03  -1.12937073E+03
             2980   114.896864E+06   -57.510108E+06   -57.509328E+06    344.82848E+06   8.16214990E+03       960.587769
             2981   114.942344E+06     -57.4712E+06    -57.47178E+06   344.828672E+06      -178.391281      -435.422241
             2982   114.877248E+06     -57.5257E+06   -57.527424E+06   344.834272E+06   6.77228906E+03      -305.596771
             2983    114.94812E+06   -57.467444E+06   -57.467412E+06   344.828384E+06       836.539429       15.6977701
             2984   114.964424E+06   -57.456484E+06    -57.45414E+06   344.825536E+06      -492.562653      -288.874847
             2985    114.97204E+06   -57.452732E+06   -57.450932E+06   344.824736E+06  -3.03820068E+03  -2.07646460E+03
             2986    114.89928E+06   -57.516324E+06    -57.51402E+06   344.835296E+06  -2.83072925E+03      -382.631104
             2987     114.9292E+06   -57.476524E+06   -57.477116E+06   344.822784E+06   1.42861035E+03       123.616783
             2988   114.939992E+06   -57.474024E+06    -57.47382E+06   344.828992E+06       216.863785      -130.702438
             2989   114.962144E+06    -57.46322E+06   -57.461752E+06   344.833504E+06   4.33348193E+03       53.4886360
             2990   114.959808E+06    -57.45166E+06   -57.453716E+06   344.822624E+06   1.34455579E+03      -30.5773716
             2991   114.948752E+06    -57.46532E+06   -57.464504E+06   344.827648E+06  -1.40034949E+03      -625.498718
             2992   114.944824E+06    -57.46958E+06   -57.469044E+06   344.829152E+06   1.08780139E+03       709.436646
             2993   114.934736E+06   -57.479216E+06   -57.479332E+06   344.829216E+06      -838.394836       199.287552
             2994    114.94376E+06   -57.470392E+06    -57.47044E+06   344.827968E+06      -121.875740      -3.64917946
             2995   114.932792E+06   -57.486196E+06    -57.48428E+06      344.824E+06  -1.33092822E+03  -3.21893848E+03
             2996   114.943432E+06   -57.470612E+06   -57.470604E+06      344.828E+06      -42.9772301       60.4808426
             2997   114.938856E+06   -57.477696E+06   -57.477264E+06   344.829536E+06       621.917419      -195.236984
             2998   114.945592E+06    -57.46798E+06   -57.467936E+06   344.827968E+06       41.2808380       85.9932022
             2999      114.944E+06    -57.46996E+06   -57.470132E+06   344.827488E+06      -9.56430149      -135.218109
             3000    114.93396E+06   -57.479188E+06   -57.479348E+06   344.830592E+06   2.35354443E+03      -410.528351
             3001   114.942104E+06    -57.47234E+06   -57.471744E+06   344.828544E+06       141.054871       220.367676
             3002   114.940304E+06   -57.473364E+06   -57.473248E+06   344.828576E+06      -391.700073      -123.950592
             3003   114.944376E+06    -57.46892E+06   -57.469524E+06   344.827712E+06      -260.554932       9.94744110
             3004   114.948016E+06    -57.46716E+06    -57.46732E+06    344.82784E+06      -150.641876      -150.052490
             3005   115.028216E+06   -57.397204E+06   -57.399132E+06   344.824352E+06   2.71363013E+03      -508.398651
             3006   114.981168E+06   -57.444432E+06   -57.443616E+06   344.829632E+06       795.773499      -328.789398
             3007   114.942664E+06   -57.472748E+06   -57.472276E+06    344.82976E+06       315.198364   2.92355835E+03
             3008   114.945408E+06   -57.469968E+06   -57.469136E+06   344.828224E+06      -126.844566       515.615540
             3009     114.9444E+06   -57.469764E+06    -57.46986E+06   344.827872E+06       309.415192      -180.229568
             3010    114.94428E+06    -57.47018E+06   -57.470416E+06    344.82816E+06      -9.88954449      -8.82939720
             3011   114.943976E+06   -57.468504E+06    -57.47034E+06   344.829024E+06      -136.549240       122.962158
             3012   114.942584E+06    -57.47144E+06   -57.471464E+06   344.828288E+06      -95.2397079       73.7780685
             3013   114.943096E+06   -57.471664E+06   -57.471508E+06   344.828096E+06      -139.259171       76.9579391
             3014   114.942376E+06    -57.47194E+06   -57.471304E+06    344.82816E+06      -85.0989609      -255.383286
             3015   114.921584E+06   -57.483768E+06    -57.48292E+06   344.821728E+06   4.54937061E+03   3.45228809E+03
             3016     114.9428E+06   -57.471208E+06   -57.471432E+06   344.828064E+06      -99.7662888       3.34622979
             3017   114.899248E+06   -57.505332E+06     -57.5024E+06   344.835424E+06  -4.11331641E+03  -1.14878259E+03
             3018   114.945632E+06   -57.465784E+06   -57.467364E+06   344.829856E+06       565.200623   2.05156909E+03
             3019   114.943584E+06   -57.470568E+06   -57.470248E+06    344.82784E+06       45.5438805      -46.2521362
             3020   114.902032E+06   -57.504676E+06    -57.49934E+06   344.832672E+06  -4.36531494E+03       970.994507
             3021   114.926064E+06   -57.489192E+06   -57.487436E+06   344.829056E+06      -311.321106      -525.264160
             3022   114.941072E+06    -57.47268E+06     -57.4725E+06   344.828064E+06      -339.079895       43.7918358
             3023    114.94088E+06   -57.470304E+06   -57.471648E+06   344.827168E+06      -853.681030      -33.8242226
             3024   114.944816E+06   -57.467916E+06   -57.469792E+06   344.830432E+06  -5.66929150E+03      -552.699097
             3025   114.953976E+06   -57.466096E+06   -57.465776E+06   344.830592E+06   7.01179639E+03       538.078918
             3026   114.943264E+06   -57.471064E+06   -57.471052E+06   344.827776E+06       125.511505       117.792580
             3027    114.94204E+06   -57.470464E+06   -57.470888E+06   344.827488E+06       253.907104      -105.405327
             3028    114.94248E+06   -57.471616E+06   -57.471608E+06   344.828128E+06       36.2677536      -41.2522316
             3029   114.941528E+06   -57.472232E+06   -57.472312E+06    344.82768E+06      -395.472717      -284.739044
             3030    114.94332E+06   -57.470964E+06    -57.47094E+06   344.827648E+06       603.975037       41.6409836
             3031   114.941288E+06   -57.472388E+06   -57.472624E+06   344.827744E+06       112.744987      -127.361183
             3032   114.944488E+06   -57.470304E+06     -57.4704E+06   344.828448E+06       279.964844      -37.6278381
             3033   114.963216E+06    -57.45624E+06   -57.456428E+06   344.828896E+06   2.56305225E+03       291.361298
             3034   114.942632E+06   -57.470696E+06    -57.47104E+06   344.827776E+06      -414.013611       30.2352142
             3035    114.94216E+06   -57.471024E+06   -57.471412E+06   344.828096E+06       115.915085      -63.0518951
             3036    114.94564E+06   -57.469104E+06   -57.469012E+06   344.827712E+06      -198.467636       86.3805466
             3037      114.944E+06   -57.469924E+06     -57.4693E+06   344.827968E+06      -457.448151       166.804855
             3038   114.939464E+06   -57.471212E+06    -57.47072E+06    344.82912E+06       268.074402       139.283173
             3039     114.9236E+06   -57.485208E+06   -57.486096E+06   344.829056E+06       186.712006       53.2386703
             3040   114.943008E+06    -57.47064E+06   -57.470872E+06   344.827584E+06       588.114563       33.4560204
             3041   115.009832E+06   -57.417424E+06   -57.416824E+06    344.82352E+06  -2.21523218E+03   1.09482178E+03
             3042   114.947144E+06   -57.463444E+06   -57.464696E+06    344.82608E+06       305.144653       13.6366606
             3043   114.945448E+06   -57.469132E+06   -57.469116E+06   344.827872E+06       663.015747       75.3220215
             3044   114.937336E+06    -57.47642E+06   -57.475896E+06   344.829216E+06       220.353455      -389.649384
             3045   114.941848E+06     -57.4715E+06   -57.471952E+06   344.828224E+06       281.200165       314.410675
             3046   114.945696E+06     -57.4687E+06   -57.468932E+06   344.827744E+06       64.5471039       19.6197300
             3047   114.942152E+06   -57.471096E+06    -57.47166E+06     344.8288E+06      -3.02040482       366.142639
             3048   114.937776E+06   -57.475648E+06     -57.4759E+06   344.828256E+06      -544.700195      -76.9787979
             3049   114.939384E+06   -57.470288E+06   -57.472032E+06   344.829344E+06       174.496948      -466.529968
             3050   114.949328E+06   -57.464388E+06   -57.467316E+06   344.827936E+06       283.279358      -945.768372
             3051    114.94636E+06   -57.467232E+06   -57.467684E+06    344.82816E+06       499.296326       576.476563
             3052   114.947592E+06   -57.466744E+06    -57.46658E+06   344.827552E+06       162.582520       136.139374
             3053   114.943448E+06   -57.470116E+06   -57.470812E+06   344.828032E+06      -7.84651995      -24.6122322
             3054   114.942024E+06   -57.471712E+06    -57.47174E+06   344.828032E+06       281.077606      -36.8769875
             3055   114.943944E+06   -57.470636E+06   -57.470644E+06      344.828E+06       159.431854       128.591232
             3056   114.942296E+06   -57.471504E+06   -57.471412E+06   344.828096E+06       144.833878      -87.1260681
             3057   114.940096E+06   -57.472976E+06   -57.472752E+06   344.827808E+06      -115.423843      -77.3099213
             3058   114.943072E+06   -57.470556E+06   -57.470756E+06   344.828256E+06      -361.066376      -212.461578
             3059   114.941272E+06    -57.47286E+06   -57.472484E+06   344.827808E+06       303.843628       54.2281303
             3060    114.94328E+06    -57.47028E+06   -57.470428E+06   344.828128E+06      -35.5783119       69.9075470
             3061    114.94364E+06   -57.470844E+06   -57.470716E+06   344.827936E+06       222.242874       129.826691
             3062   114.941392E+06    -57.47238E+06    -57.47236E+06   344.828192E+06      -507.038879       69.6239548
             3063   114.951384E+06   -57.463796E+06   -57.463924E+06   344.827136E+06       438.804230       6.15312719
             3064   114.941168E+06   -57.472948E+06   -57.472456E+06   344.827648E+06       80.0597839      -45.2840385
             3065   114.929312E+06   -57.483232E+06   -57.485188E+06   344.828864E+06      -297.364105       581.909668
             3066   114.941008E+06   -57.472416E+06   -57.472036E+06   344.827712E+06       243.389786       312.951660
             3067   114.920144E+06    -57.48136E+06     -57.4844E+06    344.82624E+06  -5.59026904E+03      -387.804260
             3068   114.942104E+06     -57.4721E+06   -57.471836E+06   344.827872E+06       16.2154884      -30.2551327
             3069   114.945032E+06   -57.468804E+06    -57.46904E+06   344.827552E+06       52.6046906       289.327606
             3070   114.943448E+06    -57.47076E+06     -57.4705E+06   344.827456E+06       54.5728073       44.7590752
             3071   114.942632E+06    -57.47094E+06     -57.4714E+06      344.828E+06       100.365738      -123.499290
             3072    114.87828E+06   -57.523104E+06   -57.521528E+06   344.830848E+06  -8.90747461E+03       753.857178
             3073   114.943176E+06    -57.47116E+06   -57.470804E+06    344.82784E+06      -4.87859297       132.269180
             3074   114.942392E+06    -57.47148E+06    -57.47138E+06   344.827488E+06      -78.9445496       26.7723274
             3075   114.901392E+06   -57.506688E+06   -57.505032E+06   344.827808E+06   6.85491553E+03       220.030243
             3076   114.947488E+06   -57.469412E+06    -57.47088E+06   344.832768E+06      -317.728058      -96.4636307
             3077   114.926136E+06   -57.476528E+06   -57.479652E+06   344.826208E+06  -4.97797949E+03      -340.970734
             3078     114.9542E+06   -57.461656E+06   -57.462636E+06   344.827456E+06      -527.462158       215.893127
             3079   114.954752E+06   -57.465084E+06   -57.464756E+06   344.830496E+06  -3.51805322E+03      -288.764160
             3080   114.945096E+06   -57.469576E+06   -57.469616E+06   344.827776E+06       256.360657       136.342346
             3081   114.934416E+06    -57.47658E+06    -57.47712E+06   344.828864E+06   2.47396240E+03      -259.156311
             3082   114.946152E+06   -57.468512E+06   -57.467364E+06   344.827648E+06       951.564026      -359.890778
             3083   114.907688E+06   -57.505348E+06    -57.50372E+06   344.832448E+06   2.22996851E+03       51.0838814
             3084   114.935768E+06   -57.479872E+06   -57.479136E+06     344.8288E+06       851.095032  -1.56926050E+03
             3085   114.914776E+06   -57.491636E+06   -57.484876E+06   344.823296E+06       731.798584      -917.674072
             3086    114.95184E+06   -57.463452E+06   -57.463116E+06   344.828064E+06   1.73233459E+03  -1.16091589E+03
             3087   114.940168E+06   -57.471208E+06   -57.470712E+06   344.826976E+06       668.812073       785.506897
             3088   114.948096E+06     -57.4664E+06   -57.467536E+06   344.828416E+06       675.719299       221.601959
             3089   114.943984E+06   -57.470052E+06   -57.469852E+06   344.827776E+06       48.1887932      -20.3225098
             3090    114.93668E+06   -57.476908E+06   -57.475524E+06    344.82832E+06       765.404724   1.02951880E+03
             3091   114.894568E+06   -57.512496E+06   -57.512436E+06   344.830976E+06  -9.99621777E+03      -521.205811
             3092   114.956128E+06   -57.460984E+06   -57.459784E+06    344.82448E+06       897.686890      -800.756531
             3093   114.942624E+06   -57.471076E+06    -57.47112E+06   344.827776E+06       231.303436      -70.5455246
             3094    114.94216E+06   -57.469476E+06    -57.47126E+06   344.830048E+06  -2.21987817E+03      -680.094971
             3095    114.94152E+06   -57.470072E+06   -57.470708E+06   344.825696E+06  -2.07963672E+03       273.378998
             3096   114.959616E+06    -57.46056E+06   -57.457808E+06   344.824992E+06  -2.61227954E+03       16.4511013
             3097   114.944232E+06   -57.469936E+06    -57.46958E+06   344.827424E+06      -20.6117554      -134.919327
             3098   114.929152E+06    -57.48486E+06   -57.485552E+06    344.83328E+06      -582.660522  -1.28411511E+03
             3099    114.83692E+06   -57.557276E+06   -57.559108E+06   344.836128E+06  -1.62433484E+03      -703.364136
             3100   114.934488E+06   -57.479912E+06   -57.477176E+06   344.827776E+06   1.72878796E+03      -691.094299
             3101   114.945912E+06    -57.46854E+06   -57.468168E+06   344.827328E+06      -209.829330      -123.044777
             3102   114.937256E+06    -57.47552E+06   -57.475384E+06   344.828096E+06      -69.3413315       124.395554
             3103   114.946584E+06   -57.466888E+06   -57.467736E+06   344.827744E+06      -238.190216       266.751129
             3104   114.944952E+06   -57.470216E+06   -57.469944E+06   344.827456E+06       212.620209       274.562866
             3105    114.94292E+06   -57.471232E+06   -57.471084E+06   344.827456E+06      -19.3510342      -64.7213669
             3106   114.939848E+06   -57.475436E+06     -57.4749E+06   344.828192E+06       303.032196      -524.617859
             3107   114.947808E+06   -57.467248E+06   -57.467516E+06   344.827648E+06      -193.242905      -75.7439270
             3108   114.943376E+06   -57.471036E+06   -57.471244E+06   344.828192E+06      -86.5008469      -69.1981888
             3109    114.94648E+06    -57.46884E+06   -57.468544E+06   344.827904E+06      -6.47849512      -219.939911
             3110   114.944864E+06   -57.469836E+06    -57.46978E+06   344.828064E+06       154.313721      -73.1943741
             3111   114.940528E+06   -57.472608E+06   -57.472964E+06   344.827936E+06       152.224838       147.907639
             3112   114.942712E+06   -57.473892E+06   -57.473224E+06   344.825312E+06      -618.299316      -72.1717224
             3113    114.94512E+06   -57.469124E+06   -57.469236E+06    344.82768E+06      -164.792267       144.301514
             3114   114.962592E+06   -57.455964E+06   -57.455408E+06    344.82656E+06   6.38959912E+03      -357.092773
             3115     114.9462E+06   -57.470708E+06   -57.472716E+06   344.828992E+06      -835.007202       962.548462
             3116   114.958176E+06   -57.459904E+06   -57.459884E+06   344.829088E+06  -3.30124927E+03       83.0880356
             3117    114.94232E+06   -57.471656E+06   -57.470908E+06   344.828224E+06      -479.344391       165.995972
             3118   114.938696E+06     -57.4708E+06    -57.47298E+06    344.82896E+06  -3.58236182E+03       718.965332
             3119   114.946208E+06   -57.468676E+06   -57.469088E+06   344.828096E+06      -864.241638       35.4319725
             3120   114.938936E+06   -57.475904E+06   -57.473908E+06    344.82784E+06      -230.497360       138.094254
             3121   114.944144E+06   -57.470132E+06   -57.469264E+06   344.828032E+06       154.034363       228.445038
             3122   114.944208E+06    -57.46968E+06   -57.469636E+06   344.827808E+06       76.9685287      -46.7243729
             3123   114.942448E+06   -57.471564E+06   -57.471724E+06   344.828448E+06       134.322342      -348.862793
             3124   114.915768E+06   -57.487572E+06   -57.489792E+06   344.827616E+06  -1.47341516E+03       706.352844
             3125   114.940328E+06    -57.47344E+06    -57.47336E+06   344.828352E+06       170.095627       47.4228210
             3126   114.936992E+06   -57.477344E+06   -57.475324E+06   344.827168E+06      -232.556366       5.75261450
             3127   115.019408E+06   -57.406508E+06   -57.404812E+06   344.819072E+06   8.14092041E+03       200.525864
             3128   114.945312E+06   -57.468632E+06     -57.4687E+06   344.827392E+06       117.435051      -47.8561134
             3129   114.915944E+06   -57.487528E+06   -57.489696E+06   344.827552E+06  -1.94546118E+03       478.945099
             3130   114.933312E+06    -57.48154E+06   -57.480664E+06   344.830944E+06      -946.378174       654.740112
             3131   114.948392E+06   -57.465592E+06    -57.46708E+06   344.827776E+06       125.294472       283.000092
             3132   114.943488E+06     -57.4714E+06   -57.470664E+06   344.828032E+06      -20.3796253      -200.161041
             3133   114.941192E+06   -57.474132E+06   -57.473444E+06   344.828096E+06       8.47808552       309.615326
             3134   114.943048E+06   -57.471392E+06      -57.471E+06   344.827104E+06      -378.530548       289.611938
             3135   114.942472E+06   -57.471532E+06   -57.470452E+06   344.827456E+06      -582.648926       164.180862
             3136   114.962912E+06   -57.454876E+06   -57.450904E+06   344.824608E+06  -1.09016418E+03       465.886841
             3137   114.968432E+06   -57.453552E+06   -57.450584E+06   344.824512E+06  -3.04495898E+03       80.1508179
             3138   114.943632E+06   -57.471212E+06    -57.47116E+06   344.827808E+06      -395.034424       552.258301
             3139   114.935048E+06   -57.475124E+06   -57.479084E+06   344.829504E+06      -577.101013      -404.760193
             3140   114.939848E+06   -57.474952E+06   -57.474468E+06   344.828608E+06      -1.03931403       603.302063
             3141   114.942504E+06   -57.470788E+06   -57.471068E+06    344.82816E+06       133.461777       148.701492
             3142   114.968208E+06   -57.448284E+06   -57.448836E+06   344.825568E+06   6.30413477E+03       302.084473
             3143   114.941416E+06   -57.473408E+06     -57.4728E+06   344.828576E+06      -294.465332       445.720245
             3144   114.913304E+06   -57.496816E+06    -57.49578E+06      344.828E+06      -253.637833       740.763000
             3145   114.934848E+06   -57.480172E+06   -57.482144E+06   344.829792E+06  -1.26628210E+03   1.02846265E+03
             3146    114.98648E+06    -57.43462E+06   -57.433812E+06   344.823008E+06       802.867188       631.498840
             3147   114.943808E+06    -57.46996E+06   -57.470212E+06   344.828032E+06      -98.6672668       107.149086
             3148   114.944968E+06   -57.476816E+06   -57.473404E+06   344.829024E+06   5.91033398E+03       576.877625
             3149   114.945264E+06   -57.469932E+06   -57.469072E+06   344.827584E+06       118.109856      -200.875412
             3150   114.989072E+06   -57.436128E+06   -57.434004E+06   344.824352E+06  -5.25792773E+03       900.924377
             3151   114.946648E+06   -57.469864E+06   -57.468404E+06    344.82816E+06      -784.212158      -167.006348
             3152    114.94232E+06    -57.47176E+06   -57.471624E+06   344.828128E+06       568.136841       114.047119
             3153   114.941784E+06   -57.472188E+06   -57.471724E+06   344.828704E+06       346.607574       126.472351
             3154   114.936632E+06   -57.477256E+06   -57.477016E+06   344.829664E+06   1.23507849E+03      -98.9746628
             3155   114.955016E+06   -57.464396E+06    -57.46132E+06   344.826528E+06      -123.690491  -1.13765845E+03
             3156   114.942384E+06   -57.472272E+06   -57.471856E+06   344.828672E+06      -755.527588   1.34240588E+03
             3157   114.943296E+06   -57.470716E+06   -57.470756E+06   344.828096E+06      -77.8856583      -106.148842
             3158   114.834064E+06   -57.559056E+06   -57.559076E+06    344.82736E+06   3.14377905E+03      -242.339462
             3159    114.97428E+06   -57.449568E+06   -57.449088E+06   344.830304E+06  -1.11942725E+03  -2.07834253E+03
             3160   114.942872E+06    -57.46914E+06   -57.471712E+06   344.829664E+06       82.5236130      -250.606216
             3161    114.93908E+06   -57.474364E+06   -57.474396E+06    344.82832E+06      -236.810593  -467.239112E-03
             3162   114.940152E+06   -57.473092E+06   -57.474312E+06   344.828352E+06      -76.0980988      -254.427002
             3163   114.912712E+06   -57.489432E+06   -57.489996E+06   344.826336E+06       312.487244   1.37745544E+03
             3164    114.95744E+06   -57.459688E+06   -57.460804E+06   344.829344E+06       761.372009       133.215546
             3165    114.96316E+06    -57.45626E+06   -57.457288E+06   344.828608E+06   1.38651233E+03       171.782867
             3166   114.890104E+06    -57.50918E+06     -57.5115E+06   344.829568E+06  -3.02542676E+03      -708.209106
             3167   114.940704E+06    -57.47356E+06   -57.473528E+06   344.828448E+06       357.503754       279.051941
             3168    114.94412E+06   -57.469776E+06   -57.469456E+06   344.827552E+06      -819.194702      -97.5254822
             3169   114.951216E+06    -57.46836E+06   -57.468604E+06   344.830688E+06  -1.72764172E+03       610.869629
             3170   114.941216E+06   -57.472468E+06   -57.473004E+06    344.82864E+06      -56.5881882      -286.742920
             3171   114.942752E+06   -57.469964E+06   -57.472484E+06   344.826976E+06  -2.23271973E+03      -838.224487
             3172   114.935024E+06   -57.485188E+06   -57.483544E+06   344.833056E+06      -414.575165       392.254089
             3173   114.942736E+06   -57.471452E+06   -57.471796E+06   344.828128E+06      -153.283539      -116.609314
             3174   114.943816E+06     -57.4707E+06   -57.470356E+06   344.827456E+06       598.370544       78.9755096
             3175   114.943488E+06     -57.4718E+06   -57.472968E+06    344.82992E+06      -244.695892   1.41136560E+03
             3176   114.940592E+06   -57.472636E+06   -57.474288E+06   344.826336E+06  -2.15813110E+03   2.03215076E+03
             3177   114.940968E+06     -57.4731E+06   -57.472528E+06   344.828992E+06       81.5007095       645.675415
             3178   114.957864E+06   -57.458488E+06   -57.458376E+06   344.826624E+06       316.325378       45.1827164
             3179   114.955032E+06   -57.462084E+06    -57.46118E+06    344.82656E+06   1.79734644E+03       262.391998
             3180   114.941024E+06   -57.473776E+06    -57.47376E+06   344.827776E+06      -961.003174      -862.783630
             3181   115.012296E+06   -57.413364E+06   -57.414384E+06   344.817792E+06  -3.98045483E+03       73.2791061
             3182   114.982944E+06   -57.439084E+06    -57.43812E+06   344.825248E+06      -801.024353       26.5613194
             3183    114.96508E+06    -57.44694E+06   -57.446164E+06   344.818176E+06      -32.7387581       355.813141
             3184   114.955352E+06   -57.461512E+06   -57.462116E+06   344.823168E+06  -2.34023145E+03       547.813843
             3185   114.944624E+06    -57.46968E+06   -57.469404E+06   344.828032E+06       240.795868      -3.24570847
             3186    114.93796E+06   -57.471936E+06   -57.474036E+06   344.828992E+06  -1.29625732E+03       653.174011
             3187   114.941416E+06   -57.472236E+06    -57.47232E+06   344.828544E+06      -185.566437       183.938446
             3188   114.945728E+06   -57.468608E+06    -57.46834E+06   344.828384E+06   1.44495081E+03       269.096558
             3189   114.937792E+06   -57.481284E+06   -57.479384E+06    344.83056E+06  -1.53255981E+03       367.592346
             3190   114.944544E+06   -57.470008E+06   -57.469932E+06      344.828E+06      -109.974167       112.529984
             3191   114.941312E+06    -57.47228E+06   -57.471868E+06   344.827808E+06       226.418091       69.1312256
             3192    115.00072E+06    -57.41884E+06   -57.418444E+06    344.81888E+06      -436.945923       169.585068
             3193   114.943504E+06   -57.470524E+06   -57.470592E+06   344.827968E+06      -170.251801       44.3092995
             3194    114.94184E+06   -57.472032E+06   -57.471924E+06   344.828192E+06       125.910934       8.39101887
             3195   114.942384E+06   -57.471124E+06   -57.471096E+06    344.82752E+06      -248.703094      -9.06435680
             3196   114.943472E+06   -57.470496E+06   -57.470244E+06   344.827712E+06       83.4322052       96.4343872
             3197   114.944464E+06   -57.469616E+06   -57.469488E+06    344.82752E+06      -183.671112       52.2369804
             3198   114.935272E+06     -57.4766E+06   -57.476616E+06   344.827776E+06  -2.12092432E+03  -1.16178699E+03
             3199   114.935208E+06   -57.475976E+06   -57.477164E+06    344.83104E+06      -65.7980957      -335.216736
             3200    114.94116E+06   -57.473176E+06    -57.47314E+06   344.828672E+06      -77.3205795      -135.405441
             3201   114.951512E+06   -57.463984E+06   -57.464028E+06    344.82736E+06      -147.266830       105.673561
             3202   114.910528E+06    -57.50036E+06   -57.500428E+06   344.834752E+06       286.552917      -759.187805
             3203   114.967192E+06   -57.451396E+06    -57.45138E+06   344.826496E+06   3.93047559E+03  -1.86200159E+03
             3204   114.947304E+06    -57.47576E+06   -57.472564E+06   344.830464E+06   2.91514893E+03       530.417664
             3205   114.944144E+06     -57.4689E+06   -57.469524E+06      344.828E+06       244.311035      -21.6488590
             3206   114.942992E+06   -57.471088E+06   -57.471132E+06   344.827968E+06      -39.0838013   865.790963E-03
             3207    114.94504E+06    -57.47024E+06   -57.469784E+06   344.829568E+06   1.45621814E+03       470.108276
             3208    114.94336E+06   -57.471076E+06   -57.470728E+06   344.828352E+06       2.49679589       100.809555
             3209   114.942224E+06   -57.471628E+06   -57.472556E+06   344.829216E+06  -1.06700183E+03      -104.295822
             3210   114.957536E+06   -57.460428E+06   -57.459048E+06   344.824992E+06   1.64807996E+03       780.848816
             3211   114.941896E+06   -57.471704E+06   -57.471732E+06   344.827744E+06      -34.3931770      -32.3961945
             3212   114.938744E+06     -57.4729E+06   -57.472816E+06   344.826464E+06   1.93896875E+03       676.072205
             3213   114.940936E+06    -57.47314E+06   -57.472756E+06   344.828512E+06       265.730530       9.68405342
             3214    114.94272E+06   -57.471272E+06   -57.470904E+06   344.827968E+06       4.92098331       90.7616653
             3215    114.94376E+06    -57.47004E+06    -57.47042E+06   344.827648E+06      -236.265472       8.73058796
             3216   114.945472E+06    -57.46914E+06   -57.469228E+06   344.827648E+06      -414.266418      -236.265396
             3217   114.942928E+06   -57.470908E+06   -57.471668E+06   344.827904E+06      -197.389420       8.54724121
             3218   114.930904E+06   -57.488412E+06   -57.487464E+06   344.834976E+06  -1.95626343E+03      -38.4721146
             3219     114.9438E+06   -57.470664E+06   -57.470508E+06   344.827776E+06       189.523636       115.349411
             3220      114.946E+06    -57.46892E+06   -57.468668E+06   344.827712E+06       113.638359      -65.2547989
             3221   114.942088E+06   -57.471944E+06   -57.472288E+06   344.827904E+06      -187.976379      -132.473679
             3222   114.942144E+06   -57.471664E+06   -57.471908E+06   344.827872E+06      -56.9718208      -239.113800
             3223   114.942784E+06   -57.471144E+06   -57.471444E+06    344.82832E+06       78.9448776       20.1143093
             3224   114.988656E+06     -57.4385E+06    -57.43612E+06   344.823264E+06   2.16938110E+03   2.03413599E+03
             3225   114.939192E+06   -57.473756E+06   -57.473896E+06   344.827904E+06       300.077576       241.810242
             3226   114.939256E+06   -57.473548E+06   -57.473424E+06    344.82864E+06      -79.4690170       126.345123
             3227   114.942608E+06   -57.471476E+06   -57.471696E+06   344.828064E+06       8.37502098      -150.308151
             3228   114.943808E+06   -57.471076E+06    -57.47128E+06    344.82784E+06       272.158325       228.783585
             3229   114.943096E+06    -57.47088E+06    -57.46898E+06   344.820288E+06       419.211304   2.02489551E+03
             3230   114.941232E+06   -57.472784E+06    -57.47282E+06   344.828032E+06      -755.101807       281.215942
             3231   114.941672E+06   -57.472416E+06    -57.47292E+06   344.828704E+06       131.823013       372.366333
             3232   114.917128E+06   -57.496408E+06    -57.49658E+06   344.833536E+06   3.32784790E+03       299.709961
             3233   114.944072E+06   -57.470576E+06   -57.470184E+06   344.827616E+06      -227.833664      -40.8136635
             3234   114.941072E+06   -57.472616E+06   -57.472656E+06   344.828352E+06      -123.344208      -155.729492
             3235   114.942448E+06     -57.4712E+06   -57.471236E+06   344.827648E+06      -368.222137      -29.2069340
             3236    114.94236E+06   -57.471452E+06   -57.471396E+06   344.827968E+06       103.058167      -189.301178
             3237   114.950712E+06   -57.465548E+06   -57.464368E+06   344.826528E+06  -3.72107788E+03       488.128448
             3238   114.945568E+06   -57.468812E+06   -57.468928E+06   344.827872E+06      -66.8820190      -4.74115133
             3239   114.921832E+06    -57.48852E+06   -57.487744E+06   344.826848E+06  -6.23698193E+03       414.950043
             3240   114.943416E+06     -57.4702E+06   -57.470384E+06   344.827456E+06       110.893982      -3.71329212
             3241   114.942616E+06   -57.471264E+06   -57.470992E+06   344.828096E+06       187.113022      -41.6594200
             3242   114.967264E+06   -57.455008E+06   -57.454928E+06   344.830592E+06  -2.25280762E+03      -508.512024
             3243    114.94268E+06   -57.471712E+06   -57.471648E+06      344.828E+06       286.626312       229.067612
             3244   114.939632E+06   -57.473372E+06   -57.473428E+06   344.827904E+06      -135.278000       24.7292500
             3245   114.960272E+06   -57.450508E+06   -57.453972E+06   344.827776E+06   4.78154785E+03       900.527649
             3246   114.941032E+06   -57.472112E+06   -57.472716E+06   344.828768E+06      -307.634064       195.337082
             3247   114.910008E+06   -57.497244E+06   -57.497764E+06   344.829344E+06   7.82339404E+03       305.236847
             3248     114.9206E+06   -57.488272E+06   -57.488728E+06    344.82864E+06   3.02871533E+03       327.266998
             3249     114.9394E+06    -57.47634E+06   -57.474456E+06   344.833632E+06  -1.19856042E+03  -2.02984509E+03
             3250   114.942912E+06   -57.471008E+06   -57.470956E+06   344.828096E+06      -96.7260742      -47.4681740
             3251   114.944064E+06   -57.469952E+06   -57.469812E+06    344.82752E+06      -11.8274326       124.898300
             3252    114.87696E+06   -57.519312E+06   -57.522764E+06   344.832416E+06  -6.95132373E+03   1.17525171E+03
             3253   114.941304E+06   -57.472104E+06    -57.47206E+06    344.82816E+06       484.923279      -57.9199753
             3254    114.94224E+06   -57.471232E+06   -57.472012E+06   344.827328E+06       370.279510       757.515198
             3255   114.940008E+06   -57.471728E+06   -57.471764E+06   344.828128E+06  -2.19023242E+03      -683.367798
             3256   114.944176E+06   -57.469824E+06   -57.469752E+06   344.827936E+06      -150.223267      -76.3069153
             3257   114.978888E+06   -57.447564E+06   -57.445904E+06   344.827776E+06      -741.359985  -1.12145129E+03
             3258    114.94624E+06   -57.475164E+06     -57.4751E+06   344.829664E+06   1.15634595E+03      -326.694336
             3259   114.939528E+06   -57.474644E+06     -57.4746E+06    344.82816E+06       680.877502   1.10952856E+03
             3260    114.94272E+06   -57.470452E+06   -57.471224E+06    344.82784E+06       49.0705681      -324.080505
             3261   114.945104E+06   -57.468848E+06    -57.46924E+06      344.828E+06      -308.551727      -13.0287485
             3262   114.942904E+06   -57.471368E+06   -57.471268E+06   344.827968E+06  -365.085602E-03       166.044418
             3263   114.943352E+06   -57.470796E+06   -57.470684E+06   344.828096E+06       56.8030052      -1.94512284
             3264   114.947568E+06   -57.467368E+06   -57.466632E+06   344.827776E+06      -801.875305      -58.2656746
             3265   114.945112E+06   -57.468116E+06   -57.469492E+06   344.828992E+06      -5.46817017      -155.486145
             3266   114.941352E+06   -57.472504E+06   -57.471784E+06   344.828224E+06      -771.730713      -4.11451101
             3267   114.960944E+06   -57.455484E+06   -57.455388E+06   344.827488E+06       151.886795      -352.224213
             3268   114.943496E+06    -57.47074E+06   -57.470604E+06   344.828384E+06       603.038940      -92.6729431
             3269   114.942176E+06   -57.471868E+06    -57.47178E+06   344.828064E+06       3.40098047       217.736206
             3270   114.839696E+06    -57.55918E+06    -57.56036E+06   344.840832E+06   2.60903833E+03      -977.481201
             3271    114.94364E+06   -57.469104E+06    -57.46764E+06   344.827744E+06   1.36369275E+03       331.135529
             3272    114.94728E+06   -57.465404E+06   -57.467116E+06   344.828736E+06       819.040588   1.25733337E+03
             3273    114.94224E+06   -57.471244E+06    -57.47124E+06   344.828032E+06       52.0218353       31.4884148
             3274   114.949296E+06   -57.469252E+06   -57.468764E+06   344.826848E+06       754.580444   1.31715369E+03
             3275   114.946512E+06   -57.468192E+06    -57.46816E+06   344.827904E+06      -21.0973511      -6.57879066
             3276   114.939488E+06   -57.473944E+06   -57.473748E+06   344.828096E+06       195.828537      -358.215393
             3277   114.924512E+06   -57.486856E+06   -57.486824E+06   344.829504E+06       291.550507      -8.99669361
             3278    114.94284E+06    -57.47362E+06   -57.472536E+06   344.827936E+06   1.94496924E+03  -3.22978955E+03
             3279      114.961E+06    -57.45338E+06   -57.448348E+06   344.827776E+06   1.59363611E+03       764.462585
             3280   114.956888E+06   -57.458028E+06   -57.455864E+06   344.829632E+06      -957.383240      -471.392395
             3281   114.945584E+06   -57.468532E+06     -57.4685E+06   344.827456E+06       33.6394577      -8.92009068
             3282   114.887552E+06   -57.529568E+06    -57.52866E+06   344.838176E+06  -13.8417832E+03       838.059570
             3283   114.944704E+06   -57.470028E+06   -57.469188E+06   344.827712E+06       721.018433  -1.15197729E+03
             3284   114.941888E+06   -57.472356E+06   -57.471756E+06   344.827968E+06       248.564728       68.1189117
             3285   114.969944E+06   -57.457588E+06    -57.45438E+06   344.831456E+06       265.250183      -516.981812
             3286   114.957816E+06   -57.461808E+06   -57.462632E+06   344.833568E+06   11.0860801E+03      -282.289063
             3287    115.06896E+06   -57.357844E+06   -57.357904E+06   344.807968E+06   2.64610400E+03      -229.459351
             3288   114.943048E+06   -57.470452E+06   -57.470108E+06   344.827584E+06      -413.803772      -43.2703590
             3289   114.943984E+06   -57.470732E+06   -57.470636E+06   344.827584E+06       984.871826      -100.566475
             3290   114.954504E+06   -57.470572E+06   -57.468784E+06   344.832192E+06   2.78821411E+03       634.720886
             3291    114.92556E+06   -57.485896E+06   -57.487252E+06   344.824928E+06      -385.008820   1.57705786E+03
             3292   114.942536E+06   -57.471564E+06   -57.471632E+06   344.828064E+06       43.3193512       167.336914
             3293    114.93908E+06   -57.473888E+06   -57.473844E+06   344.827616E+06       74.4000931      -1.20029497
             3294    114.94112E+06    -57.47294E+06   -57.472712E+06      344.828E+06       236.078430       98.9789658
             3295   114.945464E+06   -57.468828E+06   -57.469268E+06   344.828768E+06       255.645706       324.603973
             3296   114.947712E+06   -57.466944E+06   -57.467452E+06   344.828192E+06       678.849487       164.599243
             3297   114.941912E+06   -57.471532E+06   -57.471952E+06   344.828288E+06      -125.962349       9.72956085
             3298   114.942208E+06   -57.472088E+06   -57.471772E+06    344.82768E+06       260.163727      -51.9866562
             3299   114.943968E+06   -57.465856E+06    -57.46652E+06    344.82848E+06       135.634506      -848.100769
             3300   114.951104E+06   -57.464972E+06   -57.464984E+06   344.828096E+06       568.536987       174.105927
             3301   114.941984E+06    -57.47156E+06   -57.471472E+06   344.827712E+06   394.309282E-03      -28.5970421
             3302   114.939416E+06    -57.47382E+06   -57.475496E+06   344.829568E+06      -157.578568       684.078003
             3303   114.944328E+06   -57.470296E+06   -57.470416E+06    344.82864E+06       99.7210083      -67.1594315
             3304   114.943072E+06    -57.47102E+06   -57.471232E+06   344.827936E+06      -473.131165      -187.830231
             3305   114.945088E+06   -57.469196E+06   -57.469364E+06   344.827904E+06       287.198151       140.037170
             3306   114.941568E+06   -57.471892E+06   -57.471796E+06   344.827744E+06       28.3425045      -30.1694756
             3307    114.94104E+06   -57.472988E+06   -57.473124E+06   344.828512E+06       562.076355      -112.000298
             3308    114.94244E+06    -57.47126E+06   -57.471196E+06   344.827712E+06       75.0037537      -122.712845
             3309   114.942336E+06   -57.471788E+06    -57.47158E+06   344.828096E+06      -149.109390      -35.5569038
             3310   114.943072E+06   -57.471204E+06   -57.470996E+06   344.828064E+06      -36.1226387      -21.7124195
             3311    114.94364E+06   -57.470708E+06   -57.470732E+06   344.828288E+06      -76.3022003      -70.2781219
             3312    114.94308E+06   -57.470684E+06   -57.470552E+06   344.827712E+06       131.752258  -478.603482E-03
             3313   114.942632E+06   -57.471284E+06   -57.471176E+06   344.828512E+06      -153.535767      -223.816956
             3314   114.944808E+06    -57.46926E+06    -57.46922E+06   344.827872E+06       382.774994       13.9815807
             3315   114.941728E+06   -57.472256E+06   -57.471884E+06   344.828256E+06       336.060364       26.5987453
             3316   114.942152E+06   -57.471084E+06   -57.470996E+06   344.827456E+06      -147.455429      -80.7339249
             3317   114.943904E+06   -57.469716E+06    -57.47006E+06   344.827904E+06      -41.3069305       28.3298244
             3318   114.938152E+06   -57.474348E+06   -57.473304E+06   344.828224E+06       557.958862      -642.666992
             3319   114.942424E+06    -57.47202E+06   -57.471548E+06   344.828256E+06       297.881378      -16.9803391
             3320   114.940312E+06   -57.472672E+06   -57.472516E+06   344.827776E+06      -624.293945      -142.538589
             3321    114.91424E+06    -57.49352E+06   -57.492116E+06   344.827648E+06  -2.09089868E+03  -1.24231787E+03
             3322   114.942344E+06    -57.47086E+06   -57.470704E+06    344.82752E+06      -706.440308      -135.797623
             3323   114.944832E+06   -57.468312E+06   -57.468184E+06   344.827008E+06      -101.416389      -213.891724
             3324   114.942992E+06   -57.471332E+06   -57.471132E+06   344.828608E+06       50.5149078      -130.584137
             3325   114.943152E+06   -57.470152E+06    -57.47062E+06   344.827296E+06       152.530060       1.41317928
             3326   114.940912E+06   -57.470852E+06    -57.46272E+06   344.823104E+06       823.583679       434.911804
             3327    114.95352E+06     -57.4621E+06   -57.462516E+06    344.82704E+06       129.933243       181.199158
             3328   114.946176E+06   -57.468944E+06   -57.468924E+06    344.82768E+06      -223.367981      -82.5096436
             3329   114.942432E+06   -57.471616E+06    -57.47126E+06    344.82784E+06      -163.016403      -24.6621704
             3330   114.943336E+06   -57.471176E+06     -57.4709E+06   344.827808E+06       34.9356613       236.426773
             3331   114.894712E+06   -57.508252E+06   -57.506788E+06   344.831648E+06       444.422150  -1.95785889E+03
             3332   114.941576E+06   -57.471984E+06   -57.472232E+06   344.827264E+06       299.412659      -20.2395153
             3333   114.948216E+06   -57.466236E+06   -57.466004E+06   344.827264E+06      -275.921082      -41.3525887
             3334   114.937712E+06   -57.475256E+06     -57.4748E+06   344.828576E+06       287.651825       144.945587
             3335   114.939256E+06   -57.473428E+06   -57.473008E+06   344.827872E+06       551.831970       161.859970
             3336   114.942984E+06   -57.470656E+06   -57.470884E+06     344.8272E+06       71.8058167      -48.8077888
             3337   114.944312E+06   -57.470156E+06   -57.470564E+06   344.828224E+06      -34.6353111       157.053436
             3338   114.942776E+06   -57.470852E+06    -57.47052E+06   344.828064E+06      -192.266907      -302.223755
             3339   114.945304E+06   -57.469472E+06     -57.4693E+06   344.828224E+06       221.194672      -36.3838234
             3340   114.940704E+06   -57.473724E+06   -57.473288E+06   344.828448E+06       514.123108      -308.203217
             3341   114.943192E+06    -57.47144E+06   -57.471216E+06   344.828192E+06      -82.8138962      -317.788666
             3342   114.940512E+06   -57.482008E+06    -57.48114E+06     344.8312E+06  -1.31164978E+03  -2.19256689E+03
             3343   114.947464E+06   -57.468184E+06   -57.464168E+06   344.830464E+06  -2.40791455E+03  -2.75062158E+03
             3344    114.94632E+06   -57.468616E+06   -57.468836E+06   344.827872E+06      -300.231110       10.3859377
             3345   114.940792E+06   -57.473492E+06   -57.473684E+06   344.827424E+06      -686.574402      -372.458008
             3346   114.942656E+06   -57.471564E+06    -57.47154E+06    344.82832E+06       101.316063       19.9320850
             3347   114.942272E+06    -57.47128E+06   -57.471208E+06   344.828064E+06       551.104980      -57.9948654
             3348    114.93752E+06      -57.475E+06   -57.475952E+06   344.829696E+06      -326.314453       108.435699
             3349   114.945504E+06   -57.469392E+06   -57.469092E+06   344.828096E+06       112.380531       145.517639
             3350   114.946464E+06    -57.46904E+06   -57.468996E+06    344.82864E+06       335.037109       44.2181091
             3351   114.946808E+06   -57.466796E+06    -57.46742E+06   344.828832E+06       304.225067      -550.520386
             3352   114.942592E+06    -57.47116E+06   -57.471276E+06    344.82832E+06      -333.524323       159.255829
             3353    114.94524E+06     -57.4671E+06   -57.466148E+06   344.827232E+06       164.420090      -286.892181
             3354   114.943528E+06     -57.4711E+06   -57.469272E+06   344.827712E+06      -53.1493263      -223.969208
             3355   114.941672E+06   -57.471944E+06   -57.471752E+06   344.828224E+06       320.329834      -48.6154175
             3356   114.942344E+06   -57.471868E+06    -57.47164E+06   344.828192E+06       75.2931595       29.5991955
             3357   114.942848E+06   -57.471276E+06    -57.47138E+06   344.828352E+06       240.980743       82.8858566
             3358    114.93908E+06   -57.474444E+06   -57.473908E+06      344.828E+06       286.152557       93.0719681
             3359   114.942008E+06   -57.472188E+06   -57.471816E+06   344.827872E+06      -557.114929       80.3029480
             3360   114.942128E+06    -57.47186E+06   -57.471896E+06    344.82816E+06      -607.667969       30.2383556
             3361   114.944032E+06   -57.470056E+06   -57.470032E+06   344.827744E+06      -107.076317   341.844231E-03
             3362   114.945344E+06   -57.469388E+06   -57.469336E+06   344.828096E+06      -400.318756      -67.4985123
             3363   114.942368E+06   -57.471952E+06   -57.472052E+06   344.828288E+06       226.662918       6.09152699
             3364   114.941704E+06    -57.47158E+06   -57.471788E+06   344.827328E+06       376.019470      -54.3196335
             3365   114.944056E+06   -57.471112E+06   -57.470332E+06      344.828E+06       269.785431      -41.1718864
             3366   114.944976E+06   -57.468752E+06   -57.468808E+06   344.827232E+06       496.808289      -45.2400932
             3367   114.941424E+06   -57.472216E+06    -57.47302E+06   344.828064E+06      -97.8625031       9.12411594
             3368   114.941416E+06   -57.472368E+06   -57.472368E+06   344.827936E+06       339.252899       42.2701721
             3369   114.944592E+06    -57.46894E+06   -57.469088E+06   344.827776E+06      -343.698151      -227.123581
             3370   114.941272E+06   -57.472408E+06   -57.472452E+06   344.827936E+06      -274.761475       1.79152453
             3371   114.940456E+06   -57.474004E+06   -57.473328E+06   344.827968E+06      -276.369629       234.505127
             3372   114.931832E+06    -57.48704E+06   -57.484156E+06   344.830016E+06       219.785065       869.918335
             3373   114.946944E+06   -57.467728E+06   -57.467328E+06   344.827232E+06      -393.901733       66.6011276
             3374   114.941888E+06    -57.47178E+06   -57.472168E+06   344.828032E+06      -197.278412      -156.355026
             3375   114.942504E+06   -57.471672E+06   -57.471788E+06   344.828224E+06       191.553543       138.483658
             3376    114.93884E+06    -57.47502E+06     -57.4748E+06    344.82816E+06      -217.482712       92.1161118
             3377   114.943752E+06   -57.470768E+06   -57.470948E+06      344.828E+06      -2.63012481       529.189209
             3378    114.90856E+06   -57.496676E+06   -57.493964E+06    344.82384E+06   1.76985559E+03      -842.648010
             3379   115.001688E+06   -57.422812E+06    -57.42148E+06   344.822432E+06      -448.126892  -3.31506201E+03
             3380   114.944224E+06   -57.469828E+06   -57.469908E+06   344.828064E+06      -24.2822647      -154.717636
             3381   114.947872E+06   -57.465328E+06   -57.465984E+06   344.828096E+06       715.245544   1.40752039E+03
             3382   114.941752E+06   -57.474032E+06   -57.472972E+06   344.828128E+06      -402.119171      -50.2942505
             3383   114.943608E+06    -57.47044E+06    -57.47064E+06      344.828E+06       20.4638157       13.0810194
             3384   114.942608E+06   -57.471752E+06   -57.471604E+06   344.828096E+06       3.32898045      -102.331345
             3385    114.94344E+06   -57.470628E+06   -57.470516E+06   344.827648E+06      -49.7142334      -27.7433052
             3386   114.944336E+06   -57.471132E+06   -57.471152E+06   344.828544E+06       744.451538       309.636688
             3387   114.939032E+06   -57.474308E+06   -57.474244E+06   344.828352E+06      -288.351196       80.1213150
             3388   114.940304E+06    -57.47322E+06    -57.47342E+06   344.827776E+06       287.518127      -77.3996887
             3389   114.949192E+06   -57.466068E+06   -57.466056E+06   344.827456E+06       107.859589       159.173309
             3390   114.944512E+06   -57.469708E+06   -57.469648E+06   344.827744E+06      -438.049652       27.7421265
             3391   114.942352E+06   -57.471528E+06   -57.471184E+06   344.828288E+06      -251.431091       72.7708969
             3392   114.941008E+06   -57.472712E+06   -57.472336E+06   344.828448E+06      -280.762787       57.8260841
             3393   114.945584E+06   -57.469644E+06   -57.469264E+06   344.827392E+06       341.304810       112.559700
             3394   114.946416E+06   -57.469052E+06   -57.468252E+06   344.827712E+06       713.407593   1.12384802E+03
             3395   114.939712E+06   -57.475948E+06   -57.476896E+06   344.828288E+06       673.553223   2.61503931E+03
             3396   114.944696E+06    -57.46942E+06     -57.4695E+06   344.827712E+06       314.580933      -190.918610
             3397   114.941816E+06   -57.471488E+06   -57.471744E+06   344.827264E+06       387.624512       73.6502991
             3398   114.941808E+06   -57.477168E+06   -57.475444E+06   344.828256E+06      -480.449188       444.443298
             3399    114.93844E+06   -57.474552E+06    -57.47464E+06   344.828224E+06      -783.713867       240.799744
             3400   114.888224E+06    -57.51284E+06   -57.513748E+06   344.831552E+06  -3.46846289E+03   1.31176880E+03
             3401   114.933744E+06   -57.479984E+06   -57.479552E+06   344.829152E+06  -3.17760767E+03       120.880714
             3402    114.94512E+06   -57.464856E+06   -57.466824E+06   344.827264E+06   1.00901587E+03   1.18289087E+03
             3403     114.9406E+06   -57.472848E+06   -57.472964E+06    344.82816E+06       82.1577911      -71.4577484
             3404   114.967392E+06   -57.448864E+06   -57.449304E+06   344.825568E+06   8.49860937E+03       335.188080
             3405   114.944744E+06   -57.468836E+06   -57.468788E+06    344.82704E+06       392.164551       7.80841017
             3406   114.944288E+06   -57.469384E+06   -57.469532E+06   344.828064E+06       81.4139328       199.135574
             3407   114.949304E+06   -57.464688E+06   -57.465716E+06   344.827936E+06       192.221558       481.924713
             3408   114.945448E+06   -57.469176E+06   -57.469344E+06   344.827712E+06      -353.081055      -84.8775711
             3409   114.944584E+06   -57.470464E+06   -57.470748E+06   344.828896E+06      -329.369843       73.0443268
             3410   114.943848E+06    -57.47014E+06   -57.469848E+06   344.827296E+06       57.6672897      -109.410301
             3411   114.945136E+06   -57.468868E+06   -57.468472E+06   344.827136E+06      -263.696136      -48.5242004
             3412   114.940128E+06    -57.47482E+06   -57.474292E+06   344.828672E+06      -120.326523      -111.407501
             3413   114.951472E+06   -57.466464E+06   -57.464448E+06   344.829216E+06      -127.603508  -1.38921387E+03
             3414   114.946384E+06   -57.470568E+06    -57.47144E+06   344.829088E+06   1.77564832E+03   1.63090881E+03
             3415   114.936224E+06   -57.476012E+06   -57.475668E+06   344.828032E+06       361.517731       226.972733
             3416    114.94356E+06   -57.471008E+06   -57.470996E+06   344.828128E+06       66.0765228       57.6258583
             3417   114.950664E+06   -57.463008E+06   -57.463152E+06   344.825792E+06   1.52944189E+03       129.414291
             3418    114.94404E+06   -57.469176E+06   -57.469216E+06   344.827904E+06      -109.713028      -35.2388153
             3419   114.944784E+06   -57.469544E+06   -57.469684E+06   344.827904E+06       182.714706       136.167358
             3420   114.946528E+06   -57.468288E+06   -57.468468E+06   344.828224E+06      -620.518677       128.144363
             3421   114.941816E+06   -57.471388E+06   -57.471464E+06   344.827968E+06      -93.3468704       201.364365
             3422      114.947E+06   -57.467872E+06    -57.46528E+06   344.828608E+06      -250.796677      -955.446594
             3423      114.948E+06   -57.465908E+06    -57.46596E+06   344.826848E+06      -280.125549       251.835144
             3424   114.944024E+06   -57.468296E+06   -57.469068E+06   344.827872E+06      -131.034805      -52.0714760
             3425    114.94556E+06    -57.46866E+06   -57.468308E+06      344.828E+06       377.462830       223.281891
             3426   114.943504E+06     -57.4706E+06   -57.470644E+06   344.828032E+06       94.7716751       44.6973534
             3427     114.9348E+06   -57.482928E+06   -57.482448E+06   344.828832E+06   1.25422522E+03      -387.050446
             3428     114.9406E+06   -57.473692E+06    -57.47384E+06   344.828288E+06      -462.061707      -536.665955
             3429   114.943192E+06   -57.470992E+06   -57.471184E+06   344.828096E+06      -83.1082916      -188.532242
             3430   114.942736E+06   -57.471616E+06    -57.47142E+06   344.828064E+06      -61.7654381       164.887833
             3431   114.940824E+06   -57.472708E+06   -57.472772E+06    344.82784E+06       419.364807       175.124725
             3432   114.933408E+06   -57.477148E+06   -57.478164E+06   344.827584E+06  -1.27516614E+03  -1.27157837E+03
             3433   114.944704E+06   -57.469628E+06   -57.469812E+06   344.828128E+06      -433.363312       126.250648
             3434   114.942048E+06   -57.471848E+06   -57.471732E+06   344.827936E+06      -277.898529       47.6044464
             3435   114.943992E+06   -57.469556E+06   -57.469836E+06   344.827296E+06       130.006012       74.0606232
             3436   114.957104E+06   -57.458196E+06   -57.457096E+06    344.82848E+06      -598.601013      -272.759796
             3437   114.941576E+06   -57.471928E+06   -57.472424E+06   344.828128E+06       55.4429169      -229.749603
             3438   114.943136E+06   -57.471016E+06   -57.470928E+06   344.827904E+06       81.8017120       26.1316528
             3439    114.94224E+06     -57.4715E+06    -57.47186E+06   344.828288E+06      -311.437836       135.541809
             3440   114.942952E+06   -57.472044E+06   -57.471728E+06   344.828576E+06      -187.860397       23.7627659
             3441   114.941928E+06   -57.471564E+06   -57.471764E+06   344.828224E+06      -708.805725       244.268555
             3442   114.942304E+06   -57.471984E+06   -57.471244E+06      344.828E+06      -211.932480      -248.267654
             3443    114.94528E+06   -57.469304E+06    -57.46958E+06   344.828096E+06      -200.836838       41.1140251
             3444   114.944736E+06     -57.4683E+06   -57.468552E+06   344.827008E+06      -132.241455       256.583038
             3445    114.94376E+06   -57.470748E+06    -57.47032E+06   344.827648E+06      -129.156952      -3.23900747
             3446   114.942472E+06   -57.471648E+06   -57.470984E+06   344.828096E+06      -299.070190      -51.9843483
             3447    114.94424E+06   -57.469672E+06   -57.469064E+06   344.827744E+06      -268.366943       200.283188
             3448   114.943744E+06   -57.470412E+06   -57.470324E+06   344.828128E+06      -170.707687      -116.189209
             3449   114.921488E+06   -57.489364E+06   -57.492092E+06    344.83136E+06       910.760620   2.60684229E+03
             3450   114.941416E+06   -57.472532E+06   -57.472308E+06   344.828064E+06       154.141449       207.849579
             3451   114.950952E+06   -57.460536E+06   -57.463196E+06   344.827584E+06      -22.9622173       253.912003
             3452   114.942968E+06   -57.471068E+06   -57.471172E+06   344.828096E+06       30.9742432       124.504967
             3453   114.946168E+06   -57.471532E+06   -57.470712E+06   344.828704E+06      -110.009705      -273.846771
             3454   114.945192E+06   -57.468916E+06   -57.468552E+06   344.827552E+06      -256.865356       195.397095
             3455   114.942304E+06   -57.471328E+06   -57.471268E+06   344.828032E+06      -111.833031       189.369492
             3456   114.946152E+06   -57.473104E+06   -57.475116E+06    344.82864E+06   1.16790869E+03  -1.66145056E+03
             3457   114.941456E+06   -57.472348E+06   -57.472292E+06   344.828224E+06       123.383179       237.883759
             3458    114.94448E+06    -57.46994E+06   -57.469984E+06   344.828032E+06       56.5355186       146.709747
             3459     114.9384E+06   -57.474456E+06    -57.47376E+06   344.826784E+06  -1.53145215E+03       710.721802
             3460   114.942952E+06   -57.470832E+06   -57.470968E+06   344.828064E+06      -208.051285       74.3077850
             3461   114.936152E+06   -57.474976E+06   -57.474368E+06   344.827616E+06      -238.661911      -41.6041145
             3462   114.941968E+06     -57.4727E+06     -57.4716E+06   344.827712E+06       19.0767231       78.9858322
             3463   114.938448E+06    -57.47592E+06   -57.475776E+06   344.828512E+06       41.7434654       378.894318
             3464   114.934216E+06    -57.47964E+06    -57.47838E+06   344.828032E+06  -1.54333777E+03      -287.145966
             3465   114.930864E+06   -57.486656E+06   -57.491276E+06   344.828096E+06      -455.330780  -3.67391113E+03
             3466   114.940656E+06   -57.472544E+06   -57.472692E+06    344.82768E+06       166.373398       51.7023697
             3467   114.943328E+06   -57.470724E+06    -57.46994E+06   344.826688E+06       948.451477       877.834961
             3468     114.9378E+06   -57.477848E+06   -57.476928E+06   344.829408E+06       886.353271       173.601334
             3469   114.942912E+06    -57.47156E+06   -57.470616E+06   344.827904E+06       137.733063       131.485001
             3470     114.9372E+06    -57.47438E+06   -57.475288E+06   344.828672E+06       734.449402       199.114700
             3471    114.94332E+06     -57.4708E+06   -57.470672E+06   344.828032E+06      -101.647720       3.61271000
             3472   114.942448E+06   -57.471852E+06   -57.471544E+06   344.827808E+06       44.6807556      -180.879013
             3473   114.943608E+06    -57.47018E+06   -57.470164E+06   344.827584E+06       53.4516945      -23.6809082
             3474    114.94184E+06   -57.471764E+06   -57.471672E+06   344.827744E+06      -21.9066067       63.2593536
             3475   114.980592E+06   -57.442184E+06   -57.440732E+06   344.821024E+06      -908.775818   2.01425903E+03
             3476   115.013736E+06   -57.418064E+06   -57.419948E+06   344.825376E+06  -1.35880212E+03      -54.7003365
             3477   114.942184E+06    -57.47168E+06   -57.471916E+06   344.827904E+06      -327.154205      -219.336487
             3478   114.983312E+06   -57.442528E+06   -57.440552E+06    344.82384E+06   5.34283887E+03   1.96527197E+03
             3479   114.968696E+06     -57.4524E+06   -57.450988E+06   344.822304E+06   2.14805469E+03   1.98547119E+03
             3480   114.943488E+06   -57.470644E+06   -57.470604E+06   344.827776E+06       336.924316      -140.944824
             3481   114.944384E+06   -57.469716E+06   -57.469884E+06      344.828E+06       48.4093361       147.221008
             3482   114.935968E+06   -57.471392E+06   -57.472244E+06   344.824032E+06  -1.33422144E+03      -443.744812
             3483   114.934792E+06   -57.471948E+06   -57.472484E+06   344.827424E+06      -642.854553  -1.63409998E+03
             3484   114.941072E+06   -57.472744E+06   -57.472816E+06   344.828096E+06      -721.275269       97.7657089
             3485   114.941032E+06     -57.4726E+06   -57.472164E+06   344.827424E+06      -101.797005      -168.977051
             3486    114.94868E+06   -57.466788E+06   -57.467168E+06    344.82784E+06       139.716629       38.9955063
             3487   114.942728E+06   -57.470496E+06   -57.470396E+06    344.82736E+06      -168.646057       483.046875
             3488   114.942624E+06   -57.471364E+06   -57.471256E+06    344.82832E+06      -91.5786514       36.2088661
             3489   114.864088E+06   -57.540748E+06   -57.543852E+06    344.83904E+06   6.98391699E+03  -1.07427441E+03
             3490   114.938664E+06   -57.474688E+06   -57.474336E+06      344.828E+06      -221.072464      -2.30870891
             3491    114.94344E+06    -57.47016E+06   -57.470432E+06   344.827712E+06       8.05136967       38.9889832
             3492   114.942016E+06    -57.47158E+06     -57.4715E+06   344.827712E+06      -13.3534384       62.6679573
             3493   114.942296E+06   -57.471748E+06   -57.472128E+06   344.827776E+06      -54.2322426       42.3322906
             3494   114.942712E+06   -57.471356E+06   -57.471492E+06   344.827488E+06      -178.532700      -114.729965
             3495   114.950992E+06   -57.458988E+06    -57.45992E+06   344.822752E+06  -3.95012134E+03       79.3431244
             3496   114.942384E+06   -57.471432E+06   -57.471468E+06    344.82784E+06       128.529541       177.243408
             3497    114.93424E+06   -57.473772E+06   -57.474288E+06    344.82656E+06      -765.452148  -1.03179480E+03
             3498   114.947712E+06   -57.468272E+06   -57.468148E+06   344.828096E+06       333.058014       374.671753
             3499   114.941264E+06   -57.472224E+06   -57.472404E+06   344.828288E+06       51.0694275       113.783081
             3500   114.943896E+06   -57.470732E+06   -57.470484E+06   344.827712E+06       108.534843      -52.1120148
             3501    114.94196E+06    -57.47246E+06   -57.472032E+06      344.828E+06      -38.2752571      -58.0391083
             3502   115.003712E+06   -57.422168E+06   -57.421464E+06   344.825472E+06   6.16153711E+03      -234.526764
             3503   114.943432E+06   -57.470912E+06   -57.470772E+06   344.827936E+06      -70.4317780       27.6549683
             3504   114.943192E+06   -57.470928E+06   -57.470976E+06   344.828192E+06       32.8386002       196.226746
             3505   114.942624E+06   -57.471544E+06   -57.470848E+06      344.828E+06       60.9852448       33.0504684
             3506    114.95228E+06   -57.462972E+06   -57.463092E+06   344.827648E+06      -329.897217       160.235580
             3507   114.942584E+06   -57.470928E+06   -57.470632E+06   344.827552E+06  -468.109399E-03      -48.4830818
             3508   114.948512E+06   -57.464168E+06   -57.462484E+06   344.827424E+06  -3.76883911E+03       644.249939
             3509   114.942584E+06   -57.470652E+06   -57.470528E+06   344.827936E+06       529.454834       270.487976
             3510   114.942912E+06   -57.471332E+06     -57.4711E+06   344.827936E+06      -3.44481659      -28.5885906
             3511   114.935264E+06    -57.47776E+06   -57.477012E+06   344.828672E+06   1.06597644E+03       503.187378
             3512   114.938128E+06   -57.475976E+06   -57.475408E+06   344.828416E+06      -109.233131       274.217041
             3513   115.051632E+06   -57.380152E+06    -57.37808E+06   344.813728E+06  -6.99430713E+03   1.94269629E+03
             3514   114.943888E+06   -57.470148E+06   -57.470124E+06   344.828032E+06       184.850128       59.6333542
             3515    115.06844E+06   -57.371632E+06   -57.372856E+06   344.824704E+06  -8.59221387E+03  -2.12740479E+03
             3516   114.945032E+06   -57.469296E+06    -57.46922E+06   344.827872E+06       192.751572      -26.1697178
             3517   114.941776E+06   -57.471448E+06   -57.471568E+06   344.827904E+06      -180.942902      -125.622208
             3518   114.972336E+06   -57.451944E+06   -57.448092E+06   344.824992E+06      -725.628113   1.37447498E+03
             3519   114.941352E+06   -57.471964E+06   -57.472368E+06   344.828384E+06      -67.8835068       84.5589752
             3520   114.941824E+06   -57.471824E+06   -57.472152E+06   344.827712E+06      -166.225204      -130.332565
             3521   114.942872E+06   -57.471292E+06   -57.469996E+06   344.828096E+06      -897.325134       128.606140
             3522   114.966776E+06   -57.452304E+06   -57.452596E+06   344.832128E+06  -7.26356592E+03   1.82524500E+03
             3523   114.954368E+06   -57.462576E+06   -57.463688E+06    344.82848E+06   868.014574E-03       416.114349
             3524   114.940952E+06   -57.472192E+06   -57.472564E+06   344.828192E+06      -41.1254387       92.6649399
             3525    114.94252E+06    -57.47126E+06    -57.47132E+06   344.827424E+06       127.965347      -150.238968
             3526    114.94452E+06   -57.469984E+06   -57.469028E+06   344.827808E+06       963.241150      -6.59078932
             3527   114.941848E+06    -57.47194E+06   -57.471652E+06   344.827872E+06      -280.669525      -422.742188
             3528   114.930368E+06   -57.487376E+06    -57.48358E+06   344.829568E+06   1.01591162E+03      -190.278290
             3529   114.929816E+06   -57.479616E+06   -57.480908E+06   344.828832E+06      -935.344177       474.002319
             3530    114.94096E+06   -57.472484E+06   -57.472128E+06   344.827904E+06      -275.438904       137.783035
             3531   114.909408E+06   -57.493752E+06    -57.49222E+06   344.827008E+06      -460.660828   1.15614307E+03
             3532   114.887032E+06   -57.519156E+06   -57.519636E+06   344.831072E+06      -911.711914  -2.32017896E+03
             3533   114.945376E+06   -57.465252E+06   -57.468036E+06   344.826848E+06  -1.31008801E+03       496.416473
             3534   114.958272E+06   -57.468344E+06   -57.463028E+06   344.829152E+06   1.41985706E+03       278.842621
             3535    114.94364E+06   -57.470184E+06   -57.470816E+06   344.827936E+06       20.0003223       280.389496
             3536   114.943128E+06   -57.469744E+06   -57.470436E+06   344.827648E+06       431.991882      -70.0587082
             3537   114.905864E+06   -57.497652E+06   -57.496224E+06    344.82512E+06   2.03910925E+03      -511.000916
             3538   114.944976E+06   -57.469652E+06   -57.469668E+06   344.828064E+06       382.904297      -88.4926605
             3539   114.994888E+06     -57.4325E+06    -57.43062E+06   344.822272E+06   1.10622559E+03   1.96758655E+03
             3540   114.972192E+06   -57.441016E+06   -57.441728E+06   344.822848E+06   3.25085229E+03      -917.740662
             3541   114.990256E+06   -57.436876E+06   -57.434644E+06   344.823008E+06   2.03465991E+03   1.79116809E+03
             3542   114.945216E+06   -57.470252E+06   -57.470476E+06   344.828736E+06      -76.5148239   1.21999402E+03
             3543   114.939904E+06   -57.475236E+06    -57.47316E+06    344.82704E+06   1.62396802E+03       290.889984
             3544    114.94224E+06   -57.471696E+06   -57.471772E+06   344.827872E+06      -260.533081       24.7463779
             3545   114.942048E+06    -57.47246E+06   -57.472432E+06    344.82848E+06      -191.297440      -114.384750
             3546   114.943992E+06   -57.469784E+06   -57.469688E+06   344.827328E+06       113.764404      -107.765129
             3547   114.946744E+06   -57.467772E+06   -57.467724E+06   344.827616E+06      -134.876465  -314.866513E-03
             3548   114.943472E+06   -57.470072E+06   -57.470616E+06   344.828672E+06   5.73513135E+03       492.002197
             3549   114.960312E+06   -57.457028E+06   -57.457416E+06    344.83072E+06      -322.898163      -440.328278
             3550   114.944128E+06     -57.4699E+06    -57.46986E+06   344.827648E+06       135.578613       73.6809921
             3551   114.949544E+06     -57.4652E+06   -57.465532E+06     344.8272E+06      -34.3213692      -99.5537033
             3552   114.940224E+06    -57.47328E+06    -57.47326E+06    344.82784E+06       288.317017      -78.0108948
             3553      114.924E+06    -57.48584E+06    -57.48674E+06   344.829472E+06   2.40960840E+03       137.666351
             3554   114.939176E+06   -57.473824E+06    -57.47344E+06   344.827744E+06       276.631378      -36.0005074
             3555   114.941184E+06    -57.47254E+06   -57.472912E+06   344.828064E+06       8.35590744      -207.327255
             3556   114.942792E+06   -57.470364E+06   -57.470952E+06   344.828224E+06       128.375793      -147.573288
             3557    114.94296E+06   -57.470756E+06    -57.47126E+06   344.828352E+06      -25.2980595      -265.528687
             3558    114.96308E+06   -57.461804E+06   -57.459272E+06   344.830368E+06  -9.04042578E+03       273.142151
             3559   114.944056E+06   -57.470116E+06   -57.470528E+06   344.827712E+06       356.218933       173.770065
             3560   114.963192E+06   -57.453544E+06    -57.45338E+06   344.826208E+06       468.999268       3.36894727
             3561   114.957264E+06   -57.457736E+06   -57.455172E+06    344.82592E+06   1.11931763E+03   1.09961096E+03
             3562   114.812952E+06   -57.577016E+06   -57.574576E+06    344.82768E+06   6.63667627E+03       126.605263
             3563    114.96244E+06    -57.45136E+06   -57.451652E+06   344.821312E+06  -11.9879912E+03  -2.27895337E+03
             3564     114.9346E+06   -57.477676E+06   -57.480456E+06   344.830336E+06      -224.825104      -93.8297424
             3565   114.951256E+06   -57.468728E+06   -57.466608E+06   344.828672E+06   2.39083301E+03      -617.110962
             3566    114.94368E+06   -57.469932E+06   -57.469824E+06   344.828128E+06       262.761780       83.9443512
             3567   114.936944E+06   -57.475196E+06   -57.476176E+06    344.82864E+06      -716.551025      -323.844666
             3568    114.89284E+06   -57.513012E+06   -57.513972E+06   344.834176E+06   8.56675977E+03       614.305420
             3569   114.936704E+06   -57.478684E+06    -57.47686E+06   344.827584E+06  -1.40516309E+03      -896.752014
             3570   114.946072E+06   -57.470084E+06   -57.470948E+06   344.832864E+06  -1.27317053E+03       673.591248
             3571   114.936936E+06   -57.475548E+06    -57.47524E+06   344.827776E+06   1.06783118E+03      -1.00860500
             3572   114.982128E+06   -57.441036E+06   -57.438952E+06   344.824608E+06  -9.57483301E+03       194.271347
             3573   114.893224E+06   -57.522992E+06   -57.521212E+06   344.836224E+06  -2.59873291E+03   2.50001855E+03
             3574   114.940128E+06   -57.472644E+06   -57.472768E+06   344.827776E+06       310.432098       144.032684
             3575   114.937488E+06   -57.477488E+06   -57.475724E+06   344.830496E+06       520.458679       430.660522
             3576    114.99168E+06   -57.434224E+06   -57.432392E+06   344.825152E+06   7.69515723E+03       5.29936934
             3577    114.94032E+06   -57.473976E+06   -57.474128E+06   344.828064E+06       589.508545       422.773315
             3578   114.918256E+06   -57.501284E+06   -57.500112E+06   344.837728E+06       112.556435      -81.7371445
             3579   114.938688E+06    -57.47096E+06    -57.46954E+06   344.822496E+06   1.88422021E+03       839.607483
             3580   114.943352E+06   -57.470672E+06   -57.470832E+06   344.828064E+06       91.1637497       19.8454399
             3581    114.94372E+06   -57.469792E+06   -57.471628E+06   344.829184E+06      -311.702332      -18.2832527
             3582    114.94272E+06    -57.47136E+06   -57.470564E+06   344.828032E+06      -369.686310       207.318573
             3583    114.94704E+06   -57.465688E+06    -57.46532E+06   344.827264E+06      -247.852295       492.481171
             3584   114.946736E+06   -57.468364E+06   -57.468568E+06   344.827872E+06       448.726471       239.344788
             3585   114.971832E+06   -57.447376E+06   -57.444484E+06   344.819552E+06   5.31534961E+03  -2.10691479E+03
             3586   114.945504E+06   -57.469244E+06   -57.469184E+06   344.827712E+06       48.9601479      -72.6193085
             3587   114.916528E+06   -57.493212E+06   -57.494572E+06    344.83344E+06  -2.63482593E+03      -591.815979
             3588   114.951416E+06   -57.468228E+06   -57.466856E+06   344.830048E+06   6.35380664E+03       24.2279320
             3589   114.988808E+06   -57.440804E+06   -57.438488E+06   344.829376E+06   5.54023389E+03       468.198029
             3590   114.937936E+06   -57.474708E+06   -57.474548E+06   344.827712E+06       509.489044  -316.011697E-03
             3591      114.944E+06   -57.469248E+06   -57.469432E+06   344.827776E+06      -59.5298958       52.4171219
             3592    114.98112E+06    -57.44008E+06   -57.442212E+06   344.824768E+06       1.85037994   1.17899536E+03
             3593    114.94168E+06   -57.470076E+06    -57.47094E+06      344.828E+06  -1.14802429E+03       346.078400
             3594   114.942976E+06   -57.470772E+06    -57.47106E+06   344.828096E+06       154.098053       37.6981773
             3595   114.958336E+06    -57.45318E+06    -57.45414E+06   344.824288E+06      -762.424683       568.397461
             3596   114.942384E+06    -57.47192E+06   -57.471824E+06   344.828096E+06       20.4185867       11.1950550
             3597   114.943392E+06   -57.470008E+06   -57.470244E+06   344.827488E+06      -43.8829575       83.9060059
             3598    114.94088E+06   -57.472776E+06   -57.473104E+06    344.82784E+06      -171.391968      -178.328232
             3599    114.94456E+06   -57.469216E+06   -57.469372E+06   344.827296E+06       397.809937      -40.6534882
             3600   114.946368E+06   -57.469156E+06    -57.47106E+06   344.828256E+06      -75.5706100      -409.396179
             3601   114.951632E+06   -57.466104E+06   -57.466376E+06   344.830016E+06  -1.04220178E+03       674.771057
             3602   114.935424E+06   -57.477448E+06   -57.477584E+06   344.828864E+06  -1.49897681E+03      -64.7515030
             3603   114.939808E+06   -57.472896E+06   -57.472576E+06    344.82736E+06       893.589539       16.8472843
             3604    114.94324E+06   -57.470616E+06   -57.470548E+06   344.828448E+06       105.305359      -199.779282
             3605    114.94508E+06    -57.47014E+06   -57.470464E+06   344.828416E+06      -12.8830948       109.843376
             3606   114.942072E+06   -57.471572E+06   -57.471532E+06   344.827808E+06       254.747513       10.3196907
             3607    114.92944E+06   -57.491168E+06    -57.48906E+06   344.835008E+06   6.44697217E+03      -568.573059
             3608   114.936888E+06    -57.47878E+06   -57.476304E+06   344.827424E+06   1.56769861E+03       498.563629
             3609    114.94248E+06   -57.471572E+06     -57.4717E+06   344.827584E+06       118.512733       93.2983398
             3610   114.944648E+06    -57.46904E+06   -57.469652E+06   344.827328E+06      -61.8450661       299.013641
             3611   114.943024E+06   -57.470884E+06   -57.471016E+06   344.828448E+06      -24.9157505       49.3030815
             3612   114.942776E+06    -57.47148E+06   -57.471168E+06   344.827808E+06       18.1548080      -221.804611
             3613      114.941E+06   -57.472132E+06   -57.472028E+06    344.82752E+06      -13.3190241      -29.4777565
             3614   114.963728E+06   -57.450436E+06   -57.446864E+06   344.816256E+06  -9.06672168E+03  -1.91854138E+03
             3615     114.9458E+06   -57.469812E+06   -57.469108E+06   344.827872E+06   3.40835010E+03  -1.57995166E+03
             3616   114.943448E+06    -57.47218E+06   -57.474148E+06   344.831488E+06   1.75324670E+03       972.012268
             3617   114.939456E+06   -57.474532E+06   -57.477232E+06     344.8304E+06       597.459961   1.01538788E+03
             3618   114.943824E+06   -57.475696E+06   -57.473368E+06   344.829536E+06  -1.91043884E+03  -2.11090552E+03
             3619   114.955144E+06   -57.460252E+06   -57.459324E+06   344.828192E+06   2.75958569E+03   1.01840363E+03
             3620   114.951384E+06   -57.466472E+06    -57.46568E+06   344.828736E+06   2.97206958E+03       360.145050
             3621   114.944928E+06   -57.468788E+06    -57.46872E+06   344.827712E+06       394.234650       377.780457
             3622     114.9436E+06   -57.470436E+06   -57.470432E+06    344.82784E+06      -292.799286       75.8612289
             3623   114.949608E+06   -57.464672E+06   -57.464828E+06   344.827008E+06       467.310822      -311.791473


  Minimum           114.812952E+06   -57.577016E+06   -57.574576E+06   344.806592E+06  -13.8417832E+03  -3.74626001E+03
       At Element             3562             3562             3562             2116             3282             2936

  Maximum            115.06896E+06   -57.357844E+06   -57.357904E+06   344.840832E+06   13.0857334E+03   4.35959766E+03
       At Element             3287             3287             3287             3270             2315             2865

            Total   416.438771E+09  -208.217596E+09  -208.217481E+09   1.24931188E+12   211.458603E+03   19.3710753E+03


