********************************************************************************
Field Output Report, written Mon Jan 14 22:30:20 2019

Source 1
---------

   ODB: C:/AbaqusTemp/SolidSphere_3BC.odb
   Step: Step-1
   Frame: Increment      1: Step Time =    1.000

Loc 1 : Centroidal values from source 1

Output sorted by column "Element Label".

Field Output reported at element centroid for part: PART-1-1

          Element            S.S11            S.S22            S.S33            S.S12            S.S13            S.S23
            Label           @Loc 1           @Loc 1           @Loc 1           @Loc 1           @Loc 1           @Loc 1
------------------------------------------------------------------------------------------------------------------------
                1     57.47086E+06    57.470244E+06  -114.943712E+06   344.827904E+06      -332.304565   344.827552E+06
                2    57.471844E+06    57.471632E+06  -114.942352E+06   344.827744E+06      -188.556152   344.827328E+06
                3    57.471136E+06    57.470864E+06    -114.9434E+06   344.828256E+06       120.535896   344.827936E+06
                4    57.471852E+06     57.47204E+06  -114.941984E+06    344.82784E+06       44.3095398   344.827488E+06
                5    57.470872E+06    57.470504E+06  -114.943232E+06   344.827936E+06       63.3485870   344.827968E+06
                6     57.47238E+06    57.472192E+06  -114.941672E+06   344.827808E+06       96.3383865    344.82768E+06
                7     57.47252E+06    57.472316E+06   -114.94152E+06   344.827808E+06       75.3706055    344.82768E+06
                8    57.471892E+06    57.472116E+06  -114.941848E+06      344.828E+06      -94.3017807   344.827808E+06
                9    57.470324E+06    57.470316E+06  -114.944512E+06    344.82784E+06       42.2320404   344.827872E+06
               10    57.470684E+06    57.470996E+06   -114.94316E+06   344.827968E+06       126.820435    344.82816E+06
               11    57.471984E+06    57.471896E+06  -114.942144E+06   344.827616E+06      -415.401398   344.827488E+06
               12     57.47178E+06    57.471612E+06   -114.94276E+06   344.827808E+06      -249.608047   344.827584E+06
               13    57.473176E+06    57.472852E+06  -114.941272E+06   344.827808E+06      -383.122223   344.827232E+06
               14    57.471532E+06    57.471208E+06   -114.94328E+06   344.828064E+06       272.675995      344.828E+06
               15    57.469416E+06    57.468752E+06  -114.945296E+06    344.82848E+06       356.692230      344.828E+06
               16    57.471972E+06    57.471464E+06  -114.941872E+06   344.827616E+06      -49.1930504   344.827936E+06
               17    57.473324E+06    57.473188E+06   -114.94076E+06   344.827904E+06       480.107727   344.827936E+06
               18     57.47322E+06    57.473404E+06  -114.941528E+06   344.828928E+06      -413.715057   344.827712E+06
               19    57.471168E+06    57.470084E+06   -114.94324E+06   344.828288E+06       202.009949   344.828352E+06
               20    57.471712E+06    57.472712E+06  -114.942192E+06   344.827616E+06      -462.260925    344.82832E+06
               21    57.471036E+06    57.470616E+06  -114.943864E+06   344.828256E+06      -74.7250519   344.828032E+06
               22    57.464492E+06      57.4656E+06  -114.947888E+06   344.826688E+06       32.0002022   344.829152E+06
               23    57.472364E+06    57.471084E+06  -114.942408E+06    344.82832E+06      -180.569672    344.82768E+06
               24     57.47082E+06      57.4711E+06  -114.941968E+06      344.828E+06       150.770706   344.828288E+06
               25    57.470616E+06     57.47032E+06  -114.943264E+06   344.827872E+06       61.4047470      344.828E+06
               26    57.471492E+06    57.471128E+06  -114.942416E+06   344.827712E+06       78.3147430   344.827904E+06
               27    57.471476E+06    57.471272E+06  -114.942664E+06    344.82784E+06      -28.2504539   344.827712E+06
               28    57.467936E+06    57.467544E+06  -114.945736E+06   344.828192E+06      -873.505493   344.829216E+06
               29    57.471672E+06      57.4719E+06  -114.942064E+06   344.827936E+06      -152.454819   344.827712E+06
               30    57.471848E+06    57.472104E+06  -114.942016E+06   344.828128E+06       186.671707      344.828E+06
               31    57.470384E+06    57.470176E+06  -114.943888E+06   344.828096E+06      -181.047104   344.827808E+06
               32    57.470828E+06    57.470968E+06  -114.943408E+06   344.827904E+06      -160.108948   344.827712E+06
               33    57.471636E+06    57.471476E+06   -114.94268E+06   344.827712E+06      -133.927124   344.827552E+06
               34    57.471752E+06    57.472032E+06  -114.941904E+06    344.82784E+06      -178.098969   344.827744E+06
               35    57.471056E+06    57.470756E+06  -114.942736E+06   344.827968E+06      -172.036407   344.827744E+06
               36    57.471356E+06    57.471204E+06  -114.942528E+06   344.828032E+06      -159.912262   344.827744E+06
               37    57.327988E+06    57.326436E+06  -115.081872E+06     344.8528E+06   5.89140625E+03   344.831104E+06
               38    57.471236E+06      57.4715E+06    -114.9426E+06   344.828352E+06       244.026428   344.828192E+06
               39    57.471424E+06    57.471096E+06   -114.94288E+06   344.827872E+06      -239.277542    344.82752E+06
               40     57.47002E+06    57.469668E+06   -114.94472E+06   344.828416E+06       86.4495621   344.828128E+06
               41     57.46836E+06    57.468764E+06  -114.945608E+06   344.828512E+06       489.719269   344.828544E+06
               42    57.471848E+06    57.470528E+06  -114.943776E+06   344.829152E+06       39.5934906   344.829024E+06
               43      57.4999E+06    57.499648E+06  -114.911784E+06    344.82336E+06  -2.29221411E+03   344.822016E+06
               44     57.47176E+06    57.472948E+06  -114.941304E+06   344.827936E+06       59.5133972    344.82832E+06
               45     57.47298E+06      57.4739E+06  -114.939568E+06      344.828E+06      -58.8355331      344.828E+06
               46     57.47026E+06    57.471356E+06   -114.94296E+06    344.82832E+06       527.769409   344.827904E+06
               47    57.469484E+06    57.470552E+06  -114.944808E+06   344.829536E+06   1.07023254E+03    344.82864E+06
               48    57.469528E+06    57.470044E+06    -114.9438E+06      344.828E+06       132.479477    344.82864E+06
               49    57.473904E+06    57.474376E+06  -114.939744E+06   344.827776E+06      -163.740952    344.82752E+06
               50    57.416888E+06    57.406276E+06  -114.997296E+06   344.836512E+06      -400.096375   344.829376E+06
               51    57.452932E+06    57.452896E+06   -114.95932E+06   344.828608E+06  -1.22175281E+03   344.831712E+06
               52       57.487E+06    57.493128E+06  -114.927664E+06   344.827968E+06      -188.938431    344.82544E+06
               53    57.466724E+06     57.46928E+06  -114.950152E+06   344.828384E+06       893.883850   344.830432E+06
               54    57.466944E+06    57.472096E+06  -114.944008E+06   344.827872E+06      -691.686951   344.828416E+06
               55      57.4695E+06    57.470052E+06  -114.943736E+06   344.828224E+06       200.304077   344.828096E+06
               56    57.469892E+06    57.470308E+06   -114.94368E+06   344.828096E+06       24.2978058   344.828128E+06
               57    57.470228E+06    57.470992E+06  -114.943152E+06    344.82784E+06       77.6827545   344.828256E+06
               58    57.469504E+06    57.469884E+06  -114.944032E+06   344.828192E+06       396.524109   344.828128E+06
               59    57.471248E+06    57.471436E+06  -114.942488E+06   344.827808E+06       115.020592    344.82816E+06
               60    57.469524E+06    57.469848E+06  -114.943656E+06    344.82832E+06       490.471741    344.82816E+06
               61    57.471956E+06    57.471972E+06  -114.942064E+06   344.827744E+06      -70.3273468   344.827744E+06
               62    57.471892E+06     57.47202E+06  -114.941704E+06   344.827808E+06      -432.116760   344.827616E+06
               63    57.470996E+06    57.470968E+06  -114.942776E+06   344.827904E+06       141.039124   344.828096E+06
               64     57.47078E+06     57.47082E+06  -114.942992E+06   344.827872E+06       79.7316360   344.828096E+06
               65    57.474632E+06    57.473852E+06   -114.93912E+06   344.826528E+06      -372.013641   344.826752E+06
               66     57.47386E+06    57.472864E+06  -114.941344E+06   344.826336E+06      -327.792755   344.826848E+06
               67    57.489536E+06     57.49496E+06  -114.922496E+06   344.825152E+06       299.037048   344.827744E+06
               68    57.472448E+06     57.47216E+06   -114.94144E+06   344.827776E+06      -111.002853   344.827904E+06
               69    57.475296E+06     57.47482E+06  -114.937992E+06   344.826208E+06      -90.5836182   344.827264E+06
               70     57.47336E+06    57.473208E+06    -114.9402E+06   344.827008E+06       14.1636410   344.827968E+06
               71    57.471272E+06    57.470716E+06  -114.942736E+06   344.827616E+06      -144.876328   344.828096E+06
               72    57.472556E+06      57.4732E+06  -114.939168E+06   344.826272E+06       130.241180    344.82656E+06
               73    57.468412E+06     57.46996E+06  -114.944176E+06    344.82736E+06      -244.443893   344.828448E+06
               74    57.464124E+06    57.464692E+06  -114.948928E+06   344.828512E+06      -309.454041   344.828736E+06
               75     57.48102E+06    57.481516E+06  -114.932544E+06   344.825536E+06      -502.440491    344.82752E+06
               76    57.466816E+06    57.466836E+06   -114.94676E+06   344.828416E+06      -65.6044083    344.82832E+06
               77    57.467476E+06    57.469204E+06    -114.9432E+06   344.827136E+06       855.786499   344.828448E+06
               78    57.472176E+06    57.472112E+06  -114.941472E+06   344.827744E+06       37.3423958    344.82736E+06
               79    57.469248E+06    57.469496E+06  -114.944632E+06   344.828096E+06      -106.952148   344.827872E+06
               80    57.477912E+06      57.4716E+06   -114.93968E+06   344.828608E+06       808.045959   344.825824E+06
               81    57.467896E+06    57.467516E+06  -114.950296E+06   344.829056E+06      -776.723450   344.827264E+06
               82    57.414264E+06    57.404408E+06  -114.997504E+06   344.835936E+06       429.219727   344.828224E+06
               83    57.463972E+06    57.463972E+06  -114.949936E+06   344.830272E+06   1.20524170E+03    344.82736E+06
               84     57.47234E+06    57.470292E+06   -114.94324E+06   344.828992E+06       536.728821   344.827264E+06
               85      57.4563E+06    57.459428E+06  -114.956992E+06   344.830464E+06  -1.29847034E+03    344.82784E+06
               86    57.471832E+06    57.471824E+06  -114.941784E+06   344.827712E+06       5.53678894    344.82832E+06
               87    57.474628E+06    57.473716E+06  -114.937632E+06   344.826848E+06      -567.452576   344.828128E+06
               88    57.467592E+06    57.467812E+06   -114.94588E+06   344.827456E+06      -111.398483   344.828128E+06
               89    57.468504E+06    57.469228E+06  -114.944928E+06   344.827904E+06       487.528870   344.828064E+06
               90    57.473208E+06    57.472456E+06  -114.941304E+06      344.828E+06      -302.065704    344.82752E+06
               91    57.471548E+06    57.472192E+06  -114.941408E+06   344.827776E+06       834.949585   344.827968E+06
               92    57.472116E+06     57.47204E+06   -114.94148E+06   344.827616E+06      -170.778915   344.828256E+06
               93    57.470748E+06    57.471012E+06   -114.94308E+06   344.827904E+06      -319.076508   344.827776E+06
               94     57.47282E+06    57.471908E+06  -114.941408E+06   344.827488E+06      -878.073364   344.827808E+06
               95    57.471108E+06    57.470268E+06  -114.943568E+06    344.82848E+06       76.8191681   344.827808E+06
               96    57.473008E+06      57.4735E+06  -114.938936E+06   344.827168E+06      -863.243469   344.827456E+06
               97    57.471336E+06    57.470608E+06  -114.943392E+06   344.827936E+06      -449.262573   344.827968E+06
               98    57.475708E+06     57.47616E+06  -114.938264E+06    344.82752E+06       220.100357   344.828128E+06
               99    57.469944E+06    57.470164E+06  -114.943088E+06   344.827808E+06      -32.7139091   344.828224E+06
              100    57.472216E+06    57.472496E+06  -114.941472E+06   344.827776E+06       274.902771    344.82784E+06
              101     57.47018E+06     57.47036E+06  -114.943608E+06    344.82816E+06      -207.468170   344.827904E+06
              102    57.472276E+06    57.472064E+06  -114.941544E+06   344.827712E+06      -59.5874901   344.827712E+06
              103    57.472672E+06    57.472408E+06  -114.940968E+06   344.827552E+06      -200.678650   344.827968E+06
              104    57.471164E+06    57.471316E+06  -114.942752E+06   344.827872E+06      -55.0849380   344.828128E+06
              105    57.470836E+06    57.471304E+06  -114.942992E+06   344.828192E+06       82.1889420   344.828064E+06
              106    57.414548E+06    57.421984E+06   -114.99364E+06   344.833728E+06      -927.274780    344.83376E+06
              107    57.471384E+06    57.471464E+06  -114.942464E+06   344.827936E+06       18.5603123      344.828E+06
              108    57.471152E+06    57.471508E+06  -114.942744E+06   344.828128E+06       26.2553177   344.828096E+06
              109    57.471568E+06    57.471492E+06   -114.94248E+06      344.828E+06      -109.791100      344.828E+06
              110    57.479432E+06    57.477704E+06  -114.934296E+06   344.826816E+06       323.633789    344.82624E+06
              111    57.470976E+06    57.471008E+06  -114.943104E+06   344.827936E+06      -109.296921   344.827744E+06
              112     57.47094E+06    57.470724E+06  -114.943104E+06   344.827776E+06      -46.3818398   344.827712E+06
              113     57.48412E+06     57.48184E+06  -114.932576E+06   344.830304E+06      -953.735962   344.825632E+06
              114    57.504484E+06     57.50958E+06  -114.906832E+06   344.819712E+06  -1.06980273E+03   344.825088E+06
              115    57.471692E+06    57.471784E+06  -114.942024E+06   344.827872E+06      -193.100449   344.827744E+06
              116     57.47132E+06    57.471416E+06  -114.942416E+06   344.827936E+06      -206.640518   344.827776E+06
              117    57.472656E+06      57.4725E+06   -114.94108E+06   344.827712E+06      -251.759109   344.828064E+06
              118     57.47058E+06    57.470416E+06  -114.943824E+06   344.827936E+06      -174.174149   344.827968E+06
              119    57.471748E+06    57.472968E+06   -114.94148E+06   344.827968E+06      -439.305908   344.828096E+06
              120    57.470716E+06    57.472004E+06  -114.942288E+06   344.828096E+06       31.6456375   344.828384E+06
              121    57.472492E+06    57.472404E+06    -114.9416E+06    344.82768E+06      -28.8591709   344.827616E+06
              122    57.471848E+06       57.472E+06  -114.942552E+06   344.828128E+06       190.916534      344.828E+06
              123    57.471536E+06    57.471336E+06    -114.9424E+06   344.827968E+06      -202.082596   344.827776E+06
              124     57.47362E+06    57.474132E+06  -114.940696E+06   344.827584E+06       352.792328   344.827072E+06
              125    57.471652E+06     57.47206E+06  -114.942144E+06    344.82768E+06       181.064957   344.827936E+06
              126    57.472156E+06    57.471872E+06  -114.941968E+06    344.82784E+06      -170.700119   344.827552E+06
              127    57.471588E+06     57.47142E+06  -114.942376E+06   344.827872E+06      -272.330841   344.827648E+06
              128    57.472572E+06    57.472428E+06   -114.94148E+06   344.827648E+06      -208.157837   344.827328E+06
              129    57.471668E+06     57.47144E+06    -114.9426E+06   344.827968E+06       85.1881332   344.827968E+06
              130    57.473972E+06    57.473624E+06  -114.940248E+06   344.827872E+06       399.007782   344.827904E+06
              131    57.470736E+06     57.47104E+06  -114.943144E+06   344.828224E+06       52.5162926   344.828032E+06
              132    57.470268E+06    57.470432E+06  -114.943744E+06   344.828192E+06       80.8056488    344.82816E+06
              133     57.47116E+06     57.47136E+06  -114.942832E+06   344.827808E+06       183.209290    344.82784E+06
              134    57.473208E+06    57.474024E+06   -114.94096E+06   344.827648E+06       416.368408   344.827136E+06
              135     57.47144E+06     57.47158E+06  -114.942288E+06   344.827904E+06      -166.011887   344.827808E+06
              136    57.471312E+06    57.471444E+06  -114.942728E+06   344.828192E+06      -99.7882843   344.827936E+06
              137      57.5299E+06      57.5282E+06  -114.886344E+06   344.815584E+06   2.09751050E+03     344.8216E+06
              138     57.47074E+06    57.470108E+06  -114.943104E+06    344.82784E+06       33.3513336   344.827936E+06
              139     57.47204E+06    57.472072E+06  -114.941712E+06   344.827904E+06       80.6865921   344.827904E+06
              140    57.463584E+06    57.474356E+06  -114.946056E+06   344.828192E+06       603.130798   344.832704E+06
              141    57.471824E+06     57.47178E+06  -114.941496E+06    344.82768E+06      -291.012695   344.827616E+06
              142    57.471464E+06    57.471172E+06  -114.942408E+06   344.828032E+06       86.8091507   344.827744E+06
              143    57.470204E+06    57.470028E+06  -114.943816E+06    344.82816E+06      -7.32696629   344.827872E+06
              144    57.471508E+06     57.47148E+06  -114.942464E+06   344.827968E+06       103.282448   344.827872E+06
              145    57.472628E+06     57.47216E+06   -114.94148E+06    344.82784E+06      -84.4717331   344.827904E+06
              146    57.472976E+06     57.47298E+06  -114.940816E+06   344.827584E+06      -254.530319   344.827456E+06
              147    57.467308E+06    57.468268E+06  -114.944992E+06   344.828736E+06       270.527374   344.828064E+06
              148     57.46976E+06    57.470444E+06  -114.943576E+06   344.827488E+06       358.550110     344.8288E+06
              149    57.472196E+06    57.472812E+06  -114.940448E+06      344.828E+06       170.350357    344.82768E+06
              150     57.47296E+06      57.4731E+06   -114.94024E+06   344.827712E+06       130.369354   344.828192E+06
              151    57.471656E+06     57.47198E+06   -114.94176E+06      344.828E+06       586.779114   344.828032E+06
              152     57.47078E+06    57.471296E+06  -114.942952E+06   344.827936E+06       746.280273   344.828256E+06
              153    57.471512E+06    57.471364E+06   -114.94264E+06   344.827904E+06       77.4140396   344.828128E+06
              154     57.47056E+06    57.471048E+06  -114.943256E+06    344.82832E+06       250.392593   344.827936E+06
              155     57.47138E+06    57.471472E+06    -114.9426E+06   344.828352E+06       144.554413   344.828032E+06
              156    57.472272E+06      57.4722E+06  -114.941728E+06   344.828096E+06       288.541870   344.827872E+06
              157    57.474756E+06     57.47342E+06   -114.93928E+06    344.82768E+06       369.868835    344.82736E+06
              158    57.471152E+06    57.470916E+06  -114.943024E+06   344.828384E+06       338.116821   344.827904E+06
              159    57.472908E+06    57.473392E+06   -114.94092E+06      344.828E+06      -307.950714   344.827776E+06
              160    57.471044E+06    57.471784E+06  -114.942952E+06   344.828032E+06       61.9057198    344.82832E+06
              161    57.471308E+06    57.471772E+06  -114.942616E+06   344.828096E+06      -23.9692039      344.828E+06
              162    57.471424E+06     57.47152E+06  -114.942624E+06   344.828064E+06      -148.093842   344.828032E+06
              163    57.472396E+06    57.472064E+06   -114.94196E+06   344.827808E+06       96.9237137   344.828192E+06
              164    57.471876E+06    57.472284E+06  -114.941792E+06   344.828032E+06      -45.3176460    344.82784E+06
              165    57.471432E+06     57.47156E+06   -114.94228E+06   344.827936E+06       41.7950897   344.827936E+06
              166    57.471276E+06    57.470888E+06  -114.943352E+06   344.827712E+06      -108.311249   344.828032E+06
              167      57.4706E+06    57.471164E+06  -114.943472E+06   344.828096E+06       105.065399   344.828032E+06
              168    57.471216E+06    57.471452E+06  -114.942672E+06   344.827936E+06      -46.6557770   344.827648E+06
              169    57.472116E+06    57.471488E+06  -114.942696E+06   344.827968E+06      -146.606140   344.827968E+06
              170    57.470612E+06      57.4706E+06  -114.943376E+06   344.827968E+06      -206.276367   344.828032E+06
              171     57.47122E+06     57.47128E+06  -114.942752E+06   344.827936E+06      -407.491760    344.82768E+06
              172    57.471092E+06    57.471208E+06  -114.942792E+06   344.827968E+06       81.3623276   344.828064E+06
              173     57.47194E+06    57.471836E+06  -114.942064E+06   344.827744E+06      -74.3515396   344.827584E+06
              174    57.471296E+06     57.47114E+06  -114.942944E+06   344.827936E+06      -17.7930107   344.827776E+06
              175    57.472212E+06    57.472504E+06    -114.9418E+06   344.828064E+06       58.0138588   344.827968E+06
              176     57.47126E+06    57.470936E+06  -114.943752E+06   344.827872E+06      -89.4267578   344.827648E+06
              177    57.472064E+06     57.47234E+06  -114.941808E+06    344.82816E+06       205.495529   344.828192E+06
              178    57.470504E+06      57.4705E+06  -114.943488E+06   344.828416E+06       142.400772   344.827904E+06
              179    57.471256E+06    57.471284E+06  -114.942784E+06   344.827904E+06      -83.6257782   344.827712E+06
              180    57.471112E+06    57.471132E+06  -114.942912E+06   344.828224E+06       106.102959   344.827968E+06
              181    57.470824E+06     57.47146E+06  -114.943232E+06   344.828128E+06       60.8103867   344.828224E+06
              182     57.47124E+06    57.471248E+06  -114.942728E+06   344.828224E+06       99.5005188   344.827968E+06
              183    57.471372E+06    57.471356E+06  -114.942328E+06   344.827936E+06       418.125305   344.828032E+06
              184    57.474004E+06     57.47372E+06  -114.939808E+06   344.828032E+06      -222.874664   344.827584E+06
              185      57.4711E+06    57.471164E+06  -114.942992E+06   344.828192E+06       127.384865   344.828064E+06
              186    57.471228E+06    57.471704E+06  -114.942504E+06   344.828128E+06       217.773270   344.827872E+06
              187    57.470348E+06    57.470744E+06  -114.943328E+06   344.828288E+06       95.2739029   344.828192E+06
              188    57.471272E+06    57.471336E+06  -114.942624E+06   344.827968E+06       116.450508   344.828032E+06
              189     57.47158E+06     57.47136E+06  -114.942504E+06   344.827936E+06      -4.16130543   344.827744E+06
              190    57.469064E+06     57.46952E+06  -114.944304E+06   344.828096E+06       120.726158   344.828224E+06
              191    57.471736E+06    57.471224E+06  -114.942192E+06   344.827904E+06      -313.010986    344.82768E+06
              192    57.471192E+06    57.471584E+06  -114.942248E+06   344.827872E+06       105.998840   344.827936E+06
              193    57.470948E+06    57.470688E+06  -114.943264E+06   344.828032E+06  -904.701650E-03   344.827872E+06
              194    57.471652E+06    57.471588E+06  -114.942352E+06   344.828032E+06       153.380325   344.828032E+06
              195    57.471812E+06    57.470436E+06   -114.94316E+06   344.827584E+06      -186.297119   344.827616E+06
              196    57.470368E+06    57.470724E+06  -114.942808E+06   344.828096E+06      -29.3986588    344.82768E+06
              197    57.468604E+06    57.468908E+06   -114.94492E+06   344.827936E+06       195.806259   344.828288E+06
              198    57.467608E+06    57.467756E+06   -114.94628E+06   344.828352E+06       -267.15625   344.828096E+06
              199    57.472508E+06    57.468212E+06  -114.946848E+06   344.830432E+06   2.26021533E+03    344.82848E+06
              200      57.4642E+06     57.46472E+06  -114.951816E+06   344.830784E+06      -777.921021   344.828672E+06
              201    57.480788E+06    57.486788E+06  -114.931328E+06   344.827296E+06      -416.954956    344.82768E+06
              202    57.475028E+06    57.474912E+06   -114.93908E+06   344.827264E+06       197.990707   344.827008E+06
              203     57.47536E+06    57.474664E+06  -114.939584E+06   344.827744E+06       786.292908   344.827872E+06
              204    57.470916E+06    57.469704E+06    -114.9434E+06   344.828384E+06       545.019958   344.827392E+06
              205     57.47274E+06    57.471772E+06  -114.941168E+06      344.828E+06       189.611603   344.828256E+06
              206    57.467912E+06      57.4686E+06  -114.945184E+06   344.828128E+06       293.751587   344.827584E+06
              207    57.470488E+06    57.471156E+06   -114.94284E+06    344.82784E+06      -691.727722   344.827616E+06
              208    57.470812E+06    57.471244E+06  -114.943464E+06    344.82784E+06       89.6292725   344.827744E+06
              209    57.471968E+06    57.472012E+06   -114.94252E+06   344.827648E+06       112.902924    344.82768E+06
              210    57.470392E+06    57.470064E+06  -114.944088E+06   344.827968E+06      -414.648651    344.82816E+06
              211    57.469296E+06    57.469216E+06  -114.944288E+06   344.828064E+06      -233.687073   344.828576E+06
              212    57.469024E+06    57.469412E+06  -114.944936E+06   344.827968E+06      -382.882294   344.828832E+06
              213     57.47974E+06      57.4811E+06  -114.933712E+06    344.82688E+06      -110.406975   344.827104E+06
              214    57.468972E+06    57.469904E+06   -114.94456E+06   344.828832E+06       473.313141   344.828256E+06
              215    57.472692E+06    57.473088E+06    -114.9416E+06   344.827552E+06      -7.40674639   344.827328E+06
              216    57.477688E+06    57.476696E+06  -114.936424E+06     344.8264E+06      -870.223572   344.827808E+06
              217    57.473612E+06     57.47286E+06   -114.94008E+06   344.827456E+06       52.4799385   344.827776E+06
              218    57.469192E+06    57.468344E+06  -114.945176E+06   344.828096E+06       223.675476   344.828096E+06
              219    57.470608E+06    57.471116E+06  -114.942536E+06   344.828128E+06       13.1645298   344.827712E+06
              220    57.468736E+06    57.468424E+06  -114.946144E+06   344.828128E+06      -51.9771385    344.82784E+06
              221    57.469152E+06     57.46908E+06  -114.945256E+06    344.82816E+06      -438.868774    344.82784E+06
              222    57.467564E+06    57.467448E+06  -114.947336E+06    344.82832E+06      -292.690948   344.827968E+06
              223    57.470156E+06    57.471412E+06   -114.94328E+06   344.827616E+06      -344.612671   344.827776E+06
              224    57.471316E+06    57.471416E+06  -114.942416E+06   344.827936E+06      -197.489746   344.827776E+06
              225    57.471712E+06     57.47258E+06  -114.941968E+06   344.828192E+06      -621.781921    344.82736E+06
              226    57.475608E+06    57.469968E+06  -114.944464E+06   344.831552E+06       581.365173   344.827424E+06
              227    57.469924E+06    57.469148E+06  -114.944448E+06      344.828E+06       502.054016    344.82848E+06
              228     57.46902E+06    57.468016E+06   -114.94544E+06    344.82688E+06   1.24253247E+03   344.828704E+06
              229    57.470236E+06    57.469956E+06  -114.943248E+06   344.827616E+06       623.222656   344.828288E+06
              230    57.469704E+06    57.469012E+06  -114.944288E+06   344.827712E+06       503.314545   344.828384E+06
              231    57.471976E+06    57.471472E+06  -114.942664E+06   344.828256E+06      -3.39645743   344.827968E+06
              232      57.4718E+06    57.471228E+06  -114.942064E+06   344.828832E+06      -4.01469517   344.828064E+06
              233    57.474084E+06    57.473396E+06  -114.940224E+06   344.827936E+06      -285.964142    344.82784E+06
              234    57.471568E+06    57.472012E+06  -114.942648E+06   344.827232E+06      -527.011658   344.827616E+06
              235    57.465712E+06    57.465172E+06   -114.94932E+06   344.828224E+06      -427.589813    344.82912E+06
              236    57.463728E+06    57.465412E+06  -114.949472E+06   344.827072E+06  -1.94557397E+03    344.82896E+06
              237    57.463772E+06    57.465648E+06  -114.949744E+06    344.82672E+06  -1.46098035E+03   344.829024E+06
              238    57.475176E+06    57.478472E+06  -114.937136E+06   344.827968E+06   1.08226648E+03   344.827392E+06
              239    57.466596E+06    57.467476E+06  -114.948056E+06   344.830656E+06      -186.256119   344.829728E+06
              240    57.473952E+06     57.47262E+06   -114.93812E+06    344.82912E+06  -1.42295349E+03   344.827872E+06
              241    57.470264E+06    57.470336E+06   -114.94308E+06    344.82768E+06      -664.616638    344.82944E+06
              242    57.479008E+06    57.477996E+06  -114.935936E+06    344.82816E+06  -1.09444763E+03    344.82688E+06
              243    57.472796E+06    57.472308E+06  -114.941608E+06   344.827808E+06       192.685516     344.8288E+06
              244    57.469464E+06    57.468676E+06  -114.944664E+06   344.827872E+06       58.6754608   344.827136E+06
              245    57.469268E+06    57.470932E+06  -114.943944E+06   344.827744E+06      -295.400391    344.82784E+06
              246    57.469708E+06    57.468848E+06  -114.944848E+06      344.828E+06       307.470062   344.828256E+06
              247    57.470672E+06    57.469632E+06  -114.945328E+06   344.828352E+06      -339.221985   344.828864E+06
              248    57.474052E+06     57.47212E+06  -114.941928E+06    344.82816E+06       179.410995   344.827712E+06
              249    57.469432E+06    57.470376E+06  -114.944408E+06   344.827552E+06      -118.753220   344.828032E+06
              250     57.46762E+06    57.467972E+06  -114.947984E+06   344.829088E+06      -437.079071   344.827712E+06
              251    57.471504E+06    57.471824E+06  -114.941672E+06   344.826528E+06   1.11282617E+03   344.826944E+06
              252    57.459028E+06    57.460892E+06  -114.950344E+06   344.825536E+06      -772.465332   344.827808E+06
              253    57.470288E+06    57.467856E+06  -114.942464E+06   344.827808E+06  -1.56015381E+03   344.826496E+06
              254    57.471652E+06    57.472356E+06  -114.941032E+06   344.826496E+06   2.43739282E+03     344.8272E+06
              255      57.4775E+06    57.481392E+06   -114.93144E+06   344.825344E+06       913.773376   344.824736E+06
              256      57.4744E+06     57.47176E+06   -114.94208E+06    344.82768E+06       653.142273   344.827072E+06
              257    57.467732E+06    57.466528E+06  -114.944408E+06   344.825504E+06      -962.237976   344.827456E+06
              258    57.473472E+06    57.472672E+06  -114.940072E+06   344.828736E+06       271.297363   344.828672E+06
              259     57.46806E+06     57.46904E+06  -114.945408E+06   344.827648E+06      -538.855957   344.827712E+06
              260    57.468772E+06    57.470852E+06  -114.944176E+06   344.827616E+06      -604.690308   344.827904E+06
              261    57.476808E+06    57.476752E+06  -114.936192E+06   344.824032E+06  -1.81824878E+03   344.826464E+06
              262    57.463324E+06    57.465284E+06   -114.94728E+06    344.82352E+06  -2.18146167E+03   344.828192E+06
              263    57.472328E+06    57.477248E+06     -114.939E+06   344.828512E+06   1.12966882E+03   344.827904E+06
              264     57.47034E+06    57.470624E+06  -114.943392E+06   344.827904E+06       38.8025551   344.828256E+06
              265    57.471364E+06    57.471588E+06  -114.942352E+06    344.82816E+06      -29.6682301   344.828032E+06
              266    57.472808E+06     57.47314E+06  -114.941264E+06   344.829664E+06       899.960266   344.827776E+06
              267    57.468848E+06    57.468576E+06   -114.94616E+06   344.827232E+06       83.9676971    344.82832E+06
              268    57.470904E+06    57.472352E+06  -114.941288E+06   344.827424E+06       232.897308   344.828608E+06
              269    57.471156E+06     57.47004E+06  -114.943016E+06   344.827872E+06      -233.619324   344.827776E+06
              270     57.47178E+06    57.471276E+06  -114.941944E+06    344.82784E+06      -259.919128   344.827552E+06
              271     57.46796E+06     57.46776E+06  -114.945992E+06   344.827776E+06       209.714828   344.828672E+06
              272      57.4682E+06     57.46938E+06  -114.944776E+06   344.828096E+06      -91.9067917   344.828224E+06
              273     57.46968E+06    57.469516E+06  -114.943552E+06   344.827808E+06       59.2598534    344.82832E+06
              274    57.469136E+06    57.470012E+06  -114.944352E+06    344.82816E+06       2.39590383    344.82816E+06
              275    57.473484E+06    57.476008E+06  -114.940512E+06   344.829152E+06      -453.309143   344.827616E+06
              276    57.474264E+06    57.475532E+06  -114.941136E+06   344.829248E+06       380.172577   344.828768E+06
              277    57.478888E+06    57.482412E+06  -114.933632E+06    344.82496E+06  -1.44394946E+03   344.827072E+06
              278    57.487368E+06     57.49172E+06  -114.925904E+06    344.82592E+06  -1.11377747E+03   344.826656E+06
              279    57.471128E+06     57.46484E+06   -114.94652E+06   344.829216E+06  -1.38515247E+03   344.825664E+06
              280    57.480528E+06    57.481556E+06  -114.932992E+06   344.825472E+06      -968.959412   344.826272E+06
              281    57.490412E+06    57.501784E+06  -114.922688E+06   344.828832E+06       119.521729    344.82656E+06
              282    57.463424E+06    57.466268E+06   -114.94912E+06   344.829856E+06   1.10071765E+03   344.828512E+06
              283    57.479676E+06    57.482344E+06  -114.934664E+06   344.826656E+06      -362.454803   344.828096E+06
              284    57.460432E+06     57.45858E+06    -114.9512E+06   344.824608E+06      -381.706299     344.8304E+06
              285     57.47596E+06      57.4797E+06  -114.934824E+06   344.825344E+06       738.268127   344.826976E+06
              286    57.462904E+06    57.461736E+06   -114.95356E+06   344.828608E+06   2.21979688E+03    344.83024E+06
              287      57.4824E+06     57.48108E+06  -114.933776E+06   344.825888E+06       166.874985   344.825376E+06
              288    57.465068E+06    57.465796E+06  -114.948208E+06   344.829824E+06   2.88934546E+03   344.828416E+06
              289    57.467936E+06     57.46306E+06   -114.94812E+06   344.829024E+06      -95.7921677   344.828064E+06
              290     57.49612E+06    57.492996E+06  -114.915312E+06   344.821728E+06      -526.424866   344.819936E+06
              291    57.468276E+06    57.467464E+06  -114.945528E+06   344.828512E+06   1.40240564E+03    344.82832E+06
              292    57.471744E+06      57.4701E+06  -114.943528E+06   344.827904E+06       290.290741   344.827744E+06
              293     57.48874E+06     57.48746E+06  -114.924144E+06   344.823648E+06       546.229248   344.823584E+06
              294    57.471512E+06    57.472832E+06   -114.94072E+06   344.828288E+06   2.09810986E+03   344.828832E+06
              295    57.468748E+06    57.470212E+06  -114.944832E+06   344.827936E+06       984.353210   344.828448E+06
              296    57.468476E+06     57.47018E+06  -114.944408E+06   344.827872E+06       177.540573   344.828448E+06
              297    57.481064E+06      57.4806E+06   -114.93456E+06    344.82336E+06       185.575455   344.828352E+06
              298    57.477328E+06    57.476804E+06  -114.938016E+06   344.829088E+06   2.02425806E+03   344.828352E+06
              299    57.466668E+06    57.468044E+06    -114.9452E+06   344.829536E+06       380.135681   344.828608E+06
              300    57.470352E+06     57.47106E+06  -114.942656E+06    344.82752E+06      -811.261230      344.828E+06
              301    57.469056E+06    57.471864E+06  -114.944568E+06   344.828224E+06      -191.785004   344.828448E+06
              302    57.474424E+06    57.474812E+06  -114.939248E+06   344.827968E+06      -613.047729   344.827968E+06
              303    57.468332E+06     57.46838E+06  -114.946976E+06   344.828736E+06      -627.291382    344.82848E+06
              304    57.469088E+06     57.47184E+06  -114.944432E+06    344.82848E+06  -1.12066675E+03   344.827712E+06
              305    57.471328E+06    57.471704E+06   -114.94256E+06   344.828288E+06      -469.681122   344.827584E+06
              306    57.470096E+06     57.46566E+06  -114.944488E+06   344.827872E+06       788.375061   344.826368E+06
              307    57.481536E+06    57.485752E+06  -114.930576E+06   344.825408E+06  -1.09629944E+03   344.826464E+06
              308    57.460344E+06     57.45764E+06  -114.951496E+06   344.826368E+06       839.045776    344.82624E+06
              309    57.460792E+06    57.459704E+06  -114.955952E+06    344.83168E+06      -249.038910    344.82912E+06
              310    57.513652E+06    57.521196E+06   -114.89584E+06     344.8208E+06       821.818420   344.822432E+06
              311    57.496928E+06      57.5036E+06  -114.915384E+06   344.831712E+06       183.411865   344.823328E+06
              312    57.472132E+06    57.471352E+06  -114.942808E+06    344.82864E+06      -322.211761   344.827488E+06
              313    57.481088E+06     57.48454E+06  -114.933632E+06    344.82976E+06       343.565247   344.827552E+06
              314    57.472548E+06    57.471548E+06  -114.938848E+06   344.828032E+06       126.875961   344.829024E+06
              315    57.472104E+06    57.471276E+06  -114.942944E+06    344.83216E+06   2.62354688E+03   344.828224E+06
              316    57.472988E+06     57.47158E+06  -114.940136E+06   344.824544E+06  -2.87483838E+03   344.827488E+06
              317    57.463464E+06      57.4667E+06  -114.948472E+06     344.8288E+06      -663.133057   344.828736E+06
              318    57.473884E+06    57.475216E+06  -114.939488E+06   344.828896E+06  -1.38425928E+03   344.828576E+06
              319      57.4735E+06    57.473312E+06  -114.940216E+06   344.827328E+06       220.636032   344.827488E+06
              320    57.470072E+06    57.470156E+06   -114.94384E+06      344.828E+06      -2.72086024   344.827904E+06
              321    57.473256E+06    57.472896E+06  -114.941032E+06    344.82768E+06       128.884796   344.827488E+06
              322    57.470116E+06    57.469552E+06  -114.944312E+06   344.828064E+06       492.437164    344.82816E+06
              323    57.452604E+06    57.456104E+06  -114.961576E+06    344.83088E+06       255.544388   344.833344E+06
              324    57.474328E+06    57.478288E+06    -114.9404E+06   344.829376E+06       442.634399   344.824384E+06
              325    57.482792E+06    57.487096E+06  -114.931872E+06   344.827104E+06       344.593109    344.82432E+06
              326    57.484768E+06    57.491464E+06   -114.92736E+06   344.828384E+06       274.738098   344.828192E+06
              327    57.450368E+06    57.454528E+06  -114.962856E+06    344.83344E+06      -517.711426   344.829536E+06
              328    57.471932E+06      57.4715E+06  -114.943104E+06   344.828128E+06      -56.8801880      344.828E+06
              329    57.470392E+06    57.470116E+06   -114.94404E+06   344.828224E+06       40.3090782   344.828064E+06
              330    57.471488E+06       57.471E+06  -114.943056E+06   344.828128E+06        338.59375   344.828128E+06
              331    57.471012E+06    57.470956E+06  -114.942904E+06   344.828192E+06       23.9905682   344.828032E+06
              332    57.473208E+06    57.472676E+06  -114.941184E+06   344.827872E+06      -11.1025572   344.827936E+06
              333    57.471716E+06    57.471708E+06  -114.942256E+06   344.828064E+06       115.120720   344.828064E+06
              334    57.470432E+06    57.470116E+06  -114.944008E+06   344.828128E+06       257.721802   344.828192E+06
              335    57.476692E+06    57.473892E+06  -114.938096E+06   344.827584E+06      -884.204102   344.827648E+06
              336    57.471052E+06     57.47068E+06  -114.943144E+06   344.828256E+06       53.2715950   344.827744E+06
              337    57.472924E+06    57.472264E+06  -114.941072E+06    344.82752E+06      -327.530365   344.827872E+06
              338    57.472588E+06    57.472532E+06  -114.941552E+06   344.827584E+06       395.967529      344.828E+06
              339    57.475144E+06    57.472952E+06  -114.940144E+06    344.82784E+06      -660.025818   344.827648E+06
              340    57.467808E+06    57.467344E+06  -114.946376E+06   344.828704E+06      -314.865936   344.828192E+06
              341    57.462744E+06    57.456084E+06  -114.954032E+06   344.829792E+06      -594.990112   344.827872E+06
              342     57.46946E+06    57.469448E+06  -114.944408E+06   344.828544E+06       243.951660   344.827904E+06
              343    57.474132E+06    57.474288E+06   -114.94008E+06   344.828032E+06      -240.246994   344.828064E+06
              344    57.473376E+06    57.472952E+06  -114.940328E+06    344.82736E+06      -641.031860    344.82752E+06
              345    57.470324E+06    57.470156E+06  -114.940976E+06   344.829056E+06   1.08274170E+03   344.825632E+06
              346    57.476272E+06    57.475568E+06   -114.93856E+06    344.82816E+06       405.105164   344.827328E+06
              347    57.474084E+06    57.472756E+06  -114.940944E+06   344.828576E+06       246.038239    344.82752E+06
              348    57.474892E+06    57.473536E+06   -114.94044E+06   344.827072E+06       112.568390   344.826464E+06
              349    57.472016E+06    57.471556E+06  -114.942016E+06   344.828384E+06      -58.1106148   344.827552E+06
              350    57.445688E+06    57.445644E+06  -114.966184E+06   344.831328E+06  -1.13865552E+03   344.832448E+06
              351    57.467464E+06    57.467936E+06  -114.944608E+06   344.828832E+06       155.109238    344.82896E+06
              352    57.468116E+06    57.469444E+06  -114.945368E+06   344.828512E+06       405.079041   344.828896E+06
              353    57.465572E+06    57.466132E+06   -114.94764E+06   344.826848E+06       251.420319   344.830368E+06
              354     57.47122E+06    57.471228E+06   -114.94292E+06   344.828256E+06       83.3750076   344.828032E+06
              355    57.475976E+06    57.476528E+06    -114.9378E+06    344.82768E+06       259.668091   344.827648E+06
              356      57.4706E+06    57.468308E+06   -114.94236E+06   344.828512E+06      -112.978394   344.826592E+06
              357    57.471488E+06     57.47312E+06  -114.940488E+06   344.827168E+06      -221.942627   344.828992E+06
              358    57.510092E+06     57.51966E+06    -114.9062E+06   344.827808E+06      -547.202148   344.820448E+06
              359    57.470712E+06    57.470496E+06  -114.943136E+06   344.827648E+06       234.103485   344.827872E+06
              360    57.492184E+06    57.503488E+06  -114.920608E+06   344.835168E+06      -570.863953   344.827744E+06
              361     57.47204E+06    57.467804E+06   -114.94364E+06   344.828672E+06  -1.35267920E+03   344.828672E+06
              362    57.475984E+06    57.473404E+06    -114.9362E+06   344.825472E+06   1.45299634E+03   344.828416E+06
              363    57.491112E+06     57.48006E+06   -114.93284E+06   344.833696E+06      -473.259583   344.826976E+06
              364    57.470632E+06     57.47008E+06  -114.943768E+06   344.828992E+06       571.601013   344.827264E+06
              365    57.469076E+06    57.466756E+06   -114.94604E+06   344.829984E+06       519.767517    344.82672E+06
              366    57.467972E+06    57.469952E+06  -114.946472E+06    344.82864E+06      -230.949127    344.82816E+06
              367    57.469848E+06    57.470752E+06   -114.94376E+06   344.828128E+06       147.044464   344.828288E+06
              368    57.467732E+06    57.470708E+06  -114.946432E+06   344.825536E+06  -1.93134741E+03   344.828096E+06
              369     57.47086E+06    57.472072E+06    -114.9422E+06      344.828E+06       264.768494    344.82816E+06
              370    57.466492E+06    57.469084E+06   -114.94852E+06   344.828448E+06      -196.839111   344.828704E+06
              371    57.488508E+06    57.484912E+06   -114.93128E+06   344.828736E+06   1.16303772E+03   344.827392E+06
              372    57.469596E+06    57.463784E+06  -114.949384E+06   344.826944E+06   1.73135449E+03    344.82976E+06
              373    57.534036E+06     57.53638E+06  -114.883544E+06   344.812256E+06  -1.86916040E+03   344.824704E+06
              374    57.471332E+06    57.470944E+06  -114.944792E+06   344.829632E+06   2.59954639E+03    344.83024E+06
              375      57.4636E+06    57.461076E+06  -114.950928E+06   344.828224E+06  -2.27528955E+03    344.82624E+06
              376    57.471284E+06    57.471176E+06  -114.942312E+06      344.828E+06       72.3241959   344.827296E+06
              377    57.460172E+06    57.462472E+06  -114.950448E+06    344.82976E+06   1.66641565E+03   344.828864E+06
              378        57.47E+06    57.470056E+06  -114.943288E+06   344.828416E+06       996.546570   344.828384E+06
              379      57.4716E+06     57.47196E+06  -114.941472E+06   344.827648E+06      -18.1247501   344.827072E+06
              380    57.473052E+06     57.47232E+06  -114.940496E+06    344.82784E+06       545.568726   344.827648E+06
              381    57.473332E+06    57.473004E+06  -114.940584E+06   344.827424E+06       202.894669   344.827264E+06
              382    57.469872E+06    57.469956E+06  -114.943904E+06   344.827808E+06       66.1515121   344.828032E+06
              383    57.473052E+06    57.472192E+06  -114.942328E+06   344.828256E+06       367.785706   344.828192E+06
              384    57.474084E+06    57.472592E+06  -114.939136E+06    344.82848E+06   1.15795435E+03   344.828448E+06
              385    57.464192E+06    57.464544E+06   -114.95028E+06    344.82928E+06      -103.034225   344.828896E+06
              386    57.474812E+06     57.47394E+06  -114.938344E+06   344.827648E+06       555.192078   344.827872E+06
              387    57.481176E+06    57.477676E+06  -114.935496E+06     344.8272E+06   1.02937671E+03   344.826976E+06
              388    57.471568E+06     57.47194E+06  -114.942992E+06   344.828736E+06      -415.751007   344.827552E+06
              389    57.472648E+06    57.472544E+06    -114.9402E+06   344.827488E+06       185.487045   344.827808E+06
              390    57.471976E+06    57.471632E+06  -114.941352E+06    344.82768E+06       172.693970   344.827776E+06
              391    57.478376E+06    57.478068E+06   -114.93488E+06   344.826816E+06       895.382324   344.826976E+06
              392     57.47096E+06    57.469096E+06  -114.944672E+06   344.829408E+06       886.397644    344.82704E+06
              393    57.471492E+06    57.470672E+06  -114.942816E+06   344.827584E+06       332.970642   344.828544E+06
              394    57.475356E+06    57.475668E+06   -114.93848E+06   344.827552E+06       408.062012      344.828E+06
              395    57.466772E+06    57.465608E+06  -114.949104E+06   344.828576E+06       801.663147    344.82784E+06
              396    57.470968E+06    57.467888E+06  -114.944776E+06   344.826912E+06   1.95759229E+03   344.827872E+06
              397    57.466408E+06    57.469756E+06  -114.943576E+06   344.827712E+06      -214.055786   344.828544E+06
              398     57.47078E+06    57.472488E+06  -114.942104E+06   344.827776E+06       133.605728   344.827968E+06
              399     57.47916E+06     57.48592E+06  -114.930832E+06   344.821056E+06   3.80783447E+03   344.829728E+06
              400    57.465516E+06      57.4689E+06  -114.944672E+06   344.828256E+06       736.796631   344.828704E+06
              401    57.477868E+06    57.475952E+06  -114.938112E+06   344.829664E+06      -43.6814651   344.827808E+06
              402    57.473096E+06    57.472796E+06    -114.9408E+06    344.82704E+06      -601.556213   344.828736E+06
              403    57.473632E+06    57.472972E+06  -114.940536E+06   344.827552E+06      -242.612885   344.827424E+06
              404    57.471124E+06    57.471212E+06  -114.942704E+06   344.827776E+06       108.489311      344.828E+06
              405     57.46712E+06     57.46676E+06  -114.946648E+06   344.827584E+06       109.824997   344.828448E+06
              406     57.46976E+06    57.470696E+06  -114.942672E+06    344.82816E+06       115.658661   344.828032E+06
              407    57.469476E+06    57.469876E+06  -114.944256E+06    344.82784E+06       205.817245    344.82816E+06
              408    57.471228E+06    57.471352E+06   -114.94272E+06   344.827648E+06       4.39976501    344.82784E+06
              409      57.4733E+06    57.473856E+06  -114.940928E+06   344.827072E+06      -261.997925   344.827456E+06
              410    57.471892E+06     57.47206E+06  -114.942512E+06   344.827744E+06       23.6446972   344.827744E+06
              411    57.472072E+06    57.472836E+06  -114.941368E+06   344.827808E+06       128.247574    344.82768E+06
              412    57.481292E+06    57.481052E+06  -114.931528E+06   344.826144E+06   1.02889648E+03   344.826208E+06
              413    57.471944E+06    57.471356E+06   -114.94268E+06   344.828512E+06       546.379700   344.827968E+06
              414    57.470536E+06    57.470188E+06  -114.943856E+06   344.828608E+06       319.316864   344.828064E+06
              415     57.47142E+06    57.471552E+06   -114.94252E+06   344.828096E+06       133.716202   344.827936E+06
              416    57.472396E+06    57.471764E+06  -114.941616E+06    344.82784E+06       237.077164   344.827808E+06
              417    57.502552E+06     57.49752E+06  -114.913912E+06   344.823296E+06       329.654633   344.824864E+06
              418     57.47166E+06      57.4721E+06  -114.941912E+06   344.828064E+06       105.427498   344.827936E+06
              419    57.472176E+06    57.471952E+06  -114.942096E+06    344.82816E+06       243.500381   344.827872E+06
              420    57.469852E+06     57.46922E+06  -114.944144E+06   344.827776E+06       575.719360   344.828416E+06
              421    57.471384E+06    57.471036E+06  -114.941768E+06    344.82784E+06       453.505646   344.827712E+06
              422    57.470884E+06    57.470964E+06  -114.942744E+06   344.827776E+06       105.027321   344.827712E+06
              423    57.471392E+06    57.471372E+06  -114.942696E+06   344.828064E+06       193.485657   344.828032E+06
              424     57.47206E+06    57.472584E+06  -114.941736E+06   344.828288E+06       17.2526932   344.827872E+06
              425    57.471776E+06    57.472032E+06  -114.941416E+06    344.82752E+06      -147.265686   344.827616E+06
              426    57.487644E+06    57.495048E+06  -114.925744E+06   344.826656E+06       890.329041   344.829024E+06
              427    57.472808E+06    57.472292E+06  -114.941592E+06   344.828384E+06       479.467499   344.828224E+06
              428    57.471196E+06    57.470968E+06  -114.942384E+06   344.827712E+06      -296.133087   344.827776E+06
              429    57.471372E+06    57.471136E+06  -114.942296E+06   344.827712E+06      -273.044189   344.827744E+06
              430    57.471052E+06    57.470844E+06  -114.942592E+06   344.827744E+06      -304.064026   344.827776E+06
              431     57.47726E+06     57.48036E+06  -114.934552E+06   344.826816E+06       142.940399   344.827328E+06
              432    57.473104E+06    57.472884E+06  -114.940168E+06   344.827616E+06      -246.495438   344.828128E+06
              433    57.469968E+06    57.468756E+06  -114.944608E+06   344.826752E+06      -228.772003   344.829504E+06
              434    57.472908E+06      57.4732E+06  -114.941688E+06   344.828928E+06   1.68261670E+03   344.828608E+06
              435    57.467056E+06     57.46722E+06  -114.946424E+06    344.82848E+06       280.634888   344.827712E+06
              436    57.468984E+06     57.46606E+06   -114.94696E+06   344.828224E+06       127.979324   344.826176E+06
              437    57.467044E+06    57.468608E+06  -114.945104E+06   344.828288E+06       370.131378   344.828896E+06
              438    57.457196E+06    57.454652E+06   -114.95672E+06   344.829216E+06      -310.390045   344.829088E+06
              439    57.467776E+06    57.466376E+06  -114.946736E+06   344.828928E+06       163.874802   344.827776E+06
              440    57.464992E+06    57.461012E+06  -114.950456E+06   344.827456E+06      -753.394226   344.827584E+06
              441    57.472704E+06    57.472732E+06   -114.94016E+06   344.827904E+06      -670.433044   344.827104E+06
              442     57.47476E+06    57.474572E+06  -114.939968E+06   344.827296E+06       360.276031   344.827872E+06
              443    57.471768E+06     57.47204E+06  -114.941704E+06   344.827968E+06       199.295486   344.828224E+06
              444    57.469072E+06    57.469684E+06  -114.944528E+06   344.828352E+06   1.20951904E+03   344.828128E+06
              445    57.468416E+06    57.468172E+06  -114.945328E+06   344.828256E+06      -10.1153688   344.828832E+06
              446    57.468632E+06     57.46888E+06  -114.944888E+06    344.82832E+06       12.0262537   344.828384E+06
              447    57.470228E+06    57.470008E+06  -114.944632E+06   344.827648E+06      -266.510284   344.827648E+06
              448    57.470988E+06    57.471168E+06  -114.942896E+06   344.828128E+06       381.430359    344.82784E+06
              449      57.4677E+06     57.46716E+06  -114.947408E+06   344.828128E+06      -579.116455      344.828E+06
              450    57.470884E+06    57.471816E+06  -114.941392E+06   344.828576E+06       828.345703    344.82688E+06
              451    57.465976E+06     57.46774E+06   -114.94732E+06   344.830784E+06   1.45400671E+03   344.827968E+06
              452     57.47762E+06    57.477548E+06   -114.93516E+06   344.827584E+06       331.011230    344.82656E+06
              453    57.480712E+06    57.479444E+06  -114.933664E+06     344.8264E+06      -714.209290   344.827584E+06
              454    57.472472E+06    57.470736E+06  -114.942528E+06   344.828608E+06       169.920135   344.828032E+06
              455      57.5023E+06    57.521592E+06   -114.90804E+06   344.835168E+06   2.07070996E+03   344.831744E+06
              456    57.477052E+06     57.47768E+06  -114.936848E+06   344.827776E+06       80.1109085   344.827968E+06
              457    57.470684E+06    57.471536E+06  -114.943784E+06    344.82992E+06   1.49118701E+03   344.826592E+06
              458     57.48182E+06    57.475892E+06  -114.936136E+06    344.82832E+06       351.947266   344.825472E+06
              459    57.468792E+06    57.467972E+06  -114.945856E+06   344.827712E+06       212.821335    344.82832E+06
              460    57.473128E+06    57.471448E+06  -114.938696E+06    344.82704E+06       279.534363   344.828672E+06
              461     57.46806E+06    57.468624E+06   -114.94524E+06    344.82992E+06   1.96842810E+03    344.83024E+06
              462    57.498712E+06    57.487208E+06  -114.922288E+06   344.826912E+06   1.25003796E+03   344.824864E+06
              463    57.472272E+06    57.473276E+06  -114.940192E+06   344.827616E+06      -356.286469   344.827616E+06
              464    57.472928E+06    57.472892E+06  -114.941552E+06   344.827648E+06       237.409119    344.82768E+06
              465    57.466688E+06    57.467856E+06  -114.946744E+06   344.828384E+06      -87.1594925   344.828064E+06
              466    57.472692E+06    57.470412E+06  -114.942856E+06    344.82752E+06      -319.518738   344.828224E+06
              467    57.470632E+06    57.469652E+06  -114.945176E+06   344.828576E+06   1.15992078E+03    344.82768E+06
              468     57.47258E+06    57.472024E+06    -114.9416E+06   344.827744E+06      -258.509888   344.827552E+06
              469    57.470932E+06    57.470504E+06   -114.94304E+06   344.827552E+06      -56.0070801   344.827776E+06
              470    57.473308E+06    57.472432E+06  -114.940912E+06    344.82768E+06      -489.737152   344.827712E+06
              471    57.471696E+06    57.471288E+06  -114.942176E+06   344.827904E+06      -256.895721    344.82768E+06
              472    57.509364E+06    57.510948E+06  -114.905016E+06   344.828096E+06  -1.10726318E+03    344.81984E+06
              473    57.472928E+06    57.471224E+06  -114.941584E+06   344.827936E+06       115.196815   344.827648E+06
              474    57.471072E+06    57.470804E+06  -114.942576E+06   344.827968E+06      -65.2291260   344.827808E+06
              475    57.471528E+06    57.472584E+06  -114.942232E+06   344.828256E+06       685.394531   344.828512E+06
              476    57.489832E+06    57.497532E+06  -114.922712E+06   344.824864E+06       464.020325   344.826656E+06
              477    57.472044E+06    57.472216E+06   -114.94128E+06   344.828032E+06       270.087189   344.828672E+06
              478     57.47026E+06    57.470352E+06  -114.943992E+06   344.828096E+06      -294.636749      344.828E+06
              479    57.465716E+06    57.466428E+06   -114.95016E+06   344.828608E+06       377.862061   344.828256E+06
              480     57.46376E+06    57.465324E+06  -114.951976E+06   344.828736E+06      -430.551208   344.827872E+06
              481    57.468292E+06      57.4676E+06  -114.946976E+06   344.828224E+06       391.787933   344.829376E+06
              482    57.473284E+06    57.472348E+06  -114.941112E+06   344.827744E+06      -685.747986   344.827648E+06
              483    57.470048E+06    57.469572E+06  -114.943696E+06   344.828096E+06      -156.915298   344.827584E+06
              484    57.472028E+06    57.471588E+06   -114.94188E+06   344.827776E+06      -205.228912    344.82752E+06
              485    57.471376E+06    57.471044E+06  -114.942616E+06   344.827872E+06      -109.649689   344.827744E+06
              486     57.47132E+06     57.47084E+06  -114.943552E+06   344.827584E+06      -449.039185      344.828E+06
              487    57.472832E+06    57.471928E+06     -114.941E+06   344.827552E+06      -264.093536   344.827808E+06
              488    57.475848E+06    57.474348E+06   -114.93928E+06    344.82768E+06      -370.184570   344.827776E+06
              489    57.463944E+06    57.459928E+06  -114.951672E+06    344.83024E+06      -152.259430   344.828192E+06
              490    57.474576E+06    57.474444E+06  -114.938712E+06   344.829024E+06   1.06392834E+03      344.828E+06
              491    57.471268E+06    57.470932E+06  -114.942736E+06   344.828736E+06       495.566956   344.827648E+06
              492    57.470528E+06    57.469872E+06  -114.944128E+06   344.828512E+06       84.0031891   344.827872E+06
              493    57.470184E+06    57.470756E+06    -114.9436E+06   344.828512E+06       403.154785   344.827808E+06
              494    57.468628E+06    57.468472E+06  -114.945408E+06     344.8288E+06       248.613861   344.827968E+06
              495    57.452152E+06    57.448624E+06  -114.962528E+06    344.83072E+06   1.28366602E+03   344.827328E+06
              496     57.47208E+06    57.469888E+06   -114.94364E+06   344.828448E+06       91.7393265   344.827392E+06
              497    57.474356E+06    57.471992E+06   -114.94064E+06   344.826944E+06       552.089233   344.826464E+06
              498     57.47006E+06    57.469592E+06  -114.944144E+06    344.82832E+06      -59.0201340   344.827776E+06
              499    57.465684E+06     57.46482E+06  -114.948104E+06   344.827584E+06       643.488647   344.828224E+06
              500    57.470276E+06    57.469928E+06  -114.943464E+06   344.828576E+06       504.755219   344.827712E+06
              501    57.472048E+06     57.47278E+06  -114.941352E+06      344.828E+06       40.1886673    344.82832E+06
              502    57.471432E+06    57.472576E+06  -114.941296E+06   344.828288E+06       86.4455261    344.82848E+06
              503    57.469768E+06    57.469812E+06  -114.945072E+06   344.828288E+06       293.339966   344.828224E+06
              504    57.471024E+06    57.470916E+06  -114.942192E+06   344.827456E+06       25.7548504   344.828096E+06
              505     57.46586E+06    57.465396E+06  -114.952032E+06   344.829632E+06       852.428040   344.827872E+06
              506    57.472208E+06    57.472076E+06  -114.940656E+06   344.827776E+06       223.900879   344.827616E+06
              507    57.463768E+06    57.460616E+06  -114.949536E+06   344.828544E+06      -486.160400    344.82848E+06
              508    57.469808E+06    57.470864E+06   -114.94164E+06   344.827584E+06       90.4815750    344.82784E+06
              509    57.469828E+06     57.47078E+06   -114.94352E+06   344.828096E+06      -348.139435   344.827552E+06
              510    57.472024E+06    57.471564E+06   -114.94124E+06   344.827552E+06      -114.264519   344.827584E+06
              511    57.470916E+06    57.471472E+06  -114.942744E+06   344.827872E+06      -494.183624   344.827616E+06
              512    57.473204E+06     57.47418E+06  -114.940392E+06   344.827904E+06       44.9776230      344.828E+06
              513    57.469644E+06     57.46954E+06  -114.943776E+06   344.827904E+06      -26.7721100   344.827936E+06
              514    57.471444E+06    57.471484E+06  -114.942576E+06   344.828192E+06      -169.902695   344.827904E+06
              515    57.471208E+06     57.47122E+06   -114.94288E+06   344.828416E+06       22.7770596   344.828032E+06
              516    57.468428E+06    57.467816E+06  -114.945152E+06   344.827808E+06       92.9831085   344.827968E+06
              517    57.469532E+06    57.469824E+06  -114.944392E+06   344.828544E+06       505.920380    344.82832E+06
              518    57.473412E+06      57.4746E+06  -114.940008E+06   344.827936E+06       670.994019   344.827008E+06
              519    57.470664E+06    57.472284E+06  -114.940744E+06   344.827712E+06   1.13127429E+03     344.8256E+06
              520     57.46948E+06    57.468856E+06  -114.945352E+06    344.82912E+06       500.944214   344.827296E+06
              521    57.467788E+06    57.467428E+06  -114.945984E+06   344.828544E+06      -200.080963   344.827104E+06
              522    57.478044E+06    57.476952E+06  -114.936152E+06   344.826912E+06      -974.604370   344.826752E+06
              523    57.471956E+06    57.472836E+06  -114.942512E+06   344.828768E+06       819.009399     344.8272E+06
              524     57.47122E+06    57.470752E+06  -114.943048E+06   344.827616E+06      -97.8152847   344.828352E+06
              525    57.474328E+06    57.471096E+06  -114.942088E+06    344.82736E+06  -1.64610999E+03    344.82704E+06
              526    57.460412E+06    57.463312E+06  -114.953296E+06   344.828544E+06       806.528870   344.827488E+06
              527    57.468536E+06    57.471352E+06  -114.943272E+06   344.824288E+06  -3.25297241E+03   344.825216E+06
              528    57.474124E+06    57.466484E+06  -114.946944E+06   344.828384E+06   1.26253674E+03   344.827616E+06
              529    57.436704E+06    57.432388E+06  -114.980168E+06   344.829184E+06  -1.73894055E+03   344.833504E+06
              530    57.433824E+06     57.43796E+06  -114.972928E+06   344.825792E+06  -1.91286597E+03   344.826656E+06
              531     57.48584E+06    57.494468E+06  -114.929512E+06      344.828E+06       186.641037   344.825728E+06
              532    57.473964E+06    57.473788E+06  -114.940304E+06   344.827264E+06       299.233795    344.82784E+06
              533     57.47092E+06    57.472972E+06  -114.940904E+06   344.827328E+06      -6.87381792    344.82928E+06
              534    57.471872E+06    57.471936E+06  -114.943248E+06    344.82784E+06       158.785080   344.828096E+06
              535    57.474336E+06    57.476592E+06  -114.936416E+06   344.826848E+06  -1.34007532E+03    344.82864E+06
              536    57.476044E+06    57.479864E+06  -114.939176E+06   344.827168E+06      -208.489807   344.827712E+06
              537     57.45786E+06    57.458932E+06  -114.956184E+06   344.830304E+06      -653.002380   344.830496E+06
              538     57.47842E+06    57.474052E+06  -114.938848E+06   344.828768E+06   1.80725891E+03     344.8264E+06
              539     57.47012E+06    57.470768E+06  -114.940168E+06   344.827808E+06       920.445496   344.829024E+06
              540      57.4701E+06    57.468296E+06  -114.943968E+06    344.82784E+06      -242.415527   344.827904E+06
              541    57.467336E+06    57.468536E+06  -114.946008E+06   344.829024E+06       56.4827766   344.828672E+06
              542    57.476592E+06     57.47522E+06   -114.93904E+06   344.829472E+06       487.466583   344.827296E+06
              543    57.468516E+06    57.465712E+06  -114.946728E+06   344.828992E+06       295.661804   344.827808E+06
              544    57.475456E+06    57.474456E+06   -114.93724E+06   344.828768E+06       660.940186   344.828256E+06
              545    57.476148E+06    57.477252E+06  -114.940752E+06    344.83168E+06  -1.55774377E+03   344.828608E+06
              546    57.489672E+06    57.487756E+06  -114.927528E+06   344.824928E+06      -889.269592     344.8256E+06
              547    57.476376E+06    57.475544E+06  -114.936496E+06   344.828256E+06       150.421875    344.82832E+06
              548    57.478032E+06    57.480152E+06  -114.934048E+06   344.827808E+06  -2.02476514E+03     344.8256E+06
              549    57.471348E+06    57.472256E+06  -114.942256E+06   344.825728E+06   2.35421533E+03   344.829664E+06
              550    57.449444E+06    57.453016E+06  -114.959824E+06    344.82848E+06      -653.468201   344.829792E+06
              551     57.47378E+06    57.474572E+06  -114.940432E+06   344.829024E+06      -990.999512   344.827584E+06
              552    57.469964E+06    57.468832E+06  -114.945752E+06   344.828864E+06       28.4877682   344.828864E+06
              553     57.46918E+06     57.46864E+06  -114.946256E+06   344.832576E+06   3.11573120E+03   344.828512E+06
              554    57.471504E+06    57.472436E+06  -114.942184E+06   344.828192E+06      -124.041679   344.828192E+06
              555    57.469548E+06     57.46948E+06  -114.945192E+06   344.827424E+06      -501.030609   344.828032E+06
              556    57.473788E+06    57.473944E+06   -114.94156E+06   344.828448E+06  -1.14392224E+03   344.828064E+06
              557    57.473452E+06      57.4734E+06  -114.940784E+06    344.82848E+06      -211.533417   344.828224E+06
              558    57.473264E+06     57.47258E+06  -114.940992E+06   344.827296E+06      -309.110779   344.827648E+06
              559     57.47068E+06    57.469892E+06  -114.944448E+06   344.827488E+06      -361.836426   344.827712E+06
              560    57.471504E+06    57.472656E+06  -114.943264E+06   344.828288E+06      -439.738251   344.828352E+06
              561    57.474928E+06    57.476128E+06   -114.93912E+06      344.828E+06      -549.428345   344.827872E+06
              562    57.477892E+06      57.4765E+06  -114.936984E+06   344.827776E+06       113.797577   344.827776E+06
              563    57.470488E+06    57.470132E+06  -114.942992E+06   344.828032E+06       201.626419   344.827968E+06
              564    57.469908E+06     57.47024E+06     -114.944E+06   344.827936E+06       25.0559616   344.828096E+06
              565    57.479492E+06     57.47868E+06   -114.93932E+06   344.828928E+06       921.869751   344.826528E+06
              566    57.515744E+06    57.527076E+06   -114.89716E+06   344.826656E+06  -1.99662048E+03   344.821632E+06
              567    57.468628E+06    57.465648E+06  -114.946432E+06   344.827136E+06   1.13486060E+03   344.827776E+06
              568    57.464916E+06    57.472472E+06  -114.943888E+06    344.82848E+06      -349.473022   344.829888E+06
              569    57.470984E+06    57.469632E+06  -114.942944E+06    344.82672E+06      -207.398987   344.827392E+06
              570    57.470392E+06     57.46978E+06  -114.944048E+06    344.82832E+06       33.3205910   344.827776E+06
              571    57.470728E+06    57.470888E+06  -114.942872E+06   344.827808E+06       118.162231   344.828256E+06
              572     57.47266E+06    57.472452E+06  -114.941888E+06      344.828E+06      -251.799927   344.827552E+06
              573    57.470824E+06    57.470484E+06  -114.943576E+06   344.827872E+06      -111.946854   344.827616E+06
              574    57.472024E+06    57.470936E+06  -114.942616E+06   344.828288E+06       432.377136   344.827872E+06
              575    57.473656E+06    57.473604E+06  -114.940776E+06   344.827744E+06      -332.067474   344.827264E+06
              576    57.470024E+06    57.470532E+06  -114.944152E+06   344.828608E+06       385.805023    344.82784E+06
              577     57.47088E+06    57.470268E+06  -114.943144E+06   344.827648E+06       377.870422   344.828608E+06
              578    57.469492E+06    57.467924E+06   -114.94528E+06   344.828064E+06      -166.689957   344.827648E+06
              579    57.469508E+06    57.469984E+06  -114.945568E+06   344.828352E+06       863.961060   344.828416E+06
              580    57.493632E+06    57.489256E+06  -114.919744E+06   344.825536E+06  -1.32110706E+03   344.823488E+06
              581    57.492772E+06    57.489072E+06  -114.925144E+06   344.826656E+06   4.19530811E+03   344.824224E+06
              582    57.476944E+06    57.476556E+06  -114.936568E+06    344.82544E+06   2.56533325E+03   344.824416E+06
              583    57.475204E+06    57.483976E+06    -114.9382E+06   344.835616E+06      -219.052994   344.830976E+06
              584    57.480636E+06    57.480864E+06  -114.930928E+06   344.828448E+06      -525.138000   344.825216E+06
              585     57.47038E+06    57.470344E+06   -114.94336E+06   344.828192E+06      -201.130630    344.82784E+06
              586    57.471296E+06    57.471356E+06  -114.942592E+06   344.827968E+06       52.8536758      344.828E+06
              587    57.471324E+06     57.47158E+06  -114.942224E+06   344.827904E+06      -119.351044   344.827872E+06
              588     57.47478E+06    57.474408E+06  -114.934696E+06    344.82784E+06   1.47324915E+03   344.828544E+06
              589    57.471896E+06    57.471876E+06  -114.942048E+06   344.827904E+06      -329.436707   344.827712E+06
              590    57.471424E+06    57.471376E+06   -114.94244E+06   344.828032E+06      -298.890350   344.827808E+06
              591    57.470852E+06    57.470948E+06   -114.94296E+06      344.828E+06      -199.865479   344.827936E+06
              592    57.478332E+06     57.47692E+06   -114.93804E+06    344.82592E+06      -881.024414   344.826624E+06
              593    57.478404E+06    57.482164E+06  -114.931624E+06   344.824992E+06   1.45272278E+03   344.825344E+06
              594    57.479104E+06    57.479828E+06  -114.935904E+06    344.82784E+06      -868.837280   344.825856E+06
              595    57.466016E+06    57.461924E+06  -114.950856E+06    344.83008E+06       398.012848    344.82864E+06
              596    57.498476E+06    57.495972E+06  -114.917624E+06   344.821632E+06       790.370361     344.8216E+06
              597      57.4759E+06    57.475568E+06  -114.938432E+06      344.828E+06      -246.460678   344.827744E+06
              598    57.475472E+06    57.472832E+06  -114.938384E+06   344.826656E+06       306.963898   344.827616E+06
              599    57.474068E+06    57.473936E+06  -114.939736E+06   344.826304E+06  -1.85933459E+03   344.827072E+06
              600    57.485492E+06     57.48048E+06  -114.928144E+06   344.826528E+06      -460.131439   344.828512E+06
              601    57.476656E+06    57.476824E+06  -114.936272E+06   344.827872E+06       101.343231   344.827648E+06
              602    57.462184E+06    57.461524E+06  -114.953864E+06   344.829536E+06      -841.592957   344.829536E+06
              603    57.476628E+06     57.48006E+06  -114.938432E+06   344.825216E+06      -284.430298    344.82688E+06
              604    57.478516E+06     57.48008E+06  -114.935976E+06   344.827648E+06   1.26335547E+03   344.828544E+06
              605    57.472168E+06    57.474528E+06  -114.942664E+06   344.827616E+06      -219.248581   344.829152E+06
              606    57.458964E+06    57.454772E+06  -114.958528E+06   344.828224E+06   1.01293134E+03   344.828864E+06
              607    57.472252E+06      57.4723E+06  -114.941416E+06    344.82768E+06      -22.6892319      344.828E+06
              608    57.470488E+06    57.470708E+06  -114.942712E+06   344.827744E+06       579.740234   344.828576E+06
              609      57.4709E+06    57.470764E+06  -114.943392E+06   344.827872E+06      -66.2326813    344.82768E+06
              610    57.469708E+06      57.4704E+06  -114.944328E+06   344.827904E+06       183.292709   344.828288E+06
              611    57.471604E+06     57.47164E+06  -114.942528E+06    344.82816E+06       115.933601   344.827904E+06
              612    57.470952E+06    57.471396E+06  -114.943032E+06   344.827648E+06      -89.5192337   344.828256E+06
              613    57.472196E+06    57.472872E+06   -114.94104E+06   344.828096E+06      -59.8656464   344.828096E+06
              614    57.469916E+06    57.470692E+06  -114.943752E+06   344.828384E+06       441.042694   344.827776E+06
              615    57.469368E+06       57.469E+06  -114.944256E+06   344.827616E+06      -30.6750565    344.82896E+06
              616     57.47804E+06     57.47712E+06  -114.931384E+06   344.827488E+06       464.894562    344.82752E+06
              617    57.471556E+06     57.47186E+06  -114.942224E+06   344.828096E+06       36.7829132    344.82816E+06
              618     57.47106E+06    57.471128E+06  -114.942664E+06      344.828E+06      -203.509491   344.827872E+06
              619    57.470432E+06    57.470576E+06   -114.94348E+06   344.828128E+06       9.79091930   344.828096E+06
              620     57.47148E+06    57.471072E+06  -114.942376E+06   344.827904E+06      -136.669006   344.827584E+06
              621    57.470628E+06     57.47058E+06  -114.943984E+06   344.828032E+06       68.8846664   344.828288E+06
              622    57.471564E+06     57.47174E+06  -114.941912E+06   344.827968E+06      -312.865448   344.827872E+06
              623     57.47104E+06     57.47094E+06  -114.942896E+06   344.828064E+06       100.509781   344.828192E+06
              624    57.475744E+06    57.477112E+06   -114.93844E+06    344.82832E+06       224.090118   344.827584E+06
              625    57.470664E+06      57.4708E+06  -114.943216E+06   344.827808E+06      -343.530151   344.827936E+06
              626    57.470544E+06    57.470212E+06  -114.943744E+06   344.827808E+06      -349.418030   344.827712E+06
              627    57.467016E+06    57.467392E+06  -114.946512E+06   344.827296E+06  -1.18662646E+03   344.827488E+06
              628    57.472864E+06    57.472724E+06  -114.941416E+06   344.827968E+06       93.8353577    344.82784E+06
              629    57.472156E+06    57.471688E+06  -114.942128E+06    344.82784E+06      -33.4310303   344.827808E+06
              630    57.471308E+06    57.470816E+06  -114.943184E+06   344.828128E+06       350.752502   344.827936E+06
              631    57.471632E+06    57.472076E+06  -114.942016E+06   344.828128E+06       105.587494   344.827968E+06
              632    57.471396E+06    57.471524E+06  -114.942384E+06      344.828E+06      -161.274170   344.827776E+06
              633    57.472012E+06    57.472112E+06   -114.94156E+06   344.827328E+06      -63.8032455   344.828608E+06
              634     57.47188E+06    57.471636E+06   -114.94228E+06   344.828128E+06       188.177200    344.82832E+06
              635    57.469616E+06    57.469624E+06  -114.944128E+06    344.82832E+06      -72.9550095    344.82864E+06
              636    57.473832E+06    57.472316E+06   -114.93936E+06   344.827072E+06      -470.860626   344.828448E+06
              637    57.487276E+06    57.484656E+06   -114.92888E+06   344.827136E+06   2.18355957E+03   344.825536E+06
              638    57.471688E+06    57.472416E+06  -114.943376E+06   344.829248E+06      -406.191895   344.826336E+06
              639    57.462884E+06    57.465184E+06  -114.952544E+06   344.831712E+06      -787.894470   344.828768E+06
              640    57.467868E+06    57.470372E+06  -114.947288E+06   344.828032E+06  -1.30566138E+03   344.827232E+06
              641     57.45092E+06     57.43896E+06  -114.968328E+06   344.829888E+06      -494.279999   344.827328E+06
              642     57.46978E+06    57.473464E+06   -114.94024E+06   344.827712E+06  -1.82573035E+03   344.829088E+06
              643     57.48344E+06    57.480904E+06  -114.935048E+06   344.827104E+06       309.522736     344.8272E+06
              644    57.471652E+06    57.472616E+06  -114.941992E+06   344.827136E+06      -307.448181   344.828288E+06
              645      57.4894E+06    57.477804E+06  -114.932272E+06   344.826528E+06       756.518982   344.827104E+06
              646    57.445096E+06    57.440156E+06   -114.97008E+06   344.829056E+06      -641.513855   344.831424E+06
              647    57.474616E+06    57.476664E+06  -114.938328E+06      344.828E+06       350.055481   344.829088E+06
              648    57.471896E+06    57.472692E+06  -114.944856E+06   344.827584E+06  -1.78593921E+03    344.82608E+06
              649     57.47696E+06     57.47606E+06   -114.93704E+06   344.824928E+06   1.38545667E+03   344.828576E+06
              650    57.466428E+06    57.469708E+06  -114.947544E+06   344.829248E+06      -239.679367   344.829152E+06
              651    57.471076E+06    57.473132E+06  -114.941272E+06   344.828128E+06       221.400543   344.829344E+06
              652     57.47032E+06    57.469848E+06  -114.941608E+06    344.82832E+06       773.638428   344.829376E+06
              653    57.445144E+06    57.458432E+06  -114.961824E+06   344.831136E+06       606.180603   344.828896E+06
              654      57.4604E+06    57.454924E+06   -114.95384E+06    344.82624E+06   3.55346973E+03   344.826912E+06
              655    57.482652E+06    57.481316E+06  -114.931184E+06   344.823488E+06       633.384338   344.826624E+06
              656      57.4613E+06    57.465588E+06  -114.948848E+06   344.826784E+06      -542.601135   344.829056E+06
              657    57.447892E+06    57.451988E+06  -114.963856E+06   344.827136E+06       862.918457   344.831264E+06
              658    57.476336E+06    57.477876E+06  -114.934584E+06   344.828032E+06      -640.053650   344.828416E+06
              659    57.473096E+06    57.472256E+06   -114.93932E+06    344.82752E+06      -689.173523   344.828256E+06
              660    57.472856E+06     57.47282E+06  -114.941128E+06   344.827968E+06       495.373901   344.827968E+06
              661    57.466936E+06    57.468644E+06  -114.949904E+06   344.828224E+06  -2.74671045E+03      344.828E+06
              662    57.471196E+06     57.46696E+06  -114.943528E+06   344.827872E+06       416.675751      344.828E+06
              663     57.48092E+06    57.478992E+06  -114.936568E+06   344.829504E+06   1.19084790E+03   344.828384E+06
              664    57.459492E+06    57.460196E+06  -114.957592E+06     344.8312E+06      -972.879211     344.8312E+06
              665    57.350384E+06    57.323112E+06  -115.072368E+06   344.846784E+06      -207.460297   344.837984E+06
              666    57.471572E+06    57.470808E+06   -114.94248E+06    344.82848E+06       575.531799   344.829344E+06
              667      57.4823E+06    57.481788E+06  -114.930224E+06   344.828704E+06       219.507248   344.827104E+06
              668     57.47526E+06     57.47756E+06  -114.937456E+06   344.826976E+06      -433.992126   344.829472E+06
              669    57.472996E+06    57.473308E+06  -114.939952E+06   344.827232E+06      -80.2338333    344.82848E+06
              670       57.467E+06    57.469188E+06   -114.94636E+06   344.828256E+06      -271.022552    344.82848E+06
              671    57.470212E+06    57.473312E+06  -114.941744E+06   344.828384E+06       82.1014862    344.82944E+06
              672    57.466324E+06    57.465864E+06  -114.947464E+06   344.828704E+06      -425.790161   344.828288E+06
              673    57.474988E+06    57.473276E+06  -114.940416E+06   344.828224E+06       152.187042   344.827136E+06
              674     57.47284E+06    57.473076E+06  -114.940648E+06   344.827776E+06      -333.692108   344.827808E+06
              675    57.478952E+06    57.477764E+06  -114.935224E+06   344.829024E+06      -78.2391510      344.828E+06
              676    57.475636E+06    57.480348E+06  -114.937368E+06   344.827296E+06  -1.12317249E+03   344.828384E+06
              677    57.477224E+06    57.482808E+06  -114.935976E+06   344.829088E+06      -441.600281   344.829056E+06
              678    57.468888E+06    57.467248E+06  -114.946256E+06   344.830176E+06      -227.510849    344.82944E+06
              679    57.466804E+06    57.464952E+06  -114.945896E+06    344.82928E+06       988.118164   344.829184E+06
              680    57.466292E+06    57.466828E+06   -114.94776E+06   344.829568E+06       841.071899     344.8272E+06
              681    57.480588E+06    57.480072E+06  -114.934856E+06   344.830912E+06   2.42938818E+03   344.828064E+06
              682    57.470044E+06    57.471088E+06  -114.940448E+06   344.828256E+06      -494.058838    344.82864E+06
              683    57.463244E+06     57.46382E+06  -114.945712E+06    344.82704E+06       833.387817   344.827776E+06
              684    57.460528E+06     57.47448E+06     -114.951E+06   344.833952E+06      -570.589600   344.830016E+06
              685    57.461916E+06    57.462624E+06   -114.94868E+06   344.825696E+06  -2.97533594E+03   344.827936E+06
              686    57.482524E+06    57.477868E+06  -114.934768E+06     344.8296E+06  -2.56363330E+03   344.827232E+06
              687    57.460832E+06    57.456736E+06  -114.958736E+06    344.82992E+06  -1.27760449E+03   344.831552E+06
              688    57.490772E+06    57.480552E+06   -114.92976E+06   344.828128E+06       970.956726   344.826016E+06
              689    57.484296E+06    57.480216E+06  -114.932912E+06   344.830464E+06  -2.30275562E+03   344.825856E+06
              690    57.473004E+06     57.46878E+06  -114.937944E+06    344.82656E+06  -2.39531714E+03   344.828544E+06
              691    57.472324E+06    57.474556E+06    -114.9392E+06   344.828576E+06      -104.394943   344.827648E+06
              692    57.467876E+06    57.466024E+06  -114.948256E+06    344.83184E+06   1.24037231E+03   344.832288E+06
              693      57.4709E+06    57.468784E+06  -114.943112E+06   344.827008E+06      -602.425415   344.828224E+06
              694    57.469072E+06    57.465432E+06  -114.946368E+06   344.829312E+06      -607.113708    344.82736E+06
              695    57.473388E+06     57.46996E+06  -114.941416E+06   344.826528E+06      -293.940674   344.827008E+06
              696    57.469824E+06     57.46802E+06  -114.944336E+06      344.828E+06       75.1515045   344.828096E+06
              697    57.478632E+06     57.47512E+06  -114.935072E+06    344.82592E+06       512.508606   344.826752E+06
              698      57.4811E+06    57.479876E+06  -114.931528E+06   344.828384E+06      -214.749451   344.825824E+06
              699    57.468912E+06     57.47302E+06   -114.94284E+06   344.831232E+06   2.65537012E+03   344.831008E+06
              700     57.47452E+06    57.478308E+06   -114.93728E+06   344.826208E+06      -638.618286    344.83008E+06
              701    57.472268E+06    57.470872E+06  -114.943208E+06    344.82928E+06      -75.9604111   344.827776E+06
              702    57.478008E+06    57.478132E+06   -114.93536E+06     344.8264E+06       518.401733   344.826944E+06
              703     57.47072E+06    57.473404E+06  -114.942864E+06   344.828544E+06       607.105286   344.826944E+06
              704    57.472356E+06    57.472108E+06  -114.941768E+06   344.828224E+06      -33.1651306   344.827552E+06
              705    57.470828E+06    57.471456E+06   -114.94356E+06   344.829536E+06   1.29876514E+03    344.82656E+06
              706    57.477896E+06    57.480604E+06  -114.934696E+06   344.826496E+06       14.6344738      344.828E+06
              707    57.466008E+06    57.465568E+06  -114.948312E+06   344.828032E+06  -1.34857178E+03   344.827392E+06
              708    57.466688E+06    57.464908E+06  -114.946408E+06   344.828768E+06       541.891418      344.828E+06
              709    57.469416E+06    57.468792E+06  -114.948312E+06   344.827552E+06  -1.81594153E+03   344.828896E+06
              710       57.468E+06    57.468696E+06  -114.944608E+06   344.829024E+06   1.09986194E+03   344.827328E+06
              711    57.468716E+06    57.469576E+06  -114.944568E+06   344.828032E+06       572.549438   344.828256E+06
              712    57.470348E+06    57.470396E+06  -114.943376E+06    344.82784E+06      -39.4221764   344.828032E+06
              713     57.46876E+06    57.467016E+06   -114.94632E+06   344.827712E+06      -887.986084     344.8264E+06
              714    57.487972E+06    57.483532E+06   -114.92772E+06    344.82784E+06   1.38634473E+03   344.825952E+06
              715    57.479912E+06    57.479844E+06  -114.935312E+06   344.823584E+06       90.9966583   344.826496E+06
              716     57.47012E+06    57.470616E+06  -114.941296E+06    344.82576E+06  -3.80627393E+03    344.83008E+06
              717    57.466792E+06    57.458024E+06  -114.947784E+06   344.833984E+06   4.54429199E+03      344.828E+06
              718    57.519704E+06    57.486536E+06  -114.912472E+06   344.827136E+06       533.600220   344.824608E+06
              719    57.456492E+06    57.448836E+06  -114.960688E+06   344.832512E+06  -1.08771912E+03   344.830368E+06
              720     57.47644E+06    57.476848E+06  -114.937816E+06   344.826048E+06      -998.200134   344.831936E+06
              721    57.481248E+06       57.484E+06  -114.930112E+06   344.822528E+06  -1.75696777E+03   344.829856E+06
              722     57.52856E+06      57.5369E+06   -114.88432E+06    344.83168E+06  -3.87711523E+03    344.81696E+06
              723    57.433256E+06    57.432028E+06  -114.982768E+06   344.840704E+06       813.799194      344.832E+06
              724    57.470704E+06    57.470784E+06  -114.942368E+06   344.827808E+06      -186.495102   344.827328E+06
              725    57.464076E+06    57.465708E+06  -114.946464E+06   344.825728E+06  -3.00399780E+03   344.827936E+06
              726    57.472744E+06    57.472596E+06  -114.941776E+06   344.827136E+06      -159.519592   344.827168E+06
              727    57.472396E+06     57.47226E+06  -114.942192E+06    344.82768E+06       7.99696112   344.827648E+06
              728    57.469112E+06    57.468368E+06  -114.944704E+06   344.827936E+06       19.2627106    344.82784E+06
              729      57.4702E+06     57.47118E+06  -114.942832E+06   344.827424E+06      -649.770630      344.828E+06
              730     57.47086E+06    57.470952E+06  -114.943112E+06    344.82736E+06      -557.279053    344.82752E+06
              731    57.469612E+06     57.46842E+06  -114.944656E+06   344.827936E+06      -306.716614   344.827872E+06
              732    57.471768E+06    57.471408E+06  -114.942008E+06   344.827776E+06      -277.956268   344.828192E+06
              733     57.47074E+06    57.470732E+06  -114.943424E+06      344.828E+06      -408.115692   344.827744E+06
              734    57.471336E+06    57.471476E+06  -114.942544E+06   344.827872E+06       22.4250507   344.828096E+06
              735    57.471632E+06    57.471872E+06  -114.942088E+06   344.827936E+06      -152.156723   344.827744E+06
              736     57.46806E+06      57.4688E+06  -114.946048E+06   344.828032E+06      -609.149475   344.828096E+06
              737    57.448756E+06    57.463112E+06  -114.960624E+06   344.829408E+06  -5.39906201E+03   344.835808E+06
              738    57.469568E+06    57.469796E+06  -114.944192E+06   344.828096E+06      -509.592224   344.827936E+06
              739     57.47344E+06    57.473336E+06  -114.940296E+06   344.827232E+06      -544.600037   344.828096E+06
              740    57.468716E+06    57.468928E+06  -114.944608E+06      344.828E+06      -282.072418   344.828416E+06
              741    57.468832E+06    57.467604E+06  -114.945424E+06    344.82784E+06      -410.883728   344.827808E+06
              742    57.471508E+06     57.47108E+06  -114.942448E+06   344.827904E+06      -42.9423409   344.827872E+06
              743    57.472248E+06    57.472672E+06  -114.941152E+06    344.82784E+06      -322.298645   344.827616E+06
              744    57.469896E+06    57.470268E+06  -114.944032E+06    344.82816E+06       159.369293   344.827872E+06
              745    57.469904E+06    57.470892E+06   -114.94144E+06   344.824928E+06       310.427948   344.828704E+06
              746    57.473212E+06    57.473076E+06  -114.940944E+06   344.827712E+06      -231.650208     344.8272E+06
              747    57.472532E+06      57.4724E+06  -114.940536E+06   344.827968E+06      -316.406342   344.828288E+06
              748    57.470912E+06    57.470968E+06  -114.943088E+06   344.827968E+06      -55.2346382   344.827712E+06
              749    57.471796E+06    57.471824E+06  -114.942008E+06   344.828128E+06      -170.669357      344.828E+06
              750    57.469192E+06    57.469236E+06  -114.945168E+06    344.82832E+06      -18.8037319   344.828352E+06
              751      57.4935E+06     57.48766E+06    -114.9246E+06    344.82368E+06  -5.08650244E+03    344.82624E+06
              752    57.493596E+06    57.499156E+06  -114.919176E+06   344.825664E+06       13.8565607   344.827264E+06
              753    57.481892E+06    57.476804E+06   -114.93452E+06   344.825984E+06      -468.038940   344.827136E+06
              754    57.475744E+06     57.47556E+06  -114.937248E+06   344.828576E+06   1.88882861E+03   344.827072E+06
              755     57.47198E+06    57.462276E+06  -114.946016E+06   344.830464E+06       930.328613   344.825824E+06
              756    57.460156E+06      57.4613E+06  -114.952936E+06   344.831296E+06   3.49133398E+03    344.82768E+06
              757    57.467032E+06    57.465084E+06  -114.948216E+06   344.828992E+06       630.909424     344.8272E+06
              758    57.469292E+06     57.46734E+06  -114.946072E+06   344.828384E+06       362.867950   344.826976E+06
              759    57.471556E+06    57.471412E+06   -114.94272E+06    344.82816E+06       304.977417      344.828E+06
              760    57.473792E+06    57.473208E+06  -114.941288E+06   344.828576E+06      -132.549332   344.827616E+06
              761    57.473316E+06    57.472868E+06  -114.942336E+06   344.828768E+06      -289.165283   344.827424E+06
              762     57.46678E+06    57.466044E+06   -114.94872E+06   344.828992E+06       513.934692   344.829088E+06
              763      57.4724E+06    57.472692E+06  -114.940776E+06   344.828224E+06       818.898193   344.828544E+06
              764    57.471804E+06    57.471904E+06   -114.94436E+06   344.829856E+06      -118.878738   344.828352E+06
              765    57.474952E+06    57.471684E+06  -114.940328E+06   344.827648E+06       266.082153   344.825088E+06
              766    57.475184E+06    57.473812E+06  -114.937752E+06    344.82976E+06       84.3064651   344.829152E+06
              767    57.465104E+06    57.466176E+06  -114.953032E+06   344.830464E+06      -216.579071    344.82912E+06
              768    57.469976E+06     57.46918E+06  -114.944344E+06   344.827488E+06      -209.710342   344.828352E+06
              769    57.472812E+06    57.470832E+06  -114.942248E+06   344.828832E+06      -579.760254   344.827552E+06
              770     57.47022E+06    57.471196E+06   -114.94352E+06   344.828512E+06       491.503235   344.828224E+06
              771    57.470868E+06    57.470848E+06   -114.94296E+06   344.827936E+06      -262.152557   344.827712E+06
              772     57.47188E+06    57.471388E+06  -114.942304E+06    344.82784E+06      -257.764221   344.827776E+06
              773    57.475572E+06    57.475156E+06  -114.938632E+06    344.82736E+06      -430.586182   344.827296E+06
              774    57.470168E+06    57.469984E+06  -114.943392E+06   344.828064E+06      -80.6019669    344.82752E+06
              775    57.471476E+06    57.472332E+06  -114.942208E+06   344.828288E+06      -93.5460129   344.827904E+06
              776      57.4715E+06    57.472096E+06  -114.941168E+06   344.827616E+06      -418.010223   344.828064E+06
              777     57.46932E+06    57.470304E+06  -114.944896E+06   344.828416E+06      -236.466629   344.828224E+06
              778    57.471428E+06     57.47102E+06  -114.942632E+06    344.82784E+06      -19.1513329   344.827584E+06
              779    57.472232E+06     57.47226E+06  -114.941272E+06   344.827808E+06      -69.0682449   344.827264E+06
              780    57.471716E+06    57.470972E+06  -114.942864E+06   344.828064E+06      -311.426941    344.82768E+06
              781    57.471176E+06    57.470288E+06  -114.943544E+06   344.828032E+06      -364.908875   344.827616E+06
              782      57.4715E+06    57.471268E+06  -114.942328E+06   344.827968E+06      -41.0079041   344.827456E+06
              783    57.470916E+06     57.47124E+06  -114.942992E+06   344.827936E+06      -315.882477   344.827744E+06
              784    57.477632E+06    57.476784E+06  -114.937256E+06   344.826112E+06      -106.990662   344.827488E+06
              785    57.472732E+06    57.473232E+06  -114.941128E+06   344.827776E+06      -107.672295   344.827712E+06
              786     57.47024E+06    57.469524E+06  -114.943752E+06   344.827296E+06      -191.533554   344.828288E+06
              787    57.472672E+06    57.474628E+06  -114.940816E+06   344.827808E+06      -491.748108   344.828224E+06
              788      57.4699E+06     57.47098E+06  -114.942528E+06   344.827264E+06       248.679840    344.82752E+06
              789     57.47524E+06     57.47458E+06   -114.93936E+06   344.829408E+06      -514.849304   344.828128E+06
              790     57.46436E+06    57.468364E+06  -114.947544E+06   344.828128E+06      -220.713531   344.828928E+06
              791    57.474328E+06     57.47544E+06  -114.938952E+06   344.828416E+06      -523.091492   344.826848E+06
              792    57.476588E+06     57.47578E+06  -114.938368E+06   344.825536E+06   1.15145044E+03   344.827392E+06
              793    57.463088E+06    57.461444E+06  -114.951504E+06   344.831104E+06       900.807190    344.82976E+06
              794     57.45604E+06    57.460996E+06  -114.955648E+06   344.828704E+06      -689.932922    344.82992E+06
              795    57.471168E+06    57.472748E+06  -114.942288E+06    344.82784E+06      -353.140442   344.827744E+06
              796    57.520932E+06        57.54E+06  -114.890584E+06   344.831424E+06      -56.3821030    344.82272E+06
              797    57.484424E+06    57.481332E+06   -114.93384E+06   344.826272E+06  -1.64962769E+03   344.827008E+06
              798    57.469932E+06      57.4704E+06  -114.944024E+06   344.827936E+06  -1.10319165E+03   344.827552E+06
              799     57.45176E+06    57.446472E+06  -114.963824E+06   344.830048E+06      -539.958496    344.82672E+06
              800    57.463736E+06    57.465916E+06  -114.948176E+06   344.830016E+06       649.824219   344.828512E+06
              801    57.471084E+06    57.471484E+06  -114.942168E+06     344.8288E+06       555.026062   344.828416E+06
              802     57.47232E+06    57.472608E+06  -114.941384E+06   344.827776E+06       113.917267    344.82768E+06
              803    57.471984E+06    57.472728E+06  -114.941608E+06   344.827808E+06       347.307556   344.827584E+06
              804    57.471868E+06    57.472224E+06  -114.941536E+06    344.82816E+06       114.709442   344.827104E+06
              805    57.473228E+06    57.474444E+06  -114.940088E+06      344.828E+06      -788.457458   344.827904E+06
              806    57.482608E+06     57.48214E+06   -114.92992E+06   344.825152E+06   1.21163733E+03   344.826816E+06
              807    57.478608E+06    57.478432E+06  -114.934056E+06   344.827488E+06   1.42746216E+03   344.827392E+06
              808    57.472372E+06    57.471176E+06  -114.941024E+06   344.828512E+06   1.34950098E+03   344.828256E+06
              809    57.492052E+06     57.48534E+06   -114.92716E+06    344.82864E+06       489.989471   344.825504E+06
              810    57.475328E+06    57.471956E+06   -114.94104E+06     344.8288E+06   1.54696472E+03     344.8272E+06
              811    57.474788E+06    57.474532E+06  -114.937992E+06   344.823776E+06  -1.90908679E+03   344.827424E+06
              812      57.4711E+06    57.470636E+06  -114.943416E+06    344.82832E+06       318.649475   344.827904E+06
              813    57.471456E+06    57.471668E+06  -114.942592E+06   344.827808E+06      -188.114471   344.828032E+06
              814    57.472072E+06    57.472372E+06  -114.941992E+06   344.827936E+06      -401.480377   344.827584E+06
              815    57.471416E+06    57.471372E+06  -114.942464E+06      344.828E+06      -299.110535   344.827808E+06
              816    57.499012E+06     57.49736E+06  -114.913584E+06   344.823776E+06      -168.418564   344.821568E+06
              817    57.472572E+06    57.472272E+06  -114.941576E+06   344.828064E+06      -164.496185   344.827712E+06
              818    57.471388E+06    57.471592E+06  -114.942848E+06   344.828128E+06      -3.53383136   344.828192E+06
              819    57.467052E+06    57.466908E+06  -114.947256E+06    344.82928E+06       384.045349   344.827616E+06
              820    57.472992E+06    57.472452E+06  -114.941192E+06   344.827904E+06      -20.7275047   344.828416E+06
              821    57.471052E+06    57.471256E+06  -114.942624E+06      344.828E+06       152.343781   344.827968E+06
              822     57.46992E+06    57.469568E+06  -114.943936E+06   344.828192E+06       356.058594      344.828E+06
              823    57.469456E+06    57.469848E+06  -114.944832E+06   344.828096E+06       558.884949    344.82816E+06
              824    57.470932E+06    57.471172E+06  -114.942632E+06   344.827936E+06       312.600159   344.828384E+06
              825    57.477272E+06     57.47702E+06  -114.937064E+06    344.82656E+06      -355.403107   344.828224E+06
              826    57.476592E+06    57.477728E+06  -114.935352E+06    344.82656E+06      -785.549927   344.829056E+06
              827    57.472768E+06      57.4729E+06  -114.940856E+06   344.827808E+06      -177.252335   344.827488E+06
              828    57.472596E+06    57.472516E+06  -114.940832E+06    344.82784E+06      -154.077820   344.827872E+06
              829    57.470784E+06    57.470356E+06  -114.943536E+06   344.827808E+06       10.8007011   344.828384E+06
              830    57.470872E+06    57.470572E+06  -114.943192E+06   344.827808E+06       45.7146263   344.828416E+06
              831    57.473808E+06    57.473364E+06  -114.940768E+06   344.827712E+06      -315.607208   344.828064E+06
              832    57.468236E+06    57.468528E+06  -114.946056E+06   344.828416E+06       860.896484   344.828032E+06
              833    57.458624E+06    57.449072E+06  -114.961776E+06   344.831904E+06  -3.13102148E+03   344.828096E+06
              834    57.469996E+06    57.470608E+06  -114.943416E+06   344.827552E+06       36.1210556   344.827744E+06
              835     57.47448E+06    57.475204E+06  -114.939496E+06    344.82816E+06       54.7882080   344.827712E+06
              836    57.471852E+06    57.471572E+06  -114.941496E+06   344.827488E+06       182.065018      344.828E+06
              837    57.471812E+06    57.471336E+06     -114.942E+06   344.827872E+06      -94.1895752   344.827712E+06
              838    57.474344E+06    57.476888E+06  -114.935984E+06   344.828192E+06      -505.141724   344.828608E+06
              839    57.471852E+06    57.472132E+06  -114.942088E+06      344.828E+06      -431.207947   344.827616E+06
              840    57.465776E+06    57.466092E+06   -114.94732E+06   344.825408E+06  -1.13704651E+03    344.82896E+06
              841    57.471876E+06    57.471184E+06  -114.942392E+06   344.827328E+06       90.2542953    344.82768E+06
              842    57.475124E+06    57.473964E+06  -114.938664E+06   344.827296E+06      -91.9748764   344.826784E+06
              843      57.4618E+06    57.463464E+06  -114.950648E+06   344.827264E+06      -958.100708   344.827936E+06
              844    57.470096E+06     57.47028E+06  -114.944648E+06   344.828928E+06      -140.981216   344.828256E+06
              845    57.475052E+06    57.476668E+06   -114.93864E+06   344.828032E+06      -610.930969   344.827168E+06
              846    57.461788E+06      57.4659E+06  -114.949232E+06   344.827424E+06  -1.57123474E+03   344.827904E+06
              847    57.456136E+06    57.462104E+06   -114.95368E+06   344.828736E+06       254.849121   344.828896E+06
              848     57.47746E+06    57.477636E+06  -114.936864E+06   344.827424E+06  -1.14138818E+03   344.826656E+06
              849    57.458116E+06    57.459192E+06  -114.954712E+06   344.830528E+06      -706.696289   344.828288E+06
              850    57.466168E+06    57.466608E+06   -114.94664E+06   344.825376E+06      -158.904373   344.829248E+06
              851    57.463788E+06    57.465676E+06  -114.947232E+06    344.82576E+06      -393.819458   344.829024E+06
              852    57.472124E+06    57.468176E+06   -114.94588E+06   344.829696E+06      -400.459229   344.827968E+06
              853    57.475684E+06    57.477204E+06  -114.935184E+06   344.826464E+06  -2.56109009E+03   344.828352E+06
              854    57.474164E+06     57.47298E+06  -114.942136E+06   344.827872E+06  -1.28341003E+03   344.826944E+06
              855    57.472172E+06    57.471028E+06  -114.942784E+06   344.827872E+06       415.022888   344.827808E+06
              856    57.471584E+06    57.469584E+06    -114.9436E+06   344.828032E+06      -708.555786   344.827136E+06
              857    57.480252E+06    57.477104E+06  -114.937488E+06    344.82896E+06   1.77666235E+03   344.827296E+06
              858    57.477364E+06    57.477304E+06  -114.936792E+06   344.829024E+06   1.47250757E+03   344.828704E+06
              859    57.470844E+06    57.470572E+06  -114.943248E+06   344.827776E+06       191.328094   344.827936E+06
              860    57.470464E+06    57.471516E+06  -114.942552E+06   344.827872E+06      -224.595978   344.827744E+06
              861    57.459088E+06      57.4563E+06  -114.957264E+06   344.830144E+06  -2.66736475E+03    344.82896E+06
              862    57.456808E+06    57.451968E+06  -114.958648E+06   344.835424E+06   1.29676233E+03   344.827232E+06
              863    57.470388E+06    57.470928E+06   -114.94304E+06    344.82784E+06      -560.991272   344.827968E+06
              864    57.470204E+06    57.470272E+06  -114.943936E+06   344.826816E+06      -921.457336    344.82896E+06
              865     57.46364E+06      57.4682E+06  -114.946504E+06   344.826304E+06      -738.145325   344.828608E+06
              866    57.464244E+06    57.463224E+06  -114.950608E+06    344.83024E+06       885.674255    344.82816E+06
              867     57.47756E+06    57.484636E+06  -114.934024E+06   344.828384E+06   1.05384631E+03   344.827072E+06
              868    57.495292E+06    57.492492E+06   -114.91784E+06   344.824768E+06  -1.83820081E+03   344.822944E+06
              869    57.471316E+06    57.471288E+06  -114.942408E+06   344.827552E+06       207.128418   344.827744E+06
              870    57.470408E+06    57.470568E+06  -114.942912E+06   344.827264E+06       627.610840    344.82752E+06
              871    57.474184E+06    57.473736E+06  -114.939584E+06   344.827328E+06       439.731201   344.827488E+06
              872    57.449024E+06    57.453272E+06  -114.960096E+06   344.825888E+06  -3.42760718E+03   344.828896E+06
              873    57.466872E+06    57.468012E+06  -114.946384E+06    344.82768E+06      -881.734436    344.82864E+06
              874    57.469748E+06    57.469908E+06  -114.944232E+06   344.828416E+06      -77.4255371   344.828288E+06
              875    57.474784E+06    57.472696E+06  -114.940072E+06   344.827136E+06       533.828613   344.827456E+06
              876    57.471496E+06    57.471452E+06   -114.94252E+06   344.828064E+06       161.013687   344.827968E+06
              877    57.475728E+06    57.471944E+06  -114.939048E+06   344.825952E+06      -986.246033    344.82784E+06
              878     57.42328E+06    57.419604E+06  -114.993152E+06   344.839328E+06      -525.992615   344.833824E+06
              879    57.473096E+06    57.473168E+06    -114.9404E+06   344.828288E+06       251.586411   344.828224E+06
              880    57.473044E+06    57.472448E+06  -114.940552E+06   344.828128E+06       586.973877   344.828032E+06
              881     57.47708E+06     57.47608E+06   -114.93568E+06   344.827264E+06   1.18699463E+03    344.82736E+06
              882     57.47052E+06    57.470568E+06  -114.943576E+06   344.828256E+06      -153.111877    344.82832E+06
              883     57.46528E+06      57.4673E+06  -114.946392E+06   344.828064E+06       656.187439   344.828832E+06
              884    57.473692E+06    57.476416E+06   -114.93904E+06   344.827616E+06      -86.9890366   344.829152E+06
              885     57.46708E+06    57.470916E+06  -114.944816E+06   344.826688E+06      -684.019836   344.829088E+06
              886    57.463956E+06    57.464064E+06  -114.950024E+06    344.82832E+06  -1.89045239E+03     344.8264E+06
              887    57.475832E+06    57.478112E+06  -114.936968E+06   344.829312E+06       708.511902   344.828832E+06
              888    57.472908E+06    57.472956E+06  -114.941024E+06   344.827552E+06       309.330292   344.828576E+06
              889    57.471512E+06      57.4742E+06   -114.94056E+06   344.827264E+06  -1.67384753E+03   344.828384E+06
              890    57.464428E+06    57.464136E+06  -114.950296E+06   344.828352E+06  -1.27380896E+03   344.828288E+06
              891    57.473216E+06    57.473436E+06   -114.94072E+06   344.828064E+06       575.659424     344.8288E+06
              892    57.470436E+06    57.469208E+06  -114.942952E+06   344.828224E+06      -431.690369   344.828224E+06
              893     57.47142E+06     57.47212E+06   -114.94224E+06    344.82784E+06      -14.2312632   344.827872E+06
              894    57.478148E+06     57.47894E+06  -114.934688E+06   344.827648E+06       897.776611    344.82768E+06
              895      57.4709E+06    57.471528E+06  -114.943448E+06   344.828576E+06       769.471252   344.828224E+06
              896    57.474516E+06    57.474732E+06   -114.93892E+06   344.829152E+06       920.027222   344.827968E+06
              897    57.477816E+06    57.478388E+06  -114.934032E+06   344.827968E+06       378.456757   344.827744E+06
              898      57.4616E+06     57.46702E+06  -114.950032E+06   344.828896E+06      -276.362396    344.82992E+06
              899    57.471712E+06    57.473604E+06   -114.94252E+06   344.827968E+06      -583.995850   344.827648E+06
              900      57.4758E+06    57.477928E+06  -114.938024E+06   344.827296E+06      -77.3879395    344.82896E+06
              901    57.470988E+06    57.473128E+06  -114.944608E+06   344.827488E+06       167.799881   344.826656E+06
              902    57.468064E+06    57.469704E+06   -114.94652E+06   344.828608E+06      -490.535522    344.82832E+06
              903    57.468564E+06    57.469424E+06  -114.946928E+06   344.828864E+06       469.037079   344.828864E+06
              904    57.476316E+06    57.477096E+06  -114.938512E+06   344.827424E+06       611.739685   344.827616E+06
              905     57.48084E+06    57.479144E+06  -114.938016E+06   344.829088E+06       405.766449    344.82784E+06
              906    57.466684E+06    57.468676E+06  -114.946424E+06   344.828064E+06      -140.713272   344.828928E+06
              907    57.469636E+06      57.4705E+06  -114.944112E+06   344.827712E+06      -948.419128      344.828E+06
              908    57.485392E+06    57.483076E+06  -114.930008E+06   344.821664E+06  -3.47893970E+03   344.827648E+06
              909    57.519584E+06    57.509916E+06  -114.902016E+06   344.823936E+06  -4.29069580E+03   344.823968E+06
              910    57.475992E+06    57.474328E+06  -114.938768E+06    344.82592E+06  -1.10482544E+03   344.827616E+06
              911    57.480304E+06     57.48044E+06  -114.931656E+06   344.826336E+06  -2.90555762E+03   344.827744E+06
              912     57.47224E+06    57.472732E+06   -114.94068E+06   344.827552E+06      -398.034607   344.827552E+06
              913    57.466424E+06     57.46786E+06  -114.941552E+06    344.82992E+06   9.33309570E+03   344.823872E+06
              914    57.484192E+06    57.483172E+06  -114.929848E+06   344.826208E+06      -201.627579   344.828128E+06
              915    57.470644E+06    57.469044E+06   -114.94232E+06   344.827136E+06      -536.062378   344.828416E+06
              916    57.459872E+06    57.461008E+06  -114.949952E+06   344.829152E+06      -411.380035   344.828416E+06
              917    57.466172E+06     57.46736E+06  -114.951032E+06   344.833344E+06       619.902283    344.83088E+06
              918    57.463604E+06     57.46472E+06   -114.94944E+06   344.831744E+06       365.144745   344.827904E+06
              919    57.484024E+06    57.488928E+06  -114.928248E+06   344.830304E+06      -256.143158   344.827008E+06
              920    57.463752E+06    57.460752E+06  -114.950128E+06   344.828928E+06       578.671875    344.83168E+06
              921    57.474232E+06    57.476944E+06  -114.940024E+06   344.827872E+06      -31.3516426    344.82928E+06
              922    57.478648E+06    57.482052E+06  -114.933712E+06   344.826176E+06      -538.805542   344.827648E+06
              923    57.477128E+06    57.481088E+06  -114.936128E+06   344.829248E+06      -130.472427      344.828E+06
              924    57.472076E+06    57.472212E+06  -114.940992E+06   344.827904E+06       502.642761   344.830816E+06
              925    57.465144E+06    57.463628E+06   -114.94804E+06   344.828608E+06       365.692139    344.83136E+06
              926    57.470876E+06    57.471032E+06  -114.942584E+06   344.827744E+06      -372.159241   344.827712E+06
              927    57.472332E+06    57.470532E+06  -114.942208E+06   344.828352E+06       56.2551193   344.827744E+06
              928    57.471648E+06    57.471532E+06  -114.942128E+06   344.828416E+06       65.1478348   344.827552E+06
              929       57.469E+06    57.468688E+06  -114.944896E+06   344.826848E+06      -327.896088   344.827456E+06
              930    57.479956E+06    57.476068E+06   -114.93596E+06   344.827424E+06      -930.164551   344.826848E+06
              931    57.466484E+06    57.467352E+06  -114.944328E+06   344.823744E+06  -1.42677795E+03    344.82816E+06
              932     57.46428E+06     57.46208E+06   -114.94936E+06    344.82864E+06   1.25028833E+03    344.83056E+06
              933    57.478044E+06    57.473908E+06  -114.937992E+06   344.829472E+06      -566.288940   344.828224E+06
              934    57.468612E+06    57.469716E+06   -114.94512E+06   344.827552E+06      -641.729919   344.827968E+06
              935     57.48032E+06    57.485004E+06   -114.93336E+06   344.832576E+06   2.57795386E+03   344.827968E+06
              936    57.446996E+06    57.453472E+06  -114.961344E+06   344.829056E+06  -2.17912744E+03   344.828224E+06
              937    57.465708E+06    57.467656E+06  -114.947376E+06   344.827872E+06      -885.565247    344.82864E+06
              938    57.472704E+06    57.473104E+06  -114.941216E+06    344.82816E+06       196.935654   344.828096E+06
              939    57.469656E+06    57.470032E+06  -114.943656E+06      344.828E+06       200.017593   344.828288E+06
              940    57.471004E+06    57.470964E+06  -114.943296E+06   344.827936E+06      -146.495239   344.828064E+06
              941    57.466528E+06    57.468152E+06  -114.947248E+06   344.826816E+06      -121.089729   344.827168E+06
              942    57.470364E+06    57.470988E+06  -114.942944E+06   344.827392E+06      -249.179611   344.828416E+06
              943    57.472996E+06    57.473228E+06  -114.941208E+06    344.82816E+06       191.303360   344.828096E+06
              944    57.471592E+06    57.472228E+06  -114.942032E+06   344.827712E+06       130.233475   344.828064E+06
              945    57.470616E+06    57.471052E+06  -114.943128E+06   344.828096E+06       25.0017815   344.827936E+06
              946    57.470704E+06    57.471284E+06  -114.943072E+06   344.828224E+06       99.8849792   344.828128E+06
              947    57.472028E+06    57.472484E+06   -114.94184E+06   344.827808E+06       190.875702   344.827872E+06
              948    57.472312E+06    57.472416E+06  -114.941776E+06   344.828096E+06      -46.8976555      344.828E+06
              949    57.470528E+06      57.4712E+06  -114.943752E+06   344.828096E+06       177.469330   344.828256E+06
              950     57.46902E+06    57.467732E+06  -114.945632E+06   344.828672E+06      -214.113434   344.828096E+06
              951     57.46994E+06    57.470952E+06  -114.942872E+06   344.829216E+06       427.825562   344.828128E+06
              952    57.473552E+06    57.473772E+06  -114.940632E+06   344.828192E+06       414.593811   344.828128E+06
              953    57.472796E+06    57.472016E+06  -114.941288E+06   344.827648E+06      -342.426453   344.827616E+06
              954    57.472548E+06    57.473696E+06  -114.942096E+06   344.828192E+06      -452.013885    344.82816E+06
              955    57.470228E+06    57.470492E+06  -114.943736E+06    344.82816E+06       273.794617   344.828096E+06
              956    57.474608E+06    57.474368E+06  -114.939352E+06   344.827712E+06      -368.682251    344.82736E+06
              957    57.472448E+06     57.47254E+06   -114.94012E+06   344.826496E+06   1.23562402E+03   344.828512E+06
              958    57.468884E+06    57.467572E+06  -114.946168E+06   344.830048E+06      -709.055847   344.827936E+06
              959    57.470148E+06    57.468888E+06  -114.944016E+06   344.827872E+06       259.614288   344.828736E+06
              960    57.472168E+06    57.471508E+06  -114.942072E+06   344.827904E+06      -261.068115      344.828E+06
              961    57.470668E+06    57.470676E+06  -114.943872E+06   344.828256E+06       134.589706   344.827904E+06
              962    57.471412E+06    57.471624E+06  -114.942072E+06   344.827872E+06      -340.248627   344.827584E+06
              963    57.471068E+06    57.471504E+06  -114.943704E+06   344.828448E+06      -356.020233      344.828E+06
              964    57.469832E+06    57.469708E+06  -114.944752E+06    344.82864E+06      -200.946411   344.828288E+06
              965    57.471924E+06    57.472812E+06  -114.941864E+06   344.828128E+06      -462.681183    344.82768E+06
              966    57.471708E+06     57.47132E+06  -114.942128E+06   344.827872E+06      -63.8174019   344.827776E+06
              967     57.47146E+06    57.471368E+06  -114.942576E+06   344.827744E+06      -129.559982   344.827904E+06
              968    57.471708E+06    57.471288E+06  -114.942512E+06   344.827392E+06      -38.1486702   344.827936E+06
              969    57.471844E+06    57.471544E+06   -114.94176E+06   344.827648E+06      -140.042679   344.827456E+06
              970    57.470564E+06    57.470804E+06  -114.943192E+06   344.827936E+06      -94.6968307   344.827648E+06
              971    57.467116E+06    57.468384E+06  -114.946464E+06   344.828512E+06      -141.225632   344.828288E+06
              972    57.471556E+06    57.471716E+06  -114.942272E+06      344.828E+06       80.1598358   344.827712E+06
              973    57.470708E+06    57.470628E+06  -114.943168E+06    344.82816E+06      -82.2850342   344.827872E+06
              974    57.470356E+06    57.469544E+06   -114.94328E+06   344.827904E+06       705.023560   344.828096E+06
              975    57.466996E+06    57.467804E+06  -114.946392E+06   344.828512E+06      -182.816040   344.828096E+06
              976    57.469912E+06    57.469304E+06  -114.944664E+06   344.829216E+06   1.19662610E+03   344.827744E+06
              977    57.481704E+06    57.478328E+06  -114.933432E+06   344.829024E+06   1.38294153E+03     344.8264E+06
              978     57.46718E+06    57.464804E+06  -114.946752E+06    344.82768E+06      -222.484940    344.82768E+06
              979     57.47182E+06    57.472656E+06  -114.940568E+06    344.82656E+06       427.815613   344.828704E+06
              980    57.490224E+06    57.489768E+06  -114.926096E+06   344.831168E+06   3.53944043E+03    344.82768E+06
              981    57.413876E+06    57.425664E+06  -114.988368E+06   344.828032E+06   3.95488062E+03    344.83376E+06
              982    57.471444E+06    57.471096E+06  -114.942632E+06   344.827744E+06       61.3315468   344.827872E+06
              983     57.43714E+06    57.444448E+06  -114.970216E+06   344.830336E+06   3.01465356E+03   344.830432E+06
              984     57.47438E+06    57.470152E+06  -114.942728E+06   344.827296E+06       494.288086   344.827104E+06
              985    57.475316E+06    57.474844E+06    -114.9376E+06   344.827328E+06      -149.776749   344.827648E+06
              986     57.47018E+06    57.468708E+06  -114.944424E+06   344.827584E+06      -47.4650154   344.828448E+06
              987    57.471136E+06    57.470704E+06  -114.942872E+06   344.827776E+06       209.895660   344.827776E+06
              988    57.468164E+06    57.466176E+06  -114.946536E+06    344.82784E+06       91.7468414   344.828864E+06
              989     57.46904E+06    57.466996E+06  -114.945128E+06   344.827552E+06      -120.570045   344.828736E+06
              990     57.47426E+06     57.47336E+06  -114.939672E+06    344.82752E+06      -506.683105   344.827328E+06
              991    57.470728E+06      57.4709E+06  -114.943008E+06   344.827744E+06      -77.1125870   344.827648E+06
              992    57.470908E+06     57.47108E+06  -114.942936E+06   344.828064E+06      -25.4944077    344.82768E+06
              993    57.470104E+06     57.47076E+06  -114.943688E+06    344.82832E+06       373.673462   344.828288E+06
              994    57.470792E+06    57.471432E+06  -114.942832E+06   344.827968E+06      -172.163803   344.827584E+06
              995    57.438768E+06    57.425656E+06  -114.979456E+06   344.837792E+06   3.67714160E+03   344.828896E+06
              996    57.470996E+06     57.47122E+06  -114.942648E+06   344.827968E+06      -21.6597366    344.82816E+06
              997    57.470356E+06    57.470236E+06  -114.943216E+06   344.828096E+06      -104.085182   344.828608E+06
              998    57.473312E+06    57.473916E+06  -114.940952E+06   344.828064E+06       152.357605    344.82768E+06
              999    57.471872E+06    57.471932E+06  -114.942488E+06   344.828288E+06       12.8828096   344.827776E+06
             1000    57.472204E+06      57.4718E+06  -114.941488E+06   344.827712E+06      -271.762238    344.82752E+06
             1001    57.469816E+06    57.470096E+06  -114.944968E+06    344.82816E+06   1.01432574E+03   344.828256E+06
             1002     57.47254E+06      57.4752E+06  -114.939568E+06   344.825888E+06   2.74310156E+03   344.829216E+06
             1003    57.471616E+06    57.471124E+06  -114.943032E+06    344.82848E+06       421.724243   344.828288E+06
             1004    57.464328E+06    57.467164E+06  -114.946496E+06     344.8248E+06  -2.77398633E+03      344.828E+06
             1005     57.47198E+06     57.47248E+06  -114.942016E+06   344.828256E+06      -9.60006332   344.827872E+06
             1006    57.468576E+06    57.471168E+06  -114.945768E+06   344.828384E+06      -89.7618332   344.828352E+06
             1007    57.473792E+06    57.475664E+06  -114.939544E+06   344.828384E+06      -330.382446   344.827264E+06
             1008     57.55576E+06    57.560592E+06   -114.85596E+06   344.812608E+06   2.30329126E+03   344.816192E+06
             1009    57.469516E+06    57.468992E+06  -114.945576E+06   344.828384E+06       350.057648   344.828352E+06
             1010    57.471096E+06    57.469568E+06   -114.94504E+06   344.826432E+06       846.235535   344.828128E+06
             1011     57.47136E+06     57.47364E+06  -114.944288E+06   344.828096E+06       732.927185   344.827136E+06
             1012    57.472164E+06    57.471864E+06  -114.943936E+06   344.828128E+06      -120.562897   344.826464E+06
             1013    57.470188E+06    57.470244E+06  -114.944048E+06    344.82784E+06       1.39336848   344.827776E+06
             1014     57.46866E+06    57.468308E+06   -114.94492E+06   344.827104E+06      -922.378113   344.828192E+06
             1015    57.475428E+06    57.476184E+06  -114.938168E+06   344.827648E+06       210.242752   344.827808E+06
             1016    57.472384E+06    57.471704E+06  -114.942104E+06   344.828192E+06       315.946472    344.82816E+06
             1017    57.470268E+06    57.469508E+06   -114.94428E+06   344.829056E+06       291.133240   344.828352E+06
             1018    57.474352E+06     57.47388E+06  -114.939936E+06   344.827392E+06      -113.909958   344.828256E+06
             1019    57.472704E+06    57.472164E+06  -114.942008E+06   344.827488E+06      -257.085083   344.828128E+06
             1020    57.480232E+06    57.478076E+06  -114.933312E+06    344.82544E+06  -1.78403040E+03   344.827616E+06
             1021    57.472324E+06    57.471792E+06    -114.9418E+06   344.827744E+06      -219.467377      344.828E+06
             1022    57.470588E+06    57.470684E+06   -114.94216E+06   344.826656E+06      -262.442749   344.827232E+06
             1023    57.466884E+06     57.46982E+06  -114.944136E+06   344.826752E+06       91.8070831    344.82832E+06
             1024    57.471616E+06    57.469396E+06   -114.94228E+06     344.8272E+06      -166.588440   344.828128E+06
             1025    57.478904E+06      57.4772E+06   -114.93524E+06   344.827648E+06       728.059265   344.827328E+06
             1026    57.478324E+06    57.476876E+06  -114.935952E+06   344.827168E+06       300.462036   344.826784E+06
             1027    57.448508E+06    57.439524E+06  -114.967592E+06    344.83088E+06       28.4802818   344.827968E+06
             1028    57.477124E+06    57.480908E+06  -114.937888E+06   344.830048E+06      -17.8200188   344.827808E+06
             1029    57.464996E+06    57.463988E+06  -114.949616E+06   344.827488E+06      -817.376221   344.827264E+06
             1030     57.47456E+06    57.473912E+06  -114.939112E+06   344.827808E+06      -70.1817703   344.827904E+06
             1031     57.47032E+06    57.469764E+06  -114.945376E+06   344.828416E+06       234.465942   344.828224E+06
             1032    57.474744E+06    57.473728E+06  -114.939888E+06      344.828E+06       288.831665   344.827552E+06
             1033    57.470216E+06    57.470232E+06  -114.943792E+06   344.827872E+06       8.44631672   344.828384E+06
             1034    57.467396E+06    57.465572E+06  -114.947056E+06   344.827712E+06      -111.477432   344.828096E+06
             1035    57.469492E+06    57.468748E+06   -114.94476E+06   344.827712E+06       141.205994   344.829088E+06
             1036    57.472452E+06    57.471576E+06   -114.94056E+06   344.828128E+06      -396.432251      344.828E+06
             1037    57.473256E+06    57.473256E+06  -114.940528E+06   344.827488E+06      -89.7459183    344.82848E+06
             1038    57.479576E+06    57.474672E+06  -114.939064E+06   344.826656E+06      -297.805115   344.826016E+06
             1039    57.471344E+06     57.46922E+06   -114.94484E+06   344.827552E+06       216.210144   344.826368E+06
             1040    57.476512E+06    57.476772E+06     -114.938E+06   344.828128E+06       49.3517761   344.827648E+06
             1041    57.471568E+06     57.47124E+06  -114.943352E+06   344.827072E+06  -1.04623438E+03     344.8272E+06
             1042    57.474368E+06    57.473644E+06  -114.940488E+06   344.828288E+06       66.7420731   344.827648E+06
             1043    57.464472E+06    57.463724E+06  -114.951992E+06   344.827392E+06      -941.957092   344.826688E+06
             1044    57.469448E+06    57.469804E+06  -114.941656E+06   344.826112E+06       849.847412    344.83056E+06
             1045    57.469164E+06    57.466444E+06  -114.943792E+06   344.825568E+06      -92.9007874    344.82944E+06
             1046    57.468116E+06    57.468828E+06  -114.944816E+06    344.82736E+06       377.016052   344.829152E+06
             1047    57.470024E+06    57.470392E+06  -114.942712E+06   344.827136E+06       54.7604027   344.828576E+06
             1048    57.468968E+06     57.46696E+06  -114.945048E+06    344.82784E+06      -519.866943   344.828288E+06
             1049     57.44552E+06    57.435468E+06  -114.970912E+06    344.83488E+06       270.830841   344.831904E+06
             1050    57.468312E+06    57.467332E+06  -114.945288E+06   344.828448E+06      -248.453583   344.828608E+06
             1051    57.464416E+06    57.463036E+06  -114.948464E+06   344.827808E+06      -667.781128   344.828512E+06
             1052     57.47056E+06    57.470684E+06   -114.94324E+06   344.827872E+06       205.314499   344.828032E+06
             1053    57.471492E+06    57.471152E+06   -114.94224E+06   344.827776E+06      -341.785339   344.827616E+06
             1054    57.471484E+06    57.471356E+06  -114.942608E+06   344.828288E+06       350.146210   344.827872E+06
             1055     57.47176E+06    57.470716E+06  -114.942496E+06    344.82784E+06      -376.777985   344.827616E+06
             1056    57.469892E+06    57.470388E+06   -114.94348E+06   344.828064E+06       70.8877640   344.828064E+06
             1057    57.471208E+06    57.471036E+06  -114.942736E+06   344.827968E+06       168.365479   344.827808E+06
             1058     57.46924E+06    57.468916E+06   -114.94448E+06   344.827904E+06       145.705887   344.827904E+06
             1059    57.470524E+06     57.47034E+06   -114.94344E+06   344.827904E+06      -79.8921661   344.827648E+06
             1060    57.471244E+06     57.47102E+06   -114.94256E+06    344.82784E+06      -264.516632   344.827584E+06
             1061    57.472368E+06    57.472644E+06  -114.941848E+06    344.82816E+06       497.075684   344.828384E+06
             1062    57.472268E+06    57.470728E+06  -114.943248E+06   344.827136E+06       262.715485    344.82688E+06
             1063    57.470224E+06    57.476976E+06  -114.942984E+06   344.823136E+06  -2.44674170E+03    344.82848E+06
             1064    57.495496E+06    57.486372E+06   -114.92724E+06   344.827104E+06   2.12354810E+03   344.823168E+06
             1065    57.467148E+06     57.46948E+06  -114.945632E+06   344.829824E+06       513.747375   344.826304E+06
             1066    57.497664E+06    57.508864E+06  -114.915976E+06   344.824064E+06  -2.41267554E+03   344.825888E+06
             1067    57.457404E+06    57.457356E+06  -114.960912E+06   344.830112E+06  -2.42801660E+03   344.828704E+06
             1068    57.471208E+06     57.47226E+06  -114.942384E+06   344.827968E+06       276.331451   344.828096E+06
             1069    57.473204E+06    57.473488E+06   -114.94012E+06   344.828128E+06       24.8036804   344.827744E+06
             1070    57.472068E+06    57.472268E+06  -114.942192E+06   344.828416E+06       175.724182   344.827712E+06
             1071    57.470484E+06     57.47024E+06  -114.943672E+06   344.828448E+06       309.639343      344.828E+06
             1072    57.469828E+06    57.469668E+06   -114.94428E+06   344.828544E+06       218.530502   344.828064E+06
             1073    57.464784E+06     57.46092E+06   -114.95048E+06     344.8304E+06       837.172180      344.828E+06
             1074    57.474808E+06    57.472528E+06  -114.940088E+06   344.828096E+06       330.002136   344.827296E+06
             1075    57.471064E+06    57.470616E+06  -114.942832E+06   344.827904E+06       46.6291504   344.827424E+06
             1076    57.472132E+06    57.471604E+06   -114.94108E+06   344.827808E+06       554.109375   344.827584E+06
             1077     57.47394E+06    57.471848E+06     -114.941E+06     344.8288E+06      -655.653015   344.827264E+06
             1078    57.472008E+06    57.469384E+06  -114.943472E+06   344.828992E+06       72.4023285   344.826592E+06
             1079    57.473664E+06    57.473064E+06   -114.94184E+06   344.827776E+06      -584.362488   344.827296E+06
             1080    57.471212E+06    57.471144E+06  -114.942704E+06   344.828128E+06       191.248688   344.828064E+06
             1081    57.486344E+06    57.485724E+06  -114.924616E+06   344.826208E+06       393.513763   344.825824E+06
             1082    57.469284E+06    57.470032E+06  -114.942912E+06   344.828992E+06       200.645935   344.828896E+06
             1083     57.46096E+06    57.467264E+06  -114.948984E+06   344.826976E+06       41.0496750   344.830176E+06
             1084     57.47224E+06    57.473036E+06  -114.942632E+06   344.830624E+06   1.39018982E+03   344.826944E+06
             1085    57.471744E+06    57.472916E+06   -114.94136E+06   344.828064E+06      -6.04232788   344.828352E+06
             1086    57.466104E+06    57.463844E+06   -114.94668E+06   344.823424E+06  -1.73496960E+03   344.830176E+06
             1087    57.473948E+06    57.474736E+06  -114.940752E+06   344.825568E+06  -2.21061597E+03    344.82592E+06
             1088      57.4837E+06    57.482912E+06  -114.931784E+06    344.82736E+06  -1.72889685E+03   344.827744E+06
             1089    57.471312E+06    57.470052E+06  -114.942848E+06   344.828352E+06       503.641052    344.82928E+06
             1090    57.467616E+06     57.46934E+06  -114.947072E+06   344.828128E+06  -1.12373718E+03   344.828288E+06
             1091    57.465848E+06    57.460248E+06  -114.948112E+06    344.82688E+06       586.947327    344.82624E+06
             1092    57.472912E+06    57.473676E+06  -114.940776E+06      344.828E+06      -461.604553   344.827392E+06
             1093     57.47974E+06    57.478168E+06    -114.9346E+06   344.827104E+06   1.14255774E+03     344.8272E+06
             1094      57.4711E+06    57.472628E+06  -114.941536E+06   344.827744E+06       197.100647   344.827776E+06
             1095    57.472192E+06    57.471808E+06  -114.941808E+06   344.827392E+06      -79.9851913    344.82816E+06
             1096    57.474608E+06    57.472808E+06     -114.941E+06   344.827776E+06      -439.817322   344.827392E+06
             1097    57.472092E+06    57.471808E+06  -114.942384E+06   344.827712E+06      -352.862549   344.827424E+06
             1098    57.470928E+06    57.470672E+06  -114.943192E+06   344.827904E+06       98.8056259      344.828E+06
             1099    57.471036E+06    57.471348E+06  -114.943448E+06   344.828576E+06      -242.046310   344.827968E+06
             1100    57.469624E+06    57.472224E+06  -114.942656E+06   344.827552E+06  -1.48499231E+03    344.82736E+06
             1101     57.47044E+06    57.470984E+06   -114.94308E+06    344.82832E+06       124.919281    344.82832E+06
             1102    57.471216E+06      57.4725E+06  -114.943528E+06    344.82816E+06       49.6039467   344.827264E+06
             1103     57.47508E+06    57.472436E+06  -114.942848E+06    344.82944E+06       483.032074   344.828384E+06
             1104    57.475028E+06    57.476448E+06   -114.93692E+06   344.827008E+06      -868.537415   344.826912E+06
             1105    57.469616E+06    57.477076E+06  -114.939496E+06   344.826304E+06       18.1989002    344.82992E+06
             1106    57.469336E+06      57.4698E+06   -114.94348E+06   344.829408E+06   1.17690308E+03   344.827584E+06
             1107    57.474752E+06    57.474584E+06  -114.940072E+06   344.828704E+06      -16.4135418    344.82752E+06
             1108    57.469976E+06    57.469476E+06  -114.943824E+06   344.828288E+06       538.913330   344.827424E+06
             1109    57.474704E+06    57.474132E+06  -114.939496E+06   344.827456E+06      -80.9370041      344.828E+06
             1110    57.470792E+06    57.469908E+06  -114.943304E+06   344.828128E+06       28.1927071    344.82832E+06
             1111    57.471988E+06    57.471624E+06   -114.94172E+06   344.828224E+06      -284.916748   344.828032E+06
             1112    57.504648E+06    57.516428E+06  -114.905664E+06   344.823456E+06       453.570465    344.82288E+06
             1113      57.4605E+06    57.450908E+06   -114.95736E+06   344.825376E+06   1.44801965E+03    344.82912E+06
             1114    57.476748E+06    57.479656E+06   -114.93564E+06   344.824928E+06      -673.118042   344.828224E+06
             1115    57.533884E+06    57.533348E+06  -114.876208E+06   344.818112E+06      -169.744202   344.815104E+06
             1116    57.475992E+06    57.478856E+06   -114.93796E+06   344.827904E+06  -1.09158643E+03   344.826368E+06
             1117     57.46058E+06    57.468732E+06  -114.950616E+06   344.829312E+06       494.631531   344.827648E+06
             1118    57.461312E+06    57.466028E+06    -114.9498E+06    344.83008E+06      -162.067703   344.830144E+06
             1119    57.467064E+06    57.469728E+06   -114.94496E+06   344.826464E+06   1.33515942E+03   344.827136E+06
             1120    57.485112E+06    57.493392E+06  -114.928016E+06   344.828256E+06      -322.068085   344.830848E+06
             1121     57.46858E+06    57.468644E+06  -114.943736E+06   344.828192E+06      -389.085114   344.828832E+06
             1122    57.488848E+06    57.490172E+06  -114.924632E+06   344.821152E+06  -1.12594336E+03   344.828224E+06
             1123    57.464964E+06    57.465492E+06  -114.947088E+06   344.828224E+06       61.0363655    344.82912E+06
             1124    57.470252E+06    57.469428E+06  -114.943888E+06   344.828288E+06       139.574219   344.828448E+06
             1125      57.4614E+06     57.45948E+06  -114.953704E+06   344.831232E+06       85.5494461   344.827648E+06
             1126    57.454172E+06    57.461036E+06     -114.961E+06   344.843008E+06       433.902832   344.826848E+06
             1127    57.467576E+06    57.467784E+06  -114.947168E+06   344.827968E+06       115.672241     344.8288E+06
             1128    57.487452E+06    57.491164E+06  -114.925016E+06   344.823808E+06       841.109924    344.82768E+06
             1129    57.487992E+06    57.488136E+06  -114.925336E+06   344.824672E+06       632.590271   344.825792E+06
             1130    57.474688E+06    57.473604E+06  -114.939072E+06   344.826272E+06       524.578430    344.82752E+06
             1131    57.481828E+06    57.479436E+06    -114.9322E+06   344.827456E+06      -518.451721    344.82176E+06
             1132    57.464544E+06    57.455344E+06  -114.949792E+06   344.821408E+06  -1.41124158E+03     344.8272E+06
             1133    57.473224E+06    57.472288E+06  -114.941624E+06   344.828384E+06       360.381134   344.828736E+06
             1134    57.464608E+06    57.462876E+06  -114.949976E+06   344.825248E+06   1.92114355E+03   344.828768E+06
             1135    57.465272E+06    57.463596E+06  -114.949808E+06   344.827584E+06       432.679962   344.830656E+06
             1136    57.472208E+06    57.473444E+06  -114.942424E+06   344.828064E+06       107.778938   344.827136E+06
             1137     57.47246E+06     57.47192E+06  -114.942184E+06    344.82816E+06       103.784386   344.828032E+06
             1138    57.469976E+06    57.471276E+06  -114.943856E+06   344.828416E+06       557.660400   344.828704E+06
             1139    57.468168E+06    57.465296E+06  -114.946112E+06    344.82864E+06      -753.150452    344.82816E+06
             1140    57.471508E+06    57.472064E+06  -114.942312E+06   344.828064E+06      -143.242462    344.82816E+06
             1141    57.472632E+06    57.473196E+06  -114.940888E+06      344.828E+06       14.6433802   344.828288E+06
             1142    57.471564E+06    57.471268E+06  -114.943008E+06      344.828E+06      -145.211899   344.828224E+06
             1143     57.47034E+06     57.47036E+06   -114.94392E+06   344.827296E+06      -347.507538   344.828256E+06
             1144    57.472628E+06    57.474508E+06  -114.940512E+06   344.827296E+06       27.7489471   344.828448E+06
             1145    57.469836E+06     57.46964E+06  -114.944208E+06   344.827104E+06      -245.177338   344.827904E+06
             1146    57.473868E+06    57.468648E+06  -114.947656E+06   344.832288E+06       128.342941   344.827232E+06
             1147    57.473616E+06    57.472556E+06  -114.941856E+06   344.827776E+06      -213.498001   344.827808E+06
             1148     57.48248E+06    57.483624E+06  -114.933672E+06   344.827392E+06  -2.12726782E+03   344.828896E+06
             1149    57.418532E+06    57.408452E+06  -115.004896E+06   344.841664E+06  -2.51637744E+03   344.835968E+06
             1150    57.467676E+06    57.472968E+06  -114.945648E+06   344.827488E+06       93.8668900    344.83024E+06
             1151     57.45302E+06    57.461936E+06  -114.959536E+06   344.829792E+06  -2.33082666E+03   344.830272E+06
             1152    57.473188E+06      57.4797E+06  -114.938016E+06   344.828128E+06  -1.64999011E+03   344.828832E+06
             1153      57.4727E+06    57.466252E+06  -114.946024E+06   344.827584E+06  -1.02826709E+03   344.826464E+06
             1154    57.471292E+06    57.468988E+06  -114.945448E+06   344.828256E+06      -137.615982   344.828864E+06
             1155    57.469256E+06    57.467424E+06  -114.946696E+06   344.828256E+06      -625.597656   344.827264E+06
             1156    57.467604E+06     57.46572E+06  -114.949336E+06   344.828736E+06       291.014557     344.8288E+06
             1157    57.477288E+06     57.47348E+06   -114.93972E+06    344.82816E+06       157.832748    344.82688E+06
             1158     57.46322E+06     57.46024E+06  -114.951512E+06   344.829024E+06       716.082947   344.826816E+06
             1159    57.468496E+06    57.468684E+06  -114.944376E+06    344.82976E+06   1.10301550E+03   344.827968E+06
             1160    57.473112E+06    57.473248E+06  -114.940536E+06   344.827616E+06      -61.9080811    344.82784E+06
             1161    57.472396E+06    57.471648E+06   -114.94168E+06   344.828896E+06       318.674469   344.827296E+06
             1162     57.46562E+06    57.462772E+06  -114.951896E+06   344.830016E+06       165.562164   344.828128E+06
             1163    57.465996E+06    57.460272E+06  -114.951656E+06   344.826496E+06      -467.846954    344.82336E+06
             1164       57.508E+06    57.514276E+06  -114.913056E+06    344.83152E+06  -4.95483545E+03   344.820448E+06
             1165    57.470948E+06     57.47498E+06  -114.942424E+06   344.828896E+06      -539.070740   344.827552E+06
             1166    57.468676E+06    57.470324E+06   -114.94784E+06   344.827072E+06       642.440247    344.82912E+06
             1167    57.473532E+06     57.47184E+06  -114.939112E+06   344.827264E+06       100.749222   344.830048E+06
             1168    57.463356E+06    57.463904E+06  -114.951648E+06   344.828288E+06      -86.0433655   344.829664E+06
             1169    57.469964E+06    57.467656E+06  -114.944752E+06   344.827968E+06      -278.714508   344.828288E+06
             1170    57.472328E+06    57.471224E+06  -114.942632E+06   344.827552E+06       264.254974    344.82768E+06
             1171     57.46872E+06     57.46862E+06  -114.945392E+06   344.827808E+06       420.750214   344.828064E+06
             1172    57.471048E+06    57.469812E+06  -114.943952E+06   344.827872E+06       271.046814    344.82816E+06
             1173    57.470532E+06    57.471484E+06   -114.94336E+06    344.82816E+06       491.299896   344.828288E+06
             1174    57.470104E+06    57.470016E+06  -114.943992E+06   344.828256E+06       80.2604752   344.827936E+06
             1175    57.470324E+06    57.470624E+06  -114.942512E+06    344.82752E+06      -783.305420   344.828864E+06
             1176     57.46814E+06    57.467176E+06  -114.946248E+06   344.828064E+06      -389.285034   344.828192E+06
             1177    57.479272E+06    57.478404E+06    -114.9362E+06    344.82768E+06      -498.074249   344.826816E+06
             1178     57.47148E+06    57.471324E+06  -114.942616E+06    344.82816E+06      -86.3919678   344.827968E+06
             1179    57.470132E+06    57.470784E+06  -114.941312E+06   344.826016E+06       689.764709   344.828544E+06
             1180    57.468248E+06    57.468872E+06  -114.944984E+06   344.827776E+06       501.882599   344.829056E+06
             1181     57.48974E+06    57.486372E+06  -114.924896E+06    344.82736E+06      -787.507019   344.824928E+06
             1182    57.474656E+06    57.473808E+06  -114.940264E+06   344.827584E+06       486.141357   344.827936E+06
             1183    57.476272E+06    57.479092E+06  -114.936616E+06   344.827392E+06   1.04513818E+03   344.826368E+06
             1184    57.471768E+06    57.471108E+06  -114.942544E+06    344.82768E+06      -405.409943   344.827936E+06
             1185    57.476476E+06    57.479216E+06  -114.936984E+06   344.827008E+06      -712.669556   344.826752E+06
             1186    57.464696E+06    57.465816E+06  -114.949048E+06   344.828672E+06  -1.98771130E+03   344.828768E+06
             1187    57.467876E+06     57.46684E+06  -114.945824E+06   344.827264E+06       918.840149   344.828768E+06
             1188    57.465208E+06    57.462712E+06   -114.95052E+06   344.829536E+06      -298.553223   344.827968E+06
             1189    57.475324E+06     57.46814E+06    -114.9442E+06   344.831232E+06   1.85896216E+03   344.828096E+06
             1190    57.477632E+06     57.48194E+06  -114.932624E+06    344.82128E+06       132.378632   344.827872E+06
             1191    57.487652E+06    57.481608E+06  -114.930768E+06   344.826656E+06  -2.84425073E+03   344.826784E+06
             1192    57.469308E+06    57.469392E+06   -114.94504E+06   344.828032E+06   2.43204883E+03   344.828352E+06
             1193    57.469808E+06    57.468608E+06  -114.944504E+06   344.828864E+06   2.74991992E+03   344.828576E+06
             1194    57.477952E+06    57.473196E+06  -114.939696E+06    344.82864E+06   1.73241211E+03   344.828128E+06
             1195    57.469204E+06    57.469556E+06  -114.942592E+06   344.827968E+06       874.133240   344.827296E+06
             1196    57.529676E+06    57.536768E+06  -114.885104E+06   344.820096E+06   1.19197290E+03    344.82208E+06
             1197    57.481804E+06    57.469548E+06  -114.938688E+06   344.828256E+06   1.87383264E+03   344.825088E+06
             1198    57.462936E+06    57.461848E+06  -114.952248E+06   344.830912E+06      -135.275833     344.8304E+06
             1199    57.470052E+06    57.472184E+06  -114.941152E+06   344.828192E+06       766.021240     344.8272E+06
             1200    57.471812E+06    57.470568E+06  -114.943024E+06   344.831392E+06   2.31077954E+03   344.829088E+06
             1201    57.463136E+06    57.459624E+06  -114.955584E+06   344.831104E+06       785.655640     344.8272E+06
             1202    57.462236E+06    57.459608E+06  -114.952368E+06     344.8272E+06   1.34603406E+03   344.828192E+06
             1203    57.472652E+06    57.471476E+06  -114.941768E+06   344.827808E+06  -1.09984619E+03   344.827392E+06
             1204    57.467256E+06    57.466576E+06  -114.946496E+06   344.828096E+06      -396.789337    344.82832E+06
             1205    57.466664E+06    57.468012E+06  -114.946568E+06   344.828256E+06      -749.173157   344.828608E+06
             1206    57.471276E+06    57.471856E+06  -114.942352E+06   344.827776E+06      -673.487854   344.827584E+06
             1207    57.471776E+06    57.471088E+06   -114.94308E+06   344.827904E+06      -409.238831   344.827552E+06
             1208    57.471532E+06    57.471436E+06   -114.94352E+06   344.827648E+06      -288.019745   344.828032E+06
             1209    57.471316E+06    57.471792E+06  -114.942488E+06      344.828E+06      -2.89919615   344.828128E+06
             1210    57.471432E+06    57.472508E+06  -114.941848E+06   344.828128E+06      -16.3701973   344.828416E+06
             1211    57.493328E+06    57.490404E+06  -114.922256E+06   344.822336E+06  -1.62218994E+03   344.825536E+06
             1212    57.466264E+06    57.451036E+06  -114.955512E+06   344.821856E+06  -5.18272900E+03   344.823872E+06
             1213    57.474524E+06    57.477996E+06   -114.93812E+06   344.827328E+06      -330.503143   344.829056E+06
             1214     57.47092E+06    57.471464E+06  -114.943384E+06   344.828352E+06      -286.146423    344.82816E+06
             1215    57.471052E+06    57.471848E+06  -114.942864E+06   344.828064E+06       101.975975   344.827936E+06
             1216    57.474416E+06    57.473772E+06  -114.940112E+06   344.828096E+06       605.836731   344.828576E+06
             1217    57.470764E+06    57.470692E+06  -114.943144E+06   344.828032E+06      -207.716110      344.828E+06
             1218    57.470552E+06     57.47108E+06  -114.943152E+06   344.828064E+06      -118.035904   344.828384E+06
             1219    57.470824E+06     57.47154E+06  -114.942664E+06   344.828352E+06       150.975769    344.82832E+06
             1220    57.471492E+06     57.47212E+06   -114.94212E+06   344.827936E+06      -117.549049   344.828256E+06
             1221    57.472248E+06    57.473336E+06  -114.941536E+06   344.827904E+06      -27.6317730   344.828256E+06
             1222    57.472576E+06    57.472212E+06  -114.941584E+06   344.827712E+06       37.0642700   344.827904E+06
             1223    57.476556E+06    57.476628E+06  -114.938264E+06   344.828192E+06  -1.30495569E+03   344.827488E+06
             1224     57.47142E+06    57.471332E+06  -114.942424E+06   344.827936E+06      -457.588196   344.827648E+06
             1225    57.470852E+06     57.47084E+06  -114.943208E+06   344.828032E+06      -417.956421    344.82768E+06
             1226    57.473152E+06    57.472588E+06  -114.941176E+06   344.827616E+06      -58.3033867   344.827936E+06
             1227    57.472368E+06    57.472264E+06  -114.941848E+06   344.827648E+06       213.409363   344.828064E+06
             1228    57.473892E+06     57.47822E+06  -114.939304E+06      344.828E+06      -460.679016   344.831264E+06
             1229    57.474328E+06    57.473116E+06  -114.939656E+06   344.827392E+06      -598.812622   344.828256E+06
             1230     57.47588E+06    57.471756E+06   -114.93852E+06   344.827136E+06  -1.76572644E+03   344.827584E+06
             1231    57.472496E+06    57.477248E+06  -114.939256E+06   344.826336E+06  -3.54259277E+03    344.82368E+06
             1232     57.46314E+06    57.461596E+06   -114.95484E+06   344.831232E+06  -1.43303064E+03   344.828448E+06
             1233    57.470692E+06    57.471108E+06  -114.943408E+06   344.828096E+06      -188.532715    344.82816E+06
             1234    57.469264E+06    57.468868E+06  -114.945032E+06   344.828672E+06       456.628326   344.828032E+06
             1235    57.474508E+06    57.475512E+06   -114.93684E+06    344.82656E+06      -858.936584   344.827104E+06
             1236    57.463392E+06     57.46376E+06  -114.949648E+06   344.828736E+06      -1.78359067   344.828704E+06
             1237    57.469252E+06    57.469096E+06  -114.944672E+06   344.827168E+06       561.132385   344.828192E+06
             1238    57.468348E+06    57.470172E+06  -114.943104E+06   344.827712E+06      -292.036316   344.827744E+06
             1239    57.468868E+06     57.46888E+06  -114.944616E+06   344.827776E+06      -294.217621    344.82816E+06
             1240    57.471884E+06       57.472E+06  -114.941824E+06   344.827872E+06       362.966187      344.828E+06
             1241     57.47088E+06    57.470704E+06  -114.942688E+06   344.827648E+06       18.5979443   344.828352E+06
             1242     57.47084E+06    57.470772E+06   -114.94312E+06   344.828256E+06       232.478821   344.828096E+06
             1243     57.46568E+06    57.462604E+06  -114.950312E+06   344.829248E+06      -35.2534332    344.82816E+06
             1244    57.466688E+06    57.469084E+06  -114.947144E+06   344.829056E+06      -11.1382456   344.827072E+06
             1245     57.47552E+06    57.476972E+06  -114.940216E+06    344.82672E+06  -1.26542236E+03    344.82656E+06
             1246    57.465184E+06    57.464044E+06  -114.947952E+06   344.828704E+06   1.23178174E+03   344.830816E+06
             1247    57.485644E+06    57.482752E+06  -114.929968E+06   344.826144E+06      -166.248001    344.82464E+06
             1248    57.455564E+06    57.448476E+06   -114.96188E+06   344.830752E+06       848.969604   344.825152E+06
             1249      57.4728E+06    57.474024E+06  -114.939944E+06   344.827584E+06       115.188438   344.828672E+06
             1250    57.483284E+06     57.47794E+06  -114.934512E+06   344.828736E+06      -533.652100   344.826496E+06
             1251    57.472176E+06    57.472284E+06  -114.940048E+06   344.828512E+06       218.296082   344.828512E+06
             1252    57.474336E+06    57.475596E+06  -114.939424E+06   344.827264E+06      -607.923279   344.829376E+06
             1253     57.46752E+06      57.4669E+06  -114.947088E+06   344.827264E+06      -307.750580    344.82768E+06
             1254    57.471572E+06     57.46916E+06  -114.942128E+06   344.828608E+06       110.606224   344.827648E+06
             1255     57.47162E+06    57.472272E+06  -114.941984E+06   344.828256E+06       547.372437   344.828416E+06
             1256     57.47126E+06    57.474816E+06  -114.940976E+06      344.828E+06   1.17055798E+03    344.82384E+06
             1257    57.426372E+06    57.415796E+06  -114.986672E+06    344.83344E+06       329.526062   344.829824E+06
             1258    57.482936E+06     57.48356E+06  -114.931056E+06   344.826272E+06      -54.0120468   344.826368E+06
             1259    57.472468E+06    57.472192E+06   -114.94208E+06   344.827968E+06      -248.879852   344.827968E+06
             1260    57.472084E+06    57.472896E+06  -114.941536E+06   344.827936E+06       132.967163   344.827904E+06
             1261    57.449084E+06    57.446612E+06   -114.96556E+06    344.83056E+06       112.444328    344.83184E+06
             1262    57.471172E+06    57.472276E+06  -114.942072E+06      344.828E+06       170.539566   344.828032E+06
             1263     57.47258E+06     57.47212E+06  -114.941616E+06   344.827776E+06       843.382019   344.828896E+06
             1264    57.471516E+06    57.471652E+06  -114.942144E+06   344.827936E+06      -8.33308411      344.828E+06
             1265    57.472964E+06    57.472628E+06  -114.941176E+06   344.827488E+06      -3.82907081   344.827936E+06
             1266    57.471728E+06    57.471672E+06  -114.942008E+06   344.827744E+06       10.3182402   344.828192E+06
             1267    57.475284E+06    57.472892E+06  -114.938536E+06   344.827712E+06       207.582535   344.828288E+06
             1268     57.47144E+06    57.471804E+06  -114.941528E+06   344.827808E+06      -309.805115   344.827968E+06
             1269    57.473812E+06     57.47482E+06  -114.939968E+06    344.82624E+06  -1.27758105E+03     344.8272E+06
             1270    57.463912E+06    57.462956E+06  -114.951824E+06   344.831904E+06   1.31166663E+03   344.829056E+06
             1271    57.467612E+06    57.467216E+06  -114.950888E+06   344.831968E+06   1.88808423E+03   344.828928E+06
             1272    57.469604E+06    57.466672E+06  -114.945952E+06   344.828544E+06      -6.43480492   344.828192E+06
             1273     57.47134E+06    57.471772E+06  -114.942096E+06   344.827872E+06       115.262886   344.827968E+06
             1274    57.470128E+06    57.470196E+06  -114.943552E+06   344.828192E+06      -168.336197    344.82784E+06
             1275    57.473788E+06    57.475492E+06  -114.939992E+06   344.829504E+06       724.477966   344.827232E+06
             1276    57.470532E+06    57.470408E+06  -114.943408E+06   344.827968E+06      -810.105591   344.827776E+06
             1277    57.470908E+06    57.470544E+06  -114.943104E+06   344.827808E+06      -91.8353500   344.827968E+06
             1278    57.469388E+06    57.469216E+06  -114.943376E+06   344.827904E+06      -514.136108   344.828384E+06
             1279      57.4711E+06    57.465936E+06   -114.94364E+06   344.829504E+06      -987.997803    344.82464E+06
             1280    57.475976E+06    57.481924E+06   -114.93244E+06   344.824896E+06   1.50452698E+03    344.82416E+06
             1281    57.471256E+06    57.471056E+06  -114.941944E+06   344.828896E+06       201.765152    344.82736E+06
             1282    57.472328E+06    57.472376E+06  -114.941664E+06   344.827744E+06  -227.026045E-03   344.827904E+06
             1283    57.476736E+06    57.480296E+06   -114.93436E+06   344.826528E+06       668.137512   344.828512E+06
             1284    57.467704E+06     57.46756E+06   -114.94676E+06    344.82784E+06       276.220490   344.829408E+06
             1285    57.464596E+06    57.462464E+06  -114.949712E+06   344.826176E+06  -2.05405469E+03    344.83216E+06
             1286    57.481816E+06    57.484768E+06    -114.9248E+06   344.827808E+06  -1.99707373E+03    344.82432E+06
             1287    57.468188E+06    57.466988E+06  -114.950608E+06   344.830464E+06  -1.16663452E+03   344.827424E+06
             1288    57.478388E+06    57.475732E+06  -114.937224E+06    344.82816E+06  -1.58812842E+03   344.827776E+06
             1289    57.419032E+06    57.437452E+06  -114.980592E+06    344.83248E+06  -1.05919189E+03   344.832384E+06
             1290    57.486236E+06     57.47502E+06  -114.941904E+06   344.830432E+06       567.710693   344.828096E+06
             1291    57.465704E+06    57.468208E+06   -114.93888E+06    344.82608E+06   2.20693530E+03   344.828096E+06
             1292    57.474444E+06    57.476632E+06  -114.941512E+06   344.829152E+06      -513.183411   344.831072E+06
             1293    57.470844E+06    57.468528E+06  -114.945832E+06   344.828544E+06       435.375275    344.82816E+06
             1294    57.469984E+06    57.470344E+06  -114.944152E+06   344.827584E+06      -265.838257   344.827648E+06
             1295    57.472176E+06    57.472344E+06  -114.941224E+06    344.82784E+06      -367.260406    344.82768E+06
             1296    57.469168E+06    57.469532E+06  -114.943928E+06    344.82784E+06       167.978516   344.828416E+06
             1297    57.463668E+06    57.466676E+06  -114.947264E+06   344.827616E+06      -679.234436   344.829568E+06
             1298    57.488192E+06    57.489752E+06  -114.920432E+06   344.828544E+06  -1.48560400E+03   344.823808E+06
             1299    57.469508E+06    57.467584E+06  -114.946048E+06   344.828768E+06      -394.716919     344.8288E+06
             1300    57.471248E+06    57.471428E+06   -114.94256E+06   344.828032E+06      -190.565994   344.827904E+06
             1301    57.470896E+06    57.470536E+06  -114.943096E+06   344.828448E+06      -294.372803   344.827552E+06
             1302    57.473304E+06    57.473648E+06   -114.93892E+06   344.827552E+06      -111.647339   344.827776E+06
             1303    57.492556E+06    57.494248E+06  -114.921896E+06   344.830944E+06      -427.130035   344.823744E+06
             1304    57.457472E+06    57.454824E+06  -114.956696E+06   344.834432E+06       116.395172   344.825472E+06
             1305    57.472452E+06    57.472464E+06  -114.941024E+06   344.827744E+06      -96.2726059   344.828064E+06
             1306     57.47224E+06     57.47076E+06  -114.942328E+06   344.828512E+06       46.3813286   344.827936E+06
             1307    57.470224E+06     57.47018E+06  -114.943352E+06   344.828128E+06      -323.241669   344.828128E+06
             1308    57.468576E+06    57.469004E+06   -114.94428E+06   344.828064E+06       205.144760   344.828288E+06
             1309    57.470352E+06     57.47194E+06  -114.942064E+06   344.825024E+06      -903.953064    344.82752E+06
             1310    57.461436E+06    57.461168E+06  -114.950992E+06   344.825152E+06      -354.429443   344.829024E+06
             1311      57.4688E+06    57.467652E+06  -114.943072E+06   344.828384E+06   1.07432751E+03    344.82768E+06
             1312    57.467668E+06    57.469812E+06  -114.945048E+06    344.82832E+06      -175.196823   344.828512E+06
             1313     57.47678E+06    57.473756E+06  -114.939352E+06   344.826272E+06  -1.44687000E+03    344.82704E+06
             1314    57.480972E+06     57.47784E+06  -114.935456E+06    344.83008E+06       155.601959   344.827296E+06
             1315    57.472788E+06    57.472916E+06  -114.940584E+06   344.827488E+06      -447.644012   344.828096E+06
             1316     57.47036E+06    57.470632E+06   -114.94336E+06   344.827872E+06       60.3458290   344.828192E+06
             1317    57.469612E+06    57.469356E+06  -114.944168E+06    344.82752E+06      -730.243652   344.827808E+06
             1318    57.469968E+06    57.470276E+06  -114.943904E+06    344.82816E+06      -212.442398   344.827744E+06
             1319    57.470488E+06    57.471624E+06  -114.942808E+06   344.827968E+06      -425.143188   344.828384E+06
             1320    57.469324E+06    57.468428E+06  -114.944632E+06   344.827584E+06      -198.695313    344.82864E+06
             1321    57.468236E+06    57.468384E+06  -114.944632E+06   344.826048E+06  -1.18313208E+03   344.828256E+06
             1322    57.466372E+06    57.466464E+06   -114.94736E+06   344.828736E+06      -420.016907   344.829056E+06
             1323    57.472072E+06     57.47104E+06   -114.94344E+06      344.828E+06      -53.5573769      344.828E+06
             1324     57.47348E+06      57.4733E+06    -114.9406E+06    344.82768E+06      -205.377823   344.827712E+06
             1325     57.47052E+06    57.470804E+06  -114.943032E+06    344.82784E+06       97.2587814   344.828352E+06
             1326    57.467352E+06    57.470416E+06  -114.945944E+06   344.828256E+06   1.39250623E+03    344.83056E+06
             1327    57.471916E+06    57.472076E+06  -114.942064E+06   344.827776E+06      -159.650833   344.827936E+06
             1328    57.470652E+06    57.470288E+06  -114.943544E+06   344.827936E+06      -147.975388      344.828E+06
             1329    57.473788E+06    57.474636E+06  -114.938632E+06   344.827104E+06      -521.787537   344.827616E+06
             1330    57.467268E+06    57.467968E+06  -114.945408E+06     344.8288E+06       292.409454    344.82816E+06
             1331    57.469364E+06    57.469992E+06  -114.943672E+06   344.827968E+06       58.5209236   344.828288E+06
             1332    57.475316E+06      57.4755E+06  -114.938528E+06   344.827872E+06      -125.523598   344.828032E+06
             1333    57.471568E+06    57.470372E+06  -114.942504E+06   344.828128E+06      -69.9862366    344.82784E+06
             1334    57.482308E+06      57.4801E+06  -114.934432E+06   344.833088E+06       993.663208   344.826368E+06
             1335     57.48034E+06    57.482272E+06   -114.93436E+06    344.82944E+06       932.852356   344.828544E+06
             1336     57.46992E+06    57.469844E+06  -114.943696E+06   344.828288E+06      -172.197174    344.82752E+06
             1337    57.475096E+06     57.47296E+06  -114.939888E+06   344.828128E+06       280.883881   344.827232E+06
             1338    57.476328E+06    57.475388E+06  -114.937832E+06   344.827744E+06       203.979996    344.82816E+06
             1339     57.47152E+06    57.471996E+06  -114.941816E+06   344.827712E+06      -53.5366592   344.828352E+06
             1340    57.471488E+06    57.472016E+06  -114.942824E+06   344.828352E+06      -299.557037   344.827968E+06
             1341    57.470028E+06    57.470456E+06   -114.94372E+06   344.827968E+06       237.797607   344.828576E+06
             1342    57.468652E+06     57.46882E+06  -114.945248E+06    344.82784E+06      -264.786377   344.827648E+06
             1343    57.468732E+06    57.468484E+06  -114.946376E+06   344.828032E+06       268.033447   344.828288E+06
             1344     57.46784E+06    57.466012E+06   -114.94776E+06   344.829248E+06      -413.517151   344.828384E+06
             1345    57.472172E+06    57.470712E+06  -114.942216E+06   344.827232E+06      -159.022018   344.827872E+06
             1346    57.464572E+06    57.463136E+06  -114.951424E+06    344.83008E+06       406.114075    344.82864E+06
             1347    57.481756E+06    57.488268E+06  -114.928864E+06   344.825664E+06       334.428925    344.82608E+06
             1348     57.46922E+06    57.467424E+06  -114.945704E+06   344.828608E+06      -170.533234   344.827776E+06
             1349    57.473652E+06    57.481332E+06  -114.936304E+06   344.826112E+06  -1.41796924E+03   344.828736E+06
             1350     57.46282E+06    57.461172E+06  -114.952544E+06   344.829728E+06       425.660065   344.828864E+06
             1351    57.473556E+06    57.472728E+06   -114.94096E+06   344.828768E+06       843.839539   344.827456E+06
             1352     57.46572E+06    57.467536E+06  -114.945952E+06    344.82944E+06   1.11142993E+03   344.828736E+06
             1353    57.474356E+06    57.473928E+06  -114.940176E+06    344.82816E+06       207.350388   344.827424E+06
             1354    57.477788E+06    57.473736E+06  -114.938488E+06   344.827136E+06       379.262665   344.826528E+06
             1355       57.478E+06    57.481368E+06  -114.934104E+06   344.828256E+06      -874.426208   344.827072E+06
             1356     57.47526E+06    57.472704E+06  -114.940024E+06   344.828128E+06       85.2499008   344.827584E+06
             1357    57.471596E+06    57.470752E+06  -114.941792E+06   344.829408E+06       992.214294   344.828192E+06
             1358    57.465572E+06    57.464884E+06  -114.949824E+06   344.828672E+06       608.429504   344.829408E+06
             1359    57.467772E+06    57.469184E+06  -114.944448E+06   344.828128E+06       239.412125   344.828448E+06
             1360    57.461728E+06    57.460836E+06  -114.952128E+06   344.829472E+06       358.424683    344.83024E+06
             1361    57.465804E+06    57.466984E+06  -114.947048E+06   344.827488E+06      -146.105865   344.828608E+06
             1362    57.468864E+06    57.468564E+06  -114.945976E+06   344.828128E+06      -54.0453873    344.82784E+06
             1363     57.47308E+06    57.473048E+06  -114.940528E+06   344.827648E+06      -267.671509   344.827328E+06
             1364    57.472256E+06    57.472656E+06  -114.941472E+06   344.827808E+06       19.7102318   344.827616E+06
             1365    57.470324E+06    57.470992E+06  -114.943768E+06   344.828288E+06      -290.881714   344.827744E+06
             1366    57.471784E+06    57.471492E+06  -114.942528E+06   344.827776E+06      -286.473053   344.827552E+06
             1367    57.472668E+06    57.472644E+06  -114.941736E+06   344.828032E+06      -568.292664   344.827136E+06
             1368     57.46902E+06    57.469484E+06    -114.9444E+06   344.827744E+06      -197.565521   344.828096E+06
             1369    57.471768E+06     57.47114E+06  -114.942656E+06   344.827968E+06      -309.114960   344.827648E+06
             1370    57.470036E+06     57.46942E+06  -114.944328E+06   344.827904E+06      -286.794281   344.827744E+06
             1371      57.4732E+06    57.473296E+06  -114.940888E+06   344.827648E+06      -266.460602    344.82768E+06
             1372    57.466988E+06    57.468424E+06  -114.944416E+06   344.828448E+06       561.239441   344.829088E+06
             1373     57.46886E+06    57.473032E+06  -114.944152E+06    344.82864E+06   1.55380164E+03   344.828128E+06
             1374     57.47368E+06    57.468792E+06  -114.941616E+06   344.826976E+06      -424.644897   344.828736E+06
             1375    57.465504E+06    57.468344E+06   -114.94572E+06   344.826784E+06      -955.375610     344.8272E+06
             1376      57.4663E+06    57.463048E+06  -114.948536E+06   344.827872E+06      -299.118378   344.825888E+06
             1377    57.476316E+06     57.48016E+06  -114.940424E+06    344.83504E+06       995.429260     344.8288E+06
             1378    57.469056E+06      57.4672E+06  -114.946816E+06   344.827936E+06      -289.637909   344.827712E+06
             1379    57.473848E+06     57.47402E+06  -114.938912E+06   344.827744E+06       105.731911   344.827584E+06
             1380    57.467284E+06     57.46664E+06   -114.94624E+06    344.83088E+06       123.211388   344.826976E+06
             1381    57.487708E+06    57.497444E+06  -114.923936E+06   344.832544E+06   1.35636438E+03   344.827008E+06
             1382    57.466372E+06    57.469712E+06  -114.943248E+06   344.830208E+06       561.571289   344.825728E+06
             1383     57.47206E+06     57.47336E+06  -114.940752E+06   344.827072E+06       687.483887   344.827456E+06
             1384    57.469296E+06    57.469224E+06  -114.944448E+06   344.827968E+06       205.198517   344.827872E+06
             1385    57.471848E+06    57.475624E+06  -114.939896E+06    344.82688E+06       167.801697   344.828352E+06
             1386    57.472084E+06    57.471428E+06  -114.941792E+06   344.826976E+06       350.624329    344.82784E+06
             1387    57.472264E+06     57.47214E+06  -114.940672E+06   344.826944E+06      -921.100281   344.827552E+06
             1388    57.464324E+06     57.46634E+06   -114.94788E+06   344.828192E+06       989.429871   344.827936E+06
             1389     57.45934E+06    57.460888E+06  -114.953248E+06   344.828256E+06  -2.12377441E+03    344.82848E+06
             1390    57.469824E+06     57.47234E+06  -114.943136E+06   344.827264E+06       165.993027   344.827232E+06
             1391    57.472432E+06    57.473992E+06   -114.93928E+06   344.825632E+06      -32.3996353   344.827552E+06
             1392     57.44688E+06    57.447308E+06  -114.969368E+06   344.830496E+06       414.828400   344.832512E+06
             1393    57.469828E+06    57.474508E+06  -114.943024E+06   344.828864E+06      -727.863708   344.829024E+06
             1394     57.48956E+06    57.484708E+06  -114.928256E+06     344.8232E+06      -91.5903702   344.828064E+06
             1395    57.458808E+06    57.457336E+06  -114.952752E+06   344.827744E+06       55.7076607    344.82992E+06
             1396    57.501844E+06    57.516928E+06  -114.909232E+06   344.825376E+06      -176.579651   344.830688E+06
             1397    57.466672E+06    57.467952E+06  -114.946832E+06    344.82816E+06      -485.804962   344.828064E+06
             1398    57.470484E+06    57.470312E+06  -114.943216E+06   344.828128E+06       109.292381   344.827488E+06
             1399    57.471396E+06    57.472436E+06  -114.941272E+06    344.82736E+06      -417.014160   344.827328E+06
             1400     57.47072E+06     57.47146E+06  -114.942712E+06   344.828288E+06       83.2008133   344.828224E+06
             1401     57.47082E+06    57.470704E+06   -114.94312E+06   344.827968E+06       507.103790   344.828512E+06
             1402    57.472808E+06    57.472136E+06  -114.942296E+06    344.82784E+06       168.541122   344.827776E+06
             1403    57.473512E+06     57.47416E+06  -114.939904E+06   344.827808E+06      -276.014648   344.828096E+06
             1404    57.473056E+06     57.47254E+06  -114.940952E+06   344.827584E+06      -432.929138   344.828288E+06
             1405    57.473624E+06     57.47286E+06  -114.941232E+06    344.82832E+06      -383.798737      344.828E+06
             1406    57.466572E+06    57.467868E+06   -114.94704E+06   344.828096E+06       1.40306747   344.828768E+06
             1407    57.471536E+06    57.470848E+06    -114.9426E+06    344.82752E+06      -189.796570   344.828096E+06
             1408    57.468568E+06    57.466608E+06   -114.94676E+06   344.828128E+06       380.146729    344.82912E+06
             1409    57.473804E+06    57.474152E+06   -114.93896E+06    344.82736E+06       32.9862518    344.82768E+06
             1410     57.48232E+06     57.47784E+06  -114.936048E+06   344.827808E+06      -885.347046   344.827488E+06
             1411    57.471324E+06    57.471348E+06   -114.94264E+06   344.827136E+06      -921.257080   344.827456E+06
             1412    57.470708E+06      57.4708E+06  -114.943368E+06    344.82816E+06       243.325851   344.828192E+06
             1413    57.470988E+06    57.471128E+06  -114.943536E+06      344.828E+06       67.7546844   344.828224E+06
             1414     57.47056E+06     57.47056E+06   -114.94308E+06   344.827872E+06       163.784088   344.827744E+06
             1415    57.472868E+06    57.473296E+06  -114.940712E+06   344.828224E+06       110.498695   344.827648E+06
             1416     57.47614E+06    57.475456E+06   -114.93848E+06    344.82816E+06       15.5810699   344.827296E+06
             1417    57.464152E+06    57.466904E+06  -114.949032E+06   344.828448E+06  -1.33818909E+03   344.828672E+06
             1418    57.471848E+06    57.472212E+06  -114.941672E+06   344.827936E+06      -222.537689   344.827552E+06
             1419     57.46668E+06    57.470256E+06  -114.944896E+06   344.828224E+06       5.95225763   344.829728E+06
             1420    57.472032E+06     57.47174E+06  -114.941968E+06    344.82784E+06      -159.477676   344.827776E+06
             1421    57.468504E+06    57.468412E+06  -114.945832E+06   344.828064E+06      -706.702576   344.828096E+06
             1422     57.46842E+06    57.473316E+06  -114.943608E+06   344.830272E+06       327.146759   344.828064E+06
             1423     57.46874E+06     57.46564E+06  -114.947592E+06   344.831296E+06   1.54250476E+03   344.828256E+06
             1424    57.468624E+06    57.466012E+06    -114.9442E+06   344.825568E+06      -272.144348   344.829472E+06
             1425     57.46786E+06    57.468384E+06  -114.948992E+06   344.830368E+06      -988.781738   344.831904E+06
             1426    57.484132E+06     57.48394E+06  -114.930272E+06   344.828224E+06  -1.37312317E+03    344.82688E+06
             1427    57.439984E+06     57.43924E+06  -114.977248E+06   344.836032E+06      -522.817566   344.833344E+06
             1428    57.464316E+06    57.464516E+06  -114.949448E+06     344.8272E+06  -1.47743713E+03   344.829184E+06
             1429      57.4648E+06    57.456968E+06  -114.955464E+06   344.833696E+06       21.6700459   344.829568E+06
             1430    57.469576E+06    57.470848E+06  -114.943424E+06    344.82864E+06      -45.1858597   344.828352E+06
             1431    57.486072E+06    57.480448E+06   -114.93716E+06   344.830048E+06       118.655937   344.826592E+06
             1432    57.468208E+06    57.468836E+06  -114.944408E+06   344.829248E+06       603.987366   344.826816E+06
             1433      57.4812E+06    57.479552E+06  -114.933624E+06    344.82736E+06      -198.732773   344.826336E+06
             1434    57.477956E+06    57.478892E+06  -114.935104E+06   344.826688E+06   1.52012268E+03      344.828E+06
             1435    57.463808E+06    57.464736E+06  -114.950576E+06   344.828192E+06       279.307617   344.830336E+06
             1436    57.480952E+06    57.479552E+06  -114.934024E+06   344.827392E+06      -123.248375   344.826432E+06
             1437    57.472488E+06      57.4724E+06  -114.941544E+06    344.82592E+06      -745.760071   344.827648E+06
             1438     57.47758E+06    57.475444E+06  -114.935024E+06   344.824128E+06       314.012878   344.826272E+06
             1439     57.47216E+06    57.467488E+06  -114.942312E+06   344.827776E+06   1.25437012E+03   344.826464E+06
             1440    57.474244E+06    57.469616E+06   -114.94028E+06   344.826528E+06       510.222046    344.82608E+06
             1441    57.468304E+06    57.471444E+06  -114.943648E+06    344.82848E+06       4.22678566   344.828256E+06
             1442    57.471392E+06    57.470644E+06    -114.9432E+06    344.82816E+06       118.693283   344.828192E+06
             1443    57.466304E+06    57.468084E+06  -114.946592E+06   344.828192E+06  -1.83372180E+03   344.828352E+06
             1444       57.476E+06     57.47866E+06  -114.936832E+06    344.82688E+06       822.789124   344.828608E+06
             1445    57.468368E+06    57.468128E+06  -114.946304E+06   344.828288E+06       342.235626   344.829376E+06
             1446    57.469112E+06     57.47212E+06  -114.943352E+06   344.828928E+06      -188.804352    344.82896E+06
             1447    57.470808E+06    57.462588E+06  -114.946096E+06   344.830048E+06      -319.979614    344.82528E+06
             1448     57.43184E+06    57.427892E+06  -114.983648E+06     344.8384E+06       99.5345612   344.829536E+06
             1449     57.45864E+06    57.454504E+06  -114.956408E+06    344.82864E+06      -11.9658413   344.827456E+06
             1450    57.475064E+06    57.476544E+06   -114.93732E+06   344.826816E+06      -676.569885   344.827456E+06
             1451     57.46854E+06    57.469264E+06  -114.944712E+06   344.827744E+06      -922.991211   344.827872E+06
             1452    57.471496E+06    57.471656E+06  -114.941888E+06   344.827936E+06       97.5523224   344.828096E+06
             1453    57.469296E+06      57.4686E+06   -114.94424E+06   344.828032E+06       745.941528    344.82816E+06
             1454    57.472056E+06    57.472688E+06  -114.941216E+06   344.827648E+06      -556.834778   344.827872E+06
             1455    57.469988E+06    57.470648E+06  -114.943672E+06   344.828064E+06       473.510345    344.82864E+06
             1456     57.48432E+06    57.480476E+06   -114.93348E+06   344.827552E+06      -384.708099   344.826368E+06
             1457    57.461244E+06    57.465752E+06  -114.949408E+06   344.826848E+06      -76.0424652   344.829312E+06
             1458    57.477636E+06    57.476464E+06  -114.936648E+06    344.82688E+06      -685.095093     344.8264E+06
             1459    57.471164E+06    57.471664E+06  -114.942496E+06    344.82784E+06      -484.101105    344.82752E+06
             1460    57.468432E+06     57.46948E+06  -114.944032E+06   344.829632E+06   1.18584888E+03    344.82752E+06
             1461    57.471456E+06    57.473248E+06  -114.941112E+06   344.827872E+06       139.207672   344.827904E+06
             1462    57.471084E+06    57.471064E+06  -114.943464E+06   344.828672E+06       37.8211594   344.827936E+06
             1463    57.472064E+06    57.472748E+06  -114.941296E+06   344.828096E+06       194.047729   344.827744E+06
             1464    57.469576E+06    57.473008E+06  -114.944176E+06   344.827744E+06      -205.949585     344.8296E+06
             1465     57.46556E+06    57.467144E+06  -114.949312E+06   344.829312E+06      -526.052551   344.828256E+06
             1466    57.471024E+06    57.470572E+06   -114.94332E+06   344.828384E+06       126.574287    344.82784E+06
             1467     57.47988E+06    57.487128E+06  -114.929208E+06   344.825856E+06      -232.400482   344.828608E+06
             1468    57.479412E+06     57.47678E+06  -114.936688E+06   344.826144E+06  -2.14730371E+03   344.827392E+06
             1469     57.46594E+06    57.468804E+06  -114.946632E+06   344.828576E+06      -182.089874   344.827424E+06
             1470     57.45688E+06    57.463144E+06  -114.953176E+06   344.827072E+06  -1.58202649E+03   344.829696E+06
             1471    57.464596E+06     57.46988E+06  -114.944768E+06   344.827872E+06       76.8540497   344.829952E+06
             1472    57.472812E+06    57.474424E+06  -114.939936E+06    344.82768E+06      -416.277740   344.827968E+06
             1473    57.469936E+06    57.470472E+06  -114.943376E+06   344.828064E+06       235.572906   344.828256E+06
             1474    57.471084E+06     57.47072E+06  -114.943104E+06   344.827808E+06      -271.951569   344.827808E+06
             1475    57.468564E+06    57.469244E+06   -114.94464E+06   344.827648E+06      -302.639008   344.828192E+06
             1476    57.475416E+06    57.474952E+06   -114.93988E+06   344.828416E+06      -151.999268   344.827456E+06
             1477    57.420348E+06    57.426368E+06  -114.994056E+06   344.835104E+06  -2.80234790E+03   344.839648E+06
             1478    57.476992E+06    57.477092E+06  -114.938168E+06   344.828544E+06      -145.388504    344.82816E+06
             1479    57.477124E+06    57.476528E+06  -114.937112E+06    344.82784E+06       38.0768013   344.826688E+06
             1480     57.46842E+06    57.466696E+06  -114.946328E+06    344.82848E+06       660.205200   344.828416E+06
             1481    57.467172E+06    57.465964E+06  -114.945256E+06    344.82944E+06   1.21857190E+03   344.829472E+06
             1482    57.472252E+06    57.473924E+06  -114.940376E+06   344.827968E+06       93.1357117   344.828608E+06
             1483    57.474724E+06    57.476832E+06  -114.938344E+06    344.82752E+06  -1.32727771E+03   344.824192E+06
             1484    57.473752E+06    57.481956E+06  -114.941288E+06   344.835776E+06       194.193756   344.829824E+06
             1485    57.479544E+06    57.473568E+06  -114.933248E+06   344.825408E+06      -550.923950   344.825632E+06
             1486     57.46928E+06      57.4679E+06  -114.944752E+06   344.828032E+06      -435.416290   344.827968E+06
             1487    57.502512E+06    57.508704E+06   -114.91172E+06    344.82368E+06       606.034363   344.827936E+06
             1488    57.472696E+06    57.472068E+06   -114.94172E+06   344.828128E+06       420.216064   344.827872E+06
             1489     57.45596E+06    57.452528E+06  -114.961528E+06    344.82976E+06   1.06252271E+03   344.832192E+06
             1490    57.471324E+06    57.472996E+06  -114.943416E+06   344.829088E+06      -695.815918   344.826688E+06
             1491    57.477044E+06     57.47806E+06  -114.936688E+06   344.828192E+06      -13.1548691   344.826368E+06
             1492    57.477232E+06    57.479204E+06  -114.936232E+06   344.826304E+06      -40.1444283   344.827584E+06
             1493    57.473832E+06    57.470604E+06  -114.939336E+06    344.82752E+06      -677.332520   344.827072E+06
             1494    57.468052E+06      57.4679E+06  -114.945648E+06   344.828224E+06       732.413391   344.828448E+06
             1495       57.467E+06     57.46498E+06  -114.946256E+06    344.82832E+06       306.419312   344.827744E+06
             1496    57.473204E+06    57.473416E+06  -114.940024E+06   344.827328E+06      -191.766830   344.828096E+06
             1497    57.475524E+06    57.479408E+06  -114.938464E+06   344.830464E+06       279.338715   344.828384E+06
             1498    57.473316E+06    57.475292E+06  -114.941768E+06   344.827232E+06       839.750305   344.829248E+06
             1499    57.473372E+06    57.469152E+06  -114.941704E+06    344.82928E+06  -1.09635608E+03   344.826912E+06
             1500     57.45624E+06    57.454272E+06  -114.956504E+06   344.829792E+06   1.29812610E+03   344.832064E+06
             1501    57.469356E+06     57.46854E+06  -114.944408E+06   344.827648E+06      -71.6497040      344.828E+06
             1502    57.472732E+06    57.474252E+06  -114.941464E+06   344.828256E+06       661.411194   344.828128E+06
             1503    57.441868E+06    57.435764E+06  -114.971936E+06   344.827968E+06  -1.27600806E+03     344.8256E+06
             1504    57.471616E+06    57.477532E+06  -114.939888E+06   344.834816E+06      -267.791229   344.828064E+06
             1505    57.475056E+06    57.476872E+06  -114.940168E+06   344.827168E+06      -249.213058   344.826272E+06
             1506     57.46894E+06    57.468872E+06  -114.944976E+06   344.828128E+06       485.165649   344.828832E+06
             1507    57.474012E+06    57.473532E+06     -114.941E+06   344.828384E+06      -308.453369   344.827552E+06
             1508    57.477452E+06      57.4731E+06  -114.939648E+06   344.827648E+06      -867.344177    344.82784E+06
             1509    57.496108E+06     57.49934E+06  -114.917952E+06   344.830368E+06  -2.03109692E+03   344.823072E+06
             1510    57.469632E+06    57.470916E+06  -114.948816E+06     344.8296E+06       76.4122467   344.828768E+06
             1511    57.466976E+06    57.464832E+06   -114.94868E+06   344.829504E+06      -813.914001   344.828352E+06
             1512    57.477192E+06    57.477128E+06  -114.939416E+06     344.8288E+06      -599.359802   344.827328E+06
             1513    57.468568E+06      57.4685E+06   -114.94596E+06   344.827456E+06      -360.982330   344.827968E+06
             1514     57.46004E+06     57.46058E+06   -114.95404E+06   344.829632E+06   1.18759741E+03   344.826816E+06
             1515    57.463752E+06     57.46136E+06  -114.950768E+06   344.830208E+06  -2.12495557E+03   344.829152E+06
             1516    57.448544E+06    57.439256E+06   -114.96524E+06   344.829152E+06       748.174500   344.826912E+06
             1517    57.397644E+06    57.380004E+06  -115.018312E+06   344.831904E+06       331.639465   344.832064E+06
             1518    57.470188E+06    57.470332E+06  -114.942016E+06   344.827712E+06      -46.1961060   344.827328E+06
             1519    57.477928E+06    57.481636E+06  -114.937128E+06    344.82592E+06      -378.958893    344.82672E+06
             1520    57.468712E+06    57.466236E+06  -114.946464E+06   344.828864E+06      -391.491119     344.8272E+06
             1521     57.46944E+06    57.471928E+06     -114.942E+06   344.828384E+06       957.350098   344.828416E+06
             1522      57.4647E+06      57.4667E+06  -114.945544E+06   344.828256E+06      -123.771751   344.828544E+06
             1523    57.469256E+06    57.466104E+06  -114.944712E+06   344.830848E+06   1.12422791E+03   344.828192E+06
             1524    57.472196E+06    57.471736E+06  -114.941936E+06   344.824736E+06       598.255920   344.828288E+06
             1525    57.471236E+06    57.471104E+06  -114.942608E+06   344.827744E+06       158.791336   344.827936E+06
             1526    57.466016E+06    57.466336E+06  -114.948264E+06   344.828704E+06       658.976624   344.827424E+06
             1527     57.47736E+06    57.476212E+06  -114.936608E+06   344.826176E+06  -1.55610962E+03   344.827136E+06
             1528    57.471896E+06    57.471756E+06  -114.942408E+06      344.828E+06       39.8765984   344.827808E+06
             1529    57.475632E+06    57.473512E+06  -114.940144E+06    344.82896E+06       371.589569   344.827456E+06
             1530    57.475212E+06    57.475348E+06  -114.938048E+06   344.827104E+06      -18.4119434   344.827904E+06
             1531     57.47176E+06    57.472356E+06  -114.941216E+06   344.827552E+06       113.016663   344.827808E+06
             1532    57.472068E+06    57.471544E+06  -114.942736E+06   344.827904E+06      -66.7050629   344.827744E+06
             1533    57.471676E+06     57.47178E+06  -114.941968E+06    344.82784E+06       220.596497    344.82752E+06
             1534    57.468276E+06     57.46772E+06  -114.946064E+06   344.829024E+06  -1.80051501E+03   344.828768E+06
             1535    57.472828E+06    57.473656E+06  -114.939568E+06   344.827776E+06      -221.769455   344.827776E+06
             1536    57.471808E+06    57.473892E+06  -114.941936E+06    344.82864E+06       261.641541   344.828256E+06
             1537    57.485748E+06    57.491016E+06  -114.927512E+06   344.828096E+06  -1.00507813E+03   344.825728E+06
             1538       57.478E+06    57.478672E+06   -114.93604E+06   344.825664E+06      -180.460938   344.827424E+06
             1539    57.479232E+06     57.47862E+06  -114.936456E+06   344.826304E+06   1.06756860E+03   344.827584E+06
             1540    57.470992E+06    57.472372E+06   -114.94208E+06   344.827488E+06      -784.525635   344.827264E+06
             1541    57.469984E+06    57.468292E+06  -114.944304E+06   344.828128E+06       838.238342    344.82928E+06
             1542    57.477548E+06     57.47414E+06  -114.939544E+06   344.828832E+06       634.649719   344.826528E+06
             1543    57.471952E+06    57.470012E+06  -114.942648E+06   344.828256E+06       8.19728088   344.826592E+06
             1544     57.47078E+06    57.471504E+06   -114.94272E+06   344.828288E+06      -184.670166   344.827904E+06
             1545    57.473984E+06    57.473244E+06   -114.93984E+06   344.831072E+06      -445.705261   344.827552E+06
             1546    57.481988E+06    57.480736E+06  -114.933152E+06   344.827616E+06  -2.47666211E+03     344.8216E+06
             1547    57.473552E+06    57.471604E+06  -114.942936E+06   344.830848E+06       223.001266   344.828672E+06
             1548    57.471452E+06    57.471076E+06  -114.943016E+06   344.826464E+06   1.52948315E+03   344.829888E+06
             1549    57.475608E+06    57.480496E+06  -114.936544E+06   344.826496E+06   1.15514648E+03   344.831232E+06
             1550       57.511E+06      57.5062E+06  -114.902432E+06   344.823264E+06   5.57720703E+03    344.82224E+06
             1551    57.421872E+06     57.42538E+06  -114.984336E+06   344.835456E+06   2.32035034E+03   344.831072E+06
             1552    57.493316E+06    57.492408E+06  -114.921904E+06     344.8216E+06  -1.25993567E+03   344.826112E+06
             1553    57.464056E+06    57.467624E+06   -114.94896E+06   344.827712E+06       676.918396   344.827968E+06
             1554    57.473392E+06    57.472088E+06  -114.940576E+06   344.825856E+06      -674.048645   344.828224E+06
             1555    57.473408E+06    57.476332E+06     -114.937E+06   344.826208E+06      -752.452942   344.827008E+06
             1556    57.456636E+06    57.461228E+06  -114.954056E+06   344.828896E+06       227.420074   344.828928E+06
             1557     57.44186E+06    57.447112E+06  -114.967824E+06    344.83504E+06       485.475006   344.830048E+06
             1558    57.467348E+06    57.470356E+06  -114.947016E+06   344.828864E+06  -1.17355066E+03   344.827968E+06
             1559    57.470404E+06    57.472784E+06  -114.943896E+06   344.829152E+06  -1.37970959E+03   344.828448E+06
             1560     57.49088E+06    57.486428E+06  -114.925552E+06   344.825984E+06       456.398865   344.827168E+06
             1561    57.485072E+06    57.483112E+06  -114.928832E+06   344.820224E+06      -431.348236   344.826176E+06
             1562    57.479524E+06    57.485608E+06  -114.935216E+06   344.828256E+06   2.37171045E+03   344.834048E+06
             1563    57.434396E+06    57.428712E+06  -114.983984E+06   344.832544E+06   2.08748267E+03   344.835136E+06
             1564    57.476936E+06    57.476604E+06   -114.93656E+06   344.828736E+06      -916.908264    344.82672E+06
             1565    57.465284E+06    57.467592E+06  -114.947624E+06   344.828768E+06       670.661072    344.82832E+06
             1566    57.475608E+06    57.471848E+06  -114.942072E+06   344.829376E+06       85.5372849    344.82944E+06
             1567    57.480308E+06     57.44902E+06  -114.951224E+06      344.832E+06  -1.51871094E+03   344.828832E+06
             1568     57.46258E+06     57.45438E+06  -114.954016E+06   344.826528E+06       283.182312    344.82688E+06
             1569    57.450024E+06    57.458656E+06  -114.958152E+06    344.82928E+06      -446.285797    344.82832E+06
             1570    57.490976E+06    57.488132E+06  -114.924568E+06   344.822304E+06  -1.43805103E+03   344.825856E+06
             1571    57.471816E+06    57.473684E+06  -114.939688E+06   344.828512E+06      -325.915680   344.826144E+06
             1572    57.480912E+06    57.479244E+06  -114.934064E+06   344.828064E+06       460.382568    344.82688E+06
             1573    57.460816E+06    57.467732E+06  -114.947968E+06   344.824064E+06  -1.28937598E+03   344.828128E+06
             1574    57.455184E+06     57.44776E+06  -114.960584E+06      344.828E+06      -626.014709    344.82976E+06
             1575    57.474956E+06      57.4745E+06  -114.939896E+06   344.826112E+06      -561.394226    344.82992E+06
             1576    57.469308E+06    57.469164E+06  -114.945064E+06    344.82928E+06       852.649414   344.829792E+06
             1577    57.466936E+06     57.46622E+06  -114.949192E+06   344.828192E+06      -591.467224   344.828128E+06
             1578    57.393428E+06    57.400516E+06  -115.019136E+06    344.83888E+06       351.410614   344.840352E+06
             1579    57.470528E+06    57.470944E+06  -114.943528E+06   344.827904E+06      -549.532166   344.827648E+06
             1580    57.474472E+06    57.473352E+06   -114.93532E+06   344.826624E+06   1.24735266E+03   344.824448E+06
             1581    57.472076E+06    57.470592E+06  -114.941664E+06   344.827296E+06       85.0268707    344.82832E+06
             1582     57.46468E+06    57.465048E+06  -114.947912E+06   344.827744E+06      -311.170135   344.827904E+06
             1583    57.459324E+06    57.455928E+06  -114.955456E+06   344.829696E+06      -298.487579    344.82768E+06
             1584    57.473756E+06    57.473852E+06  -114.938448E+06   344.827296E+06      -580.836853   344.828256E+06
             1585    57.457988E+06    57.463892E+06  -114.953216E+06   344.821664E+06  -3.68902295E+03   344.827264E+06
             1586    57.480976E+06    57.479912E+06  -114.933096E+06     344.8256E+06   1.08241614E+03   344.827328E+06
             1587    57.453988E+06    57.450384E+06  -114.961152E+06   344.832256E+06       43.1992264   344.828864E+06
             1588    57.475224E+06    57.474132E+06  -114.938408E+06   344.824512E+06  -1.80443372E+03   344.827616E+06
             1589    57.487128E+06    57.488288E+06  -114.926128E+06   344.830624E+06  -1.98537878E+03   344.824736E+06
             1590     57.43686E+06    57.433684E+06  -114.976056E+06   344.827936E+06   1.14329443E+03   344.834016E+06
             1591      57.4704E+06    57.474252E+06  -114.941248E+06   344.829376E+06       5.59601784   344.829824E+06
             1592    57.466272E+06    57.462444E+06   -114.94804E+06   344.829088E+06       894.358032    344.83008E+06
             1593     57.47316E+06    57.472928E+06  -114.940752E+06   344.826976E+06      -13.4383984   344.827552E+06
             1594    57.471924E+06    57.471352E+06  -114.942376E+06   344.827808E+06      -279.510834   344.827904E+06
             1595    57.477236E+06    57.476168E+06  -114.935312E+06   344.829568E+06      -5.28221178   344.828768E+06
             1596    57.445104E+06    57.458316E+06  -114.958984E+06   344.829248E+06   3.03728931E+03   344.830528E+06
             1597    57.469236E+06    57.466108E+06  -114.947096E+06   344.829088E+06   2.05236304E+03     344.8272E+06
             1598    57.488092E+06    57.487244E+06  -114.925288E+06   344.825376E+06       228.109543   344.825568E+06
             1599    57.479248E+06    57.477176E+06  -114.933896E+06   344.827168E+06   1.28810339E+03    344.82752E+06
             1600    57.475716E+06    57.473568E+06  -114.938872E+06   344.827904E+06      -213.261093   344.827136E+06
             1601    57.472756E+06     57.47178E+06  -114.941392E+06   344.827648E+06      -297.195313   344.827488E+06
             1602    57.489216E+06    57.484568E+06  -114.926136E+06   344.825888E+06  -1.45399304E+03   344.825088E+06
             1603    57.466088E+06    57.468032E+06  -114.947864E+06   344.828352E+06  -1.13884351E+03   344.828256E+06
             1604    57.424064E+06    57.431016E+06  -114.984248E+06   344.830944E+06  -1.54220435E+03   344.831584E+06
             1605    57.410108E+06    57.396768E+06  -115.004792E+06   344.831456E+06       655.695557   344.835392E+06
             1606    57.457756E+06     57.46454E+06   -114.95052E+06   344.826784E+06  -2.08673535E+03   344.827424E+06
             1607    57.469332E+06    57.466636E+06  -114.945576E+06   344.829024E+06   2.94309106E+03   344.826816E+06
             1608    57.429348E+06    57.444876E+06  -114.974376E+06   344.835712E+06   3.56190771E+03   344.829536E+06
             1609    57.467552E+06    57.468456E+06  -114.945352E+06    344.82752E+06      -176.392532   344.828576E+06
             1610    57.516632E+06    57.506696E+06   -114.90764E+06   344.826464E+06   5.14049805E+03    344.82448E+06
             1611    57.478304E+06    57.474836E+06  -114.936928E+06    344.83008E+06  -1.18822729E+03   344.827552E+06
             1612    57.465588E+06    57.466348E+06    -114.9474E+06   344.828224E+06  -2.26778125E+03   344.829248E+06
             1613    57.442644E+06     57.43716E+06  -114.971384E+06   344.837312E+06   2.72003516E+03   344.828672E+06
             1614     57.47422E+06    57.475496E+06   -114.93944E+06    344.82752E+06      -362.311218    344.82608E+06
             1615    57.493764E+06     57.49486E+06  -114.921384E+06   344.823424E+06  -2.04003516E+03    344.82864E+06
             1616     57.46734E+06     57.46478E+06  -114.949408E+06   344.828128E+06      -37.0173531   344.828832E+06
             1617    57.467008E+06    57.463772E+06   -114.94836E+06   344.826976E+06      -2.46492934   344.828192E+06
             1618     57.47384E+06    57.474248E+06   -114.94052E+06   344.830176E+06      -109.735336   344.827776E+06
             1619     57.47732E+06    57.474916E+06   -114.93784E+06   344.827584E+06       838.988403     344.8272E+06
             1620    57.472744E+06      57.4722E+06  -114.941904E+06   344.827808E+06      -274.840912   344.827424E+06
             1621    57.470612E+06    57.466756E+06   -114.94636E+06    344.82944E+06   3.42981006E+03   344.828256E+06
             1622    57.472224E+06    57.471596E+06  -114.942928E+06   344.828288E+06      -5.41902828   344.827808E+06
             1623     57.45486E+06     57.46372E+06  -114.956688E+06   344.833184E+06       581.607727    344.82944E+06
             1624    57.459184E+06    57.456344E+06  -114.955728E+06   344.833856E+06  -1.74149536E+03   344.828544E+06
             1625    57.473056E+06    57.471564E+06  -114.939336E+06    344.82544E+06   2.08493115E+03   344.827136E+06
             1626     57.47446E+06    57.472956E+06  -114.934368E+06   344.826336E+06   4.01739136E+03   344.831808E+06
             1627    57.448116E+06    57.437972E+06  -114.964328E+06   344.825568E+06       731.536438   344.828512E+06
             1628    57.537112E+06    57.543712E+06  -114.872816E+06   344.819168E+06       35.9281006   344.818752E+06
             1629    57.468744E+06    57.463616E+06  -114.949096E+06     344.8296E+06       250.523956   344.830336E+06
             1630    57.467104E+06    57.466672E+06  -114.947432E+06    344.82752E+06  -1.77403516E+03   344.828704E+06
             1631     57.44474E+06    57.448472E+06  -114.967872E+06   344.827424E+06      -512.253967   344.831552E+06
             1632    57.472072E+06    57.471916E+06  -114.943224E+06    344.82928E+06       38.6975403   344.828288E+06
             1633    57.469548E+06    57.469004E+06  -114.947008E+06   344.829536E+06       823.340759   344.828096E+06
             1634    57.459112E+06    57.461496E+06  -114.951152E+06   344.827296E+06   1.64786218E+03   344.829664E+06
             1635    57.483216E+06    57.478656E+06  -114.933136E+06      344.828E+06   1.77079614E+03   344.826944E+06
             1636    57.504924E+06    57.508772E+06  -114.906264E+06   344.827136E+06   1.49577783E+03     344.8184E+06
             1637    57.465452E+06    57.463408E+06    -114.9494E+06   344.830464E+06   3.75579541E+03   344.828576E+06
             1638    57.481524E+06    57.476436E+06  -114.937016E+06   344.827104E+06       545.538513   344.826208E+06
             1639     57.45924E+06    57.458304E+06  -114.957048E+06   344.825888E+06       210.239624   344.830368E+06
             1640    57.472028E+06    57.470288E+06  -114.942672E+06   344.828032E+06      -93.1770020   344.827552E+06
             1641    57.422692E+06    57.434332E+06  -114.981192E+06   344.824448E+06  -10.7533994E+03   344.829056E+06
             1642    57.459544E+06    57.460296E+06    -114.9548E+06    344.83056E+06       839.040649   344.829792E+06
             1643    57.472396E+06    57.474004E+06  -114.942024E+06   344.831072E+06   1.08232715E+03   344.825696E+06
             1644     57.48732E+06    57.489712E+06   -114.92804E+06   344.825696E+06       320.983521    344.82704E+06
             1645    57.467212E+06    57.469888E+06  -114.945592E+06   344.829568E+06      -280.438446   344.827552E+06
             1646    57.472956E+06    57.474732E+06  -114.939536E+06    344.82864E+06  -1.60810669E+03   344.827968E+06
             1647    57.471112E+06     57.47032E+06  -114.945304E+06   344.828128E+06       362.539825   344.827776E+06
             1648    57.466256E+06    57.466124E+06  -114.949288E+06   344.829024E+06       452.113190   344.828608E+06
             1649    57.465464E+06    57.463044E+06  -114.948872E+06   344.830752E+06      -337.013702   344.827168E+06
             1650    57.472072E+06    57.470928E+06   -114.94384E+06    344.82848E+06      -828.382996    344.82688E+06
             1651    57.351048E+06     57.33532E+06  -115.068016E+06    344.84416E+06       937.208923     344.8352E+06
             1652     57.46852E+06    57.469976E+06   -114.94516E+06   344.828288E+06      -675.201538   344.828224E+06
             1653     57.47092E+06    57.470016E+06  -114.945632E+06   344.830496E+06   1.52251416E+03   344.828576E+06
             1654    57.468172E+06    57.470176E+06  -114.944696E+06   344.829984E+06      -570.868896   344.828608E+06
             1655     57.47746E+06    57.479656E+06     -114.936E+06   344.827968E+06      -10.7153730   344.828064E+06
             1656    57.458724E+06      57.4598E+06  -114.952856E+06   344.829984E+06   1.64049841E+03   344.829312E+06
             1657    57.463396E+06    57.458004E+06  -114.952752E+06   344.825568E+06  -1.89586584E+03   344.826176E+06
             1658     57.46604E+06    57.467356E+06   -114.94688E+06   344.826848E+06       991.935059   344.829504E+06
             1659     57.47422E+06    57.473024E+06  -114.941192E+06   344.829792E+06   1.89940808E+03    344.82832E+06
             1660    57.470816E+06    57.471348E+06   -114.94272E+06   344.829184E+06       224.656403   344.827872E+06
             1661    57.468252E+06    57.467172E+06   -114.94452E+06    344.82848E+06      -498.634613      344.828E+06
             1662    57.482644E+06    57.483084E+06  -114.931456E+06   344.826368E+06       64.8309250   344.825664E+06
             1663    57.466256E+06    57.467244E+06  -114.946352E+06   344.829536E+06      -595.521362   344.829632E+06
             1664    57.489848E+06    57.486652E+06  -114.925808E+06   344.825248E+06   2.98853223E+03   344.827072E+06
             1665    57.474132E+06    57.471556E+06  -114.942584E+06   344.826624E+06      -844.580688   344.825952E+06
             1666     57.47156E+06    57.471736E+06  -114.942664E+06   344.827168E+06      -226.537918   344.827232E+06
             1667    57.464752E+06    57.463784E+06  -114.953152E+06   344.828672E+06  -1.20620776E+03   344.826944E+06
             1668     57.47914E+06     57.47768E+06  -114.935656E+06   344.826624E+06       148.727768   344.827424E+06
             1669    57.472876E+06    57.473084E+06  -114.940792E+06    344.82768E+06      -38.0819817    344.82752E+06
             1670    57.473036E+06    57.472492E+06  -114.940712E+06   344.828352E+06      -4.29314423   344.827296E+06
             1671    57.468056E+06    57.467636E+06  -114.947592E+06   344.828672E+06      -783.294434   344.827808E+06
             1672    57.475812E+06      57.4756E+06  -114.938488E+06   344.828384E+06      -859.473877    344.82672E+06
             1673       57.479E+06    57.485124E+06  -114.932376E+06   344.826112E+06      -139.317413   344.828256E+06
             1674    57.445516E+06     57.44902E+06  -114.967168E+06   344.832992E+06       820.027161   344.830528E+06
             1675    57.466984E+06    57.464136E+06  -114.947976E+06    344.82512E+06      -461.837341   344.827808E+06
             1676    57.443064E+06    57.452156E+06  -114.963944E+06   344.828192E+06  -1.02302777E+03   344.829664E+06
             1677    57.468584E+06    57.467932E+06  -114.945512E+06   344.828352E+06      -338.332825   344.828416E+06
             1678    57.468612E+06    57.468752E+06  -114.944696E+06   344.828448E+06      -43.0612411   344.827776E+06
             1679    57.461404E+06    57.463184E+06   -114.95064E+06   344.828256E+06   1.73113855E+03   344.828992E+06
             1680      57.4632E+06    57.463684E+06  -114.950432E+06   344.829088E+06      -484.097992   344.829056E+06
             1681    57.470608E+06    57.471024E+06  -114.943272E+06   344.827872E+06      -342.167816   344.827808E+06
             1682      57.4952E+06      57.4976E+06  -114.919848E+06   344.829088E+06      -581.199341   344.822848E+06
             1683    57.468524E+06     57.46934E+06  -114.945216E+06   344.828192E+06      -66.0381622   344.828288E+06
             1684    57.471224E+06    57.471072E+06  -114.942872E+06      344.828E+06       498.086151   344.827904E+06
             1685     57.50186E+06    57.499924E+06  -114.919008E+06    344.83168E+06      -12.7694197   344.825504E+06
             1686      57.4671E+06     57.46688E+06  -114.947064E+06    344.82784E+06      -696.684448    344.82912E+06
             1687    57.471916E+06     57.47148E+06  -114.942288E+06    344.82768E+06      -372.599274    344.82752E+06
             1688    57.471452E+06    57.469828E+06  -114.943312E+06   344.828352E+06      -268.118103   344.827264E+06
             1689    57.474552E+06     57.47292E+06  -114.939712E+06   344.827776E+06       27.0827942   344.827328E+06
             1690    57.380688E+06    57.405976E+06  -115.016672E+06    344.83488E+06      -396.181549      344.836E+06
             1691    57.468444E+06    57.472656E+06  -114.937912E+06   344.825472E+06       453.190369   344.827712E+06
             1692    57.463572E+06    57.462996E+06  -114.949592E+06    344.82672E+06      -262.367493    344.82864E+06
             1693    57.459784E+06    57.463924E+06  -114.949216E+06   344.819744E+06  -9.06286328E+03    344.82832E+06
             1694    57.470964E+06    57.471264E+06  -114.942864E+06   344.828448E+06       179.737518      344.828E+06
             1695    57.470864E+06    57.470628E+06  -114.942752E+06   344.827712E+06      -353.578033   344.827744E+06
             1696    57.518932E+06    57.505084E+06  -114.905504E+06   344.823296E+06  -8.71825293E+03    344.82416E+06
             1697    57.461764E+06    57.461204E+06  -114.949536E+06     344.8256E+06      -997.484741   344.826048E+06
             1698     57.47776E+06     57.48044E+06  -114.937136E+06   344.831392E+06   1.12604614E+03   344.829728E+06
             1699    57.457604E+06    57.461704E+06  -114.958144E+06   344.828544E+06  -2.74433594E+03    344.82752E+06
             1700    57.482244E+06    57.485908E+06  -114.926936E+06    344.82704E+06   1.89879993E+03   344.828832E+06
             1701     57.44416E+06    57.449768E+06  -114.968752E+06   344.832064E+06   4.00558667E+03   344.833408E+06
             1702    57.448824E+06    57.448468E+06  -114.967432E+06   344.833248E+06  -5.90709521E+03   344.831264E+06
             1703     57.51842E+06     57.50796E+06  -114.904128E+06   344.823872E+06  -6.63131934E+03   344.824032E+06
             1704    57.386252E+06    57.389108E+06  -115.022864E+06   344.838848E+06   4.54757813E+03   344.832384E+06
             1705    57.468356E+06     57.46934E+06  -114.944656E+06   344.826848E+06       516.666992   344.828832E+06
             1706    57.480196E+06    57.478424E+06   -114.93604E+06   344.823648E+06      -78.5604172   344.827904E+06
             1707    57.478892E+06    57.480012E+06  -114.935984E+06      344.828E+06   1.51939221E+03    344.82848E+06
             1708    57.480764E+06    57.472828E+06    -114.9382E+06   344.830016E+06  -2.24773315E+03   344.824608E+06
             1709    57.507244E+06     57.49686E+06   -114.91556E+06   344.827456E+06   3.22111743E+03   344.826528E+06
             1710    57.479052E+06    57.475164E+06  -114.936784E+06   344.825312E+06  -1.37392383E+03   344.825728E+06
             1711    57.481772E+06    57.481068E+06  -114.933464E+06   344.825312E+06      -453.040222   344.825184E+06
             1712     57.49422E+06    57.497424E+06  -114.915984E+06    344.82032E+06   1.20232837E+03   344.825376E+06
             1713    57.450796E+06    57.445956E+06   -114.96604E+06   344.835616E+06   1.31522546E+03   344.828064E+06
             1714    57.489788E+06    57.494192E+06  -114.920504E+06   344.817632E+06  -6.77299072E+03   344.826848E+06
             1715    57.473684E+06    57.468376E+06  -114.939784E+06   344.826048E+06      -653.298645   344.826688E+06
             1716    57.468976E+06    57.474496E+06  -114.945808E+06   344.827712E+06  -2.21052002E+03   344.831264E+06
             1717    57.513164E+06     57.52096E+06  -114.897848E+06   344.817824E+06   1.18326563E+03   344.824832E+06
             1718    57.465164E+06    57.459624E+06  -114.952224E+06   344.827808E+06      -776.035339   344.827488E+06
             1719    57.455924E+06    57.453688E+06  -114.964672E+06   344.832128E+06       261.759003   344.829536E+06
             1720    57.462588E+06    57.463656E+06   -114.94952E+06   344.827712E+06       547.766541     344.8304E+06
             1721    57.530336E+06    57.522616E+06  -114.889248E+06   344.819072E+06  -1.34702893E+03   344.822752E+06
             1722    57.477264E+06    57.472564E+06   -114.94028E+06    344.82656E+06      -282.476318   344.826528E+06
             1723     57.46658E+06    57.466156E+06    -114.9484E+06    344.82896E+06       562.595886   344.828128E+06
             1724    57.475968E+06     57.47898E+06  -114.935776E+06   344.825376E+06  -1.18699976E+03   344.827552E+06
             1725      57.4746E+06    57.471904E+06  -114.937256E+06   344.826784E+06       710.677063    344.82992E+06
             1726     57.47078E+06    57.482556E+06  -114.940384E+06   344.827904E+06       381.354370   344.830464E+06
             1727     57.47992E+06    57.479996E+06    -114.9356E+06    344.82928E+06       796.689026   344.826144E+06
             1728    57.483752E+06    57.480236E+06  -114.933424E+06    344.82976E+06   1.36137427E+03    344.82688E+06
             1729    57.460908E+06    57.461544E+06  -114.953536E+06   344.832736E+06   1.87662683E+03   344.828896E+06
             1730    57.475576E+06    57.470792E+06  -114.938768E+06   344.827904E+06       61.8298531   344.827488E+06
             1731    57.528804E+06     57.51644E+06    -114.8938E+06     344.8232E+06  -5.08703271E+03      344.824E+06
             1732    57.471252E+06    57.469336E+06  -114.942744E+06   344.828896E+06       666.254395   344.827328E+06
             1733    57.448004E+06    57.446988E+06   -114.96604E+06   344.838208E+06       346.560181   344.826208E+06
             1734    57.486148E+06    57.487244E+06  -114.930224E+06   344.824096E+06      -919.371826   344.827648E+06
             1735    57.471256E+06    57.471144E+06   -114.94308E+06   344.827744E+06      -54.2686272   344.828608E+06
             1736    57.475284E+06    57.480628E+06  -114.935488E+06      344.828E+06      -1.92630494   344.829152E+06
             1737    57.464336E+06    57.462728E+06  -114.953224E+06    344.83344E+06   1.46238940E+03    344.82432E+06
             1738    57.493592E+06    57.490508E+06  -114.922328E+06   344.825184E+06      -462.989410    344.82528E+06
             1739    57.544716E+06    57.551852E+06  -114.878912E+06   344.840928E+06       886.661804   344.823168E+06
             1740    57.473164E+06    57.473148E+06  -114.942032E+06   344.827616E+06       310.161133   344.827936E+06
             1741    57.455712E+06    57.457724E+06    -114.9574E+06   344.831328E+06       238.113129   344.829376E+06
             1742    57.478908E+06     57.47678E+06  -114.935064E+06   344.826848E+06  -1.26937012E+03   344.827808E+06
             1743      57.4712E+06    57.470844E+06  -114.943128E+06   344.829856E+06   3.51018213E+03   344.827424E+06
             1744    57.539252E+06     57.53802E+06  -114.880064E+06   344.827008E+06   1.72870215E+03   344.820384E+06
             1745    57.427304E+06    57.419372E+06  -114.985032E+06   344.825152E+06   1.30300049E+03     344.8296E+06
             1746     57.46698E+06    57.462528E+06   -114.95004E+06   344.826656E+06  -1.37348523E+03   344.826752E+06
             1747     57.46756E+06    57.469496E+06   -114.94424E+06   344.827776E+06      -310.286713   344.827776E+06
             1748      57.4651E+06    57.464424E+06  -114.947608E+06   344.826592E+06   1.61977771E+03   344.826912E+06
             1749    57.454068E+06    57.455652E+06  -114.957512E+06   344.826176E+06  -5.26969824E+03   344.828544E+06
             1750    57.456028E+06    57.459876E+06  -114.954848E+06     344.8296E+06   3.41323145E+03   344.829472E+06
             1751     57.48836E+06    57.493264E+06  -114.921224E+06   344.823296E+06   6.52658350E+03   344.825536E+06
             1752    57.465596E+06    57.470172E+06  -114.945896E+06   344.830304E+06  -1.13301221E+03    344.82784E+06
             1753     57.46468E+06    57.464088E+06  -114.949848E+06    344.82768E+06       511.566406   344.829248E+06
             1754    57.450976E+06     57.45338E+06  -114.962288E+06     344.8344E+06   2.85230859E+03   344.829792E+06
             1755    57.478464E+06    57.477128E+06  -114.935152E+06   344.830112E+06      -868.324585   344.828032E+06
             1756    57.459264E+06    57.458072E+06  -114.956424E+06   344.830464E+06      -262.755188    344.83056E+06
             1757    57.470312E+06    57.470456E+06  -114.943568E+06   344.829632E+06      -171.748444    344.82736E+06
             1758    57.468056E+06    57.453696E+06  -114.950864E+06   344.832928E+06   1.37028369E+03   344.823744E+06
             1759    57.442492E+06    57.430732E+06     -114.972E+06   344.829888E+06       270.879242   344.828736E+06
             1760    57.470736E+06    57.470068E+06   -114.94376E+06   344.828416E+06       5.27381563    344.82832E+06
             1761      57.4665E+06    57.462564E+06  -114.950864E+06   344.829248E+06      -886.902771   344.829184E+06
             1762    57.473224E+06    57.471908E+06   -114.94204E+06   344.826944E+06  -4.44155908E+03    344.82768E+06
             1763    57.473668E+06      57.4736E+06  -114.940896E+06   344.828896E+06       49.4131584   344.827488E+06
             1764    57.431544E+06    57.418648E+06  -114.984904E+06   344.825024E+06      -389.137512   344.833472E+06
             1765    57.473936E+06     57.47394E+06  -114.940488E+06    344.82784E+06      -44.2159805   344.827712E+06
             1766    57.467228E+06    57.469192E+06   -114.94608E+06   344.827968E+06       220.654236   344.828672E+06
             1767    57.470868E+06     57.47066E+06  -114.944064E+06   344.829344E+06      -150.517288   344.827488E+06
             1768    57.471772E+06    57.472304E+06  -114.941992E+06   344.827552E+06      -2.01388836    344.82784E+06
             1769    57.478476E+06    57.478264E+06   -114.93632E+06    344.82528E+06      -217.038330   344.827168E+06
             1770    57.478392E+06    57.487244E+06  -114.934576E+06   344.828448E+06  -2.51649927E+03   344.831264E+06
             1771    57.408632E+06    57.422736E+06  -114.994344E+06   344.831392E+06  -1.06063086E+03   344.832448E+06
             1772    57.467768E+06    57.467892E+06  -114.945256E+06   344.828192E+06       266.390472    344.82864E+06
             1773    57.514272E+06    57.509032E+06  -114.903096E+06   344.818272E+06  -2.56471021E+03   344.825056E+06
             1774    57.471312E+06      57.4713E+06  -114.942608E+06   344.827968E+06      -175.958115   344.827488E+06
             1775     57.46906E+06    57.468612E+06  -114.944712E+06   344.828608E+06       149.978607   344.828064E+06
             1776    57.470612E+06    57.470148E+06    -114.9438E+06    344.82816E+06      -9.65208912   344.827744E+06
             1777     57.44188E+06    57.445572E+06   -114.96804E+06   344.830432E+06   1.57347766E+03    344.82912E+06
             1778    57.426768E+06    57.433268E+06   -114.98524E+06   344.833856E+06  -1.79150122E+03   344.834752E+06
             1779    57.472492E+06    57.472276E+06  -114.941168E+06   344.827488E+06      -666.968506   344.827904E+06
             1780    57.473888E+06    57.473492E+06   -114.94028E+06   344.828224E+06       612.992737   344.828128E+06
             1781     57.46602E+06    57.467704E+06  -114.947576E+06   344.828384E+06       906.143188   344.828864E+06
             1782    57.559308E+06    57.582488E+06  -114.840608E+06   344.814112E+06       230.053528   344.812224E+06
             1783     57.50202E+06    57.504884E+06  -114.910936E+06   344.818976E+06      -643.433716   344.825216E+06
             1784    57.478488E+06    57.473176E+06  -114.940952E+06   344.831456E+06      -804.037903   344.828288E+06
             1785    57.417556E+06     57.42048E+06   -114.99316E+06   344.828192E+06   1.33751282E+03   344.838464E+06
             1786    57.472104E+06    57.473888E+06  -114.941272E+06   344.828064E+06      -403.459259   344.828384E+06
             1787    57.474124E+06    57.474244E+06  -114.939024E+06   344.827584E+06      -96.3734665   344.827808E+06
             1788    57.477744E+06    57.478236E+06     -114.934E+06    344.82912E+06       123.970711   344.825824E+06
             1789    57.469972E+06    57.469316E+06    -114.9444E+06   344.828544E+06      -25.8534069   344.827808E+06
             1790     57.47386E+06     57.47488E+06  -114.939824E+06   344.828896E+06   1.18579956E+03   344.827968E+06
             1791    57.471544E+06    57.473396E+06  -114.942016E+06   344.829536E+06   1.01925830E+03   344.828096E+06
             1792      57.4672E+06     57.46004E+06   -114.94828E+06    344.82624E+06       416.318481   344.825632E+06
             1793    57.461532E+06    57.462308E+06    -114.9504E+06   344.825408E+06  -3.34510645E+03    344.82816E+06
             1794    57.461116E+06     57.45204E+06     -114.955E+06   344.831104E+06   2.67382397E+03   344.826912E+06
             1795     57.47152E+06    57.470496E+06  -114.944744E+06    344.82784E+06       438.937469   344.827488E+06
             1796     57.46796E+06    57.469436E+06  -114.945224E+06   344.827392E+06      -44.4249306   344.828704E+06
             1797    57.441316E+06    57.428584E+06   -114.97284E+06   344.829952E+06      -256.817047   344.827968E+06
             1798     57.48848E+06    57.490864E+06  -114.926272E+06   344.823328E+06      -271.192291   344.826496E+06
             1799     57.45312E+06    57.465648E+06  -114.953288E+06    344.83232E+06      -691.203308   344.826144E+06
             1800    57.468444E+06    57.468816E+06  -114.947096E+06   344.829824E+06   1.29478040E+03   344.829216E+06
             1801    57.467848E+06     57.47012E+06   -114.94452E+06    344.82848E+06       221.757339    344.82864E+06
             1802    57.472732E+06      57.4727E+06  -114.941776E+06   344.824832E+06       52.1298409    344.82736E+06
             1803    57.472116E+06    57.468048E+06  -114.943464E+06   344.825664E+06       5.06442308   344.825824E+06
             1804     57.45726E+06    57.454232E+06  -114.954464E+06   344.823744E+06   1.30195642E+03   344.836192E+06
             1805    57.518216E+06    57.515052E+06  -114.893696E+06   344.820384E+06      -23.3178310    344.81728E+06
             1806     57.48178E+06     57.48004E+06  -114.932736E+06   344.823616E+06       45.9166222   344.827712E+06
             1807    57.470716E+06     57.47164E+06  -114.942504E+06   344.828384E+06       151.597488   344.828064E+06
             1808    57.482432E+06     57.48054E+06  -114.928584E+06     344.8256E+06  -1.44104272E+03   344.822272E+06
             1809    57.480272E+06    57.476056E+06  -114.933584E+06   344.820608E+06      -722.700623   344.826208E+06
             1810    57.434164E+06    57.444648E+06  -114.973656E+06     344.8312E+06       477.550354   344.831456E+06
             1811       57.463E+06    57.460572E+06  -114.952272E+06   344.826592E+06  -4.33472705E+03   344.828608E+06
             1812    57.407636E+06    57.426368E+06  -114.991392E+06    344.83776E+06   7.94411475E+03   344.830912E+06
             1813     57.47186E+06    57.471836E+06  -114.942024E+06    344.82784E+06       20.7252960   344.827936E+06
             1814    57.503872E+06    57.493636E+06   -114.91756E+06   344.826208E+06       686.386169   344.826432E+06
             1815    57.499664E+06    57.498128E+06  -114.915664E+06    344.82336E+06  -1.98293018E+03   344.825248E+06
             1816    57.461652E+06    57.452656E+06  -114.955136E+06   344.829216E+06   1.36071643E+03   344.830368E+06
             1817    57.469532E+06    57.473032E+06  -114.945952E+06   344.827168E+06       62.8172646   344.828864E+06
             1818    57.463584E+06    57.460684E+06  -114.949808E+06   344.830304E+06   1.23759937E+03   344.830176E+06
             1819    57.473376E+06     57.47652E+06  -114.938656E+06   344.827936E+06   1.20570068E+03   344.829408E+06
             1820    57.485316E+06    57.484792E+06  -114.928896E+06   344.822912E+06       157.910980   344.827904E+06
             1821    57.488424E+06    57.499244E+06   -114.92624E+06   344.832256E+06      -55.1211967   344.824864E+06
             1822    57.449304E+06    57.456952E+06  -114.961296E+06   344.834752E+06   2.96986841E+03   344.828512E+06
             1823    57.469348E+06    57.462024E+06  -114.946592E+06   344.825312E+06   2.28115112E+03   344.832512E+06
             1824    57.475268E+06    57.475736E+06  -114.940904E+06    344.82752E+06      -944.940613   344.829056E+06
             1825    57.433748E+06    57.428832E+06  -114.985536E+06   344.834432E+06       104.651413   344.835232E+06
             1826    57.470836E+06    57.466688E+06  -114.948336E+06   344.831168E+06       310.160156    344.82512E+06
             1827    57.473132E+06    57.473024E+06    -114.9416E+06   344.827072E+06      -48.0765915   344.827776E+06
             1828    57.470796E+06    57.478392E+06  -114.946192E+06    344.82864E+06  -1.71275989E+03   344.830848E+06
             1829    57.526732E+06    57.529136E+06  -114.890736E+06    344.82496E+06   2.09031323E+03   344.821024E+06
             1830     57.43256E+06     57.43388E+06  -114.985616E+06   344.831968E+06  -2.59030981E+03   344.836576E+06
             1831    57.469056E+06    57.457892E+06  -114.952264E+06    344.83264E+06   1.17783337E+03   344.826976E+06
             1832    57.473844E+06    57.470316E+06  -114.939648E+06   344.828544E+06      -236.294342   344.828256E+06
             1833    57.523012E+06      57.5023E+06  -114.899472E+06   344.819104E+06  -8.72176758E+03   344.817504E+06
             1834    57.472864E+06    57.458576E+06  -114.942872E+06   344.817024E+06  -4.56965674E+03   344.823424E+06
             1835    57.466984E+06    57.463668E+06  -114.950048E+06   344.828352E+06  -1.53169507E+03    344.82848E+06
             1836    57.472872E+06     57.47104E+06    -114.9418E+06   344.827936E+06       489.614380    344.82832E+06
             1837    57.469876E+06    57.467952E+06  -114.944264E+06   344.827776E+06       386.564880   344.828768E+06
             1838    57.458948E+06    57.459944E+06  -114.955016E+06   344.831008E+06  -1.01474860E+03   344.829504E+06
             1839     57.49274E+06    57.491484E+06   -114.92388E+06   344.824256E+06  -1.13536047E+03   344.825952E+06
             1840    57.518384E+06    57.519812E+06   -114.89312E+06   344.819584E+06  -2.65690820E+03   344.822016E+06
             1841    57.489864E+06    57.485788E+06  -114.927696E+06   344.826496E+06  -1.45592969E+03    344.82384E+06
             1842    57.479216E+06    57.492888E+06    -114.9262E+06    344.82192E+06       162.311707   344.825856E+06
             1843     57.48756E+06     57.47984E+06  -114.924848E+06    344.82576E+06  -4.08673413E+03   344.826944E+06
             1844    57.471048E+06      57.4693E+06  -114.942168E+06    344.82736E+06      -718.494263    344.82896E+06
             1845    57.471416E+06    57.469788E+06  -114.944448E+06   344.828416E+06      -875.489258      344.828E+06
             1846    57.465664E+06    57.465548E+06  -114.948848E+06   344.827616E+06      -772.434631   344.829248E+06
             1847    57.474964E+06     57.47858E+06     -114.939E+06    344.82944E+06       587.171143   344.827328E+06
             1848    57.472212E+06    57.469552E+06  -114.941704E+06   344.826688E+06   1.16327869E+03   344.827008E+06
             1849    57.454452E+06    57.449532E+06  -114.960344E+06   344.831456E+06  -1.04511145E+03   344.829152E+06
             1850     57.46926E+06    57.469132E+06   -114.94576E+06      344.828E+06       333.405518   344.828544E+06
             1851    57.505804E+06    57.513916E+06  -114.908504E+06   344.827168E+06   1.25178247E+03    344.82368E+06
             1852     57.50588E+06    57.524092E+06  -114.900496E+06   344.823552E+06  -2.56181714E+03   344.826784E+06
             1853    57.474028E+06    57.473116E+06  -114.938816E+06    344.82064E+06  -1.67556836E+03   344.824096E+06
             1854     57.46562E+06    57.463744E+06  -114.949896E+06   344.827904E+06      -15.2044849   344.828448E+06
             1855    57.479268E+06    57.479604E+06  -114.934112E+06    344.82592E+06       596.306580    344.82672E+06
             1856    57.459328E+06    57.459588E+06  -114.956608E+06   344.829792E+06      -986.301147   344.830624E+06
             1857    57.476228E+06     57.48072E+06  -114.938408E+06   344.829376E+06      -157.396301   344.827744E+06
             1858    57.488072E+06    57.488492E+06  -114.920936E+06   344.823488E+06  -1.70343994E+03   344.820992E+06
             1859    57.474512E+06    57.476828E+06  -114.937728E+06    344.83072E+06      -915.564331   344.826912E+06
             1860    57.473632E+06      57.4757E+06  -114.937832E+06   344.828448E+06      -362.241791   344.823552E+06
             1861     57.46454E+06     57.46054E+06    -114.9492E+06   344.827584E+06       458.265015    344.82848E+06
             1862    57.468832E+06     57.46884E+06  -114.945528E+06   344.829216E+06       614.925354   344.828448E+06
             1863    57.470324E+06    57.468284E+06  -114.944256E+06   344.825376E+06       631.301575   344.827744E+06
             1864    57.494876E+06    57.495844E+06   -114.91928E+06   344.824256E+06      -808.746521   344.822464E+06
             1865    57.471908E+06    57.467728E+06  -114.945392E+06   344.828608E+06  -1.64999048E+03   344.826944E+06
             1866     57.43022E+06     57.43436E+06  -114.981328E+06   344.834848E+06  -2.38716577E+03   344.831008E+06
             1867    57.439528E+06    57.447268E+06  -114.972416E+06   344.833504E+06   4.05209790E+03    344.83008E+06
             1868    57.477644E+06     57.47372E+06  -114.936816E+06   344.829888E+06      -54.4522171   344.824736E+06
             1869    57.468812E+06    57.473116E+06   -114.94328E+06   344.826016E+06       810.038330   344.826752E+06
             1870    57.454604E+06    57.450324E+06  -114.959616E+06   344.826816E+06       968.157349   344.831424E+06
             1871    57.583508E+06     57.62076E+06  -114.811456E+06   344.804672E+06   2.27298169E+03    344.81584E+06
             1872    57.462348E+06    57.461952E+06  -114.955016E+06   344.829248E+06       710.045105   344.828064E+06
             1873    57.509392E+06    57.497764E+06  -114.913616E+06    344.82672E+06      -320.929932   344.825664E+06
             1874    57.412136E+06    57.395924E+06  -115.002968E+06   344.831776E+06  -1.06045618E+03    344.82928E+06
             1875    57.467868E+06    57.468204E+06   -114.94644E+06   344.827584E+06  -2.25044653E+03   344.829696E+06
             1876     57.44778E+06    57.444348E+06  -114.966736E+06   344.833824E+06   2.41866479E+03   344.830752E+06
             1877    57.433248E+06    57.421888E+06  -114.981104E+06   344.833952E+06       170.242981   344.829088E+06
             1878    57.469404E+06    57.468788E+06  -114.945928E+06   344.828192E+06      -193.275925   344.827712E+06
             1879    57.496188E+06    57.491068E+06  -114.923432E+06   344.827232E+06       96.4532318   344.826496E+06
             1880    57.473712E+06    57.470224E+06  -114.940496E+06    344.82576E+06  -1.36383936E+03   344.829472E+06
             1881    57.472436E+06    57.473076E+06    -114.9416E+06   344.827904E+06      -473.450500     344.8272E+06
             1882    57.471324E+06    57.471664E+06  -114.942456E+06   344.827424E+06      -458.808472   344.827712E+06
             1883    57.414292E+06    57.421132E+06  -114.997456E+06   344.842496E+06   7.84524463E+03    344.83328E+06
             1884    57.469596E+06      57.4685E+06  -114.945224E+06   344.828544E+06       350.647278   344.828384E+06
             1885    57.469616E+06    57.469636E+06  -114.944424E+06   344.828032E+06      -367.444702   344.828192E+06
             1886    57.472884E+06    57.472844E+06   -114.94012E+06   344.827328E+06       205.387726   344.828224E+06
             1887    57.472292E+06    57.471852E+06    -114.9412E+06    344.82784E+06       82.7386017   344.828448E+06
             1888    57.473928E+06    57.473988E+06  -114.940696E+06   344.827648E+06       33.5214005   344.828288E+06
             1889    57.452792E+06    57.459408E+06  -114.960536E+06   344.831904E+06       126.348175     344.8304E+06
             1890     57.47162E+06    57.471768E+06  -114.942192E+06   344.828352E+06       169.574219   344.828128E+06
             1891     57.48388E+06    57.490028E+06  -114.928888E+06   344.823936E+06   1.15354724E+03   344.831328E+06
             1892     57.47518E+06      57.4733E+06  -114.938568E+06   344.826368E+06  -2.81915283E+03   344.830528E+06
             1893    57.477952E+06     57.47556E+06  -114.938776E+06   344.828864E+06       401.641174   344.827456E+06
             1894    57.466316E+06    57.467104E+06   -114.94624E+06   344.826624E+06       169.280975   344.830432E+06
             1895    57.428548E+06       57.435E+06  -114.984968E+06    344.83584E+06  -2.81118896E+03   344.831328E+06
             1896    57.500028E+06     57.49126E+06  -114.917376E+06   344.824672E+06   2.79212646E+03   344.822656E+06
             1897     57.44224E+06    57.432608E+06  -114.977984E+06   344.837568E+06   2.93359790E+03   344.828096E+06
             1898    57.486724E+06    57.483436E+06  -114.928072E+06   344.828192E+06  -2.50002075E+03   344.824096E+06
             1899    57.469136E+06    57.477096E+06  -114.939536E+06   344.827936E+06      -318.598785   344.829408E+06
             1900     57.45872E+06    57.464444E+06  -114.956192E+06   344.828896E+06  -2.32436108E+03   344.828032E+06
             1901    57.466568E+06    57.470984E+06  -114.950248E+06   344.831648E+06      -194.841003   344.833568E+06
             1902    57.462116E+06     57.45832E+06  -114.954936E+06   344.829696E+06      -679.898438   344.829568E+06
             1903    57.472776E+06    57.472992E+06  -114.940736E+06   344.827584E+06       111.489403   344.827584E+06
             1904    57.524948E+06     57.55124E+06  -114.885064E+06   344.829216E+06       85.4796295   344.830528E+06
             1905    57.470332E+06    57.470776E+06  -114.944072E+06   344.828864E+06      -15.1836729    344.82832E+06
             1906     57.47792E+06    57.475228E+06  -114.937304E+06   344.825504E+06      -922.107544   344.826048E+06
             1907    57.472384E+06    57.477688E+06  -114.940304E+06   344.829344E+06      -807.560547   344.826688E+06
             1908     57.47046E+06     57.46892E+06  -114.944792E+06    344.82784E+06      -548.536072   344.826688E+06
             1909    57.418056E+06    57.403152E+06  -114.998416E+06   344.831648E+06      -606.773865   344.830816E+06
             1910    57.493412E+06    57.495436E+06  -114.919872E+06   344.824256E+06   1.59815625E+03   344.824256E+06
             1911    57.479984E+06    57.479856E+06  -114.934768E+06   344.828416E+06      -875.843323   344.824928E+06
             1912    57.503392E+06    57.518456E+06  -114.907216E+06   344.838496E+06   1.83780701E+03     344.8264E+06
             1913    57.435148E+06    57.425188E+06  -114.981432E+06     344.8328E+06       517.175537   344.827872E+06
             1914    57.471332E+06    57.470512E+06   -114.94324E+06    344.82784E+06      -251.140625   344.827584E+06
             1915    57.469396E+06    57.468232E+06  -114.945936E+06   344.829952E+06      -506.415863   344.829024E+06
             1916    57.470824E+06    57.470708E+06  -114.943472E+06    344.82832E+06       127.722748   344.827904E+06
             1917    57.466076E+06    57.467384E+06   -114.94736E+06   344.828992E+06       863.281860   344.829056E+06
             1918    57.474796E+06    57.475424E+06  -114.939184E+06   344.828096E+06       235.526062   344.827296E+06
             1919    57.476408E+06    57.485088E+06  -114.923584E+06   344.821376E+06      -3.03537369   344.824288E+06
             1920     57.47118E+06    57.471056E+06  -114.942552E+06   344.827968E+06      -187.604477   344.827744E+06
             1921    57.465276E+06    57.465372E+06   -114.94888E+06    344.82832E+06      -875.961304   344.828288E+06
             1922    57.521704E+06    57.502916E+06  -114.905224E+06   344.831936E+06       433.946014   344.819584E+06
             1923    57.470948E+06    57.470452E+06  -114.942624E+06   344.827904E+06      -280.455414    344.82768E+06
             1924     57.47094E+06    57.470764E+06  -114.940952E+06    344.82688E+06  -1.00541309E+03     344.8264E+06
             1925    57.469988E+06    57.470332E+06  -114.943984E+06   344.828672E+06       563.053711    344.82752E+06
             1926     57.42228E+06    57.427928E+06  -114.986472E+06   344.831008E+06   3.55255591E+03   344.836224E+06
             1927    57.473524E+06    57.471292E+06  -114.940328E+06   344.828096E+06       188.826294   344.827776E+06
             1928    57.470936E+06    57.474052E+06   -114.94392E+06   344.829152E+06  -1.73108643E+03   344.829248E+06
             1929    57.477872E+06    57.478924E+06   -114.93592E+06   344.826688E+06      -443.145752    344.82784E+06
             1930    57.471824E+06    57.469372E+06     -114.943E+06   344.827776E+06      -46.9653091   344.828032E+06
             1931    57.471868E+06    57.471744E+06  -114.942296E+06   344.828128E+06       142.312088   344.827904E+06
             1932    57.469152E+06    57.469972E+06  -114.944432E+06   344.828352E+06       708.254456   344.828192E+06
             1933     57.46352E+06    57.463844E+06  -114.950496E+06    344.82768E+06  -6.03263867E+03    344.82832E+06
             1934    57.478628E+06    57.477044E+06   -114.93796E+06   344.832928E+06   3.50069604E+03   344.827072E+06
             1935    57.442056E+06    57.450696E+06  -114.969408E+06   344.829568E+06   5.31079395E+03   344.834976E+06
             1936    57.471016E+06    57.471256E+06  -114.942624E+06   344.827968E+06      -95.2350769   344.827872E+06
             1937    57.441652E+06    57.444516E+06  -114.963832E+06    344.82912E+06   2.58730688E+03   344.828416E+06
             1938    57.481712E+06    57.475588E+06  -114.934912E+06   344.832192E+06   3.33146021E+03   344.826048E+06
             1939    57.470232E+06     57.47122E+06  -114.942736E+06   344.827936E+06      -16.7348309   344.828096E+06
             1940    57.469456E+06    57.467008E+06  -114.945176E+06   344.826624E+06      -313.238251   344.829248E+06
             1941    57.507008E+06    57.495052E+06   -114.91844E+06   344.830432E+06   1.33850696E+03   344.825248E+06
             1942      57.4703E+06      57.4704E+06  -114.943888E+06   344.828672E+06       118.340744   344.827968E+06
             1943    57.478768E+06    57.475468E+06  -114.939456E+06    344.82896E+06   1.28221277E+03   344.827232E+06
             1944    57.470612E+06     57.46958E+06  -114.944096E+06   344.828384E+06       961.568298   344.827744E+06
             1945    57.471728E+06     57.47192E+06  -114.941976E+06      344.828E+06       810.987122   344.828672E+06
             1946    57.471856E+06    57.475788E+06  -114.942696E+06   344.827456E+06      -132.018951    344.82736E+06
             1947    57.473508E+06    57.473564E+06  -114.942328E+06    344.82832E+06      -900.368347   344.828032E+06
             1948    57.502348E+06     57.50504E+06  -114.910464E+06    344.82608E+06       330.247406    344.82144E+06
             1949    57.467348E+06     57.47172E+06  -114.949056E+06    344.82848E+06       435.434631    344.82768E+06
             1950    57.473392E+06     57.46908E+06  -114.942616E+06   344.829536E+06       174.157806   344.828448E+06
             1951    57.465448E+06    57.465036E+06  -114.946712E+06   344.829408E+06       209.610901      344.828E+06
             1952     57.47118E+06    57.468368E+06  -114.944384E+06   344.830304E+06       912.891907   344.827872E+06
             1953    57.452964E+06     57.45214E+06  -114.960568E+06   344.830336E+06       344.192505   344.830464E+06
             1954    57.453668E+06    57.453116E+06  -114.960776E+06   344.834688E+06   4.04252612E+03   344.828896E+06
             1955    57.469704E+06    57.470484E+06  -114.944848E+06    344.82832E+06       12.2462072   344.828416E+06
             1956    57.445176E+06    57.454916E+06  -114.961352E+06   344.832768E+06       906.446350    344.83008E+06
             1957    57.514652E+06    57.506428E+06  -114.905944E+06   344.822112E+06  -5.55286914E+03   344.824832E+06
             1958    57.469152E+06    57.471112E+06  -114.942896E+06   344.826016E+06      -969.653076   344.826848E+06
             1959    57.472652E+06    57.471856E+06  -114.942096E+06   344.828448E+06       962.007141   344.828032E+06
             1960    57.469372E+06     57.47116E+06  -114.942752E+06   344.827936E+06      -769.468689   344.830048E+06
             1961    57.475388E+06    57.475724E+06  -114.939136E+06   344.827488E+06      -104.977875   344.827424E+06
             1962      57.4574E+06        57.45E+06   -114.96228E+06   344.834048E+06      -67.4339294   344.827168E+06
             1963    57.466024E+06    57.461648E+06  -114.949176E+06   344.827072E+06      -546.393372   344.826496E+06
             1964    57.468348E+06    57.468408E+06  -114.945696E+06   344.827904E+06      -404.447601   344.828224E+06
             1965    57.459676E+06     57.45414E+06  -114.954952E+06    344.82528E+06       62.4317055   344.828032E+06
             1966    57.479316E+06    57.470488E+06  -114.940456E+06   344.827328E+06  -2.32236108E+03   344.823872E+06
             1967    57.477692E+06     57.47946E+06   -114.93196E+06   344.824032E+06  -1.92884851E+03   344.828288E+06
             1968    57.467184E+06    57.471068E+06  -114.945432E+06   344.827456E+06   1.81850293E+03    344.82656E+06
             1969    57.469464E+06    57.469784E+06  -114.944976E+06    344.82752E+06      -443.121124   344.827808E+06
             1970     57.48886E+06    57.489336E+06  -114.922832E+06   344.822016E+06       61.7541466   344.828416E+06
             1971    57.473492E+06    57.473468E+06  -114.938744E+06    344.82864E+06      -416.869843   344.828672E+06
             1972    57.483104E+06    57.479796E+06  -114.928168E+06   344.826976E+06   2.53466821E+03   344.823744E+06
             1973    57.459936E+06    57.438644E+06  -114.957752E+06   344.821472E+06   1.04409595E+03   344.828512E+06
             1974    57.395628E+06    57.388616E+06  -115.009752E+06   344.822272E+06   2.59299048E+03   344.834016E+06
             1975    57.510688E+06    57.519124E+06  -114.904992E+06   344.822592E+06      -426.791779   344.822176E+06
             1976    57.457876E+06     57.45842E+06  -114.955344E+06   344.831392E+06   3.57738623E+03   344.827968E+06
             1977     57.46446E+06    57.460468E+06   -114.95008E+06   344.831552E+06       719.210815   344.828224E+06
             1978     57.47988E+06    57.483936E+06    -114.9326E+06    344.82624E+06      -912.095703   344.830336E+06
             1979    57.472024E+06     57.47034E+06  -114.942224E+06   344.826848E+06   2.27241602E+03   344.828992E+06
             1980    57.488328E+06    57.484268E+06  -114.929344E+06    344.82672E+06      -517.994812   344.826592E+06
             1981     57.46498E+06    57.466284E+06  -114.947464E+06   344.827168E+06      -587.356934   344.828256E+06
             1982    57.465516E+06    57.463872E+06   -114.94724E+06   344.828512E+06      -623.841980   344.829088E+06
             1983    57.474276E+06    57.472392E+06  -114.940456E+06    344.82896E+06       917.205505   344.827552E+06
             1984    57.465052E+06    57.467388E+06  -114.944984E+06   344.827104E+06  -1.59992920E+03   344.829088E+06
             1985    57.471236E+06     57.46996E+06  -114.945344E+06   344.828512E+06      -356.233673   344.828864E+06
             1986    57.477616E+06     57.48058E+06  -114.935496E+06   344.827904E+06      -698.177612   344.827072E+06
             1987    57.470828E+06    57.466332E+06  -114.943208E+06   344.825216E+06      -238.221817   344.825088E+06
             1988    57.484124E+06     57.47406E+06  -114.936992E+06   344.829408E+06      -397.657227   344.828448E+06
             1989     57.46942E+06    57.469392E+06  -114.948248E+06   344.829408E+06      -995.037842   344.824352E+06
             1990     57.48606E+06    57.482856E+06  -114.924224E+06   344.826656E+06   2.75517139E+03      344.828E+06
             1991    57.468352E+06     57.46662E+06  -114.944216E+06   344.830048E+06       800.098022   344.827744E+06
             1992    57.528072E+06     57.53642E+06  -114.885416E+06   344.826848E+06       167.603546   344.820416E+06
             1993    57.458284E+06     57.46804E+06   -114.94976E+06   344.828896E+06  -1.00705804E+03    344.82832E+06
             1994     57.48354E+06      57.4848E+06  -114.926344E+06   344.824672E+06       983.656006   344.824352E+06
             1995    57.476556E+06    57.484448E+06  -114.933424E+06   344.827232E+06  -1.41554456E+03   344.830816E+06
             1996    57.479232E+06    57.477852E+06  -114.933144E+06   344.827264E+06   1.54008826E+03    344.82784E+06
             1997    57.474428E+06    57.479044E+06  -114.938592E+06    344.82768E+06      -898.510925   344.827136E+06
             1998     57.43184E+06     57.41208E+06  -114.985928E+06   344.828672E+06   1.62813831E+03    344.83104E+06
             1999    57.457652E+06     57.46018E+06   -114.95672E+06   344.832064E+06      -819.852051   344.830624E+06
             2000     57.47652E+06    57.479536E+06   -114.93664E+06   344.825568E+06       673.215698   344.832032E+06
             2001     57.49258E+06    57.487288E+06  -114.924848E+06    344.82768E+06   5.06691504E+03   344.826912E+06
             2002     57.47788E+06    57.483812E+06  -114.933736E+06   344.828448E+06  -1.13952625E+03   344.830496E+06
             2003    57.453596E+06    57.451676E+06   -114.96144E+06   344.836096E+06   2.96904663E+03   344.829248E+06
             2004     57.48414E+06    57.480424E+06  -114.931856E+06   344.827232E+06   1.93435059E+03   344.826848E+06
             2005     57.48716E+06     57.48226E+06   -114.92996E+06    344.82448E+06  -5.09016699E+03    344.82688E+06
             2006    57.469772E+06    57.468708E+06   -114.94644E+06    344.82832E+06      -400.468475   344.827328E+06
             2007     57.46432E+06    57.457884E+06   -114.95596E+06   344.835072E+06      -309.565369   344.829568E+06
             2008     57.46514E+06    57.462852E+06   -114.95124E+06   344.828256E+06       93.2289124   344.828224E+06
             2009    57.470312E+06    57.470452E+06  -114.942264E+06   344.826816E+06       462.684723   344.828352E+06
             2010    57.475468E+06    57.478588E+06  -114.937456E+06   344.827456E+06       620.989990   344.829088E+06
             2011    57.471032E+06    57.464884E+06  -114.945224E+06   344.828224E+06      -498.313446    344.82512E+06
             2012    57.471952E+06    57.472352E+06  -114.941376E+06    344.82832E+06      -375.160339    344.82688E+06
             2013    57.467132E+06    57.468612E+06  -114.945792E+06   344.828672E+06       35.6063156   344.828928E+06
             2014    57.460628E+06    57.462124E+06  -114.953232E+06     344.8312E+06      -8.92352962   344.828416E+06
             2015     57.47284E+06    57.472904E+06   -114.94052E+06   344.827808E+06      -477.481415   344.826784E+06
             2016    57.453136E+06    57.450788E+06  -114.959944E+06   344.825728E+06  -1.17957617E+03   344.829984E+06
             2017    57.480608E+06    57.475928E+06  -114.939512E+06   344.828544E+06      -931.599426   344.825984E+06
             2018    57.484452E+06    57.481812E+06  -114.932328E+06   344.827456E+06  -2.19418579E+03    344.82704E+06
             2019    57.471604E+06    57.470836E+06   -114.94252E+06    344.82848E+06  -1.47740503E+03   344.827744E+06
             2020    57.470304E+06    57.470472E+06  -114.943336E+06   344.827488E+06       457.251282    344.82768E+06
             2021     57.51544E+06    57.509436E+06  -114.898456E+06   344.820704E+06   1.57839575E+03   344.822336E+06
             2022    57.437128E+06     57.44488E+06  -114.970752E+06    344.83056E+06  -1.72234729E+03   344.831232E+06
             2023    57.465276E+06     57.46732E+06  -114.946872E+06   344.825632E+06      -30.7106113      344.828E+06
             2024    57.499064E+06    57.492316E+06  -114.919376E+06   344.826752E+06   1.56044226E+03   344.825664E+06
             2025     57.47212E+06    57.469336E+06  -114.944576E+06   344.829568E+06   3.77362231E+03   344.828736E+06
             2026    57.471748E+06    57.472308E+06  -114.941776E+06    344.82832E+06       187.166092   344.827584E+06
             2027    57.458244E+06      57.4516E+06  -114.959344E+06   344.833376E+06   3.23585742E+03   344.829216E+06
             2028     57.48596E+06    57.482248E+06  -114.929888E+06   344.827584E+06   1.50825415E+03   344.827232E+06
             2029    57.481232E+06    57.477028E+06  -114.934768E+06    344.82464E+06  -1.27380225E+03    344.82528E+06
             2030    57.467752E+06    57.468392E+06   -114.94576E+06   344.828064E+06      -489.858582   344.827936E+06
             2031     57.46902E+06     57.46788E+06  -114.944992E+06   344.827808E+06      -259.761719    344.82816E+06
             2032    57.466652E+06    57.467496E+06  -114.947528E+06   344.828064E+06      -459.164001   344.827776E+06
             2033    57.473132E+06    57.473036E+06  -114.940744E+06   344.827616E+06      -181.558105   344.827488E+06
             2034    57.473224E+06    57.478304E+06  -114.937848E+06    344.82656E+06  -1.41636670E+03   344.827392E+06
             2035    57.474268E+06    57.471624E+06   -114.94168E+06   344.829056E+06       117.848259   344.826208E+06
             2036      57.4644E+06    57.458456E+06  -114.952704E+06     344.8264E+06      -671.602478    344.82944E+06
             2037    57.473916E+06    57.474356E+06  -114.941816E+06   344.825664E+06  -2.64213135E+03   344.828608E+06
             2038    57.473948E+06    57.474104E+06  -114.937464E+06   344.828256E+06      -58.5904427   344.827744E+06
             2039    57.469716E+06    57.469348E+06  -114.943632E+06   344.827616E+06      -233.487076   344.828192E+06
             2040    57.470716E+06    57.470776E+06  -114.943376E+06   344.827936E+06      -272.449249   344.828032E+06
             2041    57.468156E+06    57.468332E+06   -114.94532E+06     344.8288E+06      -409.032684   344.827456E+06
             2042    57.471464E+06    57.471888E+06   -114.94252E+06   344.828064E+06      -13.6643686   344.827936E+06
             2043     57.47558E+06    57.473528E+06  -114.939328E+06    344.82784E+06      -302.591980   344.827872E+06
             2044     57.46962E+06    57.469436E+06  -114.945592E+06   344.828192E+06       240.927292   344.828192E+06
             2045    57.471828E+06    57.471968E+06  -114.942072E+06   344.827744E+06      -349.937836   344.828064E+06
             2046     57.47262E+06     57.47246E+06  -114.941376E+06    344.82768E+06      -234.845779   344.827744E+06
             2047    57.473196E+06    57.472928E+06  -114.942424E+06   344.827968E+06       217.486420      344.828E+06
             2048    57.474628E+06    57.466328E+06  -114.943568E+06   344.828416E+06  -2.24729663E+03   344.827232E+06
             2049    57.471208E+06    57.470876E+06  -114.943072E+06   344.828032E+06       158.176804   344.828224E+06
             2050    57.476016E+06      57.4725E+06    -114.9408E+06   344.829472E+06      -220.732864   344.827808E+06
             2051    57.464144E+06    57.459668E+06  -114.951288E+06   344.828512E+06       270.516418     344.8304E+06
             2052    57.457364E+06    57.463948E+06  -114.951288E+06   344.828448E+06       398.820953   344.829248E+06
             2053     57.46774E+06    57.467312E+06  -114.946152E+06   344.828544E+06      -190.602188   344.827072E+06
             2054      57.4668E+06    57.460632E+06  -114.948808E+06    344.82752E+06  -2.22847607E+03   344.827328E+06
             2055     57.45578E+06    57.455408E+06  -114.959568E+06   344.831616E+06  -3.89049634E+03   344.829408E+06
             2056    57.486856E+06    57.477748E+06     -114.934E+06   344.829056E+06      -324.034668   344.828672E+06
             2057    57.468732E+06    57.467032E+06  -114.944472E+06   344.829312E+06      -990.265625   344.826464E+06
             2058    57.466772E+06     57.47188E+06  -114.943632E+06   344.827744E+06  -1.80944922E+03   344.828064E+06
             2059    57.464236E+06       57.462E+06    -114.9482E+06   344.829376E+06      -183.795090   344.828224E+06
             2060    57.473792E+06    57.471088E+06  -114.942456E+06   344.828704E+06      -101.564392   344.828672E+06
             2061    57.468664E+06      57.4651E+06  -114.947976E+06   344.829696E+06       211.887527   344.829792E+06
             2062    57.465048E+06    57.462404E+06  -114.948672E+06    344.82992E+06       74.2963181    344.82816E+06
             2063    57.470044E+06    57.469292E+06  -114.943856E+06   344.828064E+06       72.5142136    344.82832E+06
             2064    57.470312E+06     57.46902E+06    -114.9456E+06    344.82832E+06      -596.354004   344.827872E+06
             2065    57.472472E+06     57.47232E+06  -114.941928E+06   344.829664E+06       358.957825   344.828128E+06
             2066    57.469472E+06    57.469216E+06  -114.945488E+06   344.828416E+06       175.527008   344.828192E+06
             2067    57.470436E+06    57.469896E+06  -114.944824E+06    344.82832E+06       94.3664474    344.82816E+06
             2068    57.468576E+06    57.466292E+06  -114.947136E+06   344.832672E+06      -87.7344971   344.828224E+06
             2069    57.472284E+06    57.473616E+06  -114.940736E+06   344.827872E+06       173.228745      344.828E+06
             2070    57.470216E+06    57.470324E+06  -114.943336E+06   344.828736E+06      -50.5221100    344.82848E+06
             2071    57.376056E+06    57.397344E+06  -115.023072E+06    344.83056E+06   5.39773047E+03    344.83488E+06
             2072     57.47338E+06    57.473596E+06  -114.942192E+06   344.827776E+06       198.076538    344.82816E+06
             2073    57.472468E+06    57.471824E+06    -114.9418E+06    344.82768E+06      -386.035339   344.827872E+06
             2074    57.474744E+06    57.475276E+06  -114.937896E+06   344.826016E+06      -115.399208   344.827808E+06
             2075    57.505428E+06    57.511664E+06  -114.910168E+06   344.830272E+06      -722.824829   344.825216E+06
             2076    57.470256E+06    57.471372E+06  -114.943248E+06   344.827936E+06      -311.770752   344.828224E+06
             2077    57.471432E+06    57.471624E+06    -114.9422E+06   344.824448E+06  -1.93468408E+03    344.82928E+06
             2078    57.466596E+06     57.46864E+06   -114.94868E+06   344.831072E+06       330.259705   344.830208E+06
             2079    57.470068E+06    57.470512E+06  -114.943208E+06   344.827616E+06      -635.467529    344.82784E+06
             2080     57.47966E+06    57.479128E+06   -114.93624E+06   344.829792E+06       78.8857574   344.827936E+06
             2081     57.47034E+06    57.476956E+06   -114.94344E+06   344.836352E+06       121.945999   344.828096E+06
             2082    57.533624E+06     57.51676E+06  -114.889848E+06   344.823616E+06   1.80555554E+03   344.817472E+06
             2083    57.473404E+06    57.476524E+06   -114.93764E+06   344.828064E+06  -1.01958911E+03   344.826208E+06
             2084    57.473736E+06    57.475304E+06  -114.937376E+06    344.82752E+06       345.529144    344.82768E+06
             2085    57.470628E+06    57.470776E+06   -114.94308E+06   344.827904E+06       88.4040222   344.828256E+06
             2086    57.472184E+06    57.473144E+06  -114.938872E+06   344.827008E+06      -763.382690   344.828544E+06
             2087    57.482344E+06    57.480988E+06  -114.931128E+06    344.82528E+06   3.65018530E+03   344.826464E+06
             2088    57.528064E+06    57.509884E+06   -114.90024E+06   344.828256E+06      -594.403503   344.823904E+06
             2089    57.470684E+06    57.470664E+06  -114.943512E+06    344.82848E+06      -383.602234   344.827776E+06
             2090    57.469492E+06    57.469112E+06  -114.942832E+06   344.827328E+06       868.656860   344.828192E+06
             2091     57.59384E+06    57.571468E+06  -114.838784E+06   344.822912E+06   2.94752002E+03   344.816864E+06
             2092    57.455628E+06    57.466524E+06  -114.953192E+06   344.829856E+06      -356.311218   344.829088E+06
             2093     57.39412E+06    57.393388E+06  -115.021392E+06    344.84352E+06   1.80100623E+03   344.836128E+06
             2094    57.475116E+06    57.477324E+06   -114.93496E+06    344.82688E+06      -770.501160   344.828128E+06
             2095       57.475E+06    57.472212E+06  -114.939056E+06    344.82608E+06   2.46200830E+03   344.825856E+06
             2096    57.474468E+06    57.481336E+06  -114.943224E+06   344.832576E+06   1.40093457E+03   344.829536E+06
             2097    57.456276E+06    57.457924E+06  -114.956224E+06   344.830272E+06      -573.854309   344.828224E+06
             2098    57.435652E+06    57.450376E+06  -114.969368E+06   344.829504E+06      -220.533813   344.830656E+06
             2099    57.476188E+06      57.4765E+06  -114.937112E+06   344.826176E+06      -391.438782   344.826304E+06
             2100    57.469612E+06     57.46866E+06  -114.944872E+06   344.829056E+06      -854.986450   344.823936E+06
             2101    57.489872E+06    57.476044E+06  -114.930472E+06   344.822848E+06   3.56895776E+03   344.825792E+06
             2102    57.465172E+06    57.461044E+06  -114.951208E+06   344.826016E+06  -1.76786218E+03    344.82688E+06
             2103     57.51526E+06    57.508324E+06  -114.903104E+06   344.826112E+06   2.86279370E+03   344.821088E+06
             2104    57.470712E+06    57.470224E+06  -114.943416E+06    344.82784E+06      -388.285706   344.828128E+06
             2105    57.467136E+06    57.468632E+06  -114.947192E+06   344.830208E+06  -1.40330481E+03   344.829984E+06
             2106    57.466344E+06    57.470864E+06   -114.94584E+06   344.827232E+06  -4.75099805E+03   344.828768E+06
             2107     57.46584E+06    57.463156E+06   -114.94824E+06   344.826432E+06  -1.37691064E+03   344.824512E+06
             2108    57.455564E+06    57.454168E+06    -114.9576E+06   344.823424E+06  -1.60777942E+03   344.831552E+06
             2109    57.479208E+06    57.476392E+06  -114.938016E+06   344.827776E+06       776.641602   344.826912E+06
             2110    57.501816E+06    57.495792E+06   -114.92068E+06   344.827808E+06  -2.12023926E+03   344.826688E+06
             2111     57.40758E+06    57.398724E+06  -115.010088E+06   344.837504E+06       926.588318    344.83712E+06
             2112    57.426252E+06    57.423108E+06   -114.98908E+06   344.839072E+06  -1.90003979E+03   344.831296E+06
             2113    57.469264E+06       57.467E+06  -114.945664E+06   344.827616E+06      -715.191589   344.828352E+06
             2114     57.47086E+06    57.470912E+06   -114.94324E+06   344.825984E+06      -578.604858   344.827904E+06
             2115    57.481472E+06    57.475172E+06  -114.935336E+06   344.826816E+06  -1.50046997E+03   344.826272E+06
             2116    57.489688E+06    57.487084E+06  -114.926456E+06   344.819744E+06  -1.79056653E+03   344.825792E+06
             2117     57.47234E+06    57.471752E+06  -114.941528E+06   344.827904E+06      -367.114746    344.82752E+06
             2118     57.47052E+06    57.468576E+06    -114.9438E+06   344.826592E+06       550.325562    344.82784E+06
             2119    57.478564E+06    57.481384E+06  -114.936568E+06   344.827104E+06       968.239624    344.82736E+06
             2120    57.482964E+06    57.482268E+06  -114.929776E+06   344.822624E+06  -2.69942505E+03   344.827584E+06
             2121    57.455688E+06    57.456928E+06   -114.95628E+06   344.826496E+06  -1.54263794E+03   344.830976E+06
             2122    57.525736E+06    57.514432E+06   -114.90308E+06    344.83312E+06   4.84950977E+03      344.824E+06
             2123      57.4691E+06     57.46782E+06  -114.947808E+06   344.828672E+06   1.17663794E+03   344.827392E+06
             2124    57.503956E+06    57.495552E+06  -114.915528E+06   344.821952E+06       275.683075   344.825952E+06
             2125    57.571772E+06    57.550604E+06   -114.85632E+06   344.823552E+06   3.54093140E+03   344.817824E+06
             2126    57.470572E+06    57.468256E+06  -114.944336E+06   344.827808E+06   1.09096216E+03   344.827776E+06
             2127    57.481508E+06    57.482968E+06  -114.932528E+06   344.823872E+06   1.60245544E+03    344.82608E+06
             2128    57.470212E+06    57.470592E+06  -114.943928E+06   344.828704E+06       13.1350040   344.828224E+06
             2129    57.468972E+06    57.469208E+06  -114.944344E+06    344.82752E+06       11.1220360   344.827776E+06
             2130    57.463532E+06     57.46522E+06  -114.950296E+06     344.8304E+06  -1.16490662E+03    344.82928E+06
             2131    57.458044E+06    57.467844E+06  -114.950632E+06    344.82864E+06       496.550049   344.829312E+06
             2132    57.482796E+06    57.482476E+06  -114.930592E+06   344.823552E+06  -1.76710718E+03   344.826816E+06
             2133    57.448696E+06      57.4562E+06   -114.95816E+06   344.830176E+06   2.60094531E+03    344.82928E+06
             2134    57.475228E+06     57.47528E+06  -114.938648E+06   344.826848E+06      -66.5786133   344.826816E+06
             2135    57.466164E+06    57.469744E+06  -114.943768E+06   344.828224E+06       79.7381744   344.827072E+06
             2136    57.451468E+06    57.454296E+06  -114.959656E+06   344.830432E+06   3.39254126E+03   344.829408E+06
             2137    57.463856E+06     57.46912E+06  -114.947176E+06   344.827872E+06  -2.61583008E+03    344.83056E+06
             2138    57.462764E+06    57.475896E+06   -114.94308E+06   344.825152E+06  -2.34053174E+03   344.831936E+06
             2139      57.4852E+06    57.488136E+06  -114.923952E+06   344.826176E+06      -865.274658   344.825536E+06
             2140    57.502216E+06    57.505908E+06  -114.909536E+06   344.817824E+06  -3.58910278E+03   344.827392E+06
             2141    57.475776E+06     57.48282E+06  -114.934432E+06   344.827776E+06      -506.858124   344.826912E+06
             2142    57.459268E+06    57.462884E+06   -114.95244E+06    344.82992E+06      -245.570511   344.826688E+06
             2143    57.480332E+06    57.476688E+06  -114.935736E+06   344.828128E+06  -3.01813428E+03   344.828384E+06
             2144    57.441084E+06    57.420368E+06   -114.97716E+06   344.826848E+06  -2.98374731E+03   344.827168E+06
             2145    57.473404E+06    57.473024E+06    -114.9412E+06   344.827904E+06       46.8754768   344.827552E+06
             2146     57.47072E+06     57.47026E+06  -114.944216E+06   344.828224E+06       182.682632   344.828288E+06
             2147    57.472476E+06    57.471908E+06  -114.942128E+06   344.828192E+06       239.905884      344.828E+06
             2148    57.463084E+06    57.458344E+06   -114.95324E+06    344.82368E+06   1.43763940E+03   344.829056E+06
             2149    57.462964E+06    57.470664E+06  -114.949096E+06   344.833088E+06   2.31350806E+03     344.8248E+06
             2150     57.47048E+06    57.469972E+06  -114.945296E+06   344.828672E+06      -513.146851   344.828256E+06
             2151    57.469364E+06      57.4697E+06   -114.94456E+06   344.828224E+06      -318.759338   344.828064E+06
             2152    57.470728E+06    57.470492E+06   -114.94352E+06      344.828E+06       276.449799   344.828256E+06
             2153    57.460848E+06     57.45854E+06  -114.954024E+06   344.829888E+06      -74.4321213    344.82848E+06
             2154     57.39154E+06     57.39854E+06   -115.01588E+06   344.840864E+06   4.47829932E+03   344.831232E+06
             2155    57.473524E+06    57.473868E+06  -114.940904E+06   344.825248E+06  -1.00082715E+03   344.829888E+06
             2156    57.459968E+06    57.453692E+06  -114.962104E+06   344.835968E+06  -1.36659485E+03   344.830912E+06
             2157      57.4709E+06     57.47092E+06  -114.942896E+06   344.828384E+06       210.936630   344.828064E+06
             2158    57.541372E+06    57.557784E+06  -114.873368E+06   344.826944E+06       132.421555   344.819968E+06
             2159    57.453568E+06    57.452332E+06  -114.957888E+06    344.83232E+06   1.11922729E+03   344.832224E+06
             2160     57.44364E+06     57.44872E+06  -114.973992E+06   344.835584E+06      -754.114807   344.836448E+06
             2161    57.467532E+06      57.4666E+06   -114.94756E+06   344.827424E+06       226.255371   344.828928E+06
             2162    57.467364E+06    57.466336E+06  -114.947224E+06    344.82768E+06      -747.235657   344.828928E+06
             2163    57.467328E+06    57.466276E+06  -114.945896E+06   344.826848E+06      -327.773132    344.82768E+06
             2164     57.47106E+06    57.471808E+06  -114.942472E+06    344.82832E+06      -3.34818578    344.82752E+06
             2165    57.471712E+06    57.471232E+06  -114.942376E+06   344.827776E+06      -473.107666   344.828096E+06
             2166    57.466352E+06    57.467512E+06   -114.95004E+06   344.828672E+06       447.710419   344.827712E+06
             2167    57.470988E+06      57.4711E+06  -114.942952E+06   344.827872E+06      -210.599777      344.828E+06
             2168    57.476488E+06    57.474956E+06  -114.938544E+06   344.827712E+06      -46.0521278   344.827456E+06
             2169      57.4662E+06    57.465404E+06  -114.946912E+06   344.827648E+06      -361.667755    344.83008E+06
             2170    57.527436E+06    57.518544E+06  -114.886672E+06    344.82112E+06   3.45233325E+03   344.818208E+06
             2171    57.476268E+06    57.475928E+06  -114.937968E+06   344.827424E+06      -317.631256    344.82624E+06
             2172    57.442872E+06    57.443168E+06  -114.971072E+06   344.830528E+06      -152.671616    344.83152E+06
             2173    57.439324E+06     57.45268E+06   -114.96588E+06   344.826336E+06  -6.71954395E+03   344.829312E+06
             2174    57.476272E+06    57.476812E+06  -114.938224E+06   344.827296E+06      -473.065643   344.828224E+06
             2175    57.471088E+06    57.472376E+06  -114.942464E+06   344.827744E+06      -13.8189039   344.828064E+06
             2176    57.471988E+06    57.472292E+06    -114.9422E+06   344.827776E+06       91.0805130   344.828128E+06
             2177    57.470012E+06     57.46088E+06  -114.955584E+06   344.831264E+06  -2.88550464E+03    344.82672E+06
             2178    57.467612E+06    57.467752E+06   -114.94708E+06   344.828128E+06      -330.657532   344.828288E+06
             2179    57.472404E+06    57.473696E+06   -114.94044E+06   344.827648E+06      -417.241516   344.828256E+06
             2180    57.469332E+06    57.468908E+06  -114.944744E+06   344.827808E+06       167.024948    344.82768E+06
             2181      57.4371E+06     57.42456E+06  -114.979248E+06   344.834496E+06   1.52317847E+03   344.829152E+06
             2182    57.475108E+06     57.47654E+06  -114.938536E+06    344.82816E+06       613.414063   344.827904E+06
             2183    57.479284E+06    57.477628E+06  -114.935768E+06    344.82848E+06      -450.456665    344.82608E+06
             2184    57.479568E+06    57.478324E+06  -114.936224E+06   344.827872E+06       30.7662945    344.82704E+06
             2185    57.469636E+06    57.465624E+06  -114.943896E+06   344.828672E+06       263.355377   344.828352E+06
             2186    57.479044E+06    57.478008E+06  -114.934304E+06   344.826944E+06      -707.907715   344.828288E+06
             2187    57.461196E+06    57.457468E+06  -114.953576E+06   344.829792E+06      -581.118164   344.830368E+06
             2188    57.485164E+06    57.487552E+06  -114.927616E+06   344.827904E+06      -482.527405   344.824768E+06
             2189    57.480468E+06    57.486204E+06   -114.93172E+06   344.828736E+06      -60.4879951   344.828384E+06
             2190    57.469056E+06    57.471536E+06  -114.944856E+06    344.83088E+06      -712.904358   344.827872E+06
             2191    57.482056E+06    57.481176E+06  -114.931504E+06   344.827008E+06   1.11691321E+03   344.826944E+06
             2192    57.472512E+06     57.46798E+06  -114.942096E+06   344.828352E+06   1.85263049E+03    344.82816E+06
             2193    57.480136E+06    57.481972E+06  -114.931304E+06   344.820896E+06  -3.76893433E+03   344.826848E+06
             2194    57.448156E+06    57.451164E+06  -114.964376E+06   344.836256E+06      -584.031738    344.82944E+06
             2195    57.471836E+06    57.470348E+06  -114.942888E+06   344.827264E+06      -9.38873672   344.828288E+06
             2196    57.472396E+06    57.474804E+06  -114.940864E+06   344.828192E+06      -136.627884   344.828032E+06
             2197     57.47284E+06    57.472544E+06  -114.941736E+06    344.82784E+06      -98.7494583   344.828192E+06
             2198    57.484364E+06    57.484164E+06   -114.93012E+06   344.827968E+06   1.60292065E+03   344.828512E+06
             2199    57.449672E+06      57.4429E+06  -114.964416E+06    344.82608E+06       921.167969   344.830592E+06
             2200    57.467028E+06    57.466688E+06  -114.950848E+06   344.830912E+06   1.41669714E+03   344.828256E+06
             2201     57.46958E+06     57.46876E+06  -114.944424E+06   344.827488E+06      -214.960190      344.828E+06
             2202    57.468892E+06    57.469888E+06  -114.944752E+06    344.82832E+06      -413.400421   344.828384E+06
             2203    57.470364E+06    57.468788E+06  -114.943784E+06     344.8272E+06  -1.08767090E+03   344.827584E+06
             2204    57.467924E+06    57.468172E+06  -114.945824E+06    344.82848E+06      -178.768784   344.828288E+06
             2205     57.46606E+06    57.468228E+06  -114.946248E+06   344.828224E+06       423.651367    344.82864E+06
             2206     57.47054E+06     57.46998E+06  -114.943936E+06   344.829888E+06       262.598785   344.824864E+06
             2207    57.474812E+06      57.4714E+06  -114.937744E+06   344.828896E+06  -2.31204565E+03   344.828544E+06
             2208    57.472832E+06    57.471536E+06  -114.943368E+06   344.828032E+06      -779.519653   344.826848E+06
             2209     57.47886E+06    57.474744E+06  -114.937704E+06   344.827552E+06  -1.41140674E+03   344.827264E+06
             2210    57.470012E+06    57.464024E+06  -114.945152E+06    344.82656E+06  -1.42550098E+03   344.826368E+06
             2211    57.481196E+06     57.48114E+06  -114.932896E+06    344.82528E+06      -257.352234   344.827552E+06
             2212    57.469868E+06    57.471072E+06  -114.943528E+06   344.828224E+06      -510.109100    344.82816E+06
             2213    57.462796E+06    57.461852E+06  -114.953504E+06   344.829888E+06       146.994141   344.830208E+06
             2214    57.469976E+06    57.469184E+06  -114.940064E+06   344.825312E+06   1.43586877E+03   344.828256E+06
             2215    57.453388E+06    57.457816E+06   -114.95668E+06   344.829088E+06   4.95013037E+03   344.829824E+06
             2216    57.477008E+06     57.47868E+06  -114.933176E+06   344.829056E+06  -1.26045667E+03   344.828608E+06
             2217    57.358884E+06    57.379132E+06  -115.039136E+06   344.838688E+06       967.715149   344.836064E+06
             2218    57.454932E+06    57.459492E+06  -114.956408E+06    344.82848E+06      -223.480850   344.830464E+06
             2219    57.472344E+06    57.474424E+06  -114.941592E+06   344.828768E+06  -1.74264124E+03   344.828704E+06
             2220    57.448676E+06    57.456864E+06   -114.96148E+06   344.829184E+06  -3.34954980E+03    344.83232E+06
             2221    57.481056E+06    57.480908E+06  -114.932856E+06   344.827712E+06       897.872681   344.826624E+06
             2222    57.461372E+06    57.458368E+06  -114.955216E+06   344.831616E+06  -1.20492847E+03   344.826048E+06
             2223    57.448476E+06    57.448916E+06  -114.966328E+06   344.835072E+06      -558.461060    344.83088E+06
             2224    57.473404E+06    57.473496E+06  -114.941096E+06   344.828608E+06       173.759232   344.827648E+06
             2225       57.449E+06    57.455796E+06  -114.961176E+06   344.830304E+06  -4.12861426E+03   344.831776E+06
             2226    57.475348E+06    57.482036E+06  -114.937032E+06   344.827776E+06       990.230469   344.828608E+06
             2227    57.474368E+06    57.479092E+06  -114.937936E+06    344.82784E+06      -380.134094   344.828224E+06
             2228     57.47108E+06    57.471624E+06  -114.942344E+06   344.828288E+06       615.703979   344.828352E+06
             2229     57.47486E+06    57.474888E+06  -114.939088E+06   344.827616E+06      -189.358536   344.827424E+06
             2230    57.474708E+06    57.474196E+06  -114.940992E+06   344.828768E+06      -715.296143   344.827296E+06
             2231    57.482952E+06    57.497604E+06  -114.923064E+06   344.825952E+06      -348.419891   344.827456E+06
             2232    57.481248E+06    57.479196E+06  -114.931664E+06   344.826816E+06   1.23335596E+03    344.82704E+06
             2233    57.490736E+06    57.493428E+06  -114.923776E+06    344.82944E+06   1.47394678E+03   344.828192E+06
             2234     57.48564E+06    57.495876E+06  -114.920712E+06   344.822112E+06  -1.30597717E+03   344.824896E+06
             2235    57.471656E+06    57.471932E+06  -114.942184E+06   344.827488E+06      -305.621643    344.82784E+06
             2236    57.479004E+06    57.478828E+06   -114.93268E+06   344.827072E+06   1.16870300E+03   344.828576E+06
             2237    57.467276E+06    57.465068E+06   -114.94528E+06   344.823552E+06  -1.16080115E+03     344.8272E+06
             2238    57.462116E+06    57.463968E+06   -114.94904E+06   344.827488E+06      -685.043457   344.829408E+06
             2239    57.474416E+06    57.473812E+06   -114.93936E+06   344.828288E+06      -23.9817181   344.827712E+06
             2240    57.471524E+06    57.470528E+06   -114.94284E+06   344.827968E+06       374.500397   344.827712E+06
             2241    57.472948E+06    57.472684E+06  -114.940744E+06   344.826688E+06      -626.147644   344.827904E+06
             2242    57.469548E+06    57.470192E+06  -114.943752E+06   344.827584E+06      -124.484047   344.827968E+06
             2243    57.462508E+06    57.460636E+06  -114.954472E+06   344.827264E+06  -1.15676257E+03   344.828032E+06
             2244    57.469092E+06    57.468276E+06  -114.944256E+06   344.827296E+06  -1.18651709E+03   344.829216E+06
             2245    57.453072E+06    57.451208E+06  -114.960544E+06   344.828384E+06      -916.161377   344.831584E+06
             2246    57.479728E+06    57.477536E+06  -114.936448E+06   344.826496E+06  -1.22803760E+03    344.82704E+06
             2247    57.475676E+06    57.474488E+06   -114.93936E+06   344.827808E+06       442.758301   344.827712E+06
             2248    57.474744E+06    57.474784E+06  -114.937592E+06   344.827584E+06  -2.59839917E+03    344.82864E+06
             2249     57.47882E+06    57.478696E+06  -114.935064E+06   344.828032E+06       305.378479   344.826784E+06
             2250    57.471864E+06    57.473356E+06  -114.944696E+06    344.83248E+06       483.950256   344.827104E+06
             2251      57.4707E+06    57.471296E+06  -114.942448E+06   344.827872E+06      -245.411758   344.827712E+06
             2252    57.471772E+06     57.47186E+06  -114.942024E+06   344.827904E+06       763.788757   344.828064E+06
             2253    57.466788E+06    57.467036E+06  -114.947464E+06   344.827616E+06  -1.13609802E+03   344.827392E+06
             2254    57.472208E+06    57.472048E+06  -114.942008E+06   344.828288E+06       24.9278603   344.827936E+06
             2255    57.470644E+06    57.467816E+06    -114.9432E+06   344.828384E+06      -240.864563   344.827808E+06
             2256    57.466828E+06    57.467944E+06   -114.94584E+06   344.828064E+06       193.350586   344.828576E+06
             2257    57.469072E+06    57.469516E+06  -114.944976E+06   344.828256E+06      -74.2138748    344.82768E+06
             2258    57.468704E+06    57.469432E+06  -114.945544E+06    344.83008E+06      -248.256531   344.828544E+06
             2259    57.468796E+06    57.468584E+06  -114.945232E+06   344.828384E+06       347.755371    344.82768E+06
             2260     57.47076E+06    57.468572E+06  -114.943712E+06   344.828096E+06       791.237427   344.828768E+06
             2261     57.47214E+06    57.470528E+06   -114.94348E+06   344.828672E+06       53.5369225   344.827456E+06
             2262    57.459128E+06    57.458448E+06   -114.95324E+06    344.82864E+06  -1.92828918E+03   344.831456E+06
             2263     57.49554E+06       57.496E+06   -114.91832E+06   344.830176E+06  -1.56239453E+03   344.822336E+06
             2264    57.468588E+06    57.468756E+06  -114.945368E+06   344.827968E+06       668.051575   344.828352E+06
             2265    57.472636E+06     57.47356E+06   -114.94088E+06   344.828736E+06      -79.3668213   344.827712E+06
             2266    57.473316E+06    57.471124E+06  -114.940512E+06   344.828224E+06      -22.7940636    344.82688E+06
             2267    57.464448E+06    57.464936E+06   -114.95128E+06    344.82672E+06      -651.162781     344.8288E+06
             2268     57.47164E+06    57.471904E+06  -114.941928E+06   344.827328E+06      -147.101929   344.827904E+06
             2269    57.470236E+06    57.471952E+06    -114.9414E+06   344.828768E+06   2.42831543E+03   344.828448E+06
             2270    57.464208E+06     57.46798E+06  -114.951752E+06   344.829376E+06      -488.303558   344.827808E+06
             2271    57.463464E+06     57.46458E+06  -114.950072E+06    344.82832E+06      -655.016052   344.828416E+06
             2272    57.466964E+06    57.467596E+06  -114.945448E+06   344.828256E+06      -61.1981468   344.828064E+06
             2273    57.470544E+06    57.470828E+06  -114.942992E+06   344.828064E+06       79.2560349   344.827616E+06
             2274    57.462988E+06    57.465436E+06   -114.95076E+06   344.831424E+06      -66.1091843   344.829504E+06
             2275    57.473744E+06     57.47368E+06  -114.940184E+06   344.828128E+06       99.2643204   344.828032E+06
             2276    57.483264E+06    57.478668E+06  -114.933528E+06   344.827008E+06      -44.3702431   344.827008E+06
             2277    57.453892E+06    57.463972E+06  -114.952616E+06      344.828E+06   2.86629028E+03    344.82944E+06
             2278     57.47098E+06    57.472136E+06  -114.941408E+06   344.827936E+06      -305.862213   344.827808E+06
             2279    57.473892E+06    57.472548E+06   -114.93956E+06    344.82896E+06       86.8080902   344.828192E+06
             2280    57.407984E+06    57.401808E+06  -115.009824E+06    344.83456E+06      -678.965698   344.834336E+06
             2281    57.425876E+06     57.43746E+06  -114.978448E+06   344.830144E+06   3.94592725E+03   344.831744E+06
             2282    57.463756E+06     57.46442E+06  -114.948696E+06   344.828064E+06       333.223053    344.82912E+06
             2283    57.478524E+06    57.479584E+06  -114.936808E+06    344.82848E+06       762.585449   344.829408E+06
             2284    57.468584E+06    57.469312E+06  -114.944328E+06   344.827648E+06      -782.966553   344.827584E+06
             2285     57.45966E+06    57.454916E+06  -114.954416E+06   344.830784E+06       397.460571    344.83056E+06
             2286    57.533576E+06    57.522516E+06   -114.89168E+06   344.828736E+06   3.87703320E+03   344.825504E+06
             2287    57.471276E+06    57.471204E+06  -114.943016E+06   344.827936E+06      -372.800140   344.827648E+06
             2288    57.475444E+06    57.474184E+06   -114.93996E+06    344.82704E+06       46.6992569   344.827712E+06
             2289    57.471544E+06    57.471068E+06  -114.943528E+06   344.828256E+06       103.446449   344.827968E+06
             2290    57.470568E+06    57.470176E+06  -114.944416E+06   344.828096E+06       184.156631   344.827968E+06
             2291    57.470764E+06    57.470368E+06  -114.943472E+06   344.827808E+06      -400.697083   344.827808E+06
             2292     57.55926E+06      57.5414E+06  -114.870384E+06   344.824576E+06   3.17666357E+03   344.824352E+06
             2293    57.455588E+06    57.457444E+06  -114.953288E+06   344.832736E+06  -1.69128809E+03   344.828032E+06
             2294    57.495872E+06    57.500048E+06  -114.916384E+06   344.826016E+06       817.702576   344.822464E+06
             2295    57.479384E+06    57.477648E+06  -114.934488E+06   344.825504E+06      -504.039825   344.826816E+06
             2296    57.481304E+06    57.489892E+06  -114.931392E+06   344.827904E+06       259.358673   344.827264E+06
             2297    57.484924E+06    57.479592E+06    -114.9346E+06    344.82576E+06      -296.768250      344.828E+06
             2298    57.469164E+06     57.46898E+06  -114.945288E+06   344.827104E+06      -400.578125   344.828448E+06
             2299    57.516472E+06    57.530136E+06  -114.892056E+06   344.825504E+06       288.716644   344.823296E+06
             2300    57.484088E+06    57.476888E+06  -114.932016E+06   344.823808E+06       569.695618   344.827744E+06
             2301    57.473204E+06    57.475272E+06  -114.939352E+06   344.824736E+06       866.690002   344.832224E+06
             2302    57.478428E+06    57.476572E+06  -114.934032E+06    344.82736E+06       181.727661   344.826304E+06
             2303    57.473812E+06    57.470524E+06  -114.942344E+06   344.827904E+06       446.573547   344.824576E+06
             2304    57.457012E+06    57.463848E+06  -114.952264E+06   344.828896E+06      -14.8181686   344.827648E+06
             2305     57.46848E+06    57.467168E+06  -114.946848E+06   344.827552E+06      -247.668182   344.827488E+06
             2306    57.475964E+06    57.476064E+06  -114.937336E+06    344.82752E+06      -347.164154   344.827104E+06
             2307    57.466488E+06     57.46854E+06  -114.947192E+06   344.827872E+06      -67.2951355    344.82816E+06
             2308    57.481112E+06    57.466476E+06   -114.94232E+06   344.830592E+06   2.68919580E+03   344.832192E+06
             2309    57.476108E+06     57.47526E+06   -114.93984E+06   344.828096E+06  -2.34685425E+03    344.82848E+06
             2310     57.46172E+06    57.467092E+06  -114.945768E+06   344.825088E+06   1.70938330E+03   344.827168E+06
             2311    57.484388E+06     57.48372E+06      -114.93E+06   344.828192E+06       740.615784   344.824448E+06
             2312    57.472844E+06    57.472436E+06   -114.94128E+06   344.827776E+06   3.14802148E+03   344.828576E+06
             2313    57.469856E+06    57.469416E+06  -114.945144E+06   344.827872E+06      -753.270996    344.82832E+06
             2314    57.425988E+06    57.428764E+06   -114.98624E+06   344.836224E+06      -327.333435    344.83232E+06
             2315    57.508708E+06    57.494916E+06  -114.914104E+06   344.825664E+06   1.01124860E+03   344.825024E+06
             2316    57.469936E+06    57.470188E+06   -114.94764E+06   344.829024E+06      -198.753586   344.829216E+06
             2317    57.475296E+06    57.474968E+06  -114.938504E+06   344.827136E+06      -571.394226   344.826208E+06
             2318    57.535196E+06      57.5245E+06  -114.886456E+06   344.821184E+06   2.44653369E+03   344.822816E+06
             2319    57.531596E+06    57.545292E+06  -114.877112E+06   344.819072E+06  -4.11941895E+03   344.825664E+06
             2320    57.489536E+06     57.49974E+06  -114.921352E+06    344.82752E+06  -1.18907739E+03   344.826912E+06
             2321     57.40546E+06    57.425068E+06  -114.993128E+06   344.829888E+06   3.97791211E+03   344.834016E+06
             2322    57.464452E+06    57.467332E+06   -114.94804E+06   344.830432E+06   1.20052905E+03     344.8272E+06
             2323    57.447512E+06    57.440064E+06    -114.9676E+06   344.830688E+06       315.524872    344.82848E+06
             2324    57.468032E+06    57.469452E+06   -114.94736E+06   344.828512E+06       38.8006516   344.828032E+06
             2325    57.463436E+06    57.466116E+06  -114.947896E+06   344.828064E+06      -536.919739   344.828544E+06
             2326    57.474408E+06    57.469332E+06  -114.943136E+06   344.829568E+06   1.02586169E+03    344.82688E+06
             2327    57.418984E+06    57.431628E+06   -114.98408E+06    344.83088E+06   5.80509961E+03   344.831392E+06
             2328    57.474228E+06     57.47376E+06  -114.940216E+06    344.82784E+06      -523.886963   344.827552E+06
             2329    57.477132E+06    57.478804E+06  -114.934656E+06   344.827296E+06      -130.494873   344.828096E+06
             2330    57.464848E+06    57.465644E+06  -114.946536E+06   344.826912E+06   2.18274634E+03   344.829504E+06
             2331    57.469752E+06    57.472292E+06  -114.943224E+06   344.828608E+06      -276.947571   344.828288E+06
             2332    57.466564E+06    57.469888E+06  -114.946544E+06   344.825056E+06      -275.140167   344.827744E+06
             2333    57.426916E+06    57.432564E+06  -114.979232E+06   344.832384E+06       352.637878   344.829344E+06
             2334     57.47206E+06     57.47224E+06  -114.942008E+06   344.828064E+06      -563.216125   344.827424E+06
             2335     57.53478E+06    57.525944E+06   -114.88692E+06    344.81808E+06      -208.376602   344.822048E+06
             2336      57.4694E+06    57.470948E+06   -114.94488E+06    344.82752E+06       651.463867   344.827232E+06
             2337    57.460572E+06    57.455044E+06  -114.956272E+06   344.830912E+06   1.00375354E+03   344.827168E+06
             2338    57.493856E+06    57.488076E+06   -114.92456E+06   344.829056E+06   2.28403003E+03   344.826304E+06
             2339     57.46834E+06     57.46486E+06  -114.948104E+06   344.826656E+06       770.705200   344.827712E+06
             2340    57.497936E+06    57.508204E+06  -114.912968E+06   344.830688E+06       589.237793   344.825312E+06
             2341    57.461404E+06    57.463868E+06  -114.949784E+06   344.826848E+06      -817.302246      344.828E+06
             2342     57.43886E+06    57.454248E+06   -114.97096E+06   344.837152E+06  -5.47300635E+03   344.833888E+06
             2343    57.453488E+06    57.443176E+06  -114.963096E+06   344.826144E+06       236.502228   344.827456E+06
             2344    57.397984E+06    57.403984E+06  -115.011448E+06   344.837824E+06  -2.76896753E+03   344.836256E+06
             2345     57.46878E+06    57.465588E+06  -114.946552E+06    344.82608E+06   1.25372974E+03   344.827744E+06
             2346    57.443232E+06     57.42858E+06  -114.975688E+06   344.829088E+06       648.653687   344.832384E+06
             2347    57.474484E+06    57.476324E+06  -114.937312E+06   344.828576E+06  -2.48734741E+03   344.827456E+06
             2348    57.441616E+06     57.43612E+06  -114.977008E+06   344.834176E+06   1.34902173E+03    344.82816E+06
             2349     57.50136E+06      57.5128E+06  -114.911856E+06     344.8288E+06       169.289017   344.827648E+06
             2350    57.473496E+06      57.4732E+06  -114.938488E+06   344.827456E+06  -1.03026306E+03   344.828256E+06
             2351    57.465996E+06     57.46544E+06  -114.947264E+06   344.826816E+06  -1.55634119E+03   344.828288E+06
             2352    57.470972E+06    57.470836E+06  -114.943712E+06   344.827616E+06       160.189758   344.827904E+06
             2353    57.475928E+06    57.475152E+06  -114.937408E+06   344.827648E+06       835.095276   344.826368E+06
             2354    57.458776E+06    57.456288E+06   -114.95512E+06   344.829312E+06      -484.176636    344.82976E+06
             2355    57.475208E+06    57.472344E+06  -114.938184E+06   344.829088E+06  -1.94236157E+03   344.827104E+06
             2356    57.483104E+06    57.483172E+06  -114.931104E+06   344.830688E+06       306.337799   344.825088E+06
             2357      57.4773E+06    57.474436E+06  -114.937352E+06   344.828352E+06       806.064331   344.827712E+06
             2358     57.47486E+06    57.473088E+06  -114.940176E+06   344.828128E+06      -418.082764   344.828128E+06
             2359    57.474024E+06     57.46622E+06   -114.94256E+06   344.820064E+06       777.511230     344.8256E+06
             2360    57.463976E+06    57.464632E+06  -114.948176E+06    344.82848E+06      -351.498566   344.828544E+06
             2361     57.46766E+06    57.465892E+06  -114.948336E+06   344.828352E+06      -987.652710   344.828032E+06
             2362     57.47886E+06    57.476708E+06  -114.937104E+06   344.828192E+06      -421.280182   344.827456E+06
             2363    57.474144E+06    57.473644E+06  -114.940144E+06   344.828288E+06       247.145691   344.828256E+06
             2364    57.470956E+06    57.470816E+06  -114.942352E+06   344.827008E+06      -161.809601   344.827392E+06
             2365    57.471912E+06     57.47246E+06    -114.9414E+06   344.827648E+06      -56.8772392      344.828E+06
             2366    57.470284E+06     57.47176E+06  -114.942176E+06   344.827136E+06      -829.792114    344.82784E+06
             2367    57.473108E+06    57.472128E+06  -114.939832E+06   344.826592E+06      -882.271423   344.828128E+06
             2368    57.475188E+06    57.481316E+06  -114.937744E+06    344.83104E+06   2.49503003E+03   344.829088E+06
             2369    57.481732E+06    57.479272E+06   -114.92928E+06   344.825376E+06      -254.943985   344.827232E+06
             2370    57.469432E+06     57.46722E+06  -114.945544E+06   344.827872E+06       372.920837    344.82816E+06
             2371    57.460764E+06      57.4688E+06  -114.949056E+06     344.8272E+06      -924.335144   344.830112E+06
             2372    57.486984E+06    57.484728E+06   -114.92868E+06   344.825088E+06      -959.753723   344.827328E+06
             2373    57.456292E+06    57.449984E+06  -114.959224E+06   344.829504E+06      -225.532654   344.826848E+06
             2374    57.476976E+06    57.473512E+06  -114.940176E+06   344.827616E+06  -2.12023193E+03   344.827232E+06
             2375      57.4624E+06    57.464152E+06  -114.950408E+06    344.82592E+06      -594.221680   344.828064E+06
             2376    57.443092E+06     57.44802E+06  -114.965088E+06   344.832608E+06      -904.890869      344.824E+06
             2377     57.47458E+06    57.475752E+06  -114.939104E+06   344.828096E+06       140.319427   344.827648E+06
             2378    57.463404E+06    57.460752E+06  -114.951408E+06   344.828416E+06       351.804077   344.829344E+06
             2379    57.398888E+06    57.415048E+06   -115.00352E+06   344.833248E+06      -904.281128   344.834592E+06
             2380    57.476608E+06    57.479628E+06  -114.935672E+06   344.830016E+06       117.325119   344.826368E+06
             2381    57.465164E+06    57.466176E+06  -114.948224E+06   344.828768E+06       687.269104   344.829408E+06
             2382    57.460448E+06    57.457252E+06  -114.953216E+06   344.828832E+06  -1.13886279E+03    344.82976E+06
             2383    57.423448E+06      57.4152E+06  -114.992888E+06   344.832768E+06       527.297180   344.832576E+06
             2384    57.478076E+06    57.478288E+06  -114.933848E+06   344.823648E+06   1.33269446E+03   344.828096E+06
             2385    57.472828E+06     57.46894E+06  -114.944952E+06   344.830496E+06       33.7935791   344.828352E+06
             2386    57.473968E+06     57.47284E+06  -114.941496E+06   344.826304E+06      -737.174744     344.8272E+06
             2387     57.48076E+06    57.478964E+06   -114.93532E+06    344.83056E+06   2.64857812E+03     344.8272E+06
             2388    57.468668E+06    57.470436E+06  -114.942704E+06   344.825504E+06      -376.319061   344.827168E+06
             2389    57.385104E+06     57.36756E+06  -115.033424E+06    344.83056E+06      -541.746643    344.83904E+06
             2390    57.478176E+06    57.475656E+06  -114.938784E+06   344.828384E+06   1.30406335E+03    344.82752E+06
             2391    57.474596E+06     57.47322E+06  -114.941744E+06   344.831136E+06      -94.0773849   344.826336E+06
             2392    57.473844E+06    57.475516E+06  -114.940808E+06    344.82752E+06      -21.4441185    344.82784E+06
             2393     57.46886E+06    57.471044E+06   -114.94284E+06   344.825248E+06  -1.68858154E+03   344.825728E+06
             2394    57.470576E+06    57.471764E+06  -114.942008E+06   344.830048E+06      -807.614807   344.828384E+06
             2395    57.492568E+06     57.49364E+06    -114.9254E+06   344.830752E+06   1.21590479E+03   344.828032E+06
             2396    57.472744E+06    57.469188E+06  -114.942112E+06   344.828224E+06      -464.672699   344.828416E+06
             2397     57.46846E+06    57.472668E+06  -114.940248E+06   344.829248E+06  -1.12584351E+03   344.827232E+06
             2398    57.462812E+06    57.459072E+06  -114.953824E+06    344.82928E+06  -1.44175317E+03   344.829472E+06
             2399      57.4632E+06    57.462312E+06  -114.951504E+06    344.83088E+06       356.784027   344.829824E+06
             2400     57.47762E+06    57.480092E+06  -114.934824E+06   344.828896E+06   1.41366699E+03    344.82464E+06
             2401    57.468768E+06    57.469012E+06  -114.945176E+06   344.829056E+06      -310.818909   344.828736E+06
             2402    57.460672E+06    57.458252E+06   -114.95232E+06   344.832928E+06  -2.04457996E+03   344.828832E+06
             2403    57.474876E+06    57.474884E+06  -114.939256E+06   344.828064E+06       558.464111   344.827648E+06
             2404    57.470964E+06    57.470968E+06   -114.94264E+06   344.827808E+06       307.732544    344.82768E+06
             2405    57.463108E+06    57.464316E+06  -114.953048E+06   344.828544E+06       614.145020   344.828128E+06
             2406    57.470292E+06    57.475676E+06  -114.942416E+06   344.826336E+06  -1.02675317E+03   344.825184E+06
             2407    57.477972E+06    57.480304E+06  -114.937344E+06   344.826336E+06       316.589142    344.82512E+06
             2408    57.472164E+06    57.471296E+06  -114.938856E+06   344.828416E+06       530.488831   344.826976E+06
             2409     57.48112E+06    57.490984E+06  -114.922712E+06   344.825376E+06   1.82874683E+03   344.824352E+06
             2410      57.4709E+06    57.472732E+06  -114.943728E+06   344.827104E+06  -1.04555359E+03   344.828352E+06
             2411    57.460516E+06    57.456144E+06  -114.955624E+06    344.82944E+06       785.006348   344.829472E+06
             2412    57.481528E+06     57.47852E+06  -114.934456E+06   344.826528E+06   1.75359314E+03   344.825792E+06
             2413    57.470664E+06    57.470124E+06  -114.943088E+06    344.82768E+06       22.1246052   344.827264E+06
             2414    57.470036E+06    57.470604E+06  -114.946832E+06   344.830464E+06   1.26387756E+03    344.82864E+06
             2415     57.46766E+06    57.466472E+06  -114.945856E+06   344.829792E+06   1.61929297E+03   344.831424E+06
             2416    57.473792E+06     57.47632E+06  -114.939024E+06   344.826944E+06       530.373352   344.828512E+06
             2417    57.471312E+06     57.47006E+06   -114.94668E+06   344.828672E+06       124.395126   344.829664E+06
             2418     57.43998E+06    57.437412E+06  -114.975304E+06   344.837152E+06      -435.138611   344.828768E+06
             2419     57.46792E+06    57.475212E+06  -114.945904E+06     344.8304E+06      -621.070496    344.83296E+06
             2420    57.494324E+06    57.495704E+06  -114.919008E+06    344.82928E+06       50.0269470    344.82256E+06
             2421    57.479876E+06     57.48548E+06  -114.935128E+06   344.829824E+06       502.542877   344.827584E+06
             2422    57.468628E+06    57.466804E+06  -114.945888E+06   344.829248E+06       346.141754   344.826592E+06
             2423    57.467116E+06    57.468912E+06  -114.946296E+06   344.828032E+06       362.053619   344.829184E+06
             2424    57.447936E+06     57.43684E+06  -114.966688E+06   344.830496E+06      -210.129837   344.825824E+06
             2425    57.472972E+06     57.47358E+06   -114.94012E+06   344.826784E+06      -629.222351   344.827776E+06
             2426    57.474192E+06    57.472388E+06  -114.941248E+06   344.829088E+06       243.665970   344.827552E+06
             2427    57.449876E+06    57.454572E+06  -114.962008E+06     344.8304E+06      -162.484940   344.830304E+06
             2428     57.54762E+06    57.564356E+06   -114.86088E+06   344.815584E+06  -2.00548950E+03     344.8232E+06
             2429    57.470368E+06    57.469728E+06  -114.943544E+06   344.827648E+06      -89.0547256   344.827808E+06
             2430    57.463124E+06    57.464572E+06  -114.949944E+06   344.832224E+06   2.79274268E+03     344.8296E+06
             2431    57.449368E+06    57.458044E+06  -114.956576E+06   344.826656E+06       148.099350   344.829632E+06
             2432    57.474044E+06    57.473724E+06  -114.939032E+06   344.828544E+06      -522.668701    344.82848E+06
             2433    57.481404E+06    57.474244E+06   -114.93548E+06   344.828864E+06       487.506470   344.826144E+06
             2434    57.466048E+06    57.465244E+06  -114.948592E+06   344.828704E+06       670.441345    344.82976E+06
             2435    57.471472E+06    57.470612E+06  -114.943168E+06   344.827872E+06      -207.317856   344.827584E+06
             2436     57.47258E+06    57.472824E+06  -114.940904E+06   344.827456E+06       174.364227   344.827584E+06
             2437    57.465636E+06    57.466796E+06  -114.948184E+06   344.828736E+06      -672.670654    344.82912E+06
             2438     57.47316E+06     57.47098E+06  -114.940656E+06   344.829536E+06      -447.480652   344.826912E+06
             2439    57.471516E+06    57.470632E+06  -114.943448E+06   344.831168E+06       468.342560   344.828064E+06
             2440    57.471216E+06      57.4696E+06  -114.942096E+06   344.828576E+06      -724.590698   344.826624E+06
             2441    57.471948E+06     57.47712E+06     -114.941E+06   344.829632E+06   1.07924158E+03    344.83104E+06
             2442    57.473052E+06    57.472628E+06  -114.941096E+06   344.827552E+06      -543.655457   344.827616E+06
             2443    57.458308E+06    57.453328E+06  -114.958136E+06   344.832032E+06       339.759094   344.827424E+06
             2444     57.47476E+06    57.473188E+06  -114.940304E+06   344.826304E+06  -2.83923486E+03   344.827776E+06
             2445    57.490656E+06    57.495732E+06  -114.922912E+06   344.825696E+06      -46.7830696   344.826784E+06
             2446    57.472704E+06     57.47738E+06     -114.942E+06    344.82768E+06      -205.973984   344.830048E+06
             2447    57.462208E+06    57.461628E+06    -114.9508E+06   344.828992E+06       268.310638   344.827776E+06
             2448    57.496276E+06    57.488864E+06  -114.924056E+06   344.828864E+06  -1.10259216E+03   344.825856E+06
             2449    57.508284E+06    57.480984E+06  -114.922736E+06   344.825024E+06  -5.42444531E+03   344.828512E+06
             2450      57.4716E+06    57.471076E+06  -114.943496E+06    344.82768E+06       120.374519   344.828192E+06
             2451    57.472636E+06    57.475048E+06  -114.940416E+06   344.827808E+06      -834.255981   344.827808E+06
             2452    57.470664E+06    57.469632E+06  -114.944184E+06    344.82784E+06      -224.857742   344.828064E+06
             2453    57.476508E+06    57.478768E+06   -114.93516E+06    344.82672E+06  -1.28516895E+03   344.829472E+06
             2454    57.473108E+06    57.474652E+06  -114.941248E+06    344.82576E+06       76.4865723   344.828256E+06
             2455    57.465136E+06    57.466572E+06  -114.948592E+06   344.828416E+06      -994.053406   344.829024E+06
             2456    57.476016E+06    57.464264E+06  -114.948896E+06    344.83568E+06  -4.23675293E+03   344.829184E+06
             2457    57.471524E+06    57.472272E+06  -114.941592E+06    344.82816E+06      -315.774261     344.8272E+06
             2458    57.466184E+06    57.469548E+06  -114.942712E+06   344.826272E+06      -25.0634079   344.829472E+06
             2459    57.450492E+06     57.45384E+06  -114.960104E+06   344.826976E+06  -1.90154578E+03   344.829024E+06
             2460    57.471376E+06    57.471056E+06  -114.943832E+06   344.827968E+06      -172.944702   344.827456E+06
             2461    57.470932E+06       57.474E+06  -114.941984E+06    344.82704E+06      -854.715759   344.827616E+06
             2462    57.461624E+06     57.46384E+06  -114.951296E+06   344.828608E+06  -1.34557764E+03   344.829216E+06
             2463    57.479024E+06    57.488484E+06  -114.931968E+06   344.827008E+06      -397.466003   344.831456E+06
             2464    57.468196E+06     57.46756E+06  -114.945432E+06      344.828E+06      -456.830170   344.828096E+06
             2465    57.474528E+06    57.473592E+06      -114.94E+06   344.828192E+06       760.646301   344.827488E+06
             2466     57.42154E+06     57.41434E+06   -114.99564E+06   344.831872E+06      -688.913879   344.835392E+06
             2467    57.465076E+06    57.474656E+06  -114.947624E+06      344.832E+06   4.04473315E+03   344.831616E+06
             2468     57.47686E+06    57.479708E+06   -114.93492E+06   344.827456E+06  -1.01641742E+03    344.82656E+06
             2469      57.4944E+06    57.491948E+06   -114.92604E+06     344.8312E+06       164.801682   344.826368E+06
             2470    57.476108E+06    57.474504E+06   -114.93868E+06   344.828704E+06      -114.230988   344.827424E+06
             2471    57.467544E+06    57.467552E+06  -114.947048E+06   344.828224E+06      -381.832855      344.828E+06
             2472    57.469928E+06    57.468788E+06  -114.943936E+06   344.827968E+06      -117.935295   344.828224E+06
             2473     57.44894E+06    57.444588E+06  -114.965112E+06   344.827552E+06       131.818100   344.832544E+06
             2474     57.47378E+06    57.472892E+06  -114.941432E+06   344.827808E+06      -467.045258    344.82752E+06
             2475    57.453616E+06    57.457248E+06  -114.958664E+06   344.829856E+06  -2.66252466E+03   344.830144E+06
             2476    57.474008E+06    57.473084E+06  -114.940952E+06   344.830688E+06       104.108521   344.826144E+06
             2477    57.499948E+06    57.491096E+06  -114.922872E+06   344.832608E+06   1.88040112E+03   344.826976E+06
             2478    57.405792E+06    57.421384E+06  -114.996448E+06   344.832128E+06  -1.04034143E+03   344.832032E+06
             2479    57.467848E+06    57.464708E+06  -114.947184E+06   344.826784E+06      -998.683105    344.82608E+06
             2480    57.445256E+06    57.449852E+06  -114.965192E+06   344.826432E+06   1.39708813E+03   344.834208E+06
             2481    57.460308E+06    57.463188E+06  -114.951936E+06   344.828832E+06      -841.784424   344.828256E+06
             2482    57.469608E+06    57.470772E+06  -114.943656E+06   344.828992E+06   1.24108057E+03   344.828096E+06
             2483    57.469512E+06    57.467568E+06  -114.947552E+06   344.828256E+06      -801.322021    344.82688E+06
             2484      57.4796E+06    57.486192E+06  -114.931912E+06   344.826752E+06       690.762390   344.830144E+06
             2485    57.471512E+06    57.471996E+06  -114.942144E+06   344.827872E+06      -518.776917   344.827424E+06
             2486    57.426992E+06    57.436304E+06  -114.974368E+06   344.831488E+06   8.89201855E+03   344.826784E+06
             2487    57.476324E+06    57.473636E+06  -114.938984E+06   344.826848E+06   1.16722754E+03   344.827776E+06
             2488    57.485132E+06    57.496892E+06   -114.92664E+06   344.825696E+06  -2.19926147E+03   344.831904E+06
             2489    57.466628E+06    57.467088E+06  -114.946272E+06   344.827648E+06       98.2054062   344.828736E+06
             2490    57.473124E+06    57.472664E+06  -114.941472E+06   344.827616E+06       162.442810    344.82768E+06
             2491    57.473936E+06    57.472608E+06  -114.939368E+06   344.826624E+06       624.842285   344.826656E+06
             2492    57.492192E+06    57.486492E+06  -114.926496E+06    344.82768E+06       633.293030   344.826368E+06
             2493    57.467636E+06    57.467576E+06  -114.948248E+06   344.830528E+06      -509.561462   344.827456E+06
             2494    57.381448E+06    57.407296E+06  -115.013328E+06   344.836416E+06   3.06683276E+03   344.833056E+06
             2495    57.463556E+06    57.468724E+06  -114.949928E+06   344.828576E+06  -1.95180640E+03   344.827712E+06
             2496    57.467876E+06    57.465972E+06  -114.950224E+06    344.82896E+06      -251.116684   344.828768E+06
             2497    57.470116E+06     57.47092E+06    -114.9442E+06   344.828192E+06       328.043365   344.828224E+06
             2498    57.469828E+06     57.46964E+06   -114.94408E+06   344.828576E+06       411.790527    344.82832E+06
             2499    57.432284E+06    57.445408E+06  -114.975256E+06    344.83088E+06  -2.38567627E+03    344.83104E+06
             2500    57.472048E+06    57.471452E+06   -114.94268E+06   344.828512E+06       337.062866   344.828256E+06
             2501    57.470632E+06    57.470764E+06  -114.945048E+06   344.828448E+06      -587.703003    344.82752E+06
             2502    57.463712E+06    57.466368E+06  -114.950456E+06   344.826976E+06  -5.75252832E+03   344.830496E+06
             2503    57.461752E+06    57.462488E+06  -114.949688E+06   344.828832E+06      -323.016693    344.82848E+06
             2504    57.473512E+06    57.473736E+06   -114.94104E+06   344.828352E+06      -118.755585   344.828032E+06
             2505    57.475304E+06    57.469936E+06  -114.942152E+06   344.829632E+06       663.879822   344.827168E+06
             2506     57.47622E+06    57.476668E+06  -114.937024E+06   344.828896E+06   6.12277197E+03   344.827104E+06
             2507    57.472488E+06     57.47234E+06  -114.942352E+06   344.827968E+06       447.614258   344.827936E+06
             2508    57.450048E+06    57.441868E+06   -114.96724E+06   344.834368E+06   1.16376013E+03   344.827872E+06
             2509    57.471868E+06    57.471836E+06  -114.941128E+06   344.828256E+06       652.845093   344.828288E+06
             2510     57.42502E+06    57.422348E+06   -114.98912E+06    344.83456E+06  -2.97066772E+03   344.832864E+06
             2511      57.4675E+06    57.467864E+06  -114.945056E+06   344.827648E+06      -125.533409   344.828032E+06
             2512    57.468544E+06    57.469452E+06  -114.944296E+06      344.828E+06      -173.170624      344.828E+06
             2513    57.461584E+06     57.46678E+06  -114.952096E+06   344.838496E+06   1.05220374E+03   344.828512E+06
             2514    57.474032E+06     57.47524E+06  -114.939144E+06   344.827552E+06   1.88678674E+03   344.826784E+06
             2515    57.490508E+06    57.492372E+06   -114.92248E+06   344.820608E+06      -134.351074   344.823776E+06
             2516    57.467008E+06    57.468664E+06  -114.947344E+06   344.828288E+06       656.287231   344.828096E+06
             2517      57.4728E+06    57.472716E+06  -114.941328E+06   344.827936E+06      -144.416458   344.827904E+06
             2518    57.471568E+06     57.47204E+06     -114.943E+06   344.827648E+06      -735.482056   344.826592E+06
             2519     57.47284E+06     57.47272E+06  -114.941216E+06   344.827232E+06      -141.548676   344.828096E+06
             2520    57.507028E+06    57.501104E+06  -114.907544E+06   344.823968E+06   1.65942798E+03   344.825824E+06
             2521     57.47938E+06    57.480304E+06  -114.937616E+06   344.826464E+06       651.751404   344.828544E+06
             2522    57.484656E+06     57.48208E+06  -114.932272E+06   344.829664E+06   1.02430554E+03    344.82864E+06
             2523    57.470356E+06     57.47014E+06  -114.943472E+06   344.827552E+06       394.324066   344.828064E+06
             2524    57.506572E+06      57.4971E+06  -114.916192E+06   344.822368E+06  -3.47225171E+03   344.824864E+06
             2525    57.478404E+06    57.479472E+06   -114.93412E+06   344.823456E+06  -2.85849365E+03   344.827936E+06
             2526    57.469828E+06     57.46674E+06  -114.946272E+06   344.825952E+06       940.940796   344.829408E+06
             2527    57.474096E+06     57.47742E+06   -114.93684E+06     344.8248E+06       94.3948212   344.828128E+06
             2528    57.426476E+06     57.43968E+06  -114.974144E+06   344.832896E+06  -3.14774561E+03   344.829088E+06
             2529    57.471744E+06     57.47334E+06  -114.941032E+06   344.827136E+06       683.165344   344.827776E+06
             2530    57.472716E+06    57.472028E+06  -114.940928E+06   344.827648E+06      -261.723938   344.827648E+06
             2531    57.447424E+06    57.446072E+06   -114.96624E+06   344.831296E+06      -522.592773   344.832704E+06
             2532    57.498092E+06    57.506244E+06  -114.914328E+06      344.832E+06       47.1101036   344.823648E+06
             2533    57.473772E+06    57.472748E+06   -114.94244E+06    344.82848E+06      -228.521805    344.82784E+06
             2534    57.470476E+06    57.468516E+06  -114.944448E+06   344.827936E+06       299.375458   344.828192E+06
             2535    57.476888E+06    57.476204E+06  -114.939464E+06   344.828608E+06       108.393036   344.827904E+06
             2536    57.467072E+06    57.465772E+06  -114.948232E+06   344.827776E+06      -451.515564   344.828448E+06
             2537    57.461608E+06    57.455552E+06  -114.955808E+06   344.827744E+06       949.304810    344.83008E+06
             2538      57.4724E+06     57.47206E+06  -114.942096E+06   344.828448E+06      -148.520538   344.827776E+06
             2539    57.536756E+06     57.54412E+06  -114.874296E+06   344.824992E+06  -1.70270068E+03   344.815648E+06
             2540    57.470892E+06    57.472272E+06  -114.943648E+06   344.827648E+06      -679.837646   344.828672E+06
             2541    57.471132E+06    57.471296E+06  -114.942104E+06   344.827776E+06      -169.283417   344.827616E+06
             2542       57.458E+06    57.455576E+06  -114.958168E+06   344.833152E+06   3.57050220E+03   344.829344E+06
             2543     57.47368E+06    57.475024E+06  -114.941504E+06   344.828672E+06      -761.096680   344.828544E+06
             2544    57.465952E+06    57.464916E+06  -114.948224E+06    344.83184E+06   1.99632947E+03   344.831456E+06
             2545     57.50724E+06    57.517964E+06  -114.907552E+06    344.82784E+06       85.1761398   344.825824E+06
             2546    57.481316E+06    57.486352E+06  -114.926472E+06   344.824192E+06      -512.961975   344.822048E+06
             2547    57.482916E+06    57.484456E+06  -114.930776E+06   344.829536E+06      -421.705658   344.823776E+06
             2548    57.465188E+06     57.46846E+06  -114.953768E+06   344.835712E+06       928.230713   344.830816E+06
             2549    57.474868E+06    57.476552E+06  -114.937864E+06   344.827552E+06      -309.455322     344.8272E+06
             2550     57.47872E+06     57.47702E+06  -114.936216E+06   344.825504E+06  -1.74828040E+03   344.827424E+06
             2551    57.469128E+06    57.469692E+06  -114.945336E+06   344.828448E+06      -266.951599   344.828128E+06
             2552    57.461988E+06    57.464728E+06  -114.953848E+06     344.8288E+06      -160.177750    344.82736E+06
             2553      57.5078E+06    57.520784E+06  -114.903712E+06   344.830016E+06       951.385681   344.823232E+06
             2554     57.47466E+06    57.473276E+06  -114.940304E+06   344.828704E+06   3.67984961E+03   344.828256E+06
             2555    57.468892E+06    57.467712E+06  -114.945152E+06   344.827456E+06      -192.324799   344.828096E+06
             2556    57.452972E+06     57.46434E+06  -114.954592E+06   344.829408E+06   2.73573657E+03   344.831872E+06
             2557    57.469476E+06    57.469312E+06  -114.944016E+06   344.827776E+06      -117.210587   344.827648E+06
             2558    57.499748E+06    57.499884E+06  -114.917736E+06   344.836128E+06   2.12622168E+03   344.828224E+06
             2559    57.468872E+06    57.466508E+06  -114.945488E+06     344.8264E+06      -696.559570   344.829952E+06
             2560     57.46674E+06    57.465992E+06  -114.947552E+06    344.82848E+06      -240.219589   344.828608E+06
             2561    57.464952E+06    57.467256E+06  -114.951416E+06   344.827744E+06       32.6873169   344.827392E+06
             2562    57.465476E+06    57.463192E+06  -114.947992E+06   344.828608E+06  -1.30975061E+03   344.829024E+06
             2563    57.467672E+06    57.464012E+06  -114.949384E+06   344.828736E+06   1.66065222E+03   344.827968E+06
             2564     57.47454E+06    57.473032E+06  -114.937256E+06   344.828352E+06   3.24046899E+03   344.828736E+06
             2565    57.503868E+06    57.500764E+06   -114.91416E+06   344.822176E+06   1.81120313E+03    344.82384E+06
             2566      57.4775E+06    57.478252E+06  -114.936232E+06   344.827072E+06      -156.820190    344.82752E+06
             2567    57.474428E+06      57.4757E+06  -114.938896E+06   344.827936E+06      -820.176270   344.827616E+06
             2568    57.464696E+06    57.462936E+06  -114.953264E+06     344.8328E+06   1.02901208E+03    344.82864E+06
             2569    57.457352E+06     57.46076E+06  -114.954912E+06   344.827648E+06  -2.18500293E+03   344.827328E+06
             2570     57.47616E+06    57.474204E+06  -114.936088E+06   344.825856E+06      -995.212891   344.826688E+06
             2571     57.40296E+06     57.39664E+06  -115.000776E+06     344.8208E+06   2.06278882E+03   344.834624E+06
             2572    57.469412E+06     57.46996E+06  -114.944096E+06   344.828192E+06       550.579834   344.827936E+06
             2573      57.4714E+06    57.471472E+06  -114.942416E+06   344.827968E+06      -141.004807   344.827776E+06
             2574    57.470096E+06     57.47048E+06  -114.944456E+06   344.829024E+06       215.350143   344.828288E+06
             2575    57.481196E+06    57.478652E+06  -114.934064E+06   344.826368E+06      -997.826233   344.827296E+06
             2576    57.470284E+06    57.471204E+06   -114.94316E+06   344.827808E+06       169.621231   344.828032E+06
             2577     57.47282E+06       57.472E+06  -114.941848E+06   344.827936E+06      -59.0469894   344.828288E+06
             2578    57.464396E+06      57.4627E+06  -114.950248E+06    344.82864E+06      -221.169022     344.8288E+06
             2579    57.472892E+06    57.472496E+06  -114.941112E+06    344.82752E+06      -374.122040   344.827392E+06
             2580     57.46144E+06    57.463952E+06  -114.953624E+06   344.826496E+06  -1.67738623E+03   344.829632E+06
             2581    57.468276E+06      57.4688E+06  -114.945376E+06   344.828864E+06      -824.787048   344.828352E+06
             2582    57.467588E+06    57.471548E+06     -114.942E+06   344.828256E+06       620.379700   344.829504E+06
             2583    57.469436E+06    57.471168E+06   -114.94488E+06   344.828032E+06  -1.24504968E+03   344.828032E+06
             2584     57.46004E+06    57.459748E+06  -114.955528E+06     344.8272E+06  -3.74222217E+03   344.830304E+06
             2585    57.454108E+06     57.45156E+06  -114.964224E+06   344.832096E+06       93.8168640   344.828256E+06
             2586    57.463988E+06     57.47056E+06  -114.949728E+06   344.828288E+06  -2.18191577E+03   344.831552E+06
             2587    57.470712E+06      57.4718E+06  -114.942712E+06   344.828416E+06      -899.796204   344.828096E+06
             2588    57.478072E+06    57.478372E+06  -114.935944E+06    344.82752E+06      -854.711914   344.827552E+06
             2589    57.466628E+06    57.464316E+06    -114.9474E+06   344.830144E+06   2.29425659E+03   344.826976E+06
             2590    57.472196E+06    57.470684E+06   -114.94248E+06   344.827712E+06      -430.667053   344.828224E+06
             2591    57.472868E+06    57.472888E+06  -114.940424E+06   344.827168E+06      -101.786118   344.827424E+06
             2592      57.4545E+06    57.455876E+06   -114.95976E+06   344.831456E+06      -229.510361   344.828992E+06
             2593    57.471488E+06    57.472224E+06  -114.941368E+06   344.827488E+06      -43.8090706    344.82784E+06
             2594    57.469296E+06    57.468368E+06  -114.944784E+06      344.828E+06       560.742859   344.828448E+06
             2595    57.478336E+06    57.472024E+06  -114.940664E+06   344.828352E+06       232.975525   344.828256E+06
             2596    57.481816E+06     57.47886E+06   -114.93624E+06    344.83088E+06   1.86129163E+03   344.826912E+06
             2597    57.447312E+06    57.445888E+06  -114.968496E+06   344.831648E+06       480.214752   344.827936E+06
             2598    57.473384E+06    57.473388E+06   -114.94124E+06   344.827808E+06   1.44081274E+03   344.832096E+06
             2599    57.473028E+06     57.47228E+06  -114.942224E+06    344.82784E+06      -23.7702904      344.828E+06
             2600    57.490528E+06    57.490332E+06  -114.922688E+06   344.823808E+06   1.63979932E+03   344.825824E+06
             2601    57.468268E+06    57.469528E+06  -114.944952E+06   344.828064E+06      -242.948654   344.828128E+06
             2602    57.473092E+06    57.474316E+06   -114.93896E+06   344.825248E+06  -1.18735083E+03   344.826976E+06
             2603    57.471956E+06    57.472472E+06  -114.941008E+06    344.82576E+06      -49.8741760   344.828192E+06
             2604    57.474976E+06    57.476236E+06  -114.939352E+06   344.827456E+06      -217.213364   344.828288E+06
             2605      57.4717E+06    57.471344E+06   -114.94288E+06   344.828288E+06       64.0155411      344.828E+06
             2606    57.499192E+06    57.504108E+06  -114.913088E+06   344.819904E+06  -1.83131482E+03    344.82752E+06
             2607     57.46806E+06    57.470732E+06  -114.948472E+06   344.830688E+06      -873.802002   344.828288E+06
             2608    57.472784E+06      57.4719E+06  -114.941736E+06   344.828384E+06       180.641373   344.828096E+06
             2609    57.515472E+06    57.508536E+06  -114.902872E+06   344.821248E+06   2.62752100E+03   344.825184E+06
             2610     57.46378E+06     57.45776E+06  -114.955952E+06   344.834592E+06       247.316025   344.829664E+06
             2611    57.469432E+06    57.470072E+06  -114.944696E+06   344.828704E+06       142.124847   344.827968E+06
             2612    57.480908E+06     57.47908E+06  -114.934208E+06   344.828096E+06   2.22272021E+03   344.826944E+06
             2613    57.480256E+06    57.478172E+06  -114.935312E+06   344.826592E+06       641.937988   344.825056E+06
             2614    57.482152E+06     57.47916E+06  -114.930776E+06   344.828288E+06   2.27293799E+03   344.827936E+06
             2615    57.468856E+06    57.467524E+06  -114.946328E+06   344.829856E+06      -160.610352   344.827488E+06
             2616     57.48556E+06    57.490172E+06  -114.925416E+06   344.829984E+06   3.41912280E+03   344.827936E+06
             2617    57.488152E+06    57.486892E+06  -114.925352E+06   344.827296E+06      -15.3304625   344.822976E+06
             2618    57.477388E+06    57.473404E+06  -114.940504E+06   344.829856E+06      -68.7768631   344.827712E+06
             2619    57.470516E+06    57.471624E+06   -114.94276E+06   344.828416E+06       165.136139    344.82768E+06
             2620    57.472628E+06    57.472116E+06  -114.941952E+06    344.82784E+06       630.252197    344.82784E+06
             2621      57.4626E+06    57.454444E+06  -114.952512E+06   344.824864E+06   2.67009717E+03   344.829728E+06
             2622    57.472244E+06     57.47214E+06  -114.941984E+06   344.827808E+06      -256.217682   344.827904E+06
             2623    57.460868E+06    57.464368E+06  -114.949384E+06   344.828736E+06       662.322876   344.827744E+06
             2624    57.473104E+06    57.472392E+06  -114.941176E+06   344.827744E+06       568.424988    344.82784E+06
             2625    57.471772E+06    57.472984E+06  -114.941952E+06   344.828416E+06      -619.253723   344.827808E+06
             2626    57.464548E+06    57.464724E+06  -114.951576E+06   344.829696E+06      -626.628052   344.829088E+06
             2627      57.4899E+06    57.495172E+06  -114.927072E+06   344.831264E+06      -259.378357   344.824032E+06
             2628    57.513952E+06    57.509624E+06  -114.902136E+06   344.819072E+06       421.896240   344.824352E+06
             2629    57.463196E+06    57.463076E+06  -114.950616E+06     344.8296E+06       338.751556   344.829472E+06
             2630      57.4704E+06    57.470788E+06  -114.942712E+06   344.827616E+06       20.1735077   344.827456E+06
             2631    57.469948E+06    57.471592E+06  -114.943272E+06   344.827968E+06       237.452454   344.828224E+06
             2632     57.45614E+06    57.459468E+06  -114.954696E+06   344.829248E+06  -4.18001318E+03    344.82944E+06
             2633     57.45306E+06     57.45096E+06   -114.95892E+06   344.827296E+06      -762.211853   344.832128E+06
             2634    57.449484E+06    57.454372E+06  -114.960992E+06   344.835136E+06  -2.05601611E+03   344.832832E+06
             2635     57.46448E+06    57.468332E+06  -114.951776E+06   344.829824E+06      -304.214386   344.829664E+06
             2636    57.470768E+06    57.470776E+06    -114.9426E+06   344.827488E+06       425.896088   344.828032E+06
             2637    57.455324E+06    57.458496E+06  -114.953784E+06   344.827744E+06   1.27425208E+03   344.831392E+06
             2638    57.463616E+06    57.463772E+06  -114.948184E+06   344.828608E+06       579.552979    344.82992E+06
             2639    57.590076E+06    57.602892E+06  -114.813376E+06   344.818048E+06   5.69132568E+03     344.8056E+06
             2640    57.482696E+06    57.476152E+06  -114.932992E+06   344.827744E+06      -283.534668    344.82768E+06
             2641     57.47748E+06    57.480248E+06  -114.935208E+06   344.826944E+06       695.833862   344.827168E+06
             2642    57.473968E+06     57.47746E+06  -114.938744E+06   344.825984E+06       243.138138   344.827904E+06
             2643    57.497324E+06    57.474968E+06   -114.92304E+06   344.818304E+06  -1.81915381E+03   344.823264E+06
             2644    57.435444E+06    57.445396E+06  -114.969464E+06   344.828608E+06  -3.07251147E+03   344.828736E+06
             2645    57.563292E+06     57.54664E+06  -114.863976E+06   344.818112E+06  -5.09699170E+03   344.820352E+06
             2646    57.481216E+06    57.480112E+06  -114.934664E+06     344.8232E+06  -7.80235547E+03   344.825056E+06
             2647     57.41514E+06    57.427532E+06  -114.987928E+06   344.821216E+06  -5.02088379E+03    344.83088E+06
             2648    57.476104E+06    57.474076E+06  -114.939712E+06   344.827168E+06       183.778275    344.82768E+06
             2649    57.451048E+06    57.460712E+06  -114.955928E+06    344.82752E+06   1.86579749E+03    344.83008E+06
             2650      57.4216E+06     57.42546E+06  -114.989272E+06    344.83168E+06  -7.27277637E+03   344.834432E+06
             2651    57.433408E+06     57.42298E+06  -114.980192E+06   344.834304E+06   2.06865332E+03   344.829728E+06
             2652    57.469164E+06     57.46966E+06  -114.944512E+06    344.82768E+06      -396.621124   344.828384E+06
             2653    57.505848E+06    57.513548E+06  -114.909192E+06    344.82608E+06       142.431595   344.822176E+06
             2654     57.46596E+06     57.46688E+06   -114.94664E+06   344.826912E+06      -85.7677307   344.828512E+06
             2655    57.441532E+06    57.436388E+06  -114.971992E+06   344.834592E+06   2.00419336E+03   344.829184E+06
             2656     57.47646E+06    57.475508E+06  -114.937776E+06   344.828256E+06       898.128174   344.828384E+06
             2657      57.4738E+06      57.4742E+06  -114.940472E+06   344.828032E+06      -410.465668      344.828E+06
             2658    57.497056E+06     57.49714E+06  -114.921008E+06    344.82992E+06  -1.37667529E+03   344.824288E+06
             2659    57.461168E+06    57.462212E+06  -114.950912E+06   344.826656E+06      -142.842606   344.827808E+06
             2660    57.465932E+06    57.473812E+06  -114.943656E+06   344.827872E+06      -302.388855   344.827456E+06
             2661    57.469112E+06    57.471952E+06    -114.9456E+06   344.827008E+06      -553.150208    344.82768E+06
             2662    57.462216E+06    57.445604E+06  -114.958136E+06   344.826848E+06       959.609741    344.83312E+06
             2663    57.469692E+06    57.470204E+06  -114.944224E+06   344.824736E+06  -1.55427429E+03   344.829568E+06
             2664    57.470908E+06    57.471752E+06   -114.94228E+06   344.827872E+06       723.271912   344.827968E+06
             2665    57.453848E+06    57.454416E+06  -114.958728E+06   344.831424E+06  -1.15105457E+03    344.83248E+06
             2666    57.469804E+06    57.469852E+06  -114.945464E+06    344.82848E+06       228.649414   344.828032E+06
             2667     57.47856E+06     57.47556E+06   -114.93708E+06   344.831392E+06      -405.902405   344.826816E+06
             2668    57.501132E+06    57.512216E+06  -114.912832E+06   344.820704E+06  -1.08351294E+03   344.827904E+06
             2669    57.476588E+06    57.479284E+06   -114.93752E+06   344.825792E+06   1.74733350E+03   344.827616E+06
             2670    57.473012E+06    57.471856E+06  -114.942528E+06    344.82864E+06      -131.781128   344.827872E+06
             2671    57.468948E+06    57.470164E+06  -114.944704E+06   344.829056E+06       41.5833244    344.82832E+06
             2672    57.460692E+06    57.458748E+06   -114.95164E+06   344.829504E+06       315.149353    344.83008E+06
             2673    57.415504E+06    57.426324E+06   -114.98472E+06   344.829248E+06  -2.87817163E+03    344.83248E+06
             2674    57.470864E+06    57.472948E+06  -114.942032E+06   344.827552E+06       540.570374   344.828512E+06
             2675    57.483176E+06    57.479072E+06  -114.935352E+06   344.830656E+06       38.4044075   344.827008E+06
             2676    57.471972E+06    57.469416E+06  -114.942592E+06   344.828544E+06       474.556580   344.829376E+06
             2677    57.486536E+06    57.483496E+06   -114.93208E+06    344.83232E+06   2.05302563E+03   344.828352E+06
             2678    57.469736E+06    57.470952E+06   -114.94312E+06   344.827776E+06       419.590424   344.828128E+06
             2679    57.457792E+06    57.459372E+06  -114.955872E+06   344.833312E+06   4.50797510E+03    344.82912E+06
             2680    57.490952E+06    57.490284E+06  -114.924552E+06   344.822304E+06  -1.64968323E+03   344.826624E+06
             2681    57.472888E+06    57.473844E+06  -114.940648E+06    344.82688E+06       189.864426   344.828864E+06
             2682       57.488E+06    57.486424E+06  -114.925952E+06   344.824672E+06   3.41363501E+03   344.826272E+06
             2683    57.481348E+06    57.481196E+06   -114.93324E+06   344.825376E+06       481.712830   344.825888E+06
             2684    57.457416E+06    57.458768E+06    -114.9542E+06   344.829856E+06       931.719543   344.830048E+06
             2685    57.495816E+06    57.496552E+06  -114.916096E+06   344.821056E+06   3.82727124E+03   344.825952E+06
             2686    57.469288E+06    57.469884E+06  -114.943936E+06   344.827936E+06       29.1756058   344.828064E+06
             2687    57.470428E+06    57.471152E+06  -114.943248E+06   344.827616E+06      -126.510918   344.827968E+06
             2688    57.451868E+06    57.454992E+06  -114.958248E+06   344.828224E+06       286.675812   344.829408E+06
             2689    57.468028E+06     57.46714E+06  -114.944392E+06   344.826112E+06      -805.424500   344.828416E+06
             2690    57.423096E+06    57.437468E+06  -114.980624E+06      344.828E+06   1.90964270E+03   344.833024E+06
             2691     57.46998E+06    57.470564E+06  -114.943336E+06   344.827456E+06      -361.410400   344.827808E+06
             2692    57.467132E+06    57.468464E+06  -114.946504E+06   344.827584E+06  -3.87043188E+03   344.829376E+06
             2693     57.47238E+06    57.472472E+06  -114.940648E+06   344.827616E+06      -466.505127    344.82784E+06
             2694    57.508668E+06    57.503676E+06    -114.9084E+06   344.821984E+06       449.562134   344.825248E+06
             2695     57.47528E+06    57.473244E+06  -114.941568E+06   344.833312E+06   3.67823682E+03   344.828256E+06
             2696    57.525172E+06    57.516196E+06    -114.9018E+06    344.83488E+06   4.21873340E+03   344.823936E+06
             2697    57.470408E+06       57.469E+06  -114.944896E+06   344.827232E+06      -304.282501    344.82832E+06
             2698    57.471444E+06    57.471628E+06   -114.94196E+06   344.827776E+06      -639.679626   344.827808E+06
             2699    57.471988E+06    57.472084E+06   -114.94152E+06   344.827584E+06      -620.652527   344.827968E+06
             2700    57.469332E+06    57.470408E+06  -114.943944E+06   344.828032E+06      -115.129295   344.827744E+06
             2701    57.482804E+06    57.477984E+06  -114.935048E+06   344.825056E+06  -1.80383594E+03   344.830144E+06
             2702     57.47254E+06    57.471824E+06  -114.942088E+06   344.828416E+06       380.433075    344.82784E+06
             2703    57.470768E+06    57.470524E+06  -114.945936E+06    344.82944E+06   1.67882361E+03    344.82752E+06
             2704    57.459604E+06    57.460128E+06  -114.955448E+06   344.827872E+06      -67.8369904   344.831488E+06
             2705    57.476204E+06    57.472652E+06  -114.940808E+06   344.830272E+06       119.371849   344.827488E+06
             2706    57.450528E+06    57.458036E+06  -114.958624E+06   344.826848E+06  -1.78674695E+03   344.829696E+06
             2707    57.472288E+06    57.473172E+06  -114.943552E+06    344.82912E+06      -793.664063    344.82768E+06
             2708    57.448664E+06     57.44084E+06  -114.967008E+06   344.828864E+06       668.301514   344.828064E+06
             2709    57.472916E+06    57.469496E+06  -114.940664E+06   344.827456E+06  -1.50599670E+03   344.827328E+06
             2710    57.471272E+06    57.470744E+06  -114.944624E+06   344.829216E+06       501.525269   344.827904E+06
             2711    57.497828E+06    57.492396E+06  -114.919336E+06   344.825984E+06   2.46154419E+03   344.825152E+06
             2712    57.473168E+06     57.47348E+06  -114.938312E+06     344.8264E+06  -2.93535425E+03   344.826656E+06
             2713    57.483488E+06    57.480588E+06  -114.932224E+06   344.825856E+06  -1.62382678E+03     344.8272E+06
             2714    57.469704E+06    57.466584E+06  -114.948112E+06   344.827136E+06  -1.53954858E+03   344.829856E+06
             2715    57.467964E+06    57.467104E+06  -114.948128E+06   344.829344E+06       15.8852119   344.827584E+06
             2716    57.470888E+06    57.473392E+06  -114.940576E+06   344.824864E+06  -1.44301660E+03   344.828448E+06
             2717    57.509092E+06      57.5002E+06  -114.908248E+06   344.827072E+06   4.22035303E+03   344.822688E+06
             2718    57.452056E+06    57.449252E+06  -114.963168E+06   344.825344E+06   1.23439526E+03   344.829952E+06
             2719    57.445888E+06    57.450316E+06  -114.968264E+06   344.839136E+06   1.58335999E+03   344.827744E+06
             2720    57.469264E+06    57.475072E+06  -114.946632E+06   344.828352E+06       282.497131   344.829888E+06
             2721    57.470924E+06    57.478444E+06  -114.941504E+06   344.826592E+06       983.543213   344.829152E+06
             2722    57.481856E+06    57.489776E+06   -114.92796E+06   344.829248E+06       99.0185242   344.826112E+06
             2723    57.540044E+06    57.544856E+06   -114.87656E+06     344.8264E+06   1.29991687E+03   344.819968E+06
             2724      57.4771E+06    57.474048E+06  -114.937208E+06   344.827456E+06       714.097900   344.825568E+06
             2725    57.462444E+06    57.460796E+06  -114.952688E+06   344.831424E+06  -1.39397327E+03   344.829024E+06
             2726    57.460468E+06      57.4691E+06  -114.950224E+06   344.833856E+06       809.142944   344.826208E+06
             2727    57.473632E+06    57.474588E+06   -114.94096E+06   344.826688E+06       254.518936   344.829536E+06
             2728    57.445812E+06    57.438276E+06  -114.970168E+06   344.829088E+06       364.778259   344.829184E+06
             2729     57.44944E+06      57.4552E+06  -114.959952E+06   344.828832E+06   1.04641870E+03   344.829728E+06
             2730    57.429152E+06    57.421756E+06  -114.989808E+06    344.83824E+06   2.30415723E+03   344.836864E+06
             2731    57.468676E+06    57.469892E+06  -114.943232E+06   344.825184E+06      -841.183044   344.827648E+06
             2732    57.469288E+06    57.469052E+06  -114.944744E+06   344.827328E+06      -376.918732    344.82864E+06
             2733    57.471628E+06    57.470768E+06  -114.944112E+06   344.830688E+06      -124.691063   344.828224E+06
             2734    57.468628E+06    57.470796E+06  -114.943824E+06    344.82944E+06   3.41761548E+03   344.827968E+06
             2735    57.469276E+06     57.46866E+06  -114.945064E+06   344.829056E+06       497.743225   344.828896E+06
             2736    57.474208E+06    57.477568E+06  -114.937528E+06   344.829632E+06       205.438614   344.825312E+06
             2737    57.447592E+06    57.438432E+06   -114.96844E+06    344.83488E+06   1.65404285E+03   344.829056E+06
             2738    57.467444E+06    57.466948E+06  -114.945992E+06    344.82736E+06      -570.896301   344.827904E+06
             2739      57.4611E+06    57.453372E+06  -114.953504E+06   344.826752E+06       220.133255   344.827072E+06
             2740    57.524844E+06     57.51504E+06  -114.892168E+06   344.820096E+06   1.04631909E+03     344.8208E+06
             2741    57.514488E+06    57.501316E+06  -114.910304E+06    344.82448E+06  -9.06608496E+03   344.824704E+06
             2742    57.502524E+06     57.50384E+06    -114.9116E+06   344.825472E+06   4.01512427E+03    344.82592E+06
             2743    57.507976E+06    57.521764E+06  -114.901408E+06   344.825408E+06   2.61862720E+03    344.82224E+06
             2744    57.397476E+06    57.388732E+06  -115.012992E+06     344.8336E+06      -71.4685593   344.831232E+06
             2745     57.48732E+06    57.486216E+06   -114.92316E+06   344.825696E+06      -514.553955    344.82384E+06
             2746    57.434756E+06    57.427648E+06  -114.979032E+06   344.830272E+06       647.070862   344.829472E+06
             2747    57.465256E+06       57.462E+06  -114.949688E+06    344.82688E+06  -1.47922900E+03   344.828512E+06
             2748    57.470952E+06    57.470164E+06  -114.942848E+06     344.8264E+06      -279.690308    344.82816E+06
             2749    57.472032E+06    57.472196E+06  -114.942368E+06   344.828416E+06       182.474396    344.82848E+06
             2750    57.468956E+06      57.4734E+06  -114.942488E+06   344.827488E+06       332.354340   344.829632E+06
             2751    57.470592E+06    57.471472E+06  -114.943048E+06   344.828512E+06       665.133911   344.828736E+06
             2752     57.46788E+06     57.46688E+06   -114.94844E+06   344.828128E+06       362.013885   344.828928E+06
             2753    57.486404E+06    57.487588E+06  -114.924136E+06    344.82544E+06  -2.17519214E+03   344.821472E+06
             2754    57.469248E+06     57.47242E+06  -114.943912E+06    344.82928E+06       98.2186203   344.829888E+06
             2755    57.465256E+06    57.470392E+06  -114.946304E+06   344.825888E+06  -1.91133801E+03   344.828832E+06
             2756    57.471668E+06    57.471844E+06    -114.9416E+06   344.827904E+06       219.686218   344.827872E+06
             2757       57.475E+06    57.475008E+06  -114.939016E+06   344.828736E+06      -197.726334   344.827712E+06
             2758    57.470976E+06    57.470896E+06     -114.943E+06   344.828064E+06      -113.697426      344.828E+06
             2759    57.473736E+06     57.47398E+06  -114.941176E+06   344.829344E+06       84.7618484    344.82832E+06
             2760     57.46478E+06    57.466044E+06  -114.946432E+06   344.827552E+06   1.85732068E+03   344.828064E+06
             2761    57.475764E+06    57.466728E+06  -114.942104E+06   344.819392E+06  -1.58809143E+03   344.826944E+06
             2762    57.472844E+06    57.473536E+06    -114.9422E+06   344.829696E+06       276.899872   344.828128E+06
             2763    57.437928E+06     57.44986E+06  -114.964776E+06    344.82432E+06   3.84629565E+03   344.830272E+06
             2764    57.471772E+06    57.472456E+06  -114.941448E+06   344.827328E+06      -323.834717   344.827424E+06
             2765    57.407828E+06    57.413668E+06    -115.0062E+06   344.839072E+06  -1.45930945E+03   344.837344E+06
             2766    57.475264E+06    57.476956E+06  -114.938464E+06   344.828928E+06      -501.621033   344.828128E+06
             2767    57.455228E+06    57.459188E+06  -114.955096E+06   344.827712E+06   1.25709595E+03   344.829376E+06
             2768    57.475532E+06    57.476268E+06  -114.938808E+06   344.827904E+06      -34.9865723   344.828352E+06
             2769     57.47074E+06    57.472412E+06    -114.9404E+06   344.828832E+06       777.108948    344.82976E+06
             2770    57.471576E+06     57.47316E+06   -114.94128E+06    344.82864E+06   1.54720386E+03   344.828768E+06
             2771    57.454744E+06    57.459536E+06    -114.9548E+06   344.826752E+06  -1.84700159E+03   344.828448E+06
             2772     57.47106E+06    57.475092E+06  -114.938024E+06   344.825024E+06      -884.616760     344.8296E+06
             2773    57.480968E+06    57.483704E+06  -114.929832E+06   344.823072E+06   1.63407007E+03   344.826816E+06
             2774    57.467596E+06    57.467832E+06   -114.94564E+06   344.828832E+06       879.381958   344.827456E+06
             2775    57.461008E+06    57.465524E+06  -114.954296E+06   344.832448E+06      -533.036438   344.830464E+06
             2776    57.496408E+06    57.483932E+06  -114.925264E+06   344.825856E+06   5.65130518E+03   344.823488E+06
             2777    57.469084E+06    57.470224E+06   -114.94484E+06   344.827936E+06      -528.773926   344.827392E+06
             2778      57.4559E+06     57.46152E+06  -114.951536E+06   344.827456E+06      -61.9349709    344.83008E+06
             2779    57.461724E+06    57.465872E+06   -114.94888E+06   344.826784E+06  -1.77467346E+03    344.82832E+06
             2780     57.47438E+06    57.479876E+06  -114.940936E+06   344.829184E+06   1.09579517E+03   344.829184E+06
             2781    57.464248E+06    57.464596E+06  -114.950392E+06   344.829088E+06   1.71613721E+03   344.830656E+06
             2782    57.445324E+06    57.442912E+06  -114.969408E+06   344.829408E+06   2.30407739E+03   344.831616E+06
             2783    57.476716E+06    57.477408E+06   -114.93748E+06   344.829472E+06      -552.774414   344.827712E+06
             2784    57.473112E+06    57.473636E+06  -114.939136E+06   344.827584E+06      -98.1050568    344.82768E+06
             2785    57.469612E+06    57.466932E+06  -114.944184E+06   344.830784E+06       90.6076508   344.828288E+06
             2786    57.473016E+06    57.472516E+06  -114.940896E+06   344.828512E+06   4.85589014E+03   344.828544E+06
             2787    57.473832E+06    57.474824E+06  -114.941344E+06     344.8312E+06   1.22890820E+03   344.827232E+06
             2788      57.5035E+06    57.503732E+06  -114.910784E+06   344.818176E+06       168.632446   344.827552E+06
             2789    57.472376E+06     57.47246E+06  -114.941872E+06   344.827872E+06       2.95736289   344.828032E+06
             2790    57.467256E+06    57.463796E+06  -114.948432E+06   344.830112E+06   1.59980066E+03    344.82784E+06
             2791    57.451304E+06    57.447876E+06  -114.964192E+06   344.831968E+06      -602.425293   344.826816E+06
             2792    57.470396E+06    57.470572E+06  -114.943376E+06   344.827872E+06      -109.423119   344.828064E+06
             2793    57.480624E+06    57.470576E+06  -114.933224E+06    344.82112E+06       75.2022934   344.823104E+06
             2794     57.47166E+06    57.470724E+06  -114.943592E+06   344.828128E+06       283.691254   344.828096E+06
             2795     57.45478E+06    57.460172E+06  -114.953824E+06   344.824672E+06       346.162750   344.829472E+06
             2796    57.468284E+06    57.467072E+06  -114.947264E+06   344.827776E+06       134.099319    344.82768E+06
             2797    57.489564E+06    57.489196E+06  -114.926616E+06    344.83136E+06   2.52706079E+03   344.829664E+06
             2798    57.479272E+06    57.481928E+06  -114.933072E+06   344.826368E+06      -103.095512   344.827872E+06
             2799    57.470828E+06    57.470808E+06  -114.943336E+06   344.828384E+06       171.011765   344.828288E+06
             2800    57.377108E+06      57.3977E+06    -115.0234E+06   344.838528E+06  -2.39584009E+03   344.835744E+06
             2801    57.466272E+06    57.467472E+06  -114.946416E+06   344.827616E+06      -849.944641   344.827808E+06
             2802    57.472168E+06    57.474224E+06  -114.936752E+06    344.82736E+06       886.078003   344.826912E+06
             2803     57.45676E+06     57.46192E+06  -114.954976E+06    344.83152E+06  -1.47849634E+03   344.829344E+06
             2804    57.472948E+06     57.47326E+06  -114.941152E+06    344.82624E+06      -891.053833   344.825984E+06
             2805    57.488692E+06    57.483368E+06  -114.929424E+06   344.828384E+06       100.138054    344.82768E+06
             2806    57.512456E+06    57.531776E+06    -114.8932E+06   344.815936E+06  -1.41115283E+03   344.823168E+06
             2807    57.468924E+06     57.46794E+06  -114.945088E+06    344.82544E+06  -3.31053564E+03   344.827872E+06
             2808    57.467576E+06    57.468312E+06   -114.94724E+06   344.828736E+06      -934.528992   344.828384E+06
             2809     57.45792E+06    57.462044E+06  -114.954216E+06   344.828768E+06      -38.2953873   344.828736E+06
             2810     57.47182E+06     57.47188E+06  -114.942864E+06   344.831136E+06   3.88280933E+03    344.82832E+06
             2811     57.35838E+06    57.375132E+06  -115.040552E+06   344.839776E+06   2.40425195E+03   344.832128E+06
             2812     57.40794E+06    57.401304E+06  -115.006144E+06   344.838464E+06      -433.160461   344.833792E+06
             2813    57.508176E+06    57.514892E+06  -114.906024E+06   344.822592E+06       113.098747   344.824064E+06
             2814    57.472444E+06    57.472384E+06  -114.941656E+06   344.828416E+06       264.748016    344.82784E+06
             2815    57.476816E+06    57.471128E+06  -114.939896E+06   344.825856E+06  -1.28200122E+03   344.827232E+06
             2816    57.450644E+06    57.449784E+06  -114.963192E+06   344.831136E+06  -2.79233960E+03   344.829312E+06
             2817     57.46566E+06    57.464136E+06   -114.94724E+06   344.827232E+06   1.92617822E+03   344.827808E+06
             2818     57.57904E+06    57.602992E+06  -114.830448E+06   344.819584E+06      -858.128845    344.81936E+06
             2819    57.473932E+06    57.474748E+06  -114.940408E+06   344.828288E+06      -58.2552948   344.828512E+06
             2820    57.460036E+06    57.460636E+06  -114.951976E+06   344.829728E+06   3.18306201E+03   344.825824E+06
             2821    57.507756E+06    57.520668E+06  -114.903824E+06   344.823712E+06  -1.05541553E+03    344.83072E+06
             2822    57.493096E+06    57.499484E+06  -114.917016E+06   344.825888E+06   1.08001428E+03   344.831488E+06
             2823    57.493988E+06     57.48978E+06  -114.924904E+06   344.829952E+06   1.07691187E+03   344.826496E+06
             2824    57.461296E+06    57.459588E+06    -114.9548E+06   344.829728E+06   2.02485840E+03    344.83152E+06
             2825    57.469912E+06    57.475368E+06  -114.938624E+06   344.827712E+06   2.45021167E+03    344.82704E+06
             2826     57.45356E+06     57.45268E+06  -114.961728E+06   344.834048E+06   2.26249414E+03   344.830016E+06
             2827    57.475884E+06    57.469976E+06  -114.940776E+06    344.82944E+06       166.012939   344.827168E+06
             2828    57.470684E+06    57.470344E+06  -114.943472E+06   344.828448E+06       73.1299057    344.82784E+06
             2829    57.475472E+06    57.473724E+06  -114.939328E+06    344.82832E+06       666.632935   344.826944E+06
             2830    57.487872E+06     57.47416E+06  -114.928536E+06   344.823904E+06   3.96804419E+03   344.824032E+06
             2831    57.474972E+06     57.47528E+06   -114.93832E+06   344.825056E+06  -3.38415186E+03   344.830272E+06
             2832    57.459756E+06    57.465892E+06  -114.949912E+06   344.828032E+06  -2.02731421E+03   344.830304E+06
             2833    57.456016E+06    57.455404E+06  -114.958056E+06   344.829664E+06   1.00658569E+03   344.828416E+06
             2834    57.443904E+06    57.442676E+06  -114.971808E+06     344.8304E+06  -4.12287451E+03     344.8344E+06
             2835     57.47558E+06      57.4746E+06  -114.939312E+06   344.828512E+06   1.68615369E+03   344.827872E+06
             2836    57.477332E+06    57.482508E+06   -114.93568E+06   344.827968E+06      -114.185982    344.82672E+06
             2837    57.463544E+06    57.459388E+06  -114.952432E+06   344.832576E+06   1.19031616E+03   344.828608E+06
             2838    57.468344E+06    57.468388E+06  -114.945848E+06    344.82928E+06       581.572937   344.828704E+06
             2839    57.483108E+06    57.480648E+06    -114.9298E+06    344.82128E+06      -705.143127   344.825696E+06
             2840    57.471656E+06    57.471484E+06  -114.942792E+06    344.82832E+06       136.660385   344.828416E+06
             2841    57.461072E+06    57.450508E+06  -114.956336E+06   344.822592E+06       25.4273739   344.824064E+06
             2842    57.463364E+06    57.463248E+06  -114.950496E+06   344.829184E+06   2.59762988E+03   344.829568E+06
             2843    57.488616E+06    57.482492E+06  -114.928376E+06    344.82816E+06         -314.375   344.826048E+06
             2844    57.482628E+06    57.479904E+06  -114.933136E+06   344.828288E+06   3.04773779E+03   344.827328E+06
             2845    57.472848E+06    57.470492E+06   -114.94192E+06   344.824928E+06      -494.031555   344.827424E+06
             2846    57.478656E+06    57.480888E+06   -114.93504E+06   344.827712E+06      -325.560211   344.827744E+06
             2847    57.464724E+06    57.464032E+06   -114.94916E+06   344.828416E+06       653.360596    344.82864E+06
             2848    57.472952E+06      57.4727E+06   -114.94128E+06   344.828096E+06       131.461075    344.82784E+06
             2849    57.473152E+06    57.473336E+06  -114.940984E+06   344.828128E+06      -124.760025    344.82784E+06
             2850     57.47288E+06    57.472972E+06    -114.9412E+06   344.827808E+06      -105.240334   344.827488E+06
             2851    57.469876E+06    57.470272E+06  -114.944368E+06   344.828288E+06       270.218323   344.828224E+06
             2852    57.466596E+06     57.46588E+06  -114.947936E+06   344.828512E+06      -354.747040   344.828096E+06
             2853    57.490144E+06    57.492656E+06  -114.922976E+06   344.821888E+06      -147.874023   344.829376E+06
             2854    57.501696E+06     57.50416E+06  -114.910424E+06   344.825216E+06      -300.889984   344.822528E+06
             2855      57.4515E+06     57.45518E+06  -114.960552E+06   344.827264E+06      -156.161987     344.8288E+06
             2856    57.481576E+06    57.479532E+06  -114.934192E+06   344.828192E+06      -812.733643   344.826496E+06
             2857     57.46852E+06    57.468852E+06   -114.94548E+06   344.828928E+06       557.427368   344.828352E+06
             2858    57.468712E+06    57.469132E+06  -114.945088E+06   344.828704E+06       500.616119   344.828672E+06
             2859    57.502948E+06    57.513404E+06  -114.910872E+06   344.828896E+06       365.242828   344.827424E+06
             2860    57.449476E+06    57.457884E+06  -114.957392E+06   344.828064E+06       992.011719   344.828256E+06
             2861      57.4725E+06    57.473288E+06  -114.939336E+06   344.827392E+06       229.001678   344.827488E+06
             2862    57.435188E+06    57.440556E+06   -114.97596E+06   344.832352E+06      -157.648056   344.831936E+06
             2863     57.46816E+06    57.466308E+06  -114.944992E+06   344.828864E+06       946.198242    344.82864E+06
             2864     57.47628E+06    57.477948E+06  -114.936152E+06    344.82832E+06      -108.256523   344.827168E+06
             2865     57.50042E+06    57.506972E+06  -114.911432E+06   344.823808E+06      -889.943115   344.825728E+06
             2866     57.46608E+06    57.471628E+06   -114.94468E+06   344.828224E+06      -469.937103   344.828576E+06
             2867    57.483792E+06    57.484916E+06  -114.928912E+06   344.822176E+06  -2.08434985E+03    344.82624E+06
             2868    57.472476E+06    57.472624E+06  -114.941232E+06    344.82784E+06      -161.102661   344.827648E+06
             2869     57.44062E+06    57.430168E+06  -114.972272E+06    344.82256E+06       646.742493   344.834048E+06
             2870    57.467136E+06    57.471416E+06  -114.948432E+06   344.832352E+06      -760.660461   344.827168E+06
             2871    57.475092E+06    57.476768E+06  -114.938848E+06   344.827872E+06      -239.418808   344.827264E+06
             2872    57.472684E+06    57.474408E+06  -114.940312E+06   344.828384E+06       207.391968   344.828448E+06
             2873    57.538512E+06    57.555392E+06  -114.875936E+06   344.827488E+06       268.778381   344.820256E+06
             2874    57.471188E+06    57.470608E+06  -114.943816E+06      344.828E+06      -114.120377   344.827968E+06
             2875    57.471508E+06      57.4711E+06  -114.942912E+06   344.828128E+06       148.959656      344.828E+06
             2876    57.465432E+06    57.469092E+06  -114.946336E+06    344.82864E+06  -1.35176257E+03   344.830496E+06
             2877    57.475848E+06     57.47626E+06  -114.940912E+06   344.826944E+06  -1.51894006E+03   344.825856E+06
             2878     57.47826E+06     57.48742E+06     -114.934E+06   344.832384E+06   2.31619263E+03   344.828672E+06
             2879    57.450928E+06    57.447164E+06  -114.966696E+06     344.8264E+06  -1.52065027E+03   344.832832E+06
             2880    57.463056E+06    57.463428E+06  -114.952088E+06     344.8304E+06      -338.321838   344.827008E+06
             2881    57.471652E+06    57.471728E+06  -114.942672E+06   344.828096E+06       25.3298473   344.828064E+06
             2882    57.476048E+06    57.475552E+06  -114.939384E+06   344.832864E+06   4.57319629E+03   344.825984E+06
             2883    57.468728E+06    57.469844E+06   -114.94616E+06   344.828768E+06      -231.523621   344.828384E+06
             2884    57.460768E+06    57.462316E+06  -114.952088E+06    344.83184E+06   3.23590015E+03   344.828512E+06
             2885    57.469936E+06    57.470444E+06  -114.944176E+06   344.829728E+06   4.12484521E+03   344.827712E+06
             2886    57.471296E+06     57.46852E+06  -114.943352E+06   344.828544E+06      -687.881958   344.826848E+06
             2887    57.469476E+06    57.467648E+06  -114.946632E+06    344.82752E+06      -691.275635      344.828E+06
             2888    57.472224E+06    57.471144E+06  -114.942272E+06   344.828192E+06       62.2189255   344.827872E+06
             2889    57.466424E+06     57.47044E+06  -114.944408E+06   344.828992E+06      -603.099670   344.827968E+06
             2890    57.469228E+06    57.468112E+06  -114.944888E+06    344.82784E+06      -169.319870    344.82816E+06
             2891    57.473348E+06    57.477924E+06   -114.93768E+06   344.826592E+06       503.540405   344.826784E+06
             2892    57.466396E+06    57.465748E+06    -114.9476E+06   344.826336E+06      -486.268707    344.82736E+06
             2893    57.471008E+06    57.469892E+06  -114.942632E+06   344.826304E+06      -887.695801   344.827872E+06
             2894    57.445584E+06    57.447992E+06  -114.969832E+06   344.833792E+06       508.784760   344.830016E+06
             2895    57.466644E+06    57.463012E+06  -114.949952E+06    344.82976E+06      -570.561218   344.828672E+06
             2896    57.461172E+06     57.46616E+06  -114.946088E+06   344.827584E+06   1.18982336E+03   344.829056E+06
             2897    57.474348E+06    57.472504E+06  -114.938768E+06   344.825824E+06  -1.17409851E+03   344.829984E+06
             2898    57.468236E+06    57.470492E+06  -114.944176E+06   344.826688E+06       181.105331   344.827104E+06
             2899    57.473716E+06    57.468644E+06  -114.945456E+06   344.827488E+06  -2.89555884E+03   344.830144E+06
             2900    57.472196E+06    57.469096E+06  -114.943256E+06    344.82848E+06  -1.27478235E+03    344.82768E+06
             2901    57.477332E+06    57.475444E+06  -114.937256E+06   344.827584E+06   5.31501221E+03    344.82816E+06
             2902     57.46146E+06     57.46806E+06  -114.948272E+06   344.828224E+06      -761.362549   344.827456E+06
             2903    57.466396E+06    57.462984E+06  -114.950136E+06   344.832512E+06      -123.826027   344.825856E+06
             2904    57.473788E+06    57.470836E+06  -114.938488E+06   344.824896E+06      -995.317871   344.830336E+06
             2905    57.502176E+06     57.50224E+06  -114.913496E+06   344.821408E+06       563.097839     344.8264E+06
             2906    57.469968E+06    57.469616E+06  -114.945744E+06   344.828896E+06      -253.387909   344.827744E+06
             2907    57.463008E+06     57.45642E+06  -114.953176E+06   344.828288E+06      -19.5183907    344.82656E+06
             2908    57.472036E+06     57.47582E+06  -114.939704E+06   344.828128E+06       662.279785   344.827616E+06
             2909    57.467076E+06    57.471572E+06  -114.945792E+06   344.827488E+06       625.732666    344.83376E+06
             2910     57.47008E+06     57.46708E+06  -114.945944E+06   344.828608E+06       47.1349449   344.827616E+06
             2911    57.470468E+06    57.477884E+06  -114.934832E+06   344.821664E+06   5.51550586E+03   344.827648E+06
             2912    57.441484E+06     57.43176E+06  -114.974584E+06   344.835776E+06   1.32345520E+03   344.829824E+06
             2913    57.426304E+06    57.417912E+06  -114.987656E+06   344.834496E+06   2.17240576E+03   344.832576E+06
             2914    57.420656E+06    57.432652E+06  -114.985176E+06   344.830688E+06   3.28397192E+03   344.831616E+06
             2915    57.474168E+06    57.474748E+06    -114.9398E+06   344.828032E+06       158.175537   344.827008E+06
             2916    57.462496E+06    57.467028E+06  -114.949912E+06   344.828768E+06      -200.444107   344.828896E+06
             2917    57.477008E+06    57.476888E+06  -114.937712E+06   344.832256E+06      -32.5680351   344.826176E+06
             2918    57.466036E+06      57.4644E+06  -114.947392E+06   344.829344E+06      -599.204346   344.827296E+06
             2919    57.456092E+06    57.460884E+06  -114.950544E+06   344.826496E+06      -785.203247   344.829984E+06
             2920     57.48576E+06    57.479824E+06  -114.933552E+06   344.829152E+06   1.42728479E+03   344.826848E+06
             2921    57.489324E+06    57.486148E+06  -114.925728E+06   344.824544E+06   2.02876196E+03   344.825984E+06
             2922    57.522616E+06    57.518932E+06  -114.897936E+06   344.822944E+06  -1.63407507E+03   344.819712E+06
             2923    57.516244E+06     57.49746E+06  -114.908216E+06   344.824352E+06  -7.50513037E+03   344.818528E+06
             2924      57.4719E+06     57.47206E+06  -114.940344E+06   344.824704E+06  -2.22978955E+03   344.828224E+06
             2925    57.475224E+06    57.474056E+06  -114.937864E+06   344.828352E+06       645.716614    344.82848E+06
             2926     57.47362E+06    57.472784E+06  -114.941048E+06   344.827648E+06       110.494469    344.82672E+06
             2927      57.4701E+06    57.469972E+06  -114.943824E+06   344.827552E+06      -51.3597221   344.826912E+06
             2928    57.513672E+06    57.522104E+06  -114.902504E+06   344.821088E+06      -226.776108   344.827296E+06
             2929     57.46876E+06     57.46722E+06  -114.945176E+06   344.827808E+06   1.32320642E+03   344.830368E+06
             2930    57.462536E+06     57.46214E+06  -114.951056E+06   344.825024E+06  -1.49212903E+03   344.830784E+06
             2931    57.444624E+06      57.4504E+06  -114.966872E+06    344.82112E+06   1.45931116E+03   344.832576E+06
             2932     57.47394E+06     57.48076E+06  -114.934984E+06   344.825888E+06       418.895142   344.831744E+06
             2933    57.470824E+06    57.470024E+06   -114.94448E+06   344.828032E+06      -300.031799   344.828224E+06
             2934    57.501784E+06    57.491496E+06  -114.922296E+06   344.832128E+06      -160.208221   344.825792E+06
             2935    57.474448E+06     57.47424E+06   -114.93976E+06   344.827584E+06       318.265320   344.827616E+06
             2936    57.474392E+06    57.472628E+06  -114.937616E+06   344.824544E+06       656.784180   344.826208E+06
             2937    57.471948E+06     57.47236E+06  -114.941112E+06   344.827904E+06       307.254852   344.827776E+06
             2938    57.426808E+06     57.43048E+06  -114.982208E+06    344.83648E+06   2.16305884E+03   344.830464E+06
             2939    57.507244E+06    57.512864E+06  -114.904736E+06   344.821248E+06       55.1628494   344.822048E+06
             2940    57.440264E+06     57.43218E+06   -114.97316E+06   344.825216E+06       259.723450   344.830752E+06
             2941    57.495356E+06     57.49814E+06  -114.919432E+06   344.826784E+06   1.50034558E+03   344.826528E+06
             2942    57.475752E+06    57.476884E+06  -114.938264E+06   344.828128E+06       201.031677   344.826752E+06
             2943    57.470124E+06    57.470012E+06  -114.943912E+06   344.828416E+06      -89.2423782   344.828128E+06
             2944    57.472936E+06     57.47274E+06  -114.940824E+06   344.827168E+06      -243.878647   344.828256E+06
             2945    57.480184E+06    57.478444E+06  -114.931792E+06     344.8256E+06   1.51529675E+03    344.82832E+06
             2946    57.445716E+06    57.448824E+06  -114.965208E+06   344.833824E+06       314.023102   344.830048E+06
             2947    57.470584E+06    57.466308E+06    -114.9488E+06   344.830592E+06       179.401489    344.82784E+06
             2948    57.485792E+06     57.47928E+06  -114.935456E+06   344.827712E+06      -287.831970    344.82592E+06
             2949    57.501444E+06    57.495304E+06  -114.917376E+06   344.821728E+06  -3.22735986E+03   344.826656E+06
             2950    57.461352E+06    57.461868E+06  -114.949616E+06   344.825632E+06  -3.09784839E+03    344.82752E+06
             2951    57.469788E+06    57.469848E+06  -114.944352E+06    344.82816E+06       60.7194443   344.828608E+06
             2952     57.47478E+06    57.471272E+06  -114.942776E+06   344.829312E+06      -448.538696   344.827488E+06
             2953    57.465448E+06    57.463796E+06  -114.952008E+06    344.82864E+06      -215.410461   344.827328E+06
             2954    57.464548E+06    57.461304E+06  -114.951368E+06   344.828608E+06  -1.78228894E+03   344.828192E+06
             2955     57.48574E+06    57.479148E+06  -114.933272E+06   344.826496E+06      -893.118591   344.825728E+06
             2956    57.468164E+06    57.471804E+06   -114.94404E+06   344.827328E+06      -941.424072   344.828096E+06
             2957    57.470844E+06    57.470256E+06  -114.943432E+06   344.827904E+06       74.1871948   344.827456E+06
             2958    57.470808E+06    57.476112E+06   -114.93984E+06   344.826944E+06       491.651611   344.828384E+06
             2959    57.473256E+06    57.473188E+06  -114.941928E+06    344.82768E+06      -429.412048   344.827936E+06
             2960    57.480392E+06     57.48002E+06  -114.933184E+06   344.823168E+06      -483.725555   344.827616E+06
             2961    57.473072E+06      57.4736E+06   -114.93888E+06    344.82688E+06       218.641983   344.827968E+06
             2962    57.505696E+06      57.4969E+06  -114.914392E+06   344.823648E+06      -201.612183   344.825792E+06
             2963    57.477536E+06    57.475684E+06  -114.936216E+06   344.826784E+06       412.570435   344.826528E+06
             2964     57.44916E+06    57.447784E+06   -114.96564E+06    344.83088E+06  -1.29886658E+03   344.830272E+06
             2965     57.45416E+06    57.455752E+06  -114.954112E+06   344.827072E+06  -1.65732800E+03   344.825408E+06
             2966     57.47026E+06    57.469724E+06  -114.944144E+06   344.828096E+06      -245.220184   344.827776E+06
             2967    57.473144E+06    57.472676E+06  -114.941128E+06    344.82736E+06      -394.722656   344.827776E+06
             2968     57.48334E+06    57.479788E+06  -114.930056E+06    344.82544E+06      -467.176880   344.823648E+06
             2969     57.47176E+06    57.469624E+06  -114.943408E+06     344.8272E+06       126.846085   344.828128E+06
             2970    57.460964E+06    57.454064E+06  -114.958856E+06   344.834528E+06       408.107147   344.827584E+06
             2971    57.468656E+06     57.46362E+06  -114.947952E+06   344.829248E+06   1.07134485E+03    344.82832E+06
             2972    57.472112E+06    57.473484E+06  -114.940872E+06   344.827968E+06       27.5191765   344.828064E+06
             2973    57.479212E+06    57.477304E+06  -114.935672E+06   344.827904E+06       39.1285095   344.827392E+06
             2974    57.475676E+06    57.475528E+06  -114.941512E+06   344.829152E+06       524.239746   344.827872E+06
             2975    57.457128E+06    57.446064E+06  -114.958944E+06   344.825984E+06       727.316833     344.8264E+06
             2976    57.471508E+06     57.47212E+06  -114.941792E+06   344.827808E+06      -528.960632   344.827872E+06
             2977     57.44548E+06    57.449348E+06  -114.965288E+06     344.8312E+06       347.018311   344.829056E+06
             2978    57.478912E+06     57.48214E+06  -114.932824E+06   344.825824E+06      -525.524109   344.827136E+06
             2979    57.479308E+06    57.476748E+06  -114.935368E+06   344.825152E+06   1.95965552E+03   344.827776E+06
             2980    57.470004E+06    57.469932E+06   -114.94424E+06   344.828096E+06      -36.3517876   344.828576E+06
             2981    57.470708E+06     57.47108E+06   -114.94148E+06   344.828832E+06      -103.117409   344.828928E+06
             2982    57.401136E+06    57.409012E+06  -115.003536E+06    344.84016E+06   4.99984668E+03   344.831936E+06
             2983    57.473748E+06     57.47274E+06  -114.941936E+06   344.828224E+06      -63.2532692   344.827488E+06
             2984     57.47202E+06    57.479724E+06  -114.938472E+06   344.828128E+06      -999.626892   344.830432E+06
             2985    57.470724E+06    57.470776E+06  -114.943456E+06   344.828384E+06       255.180618   344.827904E+06
             2986     57.47078E+06    57.466556E+06   -114.94668E+06   344.830848E+06       115.702019   344.827264E+06
             2987    57.452336E+06     57.45764E+06  -114.960856E+06    344.83184E+06  -1.33237988E+03    344.83024E+06
             2988      57.4524E+06    57.457288E+06  -114.960296E+06   344.832832E+06  -2.01447900E+03   344.830496E+06
             2989     57.47266E+06    57.472148E+06  -114.942928E+06     344.8272E+06      -28.6668873   344.826816E+06
             2990     57.47472E+06    57.469792E+06  -114.942328E+06   344.828576E+06       205.411606   344.827264E+06
             2991    57.501336E+06    57.503268E+06  -114.913312E+06   344.822112E+06  -3.71257861E+03    344.82752E+06
             2992    57.493592E+06    57.491804E+06  -114.921088E+06   344.821888E+06  -2.55182544E+03   344.826272E+06
             2993    57.486992E+06    57.483352E+06  -114.928576E+06   344.825312E+06   1.05601428E+03   344.825568E+06
             2994    57.489308E+06    57.484044E+06  -114.929128E+06   344.830272E+06   2.64897266E+03   344.826848E+06
             2995    57.427832E+06    57.435384E+06  -114.981632E+06   344.835072E+06      -969.430725   344.831616E+06
             2996    57.481232E+06    57.482276E+06  -114.932152E+06   344.828096E+06       211.349228   344.827264E+06
             2997    57.475596E+06    57.474184E+06  -114.939872E+06   344.827872E+06       253.608978   344.827552E+06
             2998     57.47304E+06    57.473012E+06  -114.941456E+06   344.827392E+06      -957.582764    344.82848E+06
             2999    57.463964E+06    57.463944E+06  -114.950048E+06   344.831392E+06   1.14941333E+03   344.828512E+06
             3000    57.460152E+06    57.462656E+06  -114.953568E+06   344.831232E+06   1.29318921E+03   344.828352E+06
             3001    57.470244E+06    57.470524E+06  -114.942672E+06    344.82848E+06      -54.5592575   344.829024E+06
             3002    57.471772E+06     57.47074E+06  -114.942512E+06   344.828032E+06       148.336594    344.82848E+06
             3003    57.472272E+06    57.472248E+06  -114.941568E+06      344.828E+06       60.3765411      344.828E+06
             3004    57.490468E+06    57.483432E+06  -114.928552E+06   344.828544E+06      -597.949036   344.827072E+06
             3005    57.472804E+06    57.473452E+06  -114.941232E+06    344.82784E+06      -136.515656   344.827584E+06
             3006    57.471632E+06    57.471972E+06  -114.942528E+06   344.827936E+06      -33.1695557   344.827872E+06
             3007    57.485628E+06    57.493832E+06  -114.923128E+06   344.821856E+06  -1.29476965E+03   344.825888E+06
             3008      57.5414E+06    57.533448E+06  -114.878016E+06   344.817184E+06      -697.366455   344.822528E+06
             3009    57.470552E+06    57.471048E+06  -114.943528E+06   344.827936E+06       66.8331375   344.828032E+06
             3010    57.471352E+06    57.471048E+06  -114.940776E+06   344.827712E+06      -469.659058    344.82832E+06
             3011    57.458996E+06    57.467732E+06  -114.946832E+06   344.825952E+06  -1.06555859E+03   344.831264E+06
             3012     57.47096E+06    57.471084E+06  -114.943112E+06   344.827872E+06      -98.8511887    344.82816E+06
             3013     57.45952E+06    57.465872E+06  -114.953688E+06   344.829472E+06   3.44055835E+03    344.83264E+06
             3014    57.477172E+06    57.477068E+06  -114.938512E+06   344.826912E+06      -310.610992    344.82784E+06
             3015    57.471732E+06    57.472384E+06  -114.941696E+06   344.828096E+06      -91.6755066      344.828E+06
             3016    57.474124E+06    57.475188E+06  -114.939928E+06   344.828512E+06       320.103302   344.827296E+06
             3017    57.470244E+06    57.470496E+06  -114.942112E+06   344.828416E+06       101.993889   344.828128E+06
             3018     57.47342E+06    57.472844E+06   -114.94092E+06   344.827776E+06       157.188202   344.827712E+06
             3019    57.480468E+06    57.476812E+06  -114.936608E+06   344.828736E+06      -864.355835   344.827584E+06
             3020    57.470936E+06    57.471388E+06  -114.942808E+06    344.82816E+06       15.7785177   344.828224E+06
             3021    57.460724E+06    57.462464E+06  -114.950872E+06   344.829664E+06      -601.847290   344.829056E+06
             3022    57.482916E+06     57.49366E+06   -114.93144E+06   344.835456E+06   1.09577820E+03     344.8304E+06
             3023    57.459964E+06       57.461E+06    -114.9514E+06   344.828864E+06      -951.079041   344.828192E+06
             3024    57.467908E+06    57.466184E+06  -114.947392E+06   344.827936E+06      -723.430725    344.82784E+06
             3025    57.471044E+06    57.470472E+06  -114.941216E+06   344.829344E+06       16.0815678     344.8248E+06
             3026    57.464564E+06    57.464048E+06  -114.946712E+06    344.82784E+06       160.984299   344.826048E+06
             3027    57.465508E+06    57.473568E+06  -114.945944E+06    344.82608E+06   1.61084668E+03   344.834272E+06
             3028    57.440252E+06    57.439596E+06   -114.97048E+06   344.828352E+06   1.04361169E+03   344.829664E+06
             3029    57.471516E+06     57.47418E+06    -114.9406E+06   344.828064E+06  -1.49352881E+03   344.825056E+06
             3030    57.470484E+06    57.471288E+06  -114.942888E+06    344.82768E+06       225.063309   344.828192E+06
             3031     57.48354E+06    57.481588E+06  -114.931232E+06   344.827936E+06   4.73154834E+03     344.8272E+06
             3032     57.46864E+06    57.464164E+06  -114.944944E+06   344.824512E+06       472.171906   344.827424E+06
             3033    57.470772E+06    57.473168E+06   -114.94176E+06   344.828256E+06      -9.07819176   344.828416E+06
             3034    57.446212E+06    57.454872E+06   -114.96068E+06   344.827424E+06   1.40298657E+03   344.829728E+06
             3035    57.464304E+06     57.46566E+06  -114.946776E+06   344.826784E+06      -656.443176   344.827904E+06
             3036     57.46374E+06     57.46938E+06  -114.944032E+06    344.82624E+06       7.55711842   344.828704E+06
             3037    57.472676E+06    57.470724E+06  -114.942896E+06   344.828288E+06  -1.09058643E+03   344.826336E+06
             3038     57.47236E+06     57.47228E+06  -114.941192E+06      344.828E+06      -165.852509   344.827904E+06
             3039    57.478108E+06    57.478028E+06  -114.935784E+06   344.826592E+06      -75.8171616   344.827904E+06
             3040    57.476312E+06    57.471948E+06  -114.941592E+06   344.839968E+06  -4.67724854E+03    344.82112E+06
             3041    57.479484E+06    57.479272E+06  -114.933024E+06   344.826464E+06       279.230621     344.8264E+06
             3042     57.47068E+06    57.472748E+06  -114.944568E+06     344.8296E+06       176.123993   344.828416E+06
             3043     57.48154E+06    57.476196E+06  -114.934896E+06   344.825728E+06   1.67466089E+03   344.827488E+06
             3044    57.464532E+06    57.461604E+06  -114.948992E+06   344.828704E+06   1.75583691E+03    344.83024E+06
             3045    57.464008E+06    57.460692E+06  -114.950768E+06   344.827648E+06       478.986176   344.829664E+06
             3046    57.471204E+06    57.470812E+06  -114.942504E+06    344.82752E+06  -2.10937231E+03   344.829536E+06
             3047    57.475108E+06    57.475024E+06  -114.938976E+06   344.826944E+06       398.857361   344.828128E+06
             3048    57.475856E+06    57.475292E+06   -114.93772E+06   344.827136E+06       490.612701   344.827968E+06
             3049    57.467948E+06    57.465424E+06  -114.945792E+06   344.829856E+06  -1.05524988E+03   344.826528E+06
             3050      57.5328E+06    57.516212E+06  -114.892216E+06   344.830784E+06   4.52446631E+03    344.82128E+06
             3051    57.487504E+06    57.482012E+06  -114.931336E+06   344.830496E+06  -1.55395947E+03   344.825376E+06
             3052    57.472928E+06    57.473384E+06  -114.940968E+06   344.827872E+06       172.817841   344.827744E+06
             3053    57.479192E+06    57.481192E+06  -114.933464E+06   344.825952E+06       35.7399101   344.827744E+06
             3054    57.454424E+06    57.442376E+06  -114.961776E+06   344.826912E+06  -1.12290161E+03   344.823456E+06
             3055    57.412384E+06    57.417976E+06  -114.999488E+06   344.839168E+06   5.00802490E+03   344.834368E+06
             3056    57.469456E+06    57.469652E+06  -114.944976E+06   344.828064E+06       131.855682   344.828288E+06
             3057    57.453256E+06      57.4612E+06  -114.953384E+06   344.831328E+06   2.49769580E+03   344.827488E+06
             3058     57.45722E+06    57.458676E+06  -114.957392E+06   344.830656E+06      -562.507813   344.829152E+06
             3059    57.467236E+06    57.468528E+06  -114.944336E+06    344.82816E+06       299.364929   344.828864E+06
             3060      57.4697E+06    57.469952E+06  -114.944072E+06   344.827776E+06       490.096649   344.828544E+06
             3061    57.477308E+06    57.473536E+06  -114.942792E+06   344.831456E+06      -334.796021   344.827744E+06
             3062       57.471E+06    57.471316E+06  -114.942208E+06    344.82832E+06       988.643738   344.827808E+06
             3063    57.476816E+06    57.473364E+06   -114.93796E+06   344.827616E+06  -1.18672961E+03   344.828032E+06
             3064      57.4635E+06     57.45952E+06  -114.949512E+06   344.826272E+06   1.39487769E+03   344.828352E+06
             3065    57.472168E+06    57.472084E+06  -114.941856E+06    344.82752E+06      -220.696747   344.828416E+06
             3066    57.473168E+06    57.473256E+06  -114.940864E+06   344.828032E+06       58.6414909   344.827584E+06
             3067     57.47428E+06     57.47312E+06  -114.938728E+06   344.827584E+06       21.3728657   344.827936E+06
             3068    57.456088E+06     57.45458E+06  -114.959288E+06   344.828576E+06      -624.690613   344.827072E+06
             3069     57.48668E+06     57.48982E+06  -114.923816E+06   344.823104E+06   6.45437549E+03   344.826048E+06
             3070      57.4675E+06    57.470844E+06  -114.945272E+06   344.827168E+06      -851.656860   344.830624E+06
             3071       57.495E+06     57.48842E+06  -114.924744E+06   344.825632E+06  -7.74446240E+03    344.82576E+06
             3072    57.478628E+06    57.479164E+06  -114.932608E+06    344.82624E+06      -543.738342   344.826752E+06
             3073    57.474696E+06    57.473412E+06  -114.940096E+06   344.824736E+06       235.635162   344.829024E+06
             3074    57.433564E+06    57.441564E+06  -114.971584E+06   344.830464E+06   3.96390820E+03   344.831968E+06
             3075    57.465168E+06    57.466976E+06   -114.95004E+06   344.826784E+06      -231.379028   344.828832E+06
             3076     57.47242E+06    57.469556E+06  -114.941912E+06   344.827136E+06  -1.02329559E+03   344.824704E+06
             3077     57.45632E+06     57.46208E+06  -114.957992E+06   344.831872E+06       622.663330   344.827584E+06
             3078    57.516056E+06     57.49602E+06  -114.909104E+06    344.82832E+06   2.95177881E+03   344.822784E+06
             3079    57.452744E+06    57.457336E+06  -114.957416E+06   344.826944E+06   2.08173047E+03   344.831552E+06
             3080      57.4582E+06     57.46164E+06  -114.950968E+06   344.828608E+06       844.465027   344.830464E+06
             3081    57.477052E+06    57.478128E+06  -114.934952E+06   344.826592E+06      -731.254639   344.829024E+06
             3082    57.411612E+06    57.427476E+06  -114.991248E+06   344.831744E+06  -1.15832837E+03   344.832928E+06
             3083    57.457404E+06    57.457952E+06    -114.9566E+06   344.829344E+06  -3.39625513E+03   344.829824E+06
             3084    57.472108E+06    57.472384E+06  -114.939992E+06   344.831488E+06   1.88450769E+03    344.82832E+06
             3085    57.507048E+06    57.493688E+06  -114.918392E+06   344.830144E+06  -2.11340405E+03   344.825568E+06
             3086     57.47466E+06    57.473068E+06  -114.938792E+06    344.82784E+06       242.357880   344.827264E+06
             3087    57.481136E+06    57.480928E+06   -114.93448E+06   344.827488E+06  -1.37155078E+03   344.827456E+06
             3088    57.467328E+06     57.46362E+06  -114.946928E+06   344.828352E+06      -894.564392    344.82784E+06
             3089    57.464632E+06     57.46536E+06  -114.948296E+06   344.829888E+06   1.04088965E+03   344.826752E+06
             3090    57.472884E+06    57.473444E+06  -114.940336E+06   344.827328E+06       379.185974   344.827296E+06
             3091    57.466956E+06    57.465228E+06  -114.946568E+06   344.828608E+06   1.98557947E+03   344.827968E+06
             3092     57.47148E+06    57.466792E+06   -114.94396E+06   344.827808E+06      -474.463318   344.826368E+06
             3093    57.478584E+06     57.48002E+06  -114.935144E+06   344.828384E+06      -762.174438    344.82672E+06
             3094    57.545028E+06    57.526416E+06  -114.884984E+06   344.827552E+06  -4.57667969E+03    344.82192E+06
             3095    57.471868E+06    57.471632E+06   -114.94132E+06   344.827424E+06  -1.14569409E+03   344.828576E+06
             3096    57.467488E+06     57.46502E+06  -114.949504E+06   344.829152E+06       285.072144   344.826848E+06
             3097    57.482144E+06    57.481112E+06  -114.932832E+06   344.825792E+06      -130.437866    344.82592E+06
             3098    57.481396E+06    57.480496E+06  -114.932072E+06   344.825952E+06      -897.467041   344.826592E+06
             3099     57.48156E+06    57.484808E+06  -114.931544E+06   344.826464E+06  -2.09491675E+03   344.828864E+06
             3100    57.474968E+06    57.474852E+06  -114.939096E+06   344.827456E+06       56.4550934   344.827584E+06
             3101    57.505116E+06    57.492256E+06  -114.916992E+06   344.825856E+06   1.33384399E+03    344.82544E+06
             3102    57.476032E+06    57.475792E+06  -114.938912E+06   344.829664E+06      -985.975952   344.827872E+06
             3103    57.466756E+06    57.468008E+06  -114.946072E+06   344.828928E+06       327.250122    344.82816E+06
             3104    57.547856E+06    57.534224E+06  -114.880224E+06   344.831488E+06  -3.40190894E+03    344.81728E+06
             3105    57.476184E+06    57.468664E+06  -114.942824E+06     344.8288E+06  -1.20921997E+03   344.827136E+06
             3106    57.474916E+06     57.47408E+06  -114.939344E+06   344.829856E+06  -1.69433154E+03   344.829568E+06
             3107     57.46788E+06    57.463928E+06  -114.944912E+06   344.828576E+06      -890.941589   344.828096E+06
             3108    57.548916E+06    57.533576E+06   -114.87772E+06   344.820992E+06  -5.41636426E+03   344.822272E+06
             3109    57.471644E+06    57.472004E+06  -114.942312E+06   344.827808E+06       4.37276411   344.828256E+06
             3110    57.491456E+06    57.493584E+06  -114.923464E+06   344.829216E+06   2.93063452E+03   344.831392E+06
             3111     57.52688E+06    57.518888E+06  -114.893168E+06    344.81904E+06  -4.43881299E+03   344.824256E+06
             3112    57.473108E+06    57.472832E+06  -114.939984E+06   344.827072E+06       81.2543182   344.827168E+06
             3113     57.50524E+06    57.491296E+06  -114.916768E+06   344.826528E+06  -4.06795898E+03   344.819744E+06
             3114    57.479248E+06    57.475496E+06  -114.933872E+06   344.827168E+06       6.98108435   344.826784E+06
             3115    57.498164E+06    57.500008E+06  -114.913264E+06   344.826752E+06      -280.530792   344.823488E+06
             3116    57.463308E+06     57.46542E+06   -114.94784E+06   344.827904E+06      -359.564850   344.829696E+06
             3117     57.47628E+06    57.472276E+06  -114.937496E+06      344.828E+06      -238.486938   344.827296E+06
             3118    57.477856E+06    57.471472E+06  -114.938648E+06   344.827488E+06       592.104004   344.826688E+06
             3119    57.482168E+06    57.479152E+06  -114.934304E+06    344.82672E+06  -1.14591638E+03   344.826624E+06
             3120    57.472028E+06    57.471044E+06  -114.941848E+06   344.827264E+06       47.5294189   344.827744E+06
             3121    57.486072E+06    57.487768E+06   -114.92472E+06   344.826848E+06       196.757416    344.82208E+06
             3122    57.476476E+06    57.478244E+06  -114.938472E+06   344.826976E+06       136.554947    344.82624E+06
             3123     57.47164E+06    57.472248E+06  -114.941656E+06   344.828064E+06       117.103142   344.828192E+06
             3124    57.472492E+06    57.472588E+06  -114.941616E+06   344.827968E+06      -53.5073776   344.828064E+06
             3125      57.4715E+06     57.47166E+06  -114.941928E+06   344.827584E+06      -119.557762    344.82768E+06
             3126    57.470852E+06    57.470876E+06   -114.94288E+06   344.828928E+06       258.688446   344.828544E+06
             3127     57.45998E+06    57.460936E+06  -114.953968E+06   344.828448E+06  -1.03825513E+03   344.827136E+06
             3128     57.47198E+06    57.471644E+06  -114.942496E+06    344.82832E+06       232.228882   344.827808E+06
             3129    57.491316E+06    57.498044E+06  -114.918968E+06    344.82032E+06  -2.64357788E+03    344.82784E+06
             3130    57.460288E+06    57.457348E+06  -114.954352E+06    344.82896E+06      -105.856956   344.828704E+06
             3131    57.476204E+06    57.475296E+06  -114.939048E+06   344.827872E+06       357.350830   344.828256E+06
             3132    57.473228E+06    57.472764E+06  -114.940624E+06    344.82752E+06      -330.813782   344.827392E+06
             3133    57.466932E+06    57.472788E+06  -114.948264E+06   344.830496E+06       903.852905   344.827712E+06
             3134    57.507752E+06     57.49424E+06  -114.920152E+06   344.829504E+06   3.91402808E+03   344.823328E+06
             3135    57.472816E+06    57.472612E+06  -114.941864E+06   344.828288E+06      -121.163841   344.828416E+06
             3136    57.470432E+06     57.47046E+06  -114.943608E+06    344.82848E+06       92.4755859   344.827936E+06
             3137    57.456112E+06    57.460744E+06  -114.952656E+06   344.824768E+06  -2.76438989E+03   344.828736E+06
             3138    57.470756E+06    57.470768E+06  -114.943344E+06   344.828384E+06       141.008392   344.827936E+06
             3139     57.48994E+06     57.49268E+06  -114.924784E+06   344.829088E+06   1.29125842E+03   344.825632E+06
             3140     57.47218E+06    57.471204E+06  -114.943072E+06    344.82896E+06       467.614685   344.828512E+06
             3141    57.481272E+06    57.482844E+06  -114.932856E+06   344.825472E+06      -926.532227   344.827104E+06
             3142    57.469652E+06     57.46982E+06  -114.943952E+06    344.82928E+06       784.665222   344.828416E+06
             3143    57.471736E+06    57.471508E+06  -114.943048E+06   344.828704E+06      -124.530930    344.82816E+06
             3144    57.476424E+06      57.4748E+06   -114.93716E+06   344.823744E+06  -4.37217578E+03   344.826176E+06
             3145    57.467008E+06     57.46808E+06  -114.948416E+06   344.827744E+06       552.756653   344.829152E+06
             3146    57.502272E+06    57.500468E+06  -114.911104E+06   344.816576E+06  -1.37826074E+03   344.822656E+06
             3147    57.472444E+06    57.473772E+06  -114.939344E+06   344.822976E+06   1.65076721E+03    344.82832E+06
             3148    57.473244E+06    57.472452E+06   -114.94296E+06   344.829344E+06       175.917526   344.827872E+06
             3149    57.492648E+06     57.49346E+06  -114.925816E+06    344.82512E+06  -1.16608569E+03    344.82608E+06
             3150    57.506136E+06    57.514672E+06   -114.90856E+06   344.825568E+06       845.204407    344.82688E+06
             3151    57.453736E+06    57.457296E+06  -114.957864E+06   344.830592E+06      -73.2705460   344.829664E+06
             3152      57.4387E+06     57.44284E+06  -114.972776E+06    344.83696E+06   3.26759546E+03    344.83024E+06
             3153    57.475552E+06     57.47366E+06    -114.9408E+06      344.824E+06  -3.31906445E+03   344.826848E+06
             3154    57.515708E+06    57.522936E+06  -114.901168E+06   344.823104E+06      -595.428589     344.8216E+06
             3155    57.487556E+06    57.486776E+06  -114.930384E+06   344.826208E+06  -2.59143555E+03    344.82704E+06
             3156    57.451496E+06    57.450152E+06  -114.962712E+06   344.830848E+06      -87.7475662   344.830112E+06
             3157    57.472532E+06    57.472152E+06  -114.942008E+06    344.82752E+06      -118.010742   344.828224E+06
             3158    57.475836E+06     57.47892E+06   -114.93704E+06   344.828256E+06  -1.36850867E+03   344.826944E+06
             3159    57.469352E+06    57.470496E+06   -114.94476E+06   344.828192E+06      -67.4844131    344.82784E+06
             3160    57.519868E+06    57.523896E+06  -114.888616E+06   344.819808E+06   1.87678198E+03   344.816608E+06
             3161     57.47132E+06    57.476072E+06  -114.938088E+06    344.82592E+06      -277.379822   344.828384E+06
             3162    57.470568E+06    57.471084E+06  -114.942512E+06    344.82704E+06      -431.320374   344.827552E+06
             3163    57.479616E+06     57.47974E+06  -114.934312E+06   344.827584E+06       579.419495   344.829024E+06
             3164    57.472184E+06    57.472356E+06  -114.942808E+06    344.82816E+06       261.510345   344.828032E+06
             3165    57.470264E+06    57.471432E+06  -114.943336E+06    344.82848E+06       484.928528   344.829888E+06
             3166    57.460816E+06    57.462964E+06  -114.950056E+06   344.823744E+06  -2.38583301E+03   344.828512E+06
             3167    57.462104E+06    57.455768E+06  -114.955904E+06   344.832864E+06       728.465576   344.830528E+06
             3168    57.468276E+06    57.468396E+06  -114.946344E+06   344.828928E+06      -395.850616   344.828672E+06
             3169    57.505832E+06    57.498108E+06  -114.915112E+06      344.828E+06       853.138855   344.826016E+06
             3170    57.468588E+06    57.465984E+06  -114.946696E+06   344.829152E+06       360.208557    344.82832E+06
             3171    57.445236E+06    57.443056E+06  -114.969088E+06    344.83408E+06      -301.694031   344.829184E+06
             3172    57.476208E+06    57.473804E+06  -114.936512E+06   344.824416E+06      -66.8292007   344.825824E+06
             3173    57.542488E+06    57.525188E+06   -114.88752E+06     344.8368E+06   13.4950957E+03     344.8232E+06
             3174     57.48704E+06    57.494444E+06  -114.921968E+06    344.82896E+06       701.675598   344.827072E+06
             3175      57.5052E+06     57.49022E+06  -114.923584E+06   344.834336E+06   2.20853857E+03   344.826752E+06
             3176    57.474364E+06    57.473644E+06  -114.939496E+06   344.824576E+06      -798.912476   344.828672E+06
             3177    57.476436E+06    57.482836E+06  -114.935648E+06   344.828032E+06      -356.367004   344.829248E+06
             3178    57.472916E+06    57.474932E+06  -114.942608E+06    344.83008E+06   1.00329468E+03   344.827456E+06
             3179    57.465412E+06    57.464128E+06  -114.943304E+06   344.818688E+06   3.63327881E+03   344.829632E+06
             3180    57.457672E+06      57.4579E+06  -114.955808E+06   344.829824E+06  -3.15448804E+03   344.828928E+06
             3181    57.517232E+06    57.503212E+06   -114.90252E+06   344.817952E+06   1.70768188E+03   344.823872E+06
             3182    57.452668E+06    57.465144E+06  -114.958864E+06   344.840928E+06      -869.806091   344.831264E+06
             3183     57.47168E+06    57.474764E+06   -114.94068E+06    344.82768E+06       73.4815903   344.830048E+06
             3184     57.45468E+06    57.459416E+06   -114.95556E+06   344.827552E+06      -954.441162   344.829728E+06
             3185    57.470872E+06    57.471092E+06  -114.942432E+06   344.828192E+06      -550.281128   344.827424E+06
             3186     57.48622E+06     57.48194E+06  -114.927224E+06    344.82448E+06      -590.251709   344.823904E+06
             3187    57.488224E+06     57.47846E+06  -114.929048E+06   344.821184E+06  -2.67532739E+03   344.822912E+06
             3188    57.472188E+06      57.4706E+06  -114.943432E+06   344.829312E+06      -423.808746   344.827616E+06
             3189    57.494756E+06    57.504664E+06    -114.9202E+06    344.83136E+06      -706.748291    344.82448E+06
             3190    57.467296E+06    57.468024E+06  -114.945256E+06   344.825504E+06  -1.31988245E+03   344.827648E+06
             3191     57.49032E+06    57.487384E+06    -114.9296E+06   344.827264E+06  -1.54718042E+03   344.826656E+06
             3192    57.473168E+06    57.475788E+06   -114.93884E+06   344.828128E+06   1.68855725E+03   344.828704E+06
             3193     57.50986E+06     57.51458E+06  -114.900264E+06   344.818048E+06      -117.740616   344.826176E+06
             3194    57.501532E+06    57.507696E+06  -114.912128E+06   344.820672E+06      -746.185120    344.82624E+06
             3195    57.461684E+06    57.455588E+06   -114.95516E+06   344.834752E+06   2.87539282E+03   344.827616E+06
             3196     57.45446E+06    57.450896E+06  -114.961544E+06   344.834624E+06   1.20133997E+03   344.828224E+06
             3197    57.479916E+06    57.487008E+06   -114.93092E+06   344.823936E+06      -314.185791    344.82848E+06
             3198      57.4717E+06    57.472876E+06  -114.940688E+06   344.825952E+06      -873.842834    344.82656E+06
             3199    57.406736E+06     57.42242E+06  -114.998816E+06    344.83952E+06      -107.582634   344.832256E+06
             3200    57.476792E+06    57.473272E+06   -114.94036E+06   344.831584E+06       841.049927   344.829408E+06
             3201    57.469928E+06    57.469484E+06  -114.944048E+06   344.828224E+06       178.541565   344.827936E+06
             3202    57.474424E+06     57.47484E+06  -114.939424E+06   344.828064E+06       421.216705   344.827744E+06
             3203    57.463172E+06    57.460064E+06  -114.951048E+06   344.827296E+06       26.0041161   344.830848E+06
             3204      57.4929E+06      57.4776E+06  -114.931464E+06   344.829728E+06      -131.985031   344.828832E+06
             3205    57.477704E+06      57.4776E+06     -114.936E+06   344.827488E+06       79.7514877   344.827584E+06
             3206    57.441448E+06    57.456116E+06  -114.962976E+06   344.824192E+06  -2.11124316E+03   344.830528E+06
             3207     57.48316E+06     57.47878E+06   -114.93456E+06   344.829632E+06       528.847107   344.826464E+06
             3208    57.431564E+06    57.430348E+06  -114.978448E+06   344.831872E+06   1.07947449E+03   344.831392E+06
             3209     57.44922E+06    57.453748E+06   -114.95896E+06   344.828352E+06      -576.343933   344.831136E+06
             3210    57.481136E+06    57.482056E+06  -114.932152E+06   344.825696E+06      -598.656006   344.826848E+06
             3211    57.505668E+06     57.49604E+06  -114.911544E+06    344.82144E+06  -4.04674927E+03   344.820224E+06
             3212    57.469584E+06     57.46986E+06   -114.94352E+06   344.828096E+06       143.614349   344.827744E+06
             3213    57.485488E+06    57.486556E+06  -114.930856E+06   344.833728E+06  -1.60112952E+03   344.826432E+06
             3214    57.466688E+06    57.467988E+06  -114.946552E+06   344.828032E+06  -1.07590063E+03   344.828384E+06
             3215    57.476576E+06    57.474464E+06  -114.939088E+06   344.828992E+06       625.038879    344.82752E+06
             3216    57.438532E+06    57.453384E+06  -114.965312E+06   344.823808E+06  -5.75746924E+03   344.829792E+06
             3217    57.448076E+06    57.449336E+06  -114.960944E+06   344.822176E+06   1.16537305E+03    344.83072E+06
             3218     57.48196E+06    57.481028E+06  -114.930784E+06   344.825632E+06       630.145142    344.82592E+06
             3219    57.472392E+06    57.471468E+06  -114.941624E+06   344.828128E+06      -388.907928   344.826944E+06
             3220    57.487084E+06    57.490512E+06  -114.927192E+06   344.825952E+06   1.34653601E+03   344.828448E+06
             3221    57.479816E+06     57.47956E+06   -114.93408E+06   344.825344E+06       566.337952     344.8272E+06
             3222     57.46456E+06    57.473004E+06  -114.941744E+06     344.8256E+06   2.66831567E+03   344.832256E+06
             3223    57.481056E+06    57.483252E+06  -114.932776E+06   344.826272E+06   1.35140991E+03   344.827488E+06
             3224     57.46732E+06    57.470076E+06  -114.946328E+06    344.82688E+06       778.989685   344.830432E+06
             3225    57.467732E+06     57.46388E+06  -114.950296E+06    344.83376E+06    2.4755625E+03    344.82896E+06
             3226    57.476744E+06    57.479096E+06   -114.93696E+06    344.82688E+06       418.897827   344.827936E+06
             3227    57.474604E+06    57.475652E+06  -114.939816E+06   344.827488E+06      -244.802994   344.828096E+06
             3228    57.437476E+06    57.445676E+06  -114.967912E+06   344.823872E+06  -2.26177100E+03   344.828928E+06
             3229    57.474892E+06    57.473172E+06  -114.941072E+06   344.826048E+06   1.73075378E+03   344.826688E+06
             3230    57.475076E+06    57.476188E+06   -114.93732E+06   344.828768E+06       465.964935   344.825344E+06
             3231    57.511144E+06    57.497684E+06  -114.911984E+06      344.828E+06   2.98724463E+03   344.825504E+06
             3232    57.482412E+06    57.481228E+06  -114.931496E+06   344.826976E+06      -77.9612961   344.825856E+06
             3233    57.459908E+06    57.448084E+06   -114.95464E+06   344.826464E+06      -834.655029   344.822912E+06
             3234     57.47444E+06    57.471084E+06  -114.941368E+06   344.827712E+06       897.458801   344.828224E+06
             3235    57.471384E+06    57.473128E+06  -114.940968E+06   344.829792E+06      -85.9468765   344.827328E+06
             3236    57.494616E+06    57.487628E+06  -114.924176E+06   344.828896E+06       669.347473   344.825792E+06
             3237      57.5059E+06    57.503708E+06   -114.91028E+06     344.8184E+06       905.769470    344.82784E+06
             3238    57.470344E+06    57.471012E+06  -114.943232E+06   344.828192E+06      -399.962067   344.828416E+06
             3239     57.47156E+06    57.471888E+06    -114.9412E+06   344.827808E+06      -149.124481   344.828096E+06
             3240    57.482684E+06    57.482156E+06   -114.93156E+06   344.827584E+06       983.283569   344.826528E+06
             3241    57.568384E+06    57.541556E+06   -114.86732E+06   344.823872E+06   1.33226367E+03   344.823072E+06
             3242    57.467256E+06    57.468176E+06  -114.946592E+06    344.82912E+06       223.288223   344.827872E+06
             3243    57.457896E+06    57.450284E+06  -114.958888E+06    344.82688E+06  -2.05645752E+03   344.827808E+06
             3244    57.469804E+06    57.472324E+06  -114.944048E+06    344.82816E+06      -891.460938   344.827776E+06
             3245    57.476204E+06    57.471508E+06  -114.940536E+06    344.82864E+06      -386.956055   344.826656E+06
             3246    57.466192E+06    57.467648E+06  -114.945696E+06   344.824576E+06  -4.74814648E+03   344.828128E+06
             3247    57.471516E+06    57.473168E+06  -114.941816E+06   344.828288E+06      -258.464203   344.828224E+06
             3248    57.447928E+06    57.448604E+06   -114.96676E+06   344.835808E+06   1.53219287E+03   344.830464E+06
             3249    57.504656E+06    57.493756E+06   -114.91624E+06   344.826976E+06  -1.81829382E+03   344.822368E+06
             3250    57.467512E+06    57.468184E+06   -114.94604E+06   344.827712E+06      -221.907761   344.828672E+06
             3251    57.461336E+06    57.454524E+06  -114.953152E+06   344.825824E+06      -416.749969    344.82704E+06
             3252    57.473368E+06    57.472448E+06   -114.94068E+06    344.82912E+06       595.021057   344.827552E+06
             3253    57.507188E+06    57.495516E+06  -114.917408E+06   344.826592E+06  -2.51575073E+03   344.824608E+06
             3254    57.467372E+06    57.464576E+06  -114.947792E+06   344.829216E+06       623.942017   344.827872E+06
             3255    57.466624E+06    57.466184E+06  -114.947128E+06   344.828384E+06       116.303261   344.828512E+06
             3256    57.476596E+06    57.481476E+06    -114.9336E+06   344.827936E+06  -1.94556152E+03   344.824928E+06
             3257    57.484668E+06    57.483684E+06  -114.927776E+06   344.823296E+06   1.75309668E+03   344.826496E+06
             3258    57.455792E+06    57.460108E+06  -114.952768E+06   344.827392E+06  -3.27572998E+03   344.825184E+06
             3259    57.460564E+06    57.464136E+06  -114.952912E+06   344.827456E+06  -2.38918652E+03   344.827168E+06
             3260    57.467972E+06    57.477924E+06  -114.939504E+06   344.831104E+06   1.59755444E+03   344.830912E+06
             3261     57.46972E+06      57.4695E+06  -114.943976E+06   344.827296E+06      -418.215271   344.828064E+06
             3262    57.480928E+06    57.483868E+06  -114.932544E+06   344.828288E+06       563.932251    344.82736E+06
             3263    57.471516E+06    57.471472E+06  -114.942704E+06   344.827968E+06       373.888519   344.827904E+06
             3264     57.43348E+06    57.441416E+06  -114.974232E+06   344.832288E+06   1.72210620E+03   344.830752E+06
             3265    57.468804E+06    57.470276E+06  -114.944688E+06   344.828448E+06      -182.994324    344.82816E+06
             3266    57.471664E+06    57.471476E+06  -114.942552E+06   344.827936E+06       135.473129      344.828E+06
             3267    57.510844E+06    57.504052E+06  -114.909648E+06   344.824032E+06  -1.05847534E+03     344.8272E+06
             3268    57.495692E+06    57.486692E+06  -114.924584E+06   344.823968E+06  -4.51952588E+03   344.826528E+06
             3269    57.473208E+06    57.472576E+06  -114.941744E+06   344.827968E+06       68.1130753   344.827744E+06
             3270    57.472184E+06    57.472024E+06   -114.94204E+06   344.827968E+06      -85.3475952   344.827808E+06
             3271    57.515052E+06     57.50252E+06  -114.909048E+06   344.829024E+06      -600.526550   344.824608E+06
             3272    57.473988E+06    57.480332E+06    -114.9366E+06    344.82672E+06  -2.23187134E+03   344.829024E+06
             3273    57.471796E+06    57.474944E+06  -114.941776E+06   344.828576E+06  -1.13188989E+03   344.827456E+06
             3274    57.414832E+06    57.428192E+06  -114.989376E+06    344.83248E+06  -3.17250903E+03    344.83136E+06
             3275    57.471016E+06    57.467384E+06  -114.948544E+06      344.832E+06   3.30688477E+03    344.83104E+06
             3276    57.475832E+06    57.481052E+06  -114.938704E+06   344.824288E+06  -3.04918408E+03   344.826016E+06
             3277    57.474288E+06    57.476748E+06   -114.93968E+06    344.82688E+06      -316.766479   344.826432E+06
             3278     57.46408E+06    57.465008E+06  -114.950664E+06   344.830656E+06  -1.53279956E+03   344.826464E+06
             3279    57.473204E+06    57.467384E+06  -114.945448E+06   344.830528E+06      -143.918686   344.828032E+06
             3280    57.467952E+06    57.464544E+06  -114.947912E+06   344.831328E+06      -431.780273   344.826176E+06
             3281    57.473116E+06    57.473528E+06  -114.941008E+06    344.82784E+06       140.147964   344.828384E+06
             3282    57.469588E+06    57.465632E+06  -114.945976E+06   344.826624E+06      -688.752075   344.827936E+06
             3283    57.468976E+06     57.46358E+06  -114.949072E+06    344.82832E+06       499.466827   344.826656E+06
             3284    57.482576E+06    57.477072E+06  -114.934312E+06   344.827616E+06   1.27689417E+03   344.827904E+06
             3285     57.48502E+06    57.483088E+06  -114.932928E+06   344.830432E+06       636.275269   344.828416E+06
             3286    57.470668E+06    57.463924E+06     -114.946E+06   344.825824E+06       535.830627   344.830048E+06
             3287    57.466648E+06    57.466268E+06  -114.950144E+06    344.82912E+06   1.13567261E+03   344.827936E+06
             3288    57.469936E+06    57.469748E+06  -114.945496E+06   344.830816E+06       945.737366   344.831584E+06
             3289    57.510704E+06    57.520576E+06  -114.900656E+06    344.82608E+06       275.195831   344.820576E+06
             3290    57.476864E+06    57.475544E+06  -114.937696E+06   344.826112E+06      -66.4626465   344.827008E+06
             3291     57.46998E+06    57.470732E+06  -114.943544E+06   344.829152E+06      -274.155029   344.828352E+06
             3292    57.427576E+06    57.436324E+06  -114.980256E+06   344.832256E+06   5.58939551E+03   344.833856E+06
             3293    57.474288E+06    57.473896E+06  -114.942144E+06   344.831104E+06   3.54207349E+03   344.829824E+06
             3294    57.471184E+06    57.471616E+06  -114.943032E+06   344.828256E+06       86.2199783   344.828032E+06
             3295    57.523188E+06    57.511032E+06   -114.90208E+06    344.82656E+06      -846.206360   344.823936E+06
             3296     57.47066E+06    57.470788E+06  -114.942688E+06   344.827424E+06      -280.528595   344.827648E+06
             3297    57.466664E+06    57.473836E+06  -114.942808E+06   344.824256E+06      -786.459778    344.82832E+06
             3298    57.462076E+06    57.454516E+06  -114.954664E+06   344.831392E+06  -1.02451221E+03     344.8224E+06
             3299     57.47716E+06    57.476736E+06  -114.936424E+06   344.827168E+06       274.730042   344.827392E+06
             3300    57.503088E+06     57.49412E+06  -114.917368E+06   344.827264E+06  -2.84777051E+03   344.826496E+06
             3301    57.467344E+06    57.473304E+06   -114.94012E+06     344.8272E+06       191.074219   344.828992E+06
             3302    57.509976E+06      57.5086E+06  -114.907224E+06   344.818784E+06  -5.35705957E+03   344.825056E+06
             3303    57.424224E+06    57.439236E+06  -114.978528E+06    344.82704E+06  -3.08495264E+03   344.831392E+06
             3304    57.464224E+06     57.46542E+06  -114.950888E+06   344.828672E+06       461.827942    344.82912E+06
             3305    57.473468E+06    57.474164E+06  -114.942104E+06   344.829184E+06      -369.854034   344.829856E+06
             3306    57.474824E+06    57.476352E+06  -114.937896E+06   344.827584E+06       60.8200073    344.82912E+06
             3307    57.472688E+06    57.473008E+06  -114.941256E+06   344.828288E+06       249.324799   344.827968E+06
             3308    57.483748E+06    57.483412E+06  -114.930472E+06   344.824992E+06      -461.710571   344.826304E+06
             3309      57.4733E+06     57.47262E+06  -114.940456E+06   344.827552E+06      -273.435211   344.827488E+06
             3310    57.491392E+06    57.491884E+06  -114.922856E+06   344.824928E+06      -444.065887   344.827136E+06
             3311    57.468648E+06    57.469892E+06  -114.945288E+06   344.827872E+06      -478.787537   344.828992E+06
             3312     57.46568E+06    57.465916E+06  -114.947888E+06     344.8264E+06      -711.210876   344.829568E+06
             3313    57.477688E+06    57.481184E+06  -114.935816E+06   344.823232E+06      -564.013367    344.82704E+06
             3314    57.465288E+06    57.471644E+06  -114.946208E+06   344.827488E+06       165.442841   344.831776E+06
             3315    57.465992E+06    57.466644E+06  -114.946752E+06   344.827456E+06  -1.01891718E+03   344.827968E+06
             3316    57.433292E+06    57.444388E+06  -114.970952E+06    344.82896E+06  -1.77409216E+03   344.829856E+06
             3317      57.4654E+06     57.46842E+06  -114.944792E+06     344.8256E+06   1.02377820E+03   344.828192E+06
             3318    57.436032E+06     57.44092E+06  -114.975936E+06   344.831904E+06  -3.82460327E+03   344.831872E+06
             3319    57.523764E+06     57.53618E+06  -114.887024E+06    344.82304E+06       490.420807    344.82112E+06
             3320    57.455692E+06     57.45052E+06  -114.958928E+06   344.824896E+06       723.920288    344.83296E+06
             3321    57.465364E+06    57.464208E+06  -114.949704E+06   344.828192E+06      -405.752380    344.82896E+06
             3322    57.469472E+06    57.469844E+06  -114.944216E+06   344.828032E+06       247.647202   344.828288E+06
             3323     57.46072E+06    57.453508E+06  -114.954736E+06    344.82672E+06  -2.58539844E+03   344.827456E+06
             3324    57.495928E+06    57.493888E+06  -114.919312E+06   344.817408E+06       262.653748   344.825184E+06
             3325    57.466788E+06    57.467436E+06  -114.946952E+06   344.828384E+06      -393.276154   344.828224E+06
             3326    57.456452E+06    57.458716E+06  -114.953744E+06     344.8272E+06   1.80150122E+03   344.829632E+06
             3327    57.482524E+06    57.479548E+06    -114.9358E+06    344.82896E+06      -106.586121   344.827904E+06
             3328    57.477812E+06    57.476772E+06  -114.936776E+06   344.829312E+06   2.41713232E+03   344.827232E+06
             3329    57.462468E+06     57.46354E+06  -114.950384E+06    344.82608E+06       402.399292   344.828992E+06
             3330    57.469372E+06    57.469768E+06  -114.942792E+06    344.82864E+06      -324.390228     344.8288E+06
             3331    57.473232E+06    57.471116E+06    -114.9426E+06   344.828416E+06       464.914459   344.827456E+06
             3332    57.466448E+06    57.463216E+06  -114.951784E+06   344.826304E+06       35.6974792   344.828384E+06
             3333    57.488752E+06    57.489404E+06     -114.925E+06   344.827584E+06      -403.874176     344.8232E+06
             3334    57.481224E+06    57.482212E+06  -114.931832E+06     344.8264E+06  -3.52490625E+03     344.8264E+06
             3335    57.458552E+06    57.460752E+06  -114.955632E+06   344.831936E+06  -2.08499512E+03   344.827744E+06
             3336    57.461444E+06    57.461948E+06  -114.950952E+06   344.829984E+06   1.03705786E+03   344.828704E+06
             3337     57.48326E+06    57.480868E+06  -114.933688E+06   344.825952E+06      -558.523926   344.825984E+06
             3338    57.499628E+06    57.497976E+06  -114.917632E+06    344.82064E+06  -3.04993359E+03   344.824512E+06
             3339    57.464272E+06    57.460964E+06   -114.95276E+06   344.829056E+06       527.120178   344.829088E+06
             3340    57.464744E+06    57.464172E+06  -114.949864E+06   344.828544E+06      -181.318863   344.828672E+06
             3341    57.470852E+06    57.470692E+06  -114.942672E+06   344.827584E+06       341.995087    344.82816E+06
             3342     57.46774E+06     57.46668E+06  -114.946696E+06   344.828224E+06      -594.110474   344.828416E+06
             3343    57.472516E+06    57.472604E+06   -114.94144E+06   344.827968E+06      -136.095551    344.82816E+06
             3344     57.47044E+06    57.466676E+06   -114.94432E+06    344.82864E+06       939.854065   344.827488E+06
             3345    57.471672E+06    57.472724E+06  -114.940832E+06   344.827712E+06       103.040100   344.827968E+06
             3346    57.472148E+06    57.472328E+06  -114.941384E+06   344.827904E+06       36.8158646   344.828288E+06
             3347     57.46692E+06     57.46884E+06  -114.947168E+06   344.828032E+06       325.451721   344.828416E+06
             3348     57.45248E+06    57.444516E+06  -114.963832E+06    344.81808E+06       251.734573   344.836768E+06
             3349    57.470452E+06    57.469784E+06  -114.944232E+06    344.82944E+06       890.940552   344.827264E+06
             3350    57.472644E+06    57.467876E+06  -114.942768E+06   344.827648E+06      -818.984924   344.827552E+06
             3351      57.4711E+06    57.469856E+06  -114.943288E+06   344.830848E+06       556.658081   344.828928E+06
             3352    57.420232E+06    57.411496E+06  -114.997368E+06    344.83664E+06  -1.60997742E+03    344.83216E+06
             3353    57.472164E+06    57.471592E+06  -114.940976E+06   344.828416E+06       79.0318832   344.828352E+06
             3354    57.444556E+06     57.43626E+06  -114.970048E+06   344.829472E+06       492.559326     344.8304E+06
             3355    57.405536E+06    57.394236E+06  -115.010176E+06   344.837888E+06      -243.032990    344.83312E+06
             3356    57.472072E+06    57.467276E+06   -114.94352E+06   344.827328E+06      -665.855347   344.828096E+06
             3357    57.467984E+06    57.460084E+06  -114.948352E+06   344.833376E+06   2.33705249E+03   344.827008E+06
             3358    57.471408E+06    57.470768E+06  -114.944336E+06    344.82832E+06      -614.450500   344.827584E+06
             3359    57.476016E+06    57.482764E+06  -114.935592E+06   344.831744E+06   3.48018823E+03   344.831552E+06
             3360    57.465624E+06    57.468348E+06   -114.94616E+06   344.830432E+06       352.152405   344.828096E+06
             3361    57.481516E+06    57.484252E+06  -114.932544E+06   344.831456E+06  -1.50139685E+03    344.82784E+06
             3362    57.481348E+06    57.480792E+06  -114.929752E+06   344.827456E+06   1.91155029E+03   344.826912E+06
             3363       57.465E+06    57.463936E+06  -114.951216E+06   344.829568E+06       623.022095   344.827904E+06
             3364     57.46944E+06    57.464756E+06  -114.950264E+06   344.828832E+06      -628.302124   344.826272E+06
             3365    57.484704E+06    57.484308E+06  -114.929776E+06   344.824608E+06  -1.56156470E+03    344.82704E+06
             3366     57.46734E+06    57.467256E+06  -114.945384E+06    344.82944E+06      -940.537598   344.827904E+06
             3367    57.466812E+06    57.464316E+06  -114.951992E+06   344.827808E+06   1.38539636E+03   344.829632E+06
             3368    57.490684E+06    57.501344E+06  -114.920512E+06   344.822752E+06      -465.960419   344.826752E+06
             3369    57.516992E+06    57.528692E+06    -114.8954E+06   344.827328E+06       558.743774   344.823776E+06
             3370     57.47674E+06    57.475712E+06  -114.938216E+06   344.828576E+06      -505.986603     344.8272E+06
             3371    57.487044E+06     57.47976E+06  -114.933608E+06   344.829536E+06      -105.186005   344.824512E+06
             3372    57.487124E+06    57.486768E+06  -114.929632E+06   344.827584E+06  -1.31876160E+03   344.823008E+06
             3373     57.50006E+06    57.502176E+06  -114.907952E+06    344.82816E+06   5.18289648E+03    344.82128E+06
             3374    57.471604E+06    57.476332E+06  -114.937928E+06   344.826624E+06      -888.731934   344.826816E+06
             3375    57.470532E+06     57.46972E+06  -114.941936E+06   344.828544E+06      -579.994751   344.826976E+06
             3376    57.457328E+06    57.448324E+06  -114.958944E+06   344.828576E+06       221.953384   344.826304E+06
             3377    57.469596E+06    57.469704E+06  -114.945496E+06   344.829248E+06      -447.342834   344.828352E+06
             3378    57.449188E+06    57.434336E+06  -114.967136E+06   344.819168E+06      -286.732849   344.831264E+06
             3379    57.459304E+06    57.453112E+06  -114.954384E+06   344.823136E+06  -2.40172217E+03    344.82912E+06
             3380    57.473288E+06    57.477532E+06  -114.935336E+06   344.826528E+06   1.02919043E+03   344.826784E+06
             3381    57.465096E+06    57.467648E+06   -114.94932E+06   344.827936E+06  -2.09311182E+03   344.828416E+06
             3382    57.465156E+06    57.462896E+06   -114.94868E+06   344.826528E+06      -841.844788   344.828352E+06
             3383    57.459308E+06    57.461912E+06  -114.949472E+06    344.83008E+06   1.83100391E+03   344.828672E+06
             3384    57.469632E+06    57.469576E+06  -114.942776E+06    344.82688E+06       403.979279   344.828352E+06
             3385    57.442744E+06    57.453748E+06  -114.963608E+06   344.832288E+06      -470.688934    344.83104E+06
             3386    57.470908E+06    57.471504E+06  -114.942808E+06   344.828224E+06      -477.307007   344.827712E+06
             3387     57.47362E+06     57.47362E+06  -114.941272E+06    344.82864E+06       30.3018169   344.827584E+06
             3388    57.470492E+06     57.46546E+06  -114.944072E+06    344.82576E+06  -1.47737573E+03   344.828768E+06
             3389    57.467996E+06    57.467536E+06  -114.945208E+06    344.82656E+06      -123.505287   344.829408E+06
             3390    57.478848E+06    57.474312E+06  -114.939824E+06   344.826848E+06  -1.60157947E+03   344.827104E+06
             3391    57.468324E+06    57.471936E+06    -114.9432E+06   344.828448E+06       460.249542     344.8296E+06
             3392     57.48218E+06      57.4809E+06  -114.931512E+06   344.828928E+06       113.441910   344.822656E+06
             3393    57.472196E+06     57.47182E+06  -114.941416E+06   344.827744E+06       326.471100   344.828064E+06
             3394    57.480792E+06    57.476336E+06  -114.935784E+06   344.827328E+06  -1.52404663E+03   344.826336E+06
             3395    57.471744E+06      57.4755E+06  -114.942328E+06    344.83104E+06       244.763657   344.828864E+06
             3396    57.461952E+06     57.45874E+06  -114.951848E+06   344.828064E+06  -1.60138196E+03    344.82928E+06
             3397    57.470416E+06     57.47518E+06  -114.943392E+06   344.835776E+06      -123.587448   344.827392E+06
             3398    57.559888E+06    57.556764E+06  -114.863216E+06   344.816192E+06       912.770447   344.822336E+06
             3399     57.48582E+06      57.4907E+06  -114.926064E+06    344.82688E+06       579.181885   344.827168E+06
             3400    57.461096E+06    57.466848E+06  -114.948048E+06   344.828448E+06   1.42989038E+03   344.829856E+06
             3401    57.469836E+06    57.469508E+06  -114.944608E+06    344.82816E+06       338.200195    344.82816E+06
             3402    57.501444E+06    57.511752E+06  -114.912264E+06    344.82512E+06      -216.669861   344.828096E+06
             3403     57.48156E+06    57.477044E+06  -114.932416E+06   344.826624E+06   1.76183875E+03    344.82624E+06
             3404    57.462228E+06    57.466528E+06  -114.948712E+06   344.828064E+06       417.947083   344.828448E+06
             3405    57.470672E+06    57.469056E+06  -114.944784E+06   344.828544E+06       204.832840   344.829184E+06
             3406     57.44386E+06      57.4681E+06  -114.958952E+06     344.8344E+06      -487.310394   344.829504E+06
             3407    57.459336E+06    57.451108E+06  -114.958944E+06   344.832416E+06  -1.12708276E+03   344.826304E+06
             3408    57.451408E+06     57.44664E+06  -114.964224E+06   344.835552E+06  -1.55551636E+03    344.82768E+06
             3409     57.46768E+06    57.467776E+06   -114.94832E+06   344.827328E+06       87.0205231   344.827072E+06
             3410    57.462144E+06     57.45988E+06  -114.953744E+06    344.83072E+06  -1.19158740E+03   344.829472E+06
             3411    57.441708E+06    57.415332E+06  -114.984984E+06   344.837312E+06   1.74471643E+03   344.826144E+06
             3412    57.465928E+06    57.465556E+06  -114.948664E+06   344.834624E+06   3.55627930E+03     344.8264E+06
             3413    57.479864E+06    57.479168E+06  -114.937192E+06   344.828896E+06       162.770859   344.828192E+06
             3414    57.486988E+06    57.500332E+06  -114.927568E+06     344.8384E+06       165.719376   344.827328E+06
             3415    57.464572E+06     57.46922E+06  -114.947208E+06    344.82704E+06  -1.44017432E+03    344.82848E+06
             3416    57.481424E+06    57.487756E+06  -114.929784E+06   344.825376E+06  -1.84267664E+03   344.828608E+06
             3417    57.463528E+06    57.466432E+06   -114.94988E+06   344.828288E+06  -1.64891370E+03   344.828896E+06
             3418    57.473244E+06    57.472284E+06  -114.941368E+06   344.827712E+06      -864.807983    344.82768E+06
             3419    57.471516E+06    57.471676E+06  -114.940224E+06   344.830656E+06       964.115356   344.828544E+06
             3420    57.511968E+06    57.497048E+06  -114.911632E+06    344.82672E+06       867.521118   344.824512E+06
             3421    57.467904E+06    57.466804E+06  -114.945848E+06    344.82768E+06       744.603821   344.828096E+06
             3422     57.47202E+06    57.475608E+06  -114.939704E+06     344.8264E+06       153.706451   344.827488E+06
             3423    57.476776E+06    57.476604E+06  -114.936416E+06   344.826688E+06  -1.31375574E+03   344.827648E+06
             3424    57.474992E+06    57.472708E+06   -114.94016E+06    344.82816E+06      -90.2131424    344.82736E+06
             3425    57.467464E+06    57.468028E+06  -114.945232E+06   344.829312E+06      -31.2000008   344.829056E+06
             3426    57.441172E+06    57.455088E+06  -114.959176E+06     344.8208E+06  -1.64434729E+03   344.828736E+06
             3427    57.462312E+06    57.460768E+06     -114.953E+06   344.832128E+06   3.92767700E+03   344.826656E+06
             3428     57.48628E+06    57.495272E+06  -114.926584E+06   344.823872E+06       358.148071   344.827232E+06
             3429    57.468576E+06    57.470672E+06  -114.942352E+06    344.82848E+06       796.720276   344.827584E+06
             3430      57.4724E+06    57.472768E+06  -114.941432E+06   344.827552E+06      -236.650787    344.82816E+06
             3431    57.470124E+06    57.465556E+06  -114.946288E+06   344.829248E+06       919.139465   344.827744E+06
             3432    57.470144E+06    57.470444E+06  -114.943248E+06    344.82768E+06      -206.838135   344.828064E+06
             3433    57.442272E+06    57.444716E+06   -114.96608E+06    344.82448E+06  -3.16153369E+03   344.825856E+06
             3434    57.471804E+06    57.472288E+06  -114.942712E+06   344.827968E+06       241.289551    344.82832E+06
             3435    57.497724E+06    57.495484E+06  -114.917872E+06   344.824384E+06   2.34291895E+03   344.824256E+06
             3436    57.467376E+06    57.464388E+06  -114.947872E+06   344.827872E+06   1.56745215E+03    344.82928E+06
             3437    57.484048E+06    57.485532E+06   -114.93108E+06   344.828192E+06      -917.257751    344.82736E+06
             3438    57.491844E+06     57.48866E+06  -114.925392E+06   344.827424E+06      -502.648071   344.826944E+06
             3439    57.572864E+06       57.586E+06  -114.842296E+06    344.82336E+06   2.20887891E+03   344.826624E+06
             3440    57.498204E+06    57.537516E+06  -114.894752E+06   344.829536E+06   2.76444849E+03    344.82336E+06
             3441    57.473044E+06    57.473728E+06  -114.941504E+06   344.828128E+06   1.28149622E+03     344.8296E+06
             3442    57.460192E+06    57.465596E+06  -114.950576E+06   344.829472E+06       117.030167   344.828576E+06
             3443    57.468688E+06    57.469024E+06  -114.945712E+06   344.829376E+06       305.152008   344.828608E+06
             3444    57.466012E+06    57.466592E+06   -114.94656E+06   344.827168E+06      -449.029999   344.828864E+06
             3445    57.472812E+06    57.472244E+06  -114.942136E+06    344.82704E+06      -257.638031   344.828416E+06
             3446    57.462256E+06    57.465476E+06  -114.947472E+06   344.828672E+06      -800.505493   344.828352E+06
             3447    57.465568E+06    57.470036E+06     -114.947E+06    344.82784E+06      -455.915924   344.832544E+06
             3448    57.462536E+06     57.46894E+06  -114.947792E+06   344.826656E+06      -237.139084   344.830464E+06
             3449    57.465548E+06     57.46694E+06  -114.948192E+06    344.83056E+06   1.17363440E+03   344.826688E+06
             3450     57.48716E+06    57.486948E+06  -114.928272E+06    344.82672E+06  -2.30171313E+03   344.825248E+06
             3451    57.464992E+06    57.467564E+06  -114.945392E+06   344.828256E+06      -298.112457   344.828448E+06
             3452    57.476012E+06    57.476444E+06  -114.936112E+06   344.826592E+06      -619.905396   344.827776E+06
             3453    57.440832E+06      57.4267E+06  -114.974248E+06   344.827968E+06      -308.043915   344.825344E+06
             3454    57.474672E+06    57.475692E+06  -114.938912E+06   344.827872E+06       65.3014526   344.827424E+06
             3455     57.47212E+06    57.472872E+06  -114.943168E+06   344.829792E+06  -1.93819458E+03   344.828512E+06
             3456     57.46738E+06    57.470132E+06   -114.94228E+06   344.828288E+06      -394.768463   344.827968E+06
             3457    57.461164E+06    57.466336E+06  -114.949504E+06   344.825536E+06  -1.45578784E+03   344.827904E+06
             3458     57.47088E+06    57.472288E+06     -114.942E+06   344.827392E+06      -431.912140   344.828992E+06
             3459      57.4698E+06    57.469344E+06  -114.942704E+06   344.828128E+06      -591.944214    344.82864E+06
             3460      57.4529E+06    57.457556E+06  -114.956872E+06   344.826976E+06      -887.555237   344.828864E+06
             3461    57.480604E+06    57.485048E+06  -114.936296E+06   344.831328E+06       604.100220   344.826144E+06
             3462     57.48242E+06      57.4838E+06  -114.930696E+06   344.828032E+06       424.872314   344.824192E+06
             3463    57.473452E+06    57.474204E+06   -114.94016E+06    344.82768E+06       112.502213    344.82752E+06
             3464    57.464608E+06    57.464772E+06  -114.949592E+06   344.828288E+06  -1.37215442E+03   344.827168E+06
             3465    57.469688E+06    57.460972E+06  -114.948512E+06    344.82896E+06   1.77072424E+03   344.825888E+06
             3466    57.444552E+06    57.450764E+06  -114.962752E+06   344.831552E+06      -498.520691    344.83088E+06
             3467     57.46684E+06    57.465924E+06  -114.946832E+06   344.826912E+06      -948.039307   344.828192E+06
             3468    57.418484E+06     57.40496E+06  -114.995552E+06   344.831936E+06       221.354492     344.8312E+06
             3469     57.49234E+06     57.49232E+06  -114.924288E+06   344.825728E+06   1.46481702E+03   344.824064E+06
             3470    57.472884E+06     57.47166E+06  -114.939888E+06   344.826848E+06   1.39643713E+03    344.83168E+06
             3471    57.433892E+06    57.441904E+06   -114.97476E+06   344.825152E+06  -6.27877637E+03   344.834624E+06
             3472    57.468596E+06    57.466964E+06  -114.946848E+06   344.828768E+06       86.9192810   344.828448E+06
             3473    57.513904E+06    57.496052E+06  -114.915368E+06   344.832128E+06       401.403839   344.825824E+06
             3474    57.460484E+06    57.461532E+06  -114.956368E+06   344.831424E+06      -428.316223    344.82848E+06
             3475     57.41862E+06    57.407604E+06  -114.992472E+06   344.820352E+06  -2.24899243E+03   344.833664E+06
             3476    57.488192E+06    57.492228E+06  -114.926168E+06   344.828864E+06       710.066711   344.830144E+06
             3477    57.451404E+06    57.448772E+06   -114.96636E+06    344.83168E+06   3.27098657E+03   344.837472E+06
             3478    57.456684E+06    57.453476E+06   -114.96136E+06   344.834336E+06   1.48562512E+03   344.824864E+06
             3479    57.470352E+06    57.478572E+06  -114.940448E+06   344.825568E+06       341.538055   344.831904E+06
             3480    57.443256E+06    57.451168E+06  -114.963048E+06    344.82576E+06      -760.012085   344.829952E+06
             3481    57.470572E+06    57.470428E+06  -114.943624E+06   344.828128E+06      -325.747772    344.82832E+06
             3482    57.476036E+06    57.478908E+06  -114.937976E+06    344.82768E+06      -873.570618   344.826912E+06
             3483    57.469692E+06    57.470496E+06   -114.94308E+06   344.827616E+06      -172.157227   344.828288E+06
             3484    57.451672E+06    57.444104E+06  -114.963616E+06   344.828384E+06      -412.818146    344.82688E+06
             3485    57.471552E+06    57.470548E+06  -114.942424E+06   344.828032E+06      -124.530098   344.827424E+06
             3486    57.476492E+06     57.47864E+06  -114.934616E+06   344.826528E+06      -981.012573   344.826656E+06
             3487      57.4634E+06     57.46134E+06  -114.951368E+06   344.827744E+06       741.443909    344.82992E+06
             3488    57.474776E+06    57.473316E+06  -114.933584E+06   344.818432E+06  -2.03728284E+03   344.824576E+06
             3489     57.52686E+06    57.541372E+06  -114.887384E+06   344.833248E+06   3.64948657E+03   344.831264E+06
             3490    57.472212E+06    57.471476E+06  -114.941336E+06   344.823648E+06   1.79417847E+03   344.828928E+06
             3491    57.475424E+06    57.474672E+06  -114.936416E+06   344.827616E+06      -73.0312271   344.828384E+06
             3492    57.444852E+06    57.469048E+06   -114.95688E+06   344.823936E+06  -1.98251196E+03    344.83136E+06
             3493    57.464292E+06     57.46392E+06  -114.949336E+06   344.827264E+06       90.4366379   344.829504E+06
             3494    57.469936E+06    57.473332E+06  -114.940688E+06   344.825632E+06  -1.54511975E+03   344.826464E+06
             3495    57.477416E+06    57.477552E+06  -114.936344E+06   344.827552E+06       129.638657   344.828256E+06
             3496    57.509488E+06     57.50198E+06  -114.910208E+06    344.82832E+06   2.94551318E+03   344.824448E+06
             3497    57.483496E+06    57.478952E+06  -114.933224E+06   344.827936E+06       900.473633   344.826528E+06
             3498    57.466568E+06    57.461028E+06  -114.944872E+06   344.824544E+06       126.069275   344.828384E+06
             3499      57.4717E+06    57.464124E+06  -114.942232E+06   344.825824E+06      -288.606628   344.823136E+06
             3500    57.471024E+06    57.471532E+06  -114.941296E+06   344.827872E+06   1.13719287E+03   344.828864E+06
             3501    57.470372E+06    57.469804E+06  -114.942968E+06   344.828704E+06      -252.447998   344.828416E+06
             3502    57.493428E+06    57.498588E+06  -114.919672E+06   344.822848E+06       557.893494   344.829056E+06
             3503    57.471736E+06      57.4714E+06   -114.94212E+06   344.827552E+06      -257.246552   344.827872E+06
             3504    57.461396E+06    57.460544E+06     -114.956E+06   344.833504E+06       375.460510   344.829056E+06
             3505    57.472672E+06    57.472896E+06  -114.941056E+06   344.827744E+06       119.962418      344.828E+06
             3506    57.468988E+06       57.469E+06   -114.94564E+06   344.829216E+06       319.142365    344.82832E+06
             3507    57.481784E+06    57.482444E+06  -114.932024E+06   344.824736E+06       600.453003   344.828064E+06
             3508    57.465264E+06    57.466168E+06  -114.947488E+06   344.827904E+06      -704.499695   344.827456E+06
             3509     57.50168E+06    57.516764E+06   -114.90948E+06   344.825792E+06       85.0880356   344.830784E+06
             3510     57.49594E+06    57.493616E+06   -114.91972E+06   344.821344E+06       641.909424   344.826656E+06
             3511    57.470732E+06    57.470984E+06  -114.943136E+06   344.828224E+06       22.1497135   344.828128E+06
             3512    57.473268E+06    57.472344E+06  -114.940984E+06   344.827776E+06      -272.454071   344.827584E+06
             3513    57.472516E+06      57.4735E+06  -114.941544E+06   344.826656E+06  -1.76183130E+03   344.829216E+06
             3514    57.474808E+06    57.474648E+06  -114.937728E+06   344.827488E+06      -461.203827   344.828288E+06
             3515      57.4732E+06    57.477692E+06  -114.940424E+06   344.830272E+06   2.30023096E+03   344.831616E+06
             3516    57.474212E+06     57.47492E+06  -114.941472E+06   344.829216E+06      -436.685852   344.827648E+06
             3517      57.5303E+06    57.536968E+06  -114.883376E+06    344.81904E+06      -474.759674   344.820672E+06
             3518    57.481952E+06    57.485436E+06  -114.927688E+06   344.826496E+06      -423.408356   344.826176E+06
             3519    57.455312E+06     57.45996E+06  -114.958848E+06    344.82816E+06      -990.047485   344.827744E+06
             3520    57.399636E+06     57.41132E+06  -115.006144E+06   344.837248E+06   1.94568628E+03   344.833568E+06
             3521    57.421436E+06    57.437304E+06  -114.978696E+06     344.8288E+06   3.02881201E+03   344.832896E+06
             3522    57.477308E+06    57.480312E+06  -114.938056E+06   344.826336E+06       577.226013   344.825472E+06
             3523    57.471332E+06    57.470492E+06   -114.94348E+06    344.82832E+06       201.944870   344.828032E+06
             3524    57.472572E+06    57.472076E+06   -114.94208E+06   344.828416E+06      -186.125259   344.827584E+06
             3525    57.480264E+06    57.479156E+06  -114.935256E+06   344.828608E+06       595.477844    344.82736E+06
             3526     57.47066E+06    57.470852E+06  -114.943488E+06   344.828096E+06      -7.50918341   344.827616E+06
             3527    57.470804E+06    57.470884E+06  -114.943032E+06    344.82784E+06       58.8505096   344.827648E+06
             3528    57.498584E+06    57.509624E+06    -114.9094E+06   344.822496E+06      -274.182404   344.822976E+06
             3529    57.447472E+06    57.454432E+06   -114.96016E+06    344.82592E+06      -702.807434    344.82864E+06
             3530    57.473684E+06    57.475312E+06  -114.941064E+06   344.828096E+06      -218.235153   344.827616E+06
             3531     57.49706E+06    57.500204E+06   -114.91608E+06    344.82752E+06      -423.100159   344.822368E+06
             3532    57.473396E+06    57.472028E+06  -114.941296E+06   344.827904E+06      -330.014099   344.827104E+06
             3533    57.472328E+06    57.472608E+06  -114.941368E+06   344.827968E+06       212.833221   344.827808E+06
             3534     57.47172E+06     57.47162E+06  -114.940888E+06   344.828992E+06       247.315704   344.828736E+06
             3535    57.438752E+06    57.426836E+06  -114.977232E+06    344.83472E+06       559.875305   344.827488E+06
             3536    57.456548E+06    57.454648E+06   -114.95484E+06     344.8248E+06   1.78348376E+03   344.836608E+06
             3537    57.475716E+06    57.474936E+06  -114.937488E+06   344.827808E+06      -870.938599   344.827456E+06
             3538    57.471648E+06     57.46832E+06  -114.944056E+06   344.826976E+06  -1.66321692E+03   344.828352E+06
             3539     57.52084E+06    57.507152E+06  -114.906008E+06   344.828288E+06   2.05487671E+03   344.823712E+06
             3540    57.473008E+06    57.472604E+06  -114.941392E+06      344.828E+06      -119.862160    344.82848E+06
             3541    57.471556E+06      57.4728E+06  -114.941936E+06   344.827872E+06       388.085663   344.828064E+06
             3542    57.470528E+06     57.47112E+06  -114.943384E+06    344.82784E+06       350.644440   344.828064E+06
             3543    57.471848E+06      57.4713E+06  -114.945672E+06   344.831776E+06       991.122009   344.829088E+06
             3544    57.470272E+06    57.469184E+06  -114.944544E+06   344.833728E+06       943.853882    344.82736E+06
             3545    57.469976E+06    57.471624E+06  -114.941664E+06   344.828736E+06   1.98202515E+03   344.828192E+06
             3546    57.469464E+06    57.469048E+06   -114.94688E+06   344.828672E+06      -647.764282    344.82784E+06
             3547    57.477568E+06    57.477976E+06  -114.937848E+06    344.82992E+06   1.28719629E+03   344.828928E+06
             3548    57.473908E+06     57.47408E+06  -114.940352E+06    344.82832E+06      -49.5913429   344.827488E+06
             3549     57.46688E+06    57.470944E+06  -114.945864E+06    344.82896E+06   1.01298157E+03   344.827456E+06
             3550    57.468264E+06    57.464712E+06  -114.946784E+06   344.826848E+06  -1.20941748E+03   344.827424E+06
             3551    57.440948E+06    57.435552E+06  -114.971944E+06   344.833344E+06   1.32720593E+03   344.833568E+06
             3552    57.470472E+06    57.466168E+06  -114.945704E+06   344.830368E+06   2.24934912E+03   344.828416E+06
             3553    57.467132E+06    57.467744E+06   -114.94672E+06   344.828832E+06  -1.43213416E+03   344.829216E+06
             3554    57.470992E+06     57.47656E+06  -114.940784E+06   344.831168E+06   2.11755542E+03   344.830368E+06
             3555    57.468988E+06    57.468468E+06   -114.94464E+06   344.827776E+06       475.552795   344.828352E+06
             3556    57.480976E+06     57.47836E+06   -114.93508E+06   344.828096E+06       833.200317   344.827616E+06
             3557    57.444184E+06     57.43332E+06   -114.97024E+06   344.828384E+06      -33.9296951   344.826336E+06
             3558    57.405768E+06    57.402332E+06  -115.010104E+06   344.837472E+06       240.116776    344.83664E+06
             3559    57.472528E+06    57.472652E+06  -114.941496E+06   344.827936E+06      -361.397186   344.827904E+06
             3560    57.468356E+06    57.466296E+06  -114.947184E+06   344.827936E+06       115.638893   344.828576E+06
             3561    57.520488E+06    57.516332E+06  -114.894272E+06   344.815456E+06   1.60803381E+03   344.817568E+06
             3562     57.47106E+06    57.471416E+06   -114.94312E+06   344.827872E+06      -22.7884274   344.828224E+06
             3563    57.471048E+06    57.466168E+06  -114.945936E+06   344.827776E+06  -1.39287817E+03   344.826688E+06
             3564    57.478544E+06    57.482716E+06  -114.932616E+06   344.820832E+06  -2.50045752E+03   344.826432E+06
             3565     57.46014E+06    57.457304E+06  -114.954488E+06   344.835072E+06   1.28392029E+03    344.82704E+06
             3566    57.483388E+06    57.487848E+06  -114.929264E+06   344.827008E+06  -1.20459399E+03   344.824032E+06
             3567    57.472652E+06     57.47588E+06  -114.940592E+06    344.82864E+06       174.095291   344.827712E+06
             3568    57.492708E+06    57.484072E+06  -114.925376E+06   344.825024E+06   1.28917505E+03    344.82384E+06
             3569    57.468324E+06    57.464716E+06  -114.947632E+06   344.827104E+06  -1.27681274E+03   344.828384E+06
             3570    57.471244E+06    57.471168E+06  -114.942928E+06   344.827872E+06      -243.498398   344.827968E+06
             3571     57.47308E+06    57.472736E+06  -114.941464E+06   344.827712E+06      -146.215164   344.828288E+06
             3572    57.472572E+06    57.474992E+06  -114.943368E+06   344.833376E+06      -814.859924   344.825984E+06
             3573    57.475272E+06    57.479628E+06   -114.93552E+06   344.827488E+06      -27.8643799   344.827808E+06
             3574      57.4665E+06    57.464688E+06  -114.949296E+06    344.82496E+06       693.767212    344.82944E+06
             3575    57.469656E+06      57.4639E+06  -114.950448E+06    344.83104E+06  -1.39900854E+03   344.827072E+06
             3576    57.462424E+06    57.460084E+06    -114.9506E+06    344.82608E+06       795.739380   344.831936E+06
             3577    57.468616E+06     57.46898E+06  -114.945448E+06    344.82848E+06      -30.1408501   344.827936E+06
             3578    57.471668E+06    57.474756E+06  -114.942464E+06   344.825856E+06  -1.99025183E+03   344.828256E+06
             3579    57.466768E+06    57.462796E+06  -114.949624E+06    344.82912E+06      -446.579163   344.828064E+06
             3580    57.497776E+06    57.492672E+06   -114.91988E+06   344.823648E+06       83.1445465   344.825472E+06
             3581    57.367248E+06    57.384436E+06  -115.033752E+06   344.836576E+06   2.78082056E+03    344.83968E+06
             3582    57.467352E+06    57.466424E+06    -114.9466E+06   344.830848E+06   1.02121509E+03   344.828448E+06
             3583    57.498444E+06    57.498072E+06  -114.919448E+06   344.825504E+06      -461.861450   344.826496E+06
             3584    57.468844E+06     57.46956E+06   -114.94512E+06    344.82768E+06  -1.36512488E+03    344.82672E+06
             3585    57.487368E+06    57.487228E+06  -114.928248E+06    344.82736E+06   1.33939124E+03   344.831296E+06
             3586    57.477772E+06     57.47896E+06  -114.935232E+06    344.82528E+06       189.219742   344.827968E+06
             3587    57.467964E+06    57.466956E+06  -114.946104E+06    344.82832E+06      -29.5602093    344.82864E+06
             3588    57.451348E+06    57.458816E+06  -114.960576E+06   344.839776E+06      -82.9888840   344.832416E+06
             3589    57.478164E+06    57.479224E+06  -114.935656E+06   344.827104E+06      -806.869751   344.826592E+06
             3590    57.522644E+06      57.5063E+06  -114.905304E+06      344.832E+06   5.56634521E+03    344.82512E+06
             3591    57.473372E+06    57.475276E+06    -114.9404E+06    344.82624E+06  -2.33058691E+03   344.829792E+06
             3592    57.473436E+06    57.472244E+06  -114.943536E+06   344.831232E+06      -236.438446   344.826336E+06
             3593    57.456624E+06    57.455132E+06  -114.958048E+06     344.8288E+06  -2.08258887E+03   344.829632E+06
             3594    57.478532E+06    57.478188E+06  -114.935512E+06   344.823776E+06       682.875916   344.827616E+06
             3595    57.465184E+06    57.467064E+06  -114.947464E+06     344.8304E+06      -194.807922   344.827584E+06
             3596    57.467588E+06    57.465672E+06  -114.946568E+06   344.828832E+06      -52.4182053   344.828448E+06
             3597    57.477116E+06     57.47482E+06  -114.938144E+06    344.82832E+06       165.483902   344.827456E+06
             3598    57.435772E+06    57.421492E+06  -114.982128E+06    344.83104E+06   1.32122144E+03   344.832512E+06
             3599     57.46816E+06    57.470996E+06  -114.945336E+06   344.827648E+06       362.220032    344.83136E+06
             3600    57.441896E+06    57.430908E+06  -114.972344E+06   344.829088E+06       280.341583   344.825792E+06
             3601    57.510348E+06    57.522944E+06  -114.900736E+06   344.821088E+06  -1.96092676E+03   344.825216E+06
             3602    57.504992E+06     57.51868E+06  -114.903712E+06    344.82688E+06      -4.90834713   344.828096E+06
             3603    57.467896E+06    57.467024E+06  -114.946224E+06   344.828064E+06      -826.353027    344.82784E+06
             3604    57.472792E+06    57.472476E+06  -114.941912E+06   344.828512E+06      -207.205139    344.82768E+06
             3605     57.47754E+06    57.479112E+06  -114.936696E+06   344.828704E+06       36.7217484   344.828256E+06
             3606     57.46728E+06    57.468148E+06   -114.94744E+06   344.829408E+06       863.063660   344.829056E+06
             3607    57.459636E+06    57.459068E+06  -114.950376E+06   344.831648E+06   2.02963721E+03   344.827008E+06
             3608    57.467376E+06    57.468368E+06  -114.945944E+06   344.828192E+06  -1.01221869E+03    344.82784E+06
             3609    57.472124E+06    57.472832E+06   -114.94212E+06   344.827808E+06      -920.799194   344.827936E+06
             3610      57.4791E+06    57.478748E+06  -114.933768E+06    344.82576E+06      -492.758728   344.826912E+06
             3611    57.467704E+06    57.465452E+06   -114.94748E+06   344.830144E+06       207.414825   344.827968E+06
             3612    57.423968E+06    57.420116E+06  -114.993392E+06   344.833056E+06       393.756378   344.836864E+06
             3613    57.474884E+06     57.47776E+06  -114.937144E+06   344.827648E+06       574.939026   344.828704E+06
             3614    57.511472E+06     57.52456E+06  -114.899112E+06   344.820832E+06  -1.96980762E+03   344.824928E+06
             3615    57.460604E+06    57.462556E+06  -114.950432E+06   344.827392E+06      -588.468079   344.829664E+06
             3616    57.481208E+06    57.484344E+06   -114.93032E+06    344.82496E+06      -522.125122    344.82816E+06
             3617    57.466732E+06    57.467576E+06  -114.945048E+06   344.827392E+06      -148.752853   344.827808E+06
             3618    57.469588E+06     57.47342E+06  -114.939848E+06   344.822816E+06      -392.542999    344.82736E+06
             3619    57.473152E+06    57.473232E+06  -114.939928E+06     344.8272E+06       527.105957   344.827712E+06
             3620    57.473072E+06    57.472872E+06   -114.94084E+06   344.827552E+06       138.929825   344.827456E+06
             3621    57.458548E+06     57.46046E+06  -114.956288E+06    344.83136E+06   1.77620337E+03   344.828192E+06
             3622    57.468248E+06     57.46826E+06   -114.94548E+06   344.828352E+06      -335.103210    344.82816E+06
             3623    57.465436E+06    57.462924E+06    -114.9514E+06   344.832096E+06      -840.606995   344.828064E+06
             3624    57.475204E+06    57.475364E+06  -114.939296E+06    344.82736E+06      -228.051849   344.827712E+06
             3625    57.458268E+06    57.462576E+06  -114.950776E+06   344.826752E+06      -325.774231   344.828576E+06
             3626    57.463344E+06     57.46684E+06   -114.94652E+06    344.82736E+06   1.48190027E+03   344.829088E+06
             3627    57.523532E+06    57.531632E+06  -114.889176E+06    344.82128E+06  -1.32193994E+03    344.82176E+06
             3628     57.46956E+06      57.4697E+06   -114.94376E+06   344.827904E+06       439.428467   344.828384E+06
             3629     57.47008E+06    57.472504E+06  -114.941264E+06   344.828288E+06      -841.954895   344.827232E+06
             3630    57.470156E+06    57.469988E+06   -114.94384E+06   344.828864E+06       835.036743   344.828352E+06
             3631    57.448444E+06    57.449972E+06   -114.96496E+06   344.834624E+06   3.45908813E+03   344.829472E+06
             3632    57.466572E+06    57.463984E+06  -114.948576E+06   344.828704E+06      -733.923096   344.828064E+06
             3633     57.46824E+06     57.46418E+06   -114.94768E+06     344.8272E+06   1.08901685E+03     344.8288E+06
             3634    57.477148E+06    57.478776E+06  -114.933072E+06   344.827232E+06       782.548584   344.827744E+06
             3635    57.489632E+06    57.497456E+06  -114.923512E+06   344.825728E+06      -2.38014221   344.830208E+06
             3636    57.472236E+06    57.474116E+06  -114.938976E+06    344.82736E+06       220.837997    344.82768E+06
             3637     57.46642E+06    57.469116E+06  -114.945456E+06    344.82832E+06      -356.469543    344.82816E+06
             3638    57.472064E+06    57.474576E+06   -114.94144E+06   344.827072E+06      -858.215332   344.827616E+06
             3639    57.460528E+06     57.45686E+06  -114.954976E+06   344.827264E+06  -1.44156689E+03   344.827808E+06
             3640     57.46508E+06    57.464748E+06  -114.949568E+06   344.829152E+06       296.843323     344.8288E+06
             3641      57.4613E+06    57.463616E+06  -114.950928E+06    344.82896E+06      -416.514954   344.828864E+06
             3642    57.452468E+06     57.46022E+06    -114.9616E+06   344.834656E+06   4.46203809E+03   344.833952E+06
             3643     57.47066E+06     57.47114E+06  -114.942456E+06   344.827968E+06       95.1142426   344.828032E+06
             3644    57.466656E+06    57.465784E+06  -114.947992E+06   344.828736E+06      -519.851074    344.82832E+06
             3645    57.482552E+06    57.479192E+06  -114.932296E+06   344.824064E+06       895.432800   344.826688E+06
             3646    57.476972E+06    57.480272E+06   -114.93436E+06    344.82768E+06       601.229431   344.825216E+06
             3647     57.45682E+06    57.451408E+06  -114.958752E+06   344.827712E+06       232.167511   344.829376E+06
             3648    57.477632E+06     57.48496E+06   -114.93464E+06   344.827552E+06      -304.546631   344.831808E+06
             3649    57.454688E+06    57.449964E+06  -114.959056E+06    344.82512E+06      -289.212250   344.831232E+06
             3650    57.472512E+06    57.471476E+06    -114.9414E+06   344.827488E+06      -204.350769   344.828608E+06
             3651     57.47082E+06     57.47126E+06  -114.942824E+06   344.828672E+06      -181.183884   344.827168E+06
             3652    57.473284E+06    57.472492E+06  -114.941104E+06   344.827808E+06      -264.893677    344.82768E+06
             3653    57.513536E+06    57.515012E+06   -114.90832E+06   344.826176E+06      -51.4354973   344.825248E+06
             3654    57.470528E+06    57.470164E+06  -114.943992E+06   344.827136E+06      -470.360870   344.827808E+06
             3655    57.470996E+06     57.47046E+06  -114.942824E+06   344.827904E+06      -341.189423   344.827136E+06
             3656    57.476044E+06     57.47506E+06  -114.939224E+06      344.828E+06      -83.8626938     344.8272E+06
             3657    57.464732E+06    57.462788E+06  -114.948824E+06   344.828768E+06      -364.347412   344.828576E+06
             3658    57.464712E+06    57.464808E+06   -114.94888E+06   344.829184E+06       393.649933    344.82848E+06
             3659    57.463196E+06    57.468584E+06  -114.946152E+06    344.82352E+06       425.960388   344.828992E+06
             3660     57.49498E+06    57.492216E+06  -114.920144E+06   344.822624E+06  -5.69565869E+03   344.822464E+06
             3661    57.474404E+06    57.473256E+06  -114.941024E+06    344.82864E+06      -186.560562   344.827552E+06
             3662    57.460664E+06    57.467964E+06  -114.945576E+06   344.827104E+06      -344.763672   344.829408E+06
             3663    57.468904E+06    57.467944E+06  -114.945144E+06   344.825568E+06       872.002991   344.830976E+06
             3664    57.551424E+06    57.536572E+06  -114.873368E+06   344.817792E+06  -3.30089722E+03   344.821152E+06
             3665    57.474272E+06    57.473468E+06  -114.941648E+06   344.827296E+06  -1.23550122E+03    344.82608E+06
             3666    57.471948E+06    57.475572E+06   -114.94192E+06   344.828064E+06      -444.568329   344.827328E+06
             3667     57.47348E+06      57.4735E+06  -114.940816E+06   344.827872E+06      -292.906616   344.827456E+06
             3668    57.476048E+06     57.47628E+06  -114.937992E+06    344.82672E+06      -146.959915   344.827936E+06
             3669     57.47466E+06    57.472572E+06  -114.936176E+06    344.82784E+06       732.990540   344.826144E+06
             3670    57.480268E+06    57.486356E+06   -114.93312E+06   344.827168E+06      -980.628662     344.8256E+06
             3671    57.474388E+06    57.471752E+06  -114.939504E+06   344.826208E+06      -47.4505959   344.827648E+06
             3672    57.456212E+06    57.459784E+06  -114.953536E+06    344.82512E+06      -533.470947   344.829024E+06
             3673    57.476712E+06    57.477004E+06  -114.938208E+06   344.828544E+06       264.483002   344.828288E+06
             3674    57.444128E+06      57.4477E+06  -114.966992E+06   344.829952E+06   1.61791711E+03   344.830624E+06
             3675    57.507844E+06    57.511416E+06  -114.904288E+06   344.822144E+06  -1.32734448E+03   344.819936E+06
             3676    57.469524E+06    57.469584E+06  -114.947392E+06   344.829408E+06       228.046616   344.828608E+06
             3677    57.474608E+06    57.475016E+06   -114.94152E+06   344.829792E+06       433.026917   344.826656E+06
             3678     57.41346E+06    57.396784E+06  -115.002328E+06    344.82704E+06  -1.82147278E+03   344.826208E+06
             3679    57.463736E+06    57.462032E+06  -114.950456E+06   344.829504E+06      -219.703537   344.824896E+06
             3680    57.497068E+06    57.501132E+06  -114.916544E+06   344.829216E+06       486.404785   344.823104E+06
             3681     57.46804E+06     57.47668E+06  -114.940544E+06    344.82096E+06  -2.15333301E+03    344.82816E+06
             3682    57.470088E+06     57.47038E+06   -114.94312E+06      344.828E+06      -73.1273270   344.828256E+06
             3683    57.495716E+06      57.4875E+06  -114.925632E+06   344.829952E+06       973.168701   344.826848E+06
             3684    57.467104E+06    57.466456E+06  -114.946464E+06   344.828928E+06      -454.430450   344.829152E+06
             3685    57.494512E+06    57.510736E+06  -114.908792E+06   344.820512E+06  -3.14145728E+03   344.823584E+06
             3686    57.467268E+06    57.469588E+06  -114.948632E+06   344.828384E+06       194.352264   344.829056E+06
             3687     57.42458E+06    57.437024E+06  -114.979384E+06    344.82336E+06  -4.90912744E+03   344.829536E+06
             3688    57.470296E+06    57.470892E+06  -114.942984E+06   344.828224E+06       90.9000778   344.828192E+06
             3689    57.474844E+06    57.474136E+06  -114.939552E+06   344.828256E+06       89.7228928   344.828224E+06
             3690    57.464592E+06    57.466084E+06  -114.947624E+06   344.830176E+06       202.702667   344.826432E+06
             3691    57.466848E+06    57.467192E+06  -114.947648E+06   344.828128E+06      -120.477112   344.829152E+06
             3692    57.462372E+06    57.460732E+06  -114.949944E+06   344.828512E+06  -2.79022095E+03   344.827424E+06
             3693     57.46516E+06    57.466264E+06  -114.949032E+06   344.827168E+06  -2.26161206E+03   344.827072E+06
             3694     57.48494E+06    57.479356E+06  -114.931216E+06    344.82608E+06      -677.715271   344.824672E+06
             3695    57.498372E+06    57.502848E+06  -114.916216E+06   344.823552E+06      -231.244064   344.825472E+06
             3696     57.47196E+06    57.472044E+06  -114.942472E+06    344.82768E+06      -10.7268181   344.827392E+06
             3697      57.4856E+06    57.482444E+06  -114.927272E+06    344.82608E+06   2.46248682E+03   344.827136E+06
             3698    57.468816E+06    57.469456E+06   -114.94424E+06   344.828032E+06      -26.8731651   344.828128E+06
             3699    57.473124E+06    57.473048E+06  -114.940288E+06    344.82688E+06      -464.374939   344.828096E+06
             3700    57.473376E+06    57.474172E+06   -114.94052E+06   344.828544E+06      -469.658417    344.82704E+06
             3701    57.462992E+06       57.461E+06  -114.951752E+06     344.8288E+06      -615.554077    344.82832E+06
             3702    57.468308E+06     57.46918E+06  -114.945112E+06    344.82784E+06      -342.685638   344.828352E+06
             3703    57.472392E+06    57.476204E+06  -114.939272E+06   344.827168E+06       135.932922   344.828032E+06
             3704    57.474404E+06    57.487072E+06  -114.932512E+06   344.825824E+06      -155.061172   344.831392E+06
             3705    57.479532E+06    57.477816E+06  -114.933896E+06   344.826208E+06   1.36536768E+03   344.826656E+06
             3706    57.471892E+06    57.480768E+06   -114.94124E+06   344.827648E+06  -4.32830811E+03   344.834368E+06
             3707    57.470992E+06    57.472204E+06  -114.942296E+06   344.827296E+06      -261.177277      344.828E+06
             3708    57.471384E+06    57.472724E+06  -114.941248E+06   344.824768E+06  -2.22583447E+03   344.827744E+06
             3709     57.50434E+06    57.504448E+06  -114.910352E+06   344.822784E+06      -632.481873    344.82608E+06
             3710     57.45866E+06     57.46044E+06   -114.95368E+06   344.830432E+06      -226.292038    344.82896E+06
             3711     57.47042E+06     57.46956E+06  -114.943152E+06   344.828096E+06       650.012695   344.828384E+06
             3712    57.451108E+06    57.439948E+06  -114.961216E+06   344.823712E+06  -1.33783411E+03   344.827136E+06
             3713    57.468992E+06      57.4684E+06  -114.945992E+06      344.828E+06      -611.419312   344.828672E+06
             3714    57.495692E+06     57.48824E+06   -114.92448E+06   344.827744E+06      -27.1460915   344.825408E+06
             3715    57.465992E+06    57.463088E+06  -114.948736E+06   344.828736E+06  -1.25277307E+03   344.828928E+06
             3716    57.525612E+06    57.522108E+06  -114.889448E+06   344.815872E+06   1.76044678E+03   344.817344E+06
             3717    57.458592E+06     57.44498E+06  -114.960144E+06    344.82544E+06   1.69931641E+03   344.823552E+06
             3718    57.469624E+06     57.46888E+06  -114.945336E+06   344.828224E+06       164.044693    344.82832E+06
             3719    57.477612E+06    57.481276E+06  -114.936832E+06   344.824352E+06      -729.440979   344.828288E+06
             3720    57.473268E+06    57.473536E+06  -114.939136E+06   344.826848E+06       179.340042   344.827712E+06
             3721    57.478468E+06     57.48498E+06   -114.93168E+06   344.825664E+06       266.205811   344.828672E+06
             3722     57.49536E+06    57.508188E+06  -114.919208E+06   344.833248E+06      -777.559448   344.825504E+06
             3723    57.467832E+06    57.470488E+06     -114.944E+06   344.828384E+06   1.93587012E+03    344.82848E+06
             3724    57.472044E+06     57.47038E+06  -114.942408E+06   344.828256E+06   1.40903711E+03   344.828128E+06
             3725    57.427484E+06    57.409296E+06  -114.989336E+06    344.82784E+06  -1.75959412E+03   344.827264E+06
             3726    57.471908E+06    57.468796E+06  -114.943592E+06   344.826944E+06  -3.36607715E+03   344.827904E+06
             3727    57.458076E+06     57.45672E+06  -114.962168E+06   344.829568E+06       230.315216   344.826112E+06
             3728      57.4689E+06    57.469584E+06  -114.944232E+06   344.827808E+06       205.304367   344.828224E+06
             3729    57.444812E+06     57.45108E+06   -114.96532E+06   344.834272E+06   4.08210352E+03   344.829856E+06
             3730     57.47578E+06      57.4773E+06  -114.937976E+06   344.827744E+06       22.8552418      344.828E+06
             3731    57.466396E+06     57.46394E+06  -114.948256E+06   344.829312E+06       657.723999   344.826432E+06
             3732     57.47032E+06    57.471976E+06  -114.943224E+06   344.827648E+06       637.641296   344.828288E+06
             3733     57.47348E+06    57.474716E+06   -114.94068E+06   344.827648E+06      -604.761780    344.82752E+06
             3734    57.502208E+06    57.512616E+06   -114.91272E+06   344.829472E+06       257.959351   344.825408E+06
             3735    57.470876E+06    57.469244E+06   -114.94044E+06   344.827072E+06      -784.064331   344.827488E+06
             3736    57.479928E+06    57.475016E+06  -114.935848E+06   344.826112E+06  -1.87546313E+03    344.82736E+06
             3737      57.4663E+06    57.468808E+06  -114.947272E+06   344.828288E+06   1.20337573E+03   344.828416E+06
             3738    57.506292E+06    57.499072E+06  -114.916624E+06   344.823904E+06      -586.040894   344.828224E+06
             3739    57.497668E+06     57.50426E+06  -114.913808E+06    344.82688E+06   1.15202502E+03   344.822112E+06
             3740    57.393064E+06     57.38616E+06   -115.02196E+06   344.836608E+06  -1.63325940E+03    344.83984E+06
             3741    57.485108E+06    57.483856E+06  -114.931848E+06   344.826272E+06  -1.25989636E+03   344.826848E+06
             3742     57.46616E+06    57.466588E+06  -114.946256E+06   344.826368E+06      -294.511597   344.828288E+06
             3743    57.460596E+06    57.469328E+06  -114.953704E+06    344.83088E+06      -449.900848   344.829152E+06
             3744    57.452352E+06    57.453664E+06  -114.964152E+06   344.832608E+06   1.37974854E+03   344.831072E+06
             3745     57.47704E+06    57.476912E+06  -114.938776E+06   344.827936E+06      -92.8408127   344.826464E+06
             3746    57.449652E+06    57.454096E+06  -114.959736E+06   344.826304E+06  -3.26666113E+03   344.829216E+06
             3747      57.4681E+06    57.467416E+06   -114.94608E+06    344.82832E+06      -506.342194   344.828224E+06
             3748    57.471916E+06    57.472036E+06  -114.942592E+06   344.828448E+06       38.9552727   344.827744E+06
             3749    57.468612E+06    57.467492E+06  -114.945224E+06   344.827584E+06      -377.823120    344.82816E+06
             3750    57.467416E+06    57.463136E+06  -114.945816E+06   344.827104E+06       405.929565   344.829248E+06
             3751    57.466532E+06    57.465456E+06   -114.94708E+06   344.827296E+06  -1.09716736E+03   344.827936E+06
             3752    57.476044E+06    57.475476E+06   -114.93896E+06   344.829952E+06   2.28638306E+03   344.828192E+06
             3753    57.468888E+06    57.468416E+06  -114.944616E+06   344.826944E+06       274.622498   344.827296E+06
             3754    57.477172E+06     57.47754E+06  -114.937456E+06   344.828704E+06      -372.997711      344.828E+06
             3755     57.43626E+06    57.420692E+06  -114.981464E+06   344.833248E+06      -967.920898   344.833184E+06
             3756     57.46702E+06    57.469844E+06  -114.945968E+06   344.828448E+06      -248.726089    344.82944E+06
             3757     57.46776E+06    57.468324E+06  -114.945256E+06   344.828544E+06       406.246948    344.82864E+06
             3758    57.474872E+06     57.47404E+06  -114.939328E+06   344.827424E+06      -476.264709    344.82768E+06
             3759    57.474676E+06    57.476176E+06  -114.938088E+06   344.828352E+06       21.1449280   344.828064E+06
             3760      57.4742E+06    57.471436E+06  -114.943448E+06   344.828672E+06       755.645325   344.828448E+06
             3761    57.473912E+06    57.471164E+06  -114.944216E+06   344.828416E+06      -492.913177   344.827776E+06
             3762     57.47066E+06    57.467396E+06  -114.945976E+06   344.830816E+06       274.702789   344.828672E+06
             3763      57.4762E+06     57.47586E+06   -114.93968E+06    344.83088E+06        444.65625   344.828128E+06
             3764     57.47512E+06    57.476144E+06  -114.939008E+06    344.82832E+06       179.607346   344.828064E+06
             3765    57.472688E+06     57.47614E+06   -114.94028E+06   344.827648E+06      -114.994438   344.828512E+06
             3766    57.477372E+06    57.475556E+06  -114.939688E+06    344.82896E+06   1.16084839E+03   344.826016E+06
             3767     57.47608E+06    57.472068E+06   -114.93796E+06   344.827936E+06   2.85504712E+03   344.829312E+06
             3768     57.46798E+06    57.468476E+06  -114.947536E+06   344.834336E+06   5.23652979E+03    344.82912E+06
             3769    57.474008E+06    57.472528E+06  -114.937856E+06   344.828384E+06       626.093445    344.82768E+06
             3770    57.431352E+06    57.439712E+06  -114.975832E+06   344.831168E+06   1.78081665E+03   344.830752E+06
             3771    57.485968E+06    57.483128E+06  -114.931272E+06   344.827424E+06   1.76690430E+03   344.826752E+06
             3772    57.457292E+06    57.453044E+06    -114.9602E+06   344.831072E+06  -3.72098462E+03   344.829664E+06
             3773    57.484636E+06    57.480864E+06  -114.932808E+06   344.829952E+06   1.50787646E+03   344.826816E+06
             3774    57.479556E+06    57.477152E+06  -114.937536E+06   344.830368E+06       504.345825   344.827392E+06
             3775      57.4825E+06    57.480544E+06  -114.932856E+06   344.826848E+06   3.40499390E+03    344.82784E+06
             3776    57.468776E+06    57.468852E+06  -114.944648E+06    344.82784E+06      -130.438446    344.82848E+06
             3777    57.469428E+06    57.468428E+06  -114.945704E+06    344.82848E+06       257.405518   344.828032E+06
             3778    57.466612E+06    57.465964E+06  -114.950272E+06   344.829376E+06      -449.664703   344.827776E+06
             3779    57.469876E+06     57.46946E+06  -114.944792E+06   344.827968E+06      -150.667221   344.828448E+06
             3780    57.538132E+06     57.51914E+06  -114.891048E+06   344.827488E+06   1.79798523E+03   344.823488E+06
             3781    57.471576E+06     57.47114E+06  -114.942568E+06      344.828E+06      -251.462646   344.827744E+06
             3782    57.471728E+06    57.472672E+06  -114.942072E+06   344.828544E+06       666.255005   344.827296E+06
             3783    57.470808E+06    57.470744E+06  -114.942608E+06    344.82768E+06      -158.075272   344.827776E+06
             3784    57.491084E+06    57.483544E+06  -114.929104E+06   344.829408E+06   1.66041943E+03   344.826912E+06
             3785     57.47128E+06    57.468612E+06  -114.944336E+06    344.82464E+06       208.957321   344.827904E+06
             3786    57.477852E+06    57.477944E+06  -114.936992E+06   344.828896E+06       218.213882   344.827776E+06
             3787    57.473768E+06    57.472468E+06  -114.942552E+06    344.82768E+06       156.954391   344.827424E+06
             3788    57.442368E+06    57.451532E+06   -114.96536E+06   344.826272E+06  -5.35046289E+03    344.83024E+06
             3789     57.45954E+06    57.459396E+06  -114.956184E+06   344.828736E+06       617.384460   344.829568E+06
             3790     57.51026E+06    57.502304E+06   -114.91112E+06   344.829696E+06   5.14283350E+03   344.825824E+06
             3791    57.473796E+06    57.471576E+06  -114.941152E+06   344.824288E+06       422.729004     344.8288E+06
             3792    57.473856E+06    57.475668E+06  -114.940976E+06   344.828192E+06   1.18330371E+03   344.830144E+06
             3793    57.476544E+06    57.474636E+06  -114.938448E+06   344.827008E+06      -30.6039734   344.827008E+06
             3794     57.46878E+06    57.466988E+06   -114.94644E+06   344.827712E+06      -908.229736   344.826368E+06
             3795     57.46996E+06     57.46836E+06  -114.945456E+06    344.82816E+06  -2.65205298E+03    344.82896E+06
             3796    57.467372E+06    57.467616E+06  -114.946464E+06   344.828832E+06       98.8472443   344.828256E+06
             3797    57.471392E+06    57.471224E+06  -114.942928E+06   344.828224E+06       296.113037   344.828064E+06
             3798    57.467648E+06    57.466716E+06  -114.947512E+06   344.828128E+06       59.1773262   344.827072E+06
             3799    57.474552E+06    57.475196E+06    -114.9396E+06    344.82752E+06       374.765076    344.82688E+06
             3800    57.468944E+06    57.466064E+06  -114.946712E+06   344.826624E+06   1.22011414E+03   344.827936E+06
             3801     57.48234E+06     57.48102E+06  -114.932488E+06   344.824672E+06  -1.36406958E+03   344.827584E+06
             3802     57.43432E+06     57.42498E+06  -114.977944E+06   344.822272E+06       419.507507   344.832288E+06
             3803    57.468908E+06    57.468896E+06  -114.944896E+06   344.828096E+06      -270.592773   344.828224E+06
             3804    57.474412E+06    57.472664E+06  -114.940328E+06   344.827712E+06       339.368835   344.826304E+06
             3805      57.4785E+06    57.477372E+06  -114.936624E+06   344.827232E+06      -77.6975250   344.828608E+06
             3806     57.47732E+06    57.472492E+06  -114.938816E+06   344.828192E+06      -908.053284   344.827232E+06
             3807    57.460452E+06    57.464804E+06   -114.95124E+06   344.830336E+06       157.550278   344.827776E+06
             3808    57.465464E+06    57.461956E+06  -114.954464E+06   344.833184E+06      -755.738342   344.827808E+06
             3809    57.453652E+06    57.460616E+06  -114.956056E+06   344.828352E+06      -381.249115    344.82928E+06
             3810    57.475916E+06     57.47694E+06  -114.938488E+06   344.827616E+06   1.94775989E+03   344.826048E+06
             3811    57.458004E+06    57.457128E+06   -114.95904E+06   344.832288E+06       726.115540   344.830368E+06
             3812    57.518912E+06     57.54278E+06  -114.889312E+06   344.829312E+06       398.705139   344.828928E+06
             3813    57.492616E+06    57.509692E+06  -114.914248E+06    344.82624E+06       124.465416   344.825024E+06
             3814    57.469212E+06    57.469708E+06  -114.943848E+06   344.827616E+06      -176.564957   344.827968E+06
             3815    57.458572E+06    57.461944E+06  -114.953416E+06    344.82848E+06  -1.00509698E+03   344.828064E+06
             3816    57.466136E+06    57.465584E+06  -114.949552E+06   344.831424E+06   2.07961157E+03   344.825888E+06
             3817    57.472132E+06    57.469988E+06  -114.943448E+06   344.827424E+06       600.798157   344.827552E+06
             3818     57.42746E+06    57.435776E+06  -114.978616E+06    344.82416E+06  -6.43564941E+03   344.830048E+06
             3819    57.487416E+06    57.488524E+06  -114.924816E+06   344.821216E+06   1.46652576E+03   344.823808E+06
             3820    57.469164E+06     57.47338E+06  -114.943088E+06   344.827648E+06   2.15294312E+03   344.826784E+06
             3821    57.488368E+06    57.478344E+06  -114.931768E+06   344.827872E+06   1.01438147E+03    344.82624E+06
             3822    57.467268E+06     57.46616E+06  -114.948288E+06   344.828576E+06      -536.751892    344.82752E+06
             3823      57.4475E+06    57.451772E+06  -114.963048E+06   344.832608E+06   2.97417603E+03   344.829632E+06
             3824    57.455628E+06    57.452276E+06  -114.958384E+06   344.829984E+06      -119.854385   344.828704E+06
             3825    57.477488E+06    57.478676E+06  -114.938672E+06   344.828992E+06      -275.091064   344.828544E+06
             3826    57.469396E+06    57.475328E+06  -114.939376E+06     344.8232E+06      -507.105591   344.827488E+06
             3827    57.464092E+06    57.464428E+06  -114.951208E+06   344.828352E+06  -1.09452673E+03    344.82896E+06
             3828    57.462356E+06    57.464868E+06  -114.949008E+06   344.827232E+06   1.20536230E+03    344.82864E+06
             3829    57.476632E+06    57.479012E+06  -114.938136E+06   344.829344E+06   1.69762317E+03   344.829408E+06
             3830    57.459768E+06    57.463988E+06  -114.953288E+06   344.830528E+06      -272.061707   344.832352E+06
             3831    57.485516E+06    57.489132E+06  -114.928488E+06   344.830528E+06      -26.9627838   344.823552E+06
             3832     57.52046E+06    57.511832E+06  -114.899104E+06   344.821536E+06       62.4034882   344.822688E+06
             3833     57.48666E+06    57.484364E+06  -114.927696E+06   344.822496E+06  -2.73484033E+03   344.825184E+06
             3834    57.483836E+06    57.484372E+06  -114.930288E+06   344.825888E+06   1.18576685E+03   344.826304E+06
             3835    57.488184E+06    57.487932E+06  -114.925296E+06   344.822944E+06   2.66761841E+03   344.823776E+06
             3836    57.491752E+06    57.486748E+06  -114.925304E+06     344.8264E+06   2.07978003E+03   344.826272E+06
             3837    57.474796E+06    57.469252E+06  -114.944208E+06   344.828992E+06       506.729797   344.826464E+06
             3838     57.47236E+06    57.470468E+06  -114.940472E+06   344.827936E+06      -612.104004   344.828448E+06
             3839    57.444008E+06      57.4502E+06  -114.963864E+06   344.825344E+06  -4.68962158E+03    344.82976E+06
             3840    57.481784E+06     57.47704E+06  -114.935224E+06   344.825376E+06  -2.57023511E+03   344.827648E+06
             3841    57.466312E+06    57.468496E+06  -114.945656E+06    344.82672E+06       853.938354   344.829632E+06
             3842    57.480188E+06    57.480756E+06  -114.931672E+06   344.828832E+06       778.158325   344.825312E+06
             3843    57.493684E+06    57.494096E+06   -114.92372E+06     344.8288E+06   1.26558862E+03   344.823456E+06
             3844    57.456852E+06    57.463032E+06  -114.955104E+06   344.828576E+06   4.77416309E+03   344.828768E+06
             3845      57.4816E+06    57.479512E+06  -114.935528E+06   344.828544E+06   1.36920044E+03   344.826464E+06
             3846    57.465352E+06    57.462248E+06  -114.948248E+06   344.826752E+06       803.576538   344.828288E+06
             3847      57.5208E+06    57.509392E+06  -114.902552E+06   344.826816E+06   1.32566553E+03   344.824672E+06
             3848    57.349444E+06    57.361892E+06  -115.053984E+06   344.847584E+06       216.802170   344.842336E+06
             3849    57.444756E+06    57.434868E+06   -114.96944E+06   344.827456E+06   2.01902649E+03   344.825728E+06
             3850    57.428068E+06    57.444368E+06  -114.972624E+06   344.828352E+06   2.76560425E+03   344.831712E+06
             3851     57.47344E+06    57.471364E+06  -114.941832E+06   344.828704E+06  -1.29409497E+03   344.827808E+06
             3852     57.47878E+06    57.476836E+06  -114.936104E+06   344.826688E+06       22.5658131   344.827136E+06
             3853    57.505584E+06    57.493292E+06   -114.91988E+06   344.826272E+06      -821.573181   344.824704E+06
             3854    57.478676E+06     57.46956E+06  -114.944344E+06   344.830976E+06  -1.40309338E+03   344.826272E+06
             3855      57.4635E+06    57.473128E+06   -114.94576E+06   344.830496E+06   1.40149451E+03    344.82896E+06
             3856    57.492664E+06    57.485596E+06   -114.92048E+06   344.820032E+06      -20.0636845     344.8224E+06
             3857    57.435048E+06    57.439856E+06   -114.97652E+06    344.83536E+06  -1.56385474E+03    344.83024E+06
             3858    57.452112E+06    57.459368E+06  -114.956552E+06    344.82816E+06      -605.335754   344.829024E+06
             3859    57.471244E+06    57.477852E+06  -114.939904E+06   344.826368E+06       574.467163   344.829024E+06
             3860     57.47392E+06    57.469576E+06    -114.9422E+06   344.831744E+06   2.99972559E+03    344.82608E+06
             3861    57.468896E+06    57.465816E+06  -114.947096E+06      344.828E+06       167.301788   344.826944E+06
             3862    57.496164E+06    57.497664E+06  -114.916208E+06    344.82496E+06       775.191895     344.8248E+06
             3863    57.459168E+06    57.447252E+06  -114.959744E+06   344.833888E+06   1.31778589E+03    344.82832E+06
             3864    57.468784E+06      57.4683E+06  -114.946952E+06   344.828448E+06      -312.231964   344.827264E+06
             3865    57.476924E+06    57.488272E+06  -114.930136E+06   344.819808E+06  -3.20322949E+03    344.82832E+06
             3866    57.492148E+06    57.484368E+06   -114.92248E+06   344.822848E+06       237.462036    344.82112E+06
             3867    57.471732E+06    57.471788E+06   -114.94228E+06   344.827584E+06       254.083817   344.827872E+06
             3868    57.465612E+06     57.46582E+06  -114.948456E+06    344.83024E+06       762.612976   344.826176E+06
             3869    57.471712E+06     57.47208E+06  -114.941952E+06   344.827744E+06       104.112839   344.827744E+06
             3870    57.510696E+06    57.496968E+06  -114.913736E+06   344.825696E+06  -6.24133838E+03    344.82496E+06
             3871    57.461364E+06    57.457948E+06  -114.957928E+06      344.832E+06  -3.58685327E+03   344.828224E+06
             3872    57.469288E+06    57.469912E+06  -114.944272E+06   344.827584E+06      -430.018616   344.827872E+06
             3873     57.55016E+06    57.556988E+06  -114.869936E+06    344.81872E+06      -395.624390   344.824864E+06
             3874    57.475268E+06    57.474356E+06   -114.93868E+06   344.827392E+06      -530.913025   344.827552E+06
             3875    57.464928E+06    57.464912E+06  -114.950624E+06    344.83072E+06       802.118774   344.828384E+06
             3876    57.463884E+06    57.476852E+06  -114.946776E+06   344.823136E+06  -3.89827100E+03   344.829824E+06
             3877    57.473864E+06    57.471548E+06  -114.942296E+06   344.826816E+06      -210.024200   344.827968E+06
             3878     57.48214E+06    57.486104E+06   -114.93024E+06    344.82672E+06       619.038086   344.828096E+06
             3879    57.514304E+06    57.529436E+06  -114.897944E+06   344.834496E+06       450.078888   344.821152E+06
             3880    57.460356E+06     57.45908E+06   -114.95412E+06    344.82784E+06       200.572388    344.82672E+06
             3881    57.458948E+06    57.461524E+06  -114.956288E+06   344.828928E+06  -1.37165930E+03   344.828128E+06
             3882     57.46598E+06    57.466372E+06  -114.945152E+06   344.829632E+06      -15.5340834   344.826528E+06
             3883    57.477608E+06    57.473308E+06  -114.939704E+06   344.829152E+06      -376.704834   344.827872E+06
             3884    57.446424E+06    57.439812E+06  -114.972384E+06    344.83344E+06   1.65139587E+03    344.83056E+06
             3885    57.481712E+06    57.479312E+06  -114.936848E+06    344.82752E+06  -1.26247839E+03   344.823488E+06
             3886    57.474032E+06    57.474888E+06  -114.940192E+06   344.827552E+06      -229.599976   344.827584E+06
             3887     57.46926E+06    57.469552E+06  -114.944048E+06   344.827168E+06       216.165710    344.82864E+06
             3888    57.457408E+06     57.45318E+06    -114.9578E+06    344.82656E+06      -942.918640    344.83072E+06
             3889    57.461912E+06    57.460364E+06  -114.953712E+06   344.831232E+06      -513.779541   344.828064E+06
             3890    57.470264E+06    57.474064E+06  -114.941128E+06   344.824768E+06      -695.001953   344.828608E+06
             3891    57.479776E+06    57.476992E+06  -114.936088E+06   344.830464E+06       720.226563    344.82544E+06
             3892    57.458424E+06    57.461104E+06  -114.952792E+06   344.830848E+06      -297.379700   344.827232E+06
             3893    57.464488E+06    57.462708E+06   -114.94216E+06   344.819776E+06  -2.44495605E+03   344.825984E+06
             3894    57.508064E+06    57.513196E+06  -114.904784E+06   344.822528E+06      -929.422058   344.828768E+06
             3895    57.473904E+06    57.477696E+06  -114.940568E+06   344.825792E+06      -150.790970   344.827072E+06
             3896    57.474792E+06    57.472412E+06  -114.938848E+06    344.82832E+06  -1.58111987E+03     344.8264E+06
             3897     57.42892E+06    57.442416E+06  -114.978584E+06   344.835264E+06   6.26050586E+03   344.833888E+06
             3898    57.475548E+06    57.474316E+06  -114.939104E+06   344.827584E+06      -653.008423    344.82752E+06
             3899    57.472692E+06    57.473708E+06  -114.942272E+06   344.830528E+06       286.010956   344.826816E+06
             3900     57.47978E+06    57.476588E+06  -114.936456E+06   344.829984E+06       259.152679    344.82512E+06
             3901    57.505444E+06     57.49088E+06  -114.921688E+06   344.831744E+06      -703.385681   344.826784E+06
             3902    57.479348E+06    57.474864E+06  -114.939944E+06    344.82928E+06      -816.517700   344.827424E+06
             3903    57.458744E+06    57.465344E+06  -114.952568E+06   344.827296E+06      -688.061890   344.831552E+06
             3904    57.514144E+06    57.514624E+06  -114.900136E+06   344.819904E+06  -4.25231445E+03   344.824928E+06
             3905    57.489552E+06    57.486032E+06  -114.927432E+06   344.826496E+06  -1.01676959E+03   344.826688E+06
             3906    57.471144E+06    57.470364E+06   -114.94344E+06   344.827648E+06       276.037567   344.828192E+06
             3907    57.459424E+06     57.46754E+06   -114.94796E+06   344.826048E+06   2.97681812E+03   344.828672E+06
             3908    57.471168E+06    57.469024E+06    -114.9436E+06   344.828512E+06       178.444580    344.82768E+06
             3909     57.47096E+06    57.471592E+06  -114.942816E+06    344.82832E+06       80.2678757   344.827552E+06
             3910    57.473576E+06    57.473532E+06  -114.939728E+06   344.827424E+06      -421.995575    344.82768E+06
             3911     57.46394E+06    57.462028E+06  -114.950248E+06   344.831072E+06      -98.0724030   344.829056E+06
             3912     57.46974E+06    57.467996E+06  -114.944792E+06   344.825632E+06       924.215515    344.82864E+06
             3913    57.413996E+06     57.42744E+06  -114.988712E+06   344.829856E+06   2.17891016E+03   344.832448E+06
             3914     57.46542E+06    57.454932E+06   -114.95232E+06   344.825024E+06       332.795441   344.829376E+06
             3915    57.467568E+06    57.468228E+06  -114.946672E+06   344.827552E+06       349.665955   344.827872E+06
             3916     57.48114E+06    57.481448E+06  -114.934944E+06   344.828448E+06  -1.07019373E+03   344.826784E+06
             3917    57.503872E+06     57.49954E+06  -114.914408E+06    344.82336E+06  -7.95228174E+03   344.824256E+06
             3918    57.475972E+06    57.472296E+06  -114.936448E+06    344.82656E+06       270.431641   344.826144E+06
             3919     57.46378E+06      57.4633E+06  -114.952664E+06     344.8304E+06  -5.99808447E+03   344.830144E+06
             3920    57.404272E+06    57.422912E+06  -114.994056E+06   344.826528E+06  -7.39391406E+03   344.832384E+06
             3921    57.399552E+06      57.4191E+06  -115.000968E+06   344.840832E+06   5.37079150E+03   344.828416E+06
             3922    57.455284E+06    57.453488E+06  -114.961008E+06   344.829856E+06  -2.16924292E+03   344.828128E+06
             3923    57.484924E+06    57.477744E+06  -114.931936E+06   344.823296E+06       270.705170   344.827232E+06
             3924     57.47382E+06     57.47358E+06   -114.93828E+06   344.826848E+06   1.77657092E+03   344.826784E+06
             3925    57.485288E+06    57.481488E+06   -114.92884E+06      344.824E+06       333.340973   344.825632E+06
             3926    57.459808E+06      57.4576E+06  -114.956584E+06   344.832096E+06      -577.954224   344.832288E+06
             3927     57.45342E+06    57.467692E+06  -114.947384E+06   344.826944E+06   19.0453281E+03   344.829184E+06
             3928    57.448056E+06    57.429628E+06  -114.976272E+06   344.836384E+06   1.67648755E+03    344.82864E+06
             3929    57.470764E+06    57.470756E+06  -114.943512E+06   344.827616E+06      -9.57354164   344.827712E+06
             3930    57.471828E+06     57.47262E+06  -114.941744E+06   344.827968E+06       106.180389    344.82784E+06
             3931    57.457136E+06     57.45288E+06  -114.957208E+06   344.827168E+06      -639.892456   344.831168E+06
             3932     57.47226E+06    57.471732E+06  -114.942408E+06    344.82816E+06       140.897141   344.828064E+06
             3933    57.473516E+06     57.47982E+06  -114.937768E+06   344.825952E+06  -3.16188965E+03   344.823808E+06
             3934    57.474336E+06     57.45726E+06  -114.948168E+06   344.828672E+06   1.63830066E+03   344.826208E+06
             3935     57.46708E+06    57.464172E+06  -114.951472E+06    344.84288E+06   15.1405723E+03   344.829088E+06
             3936     57.47822E+06    57.478088E+06   -114.93324E+06    344.82608E+06   2.13844116E+03    344.82736E+06
             3937    57.473952E+06    57.472964E+06  -114.941552E+06   344.828416E+06       710.455811   344.828192E+06
             3938     57.46546E+06    57.467216E+06  -114.947296E+06   344.829184E+06       947.036072   344.828864E+06
             3939      57.4709E+06    57.471724E+06   -114.94284E+06   344.827872E+06       240.885742   344.827648E+06
             3940    57.470184E+06    57.470088E+06  -114.943896E+06    344.82784E+06      -127.183418   344.828224E+06
             3941     57.51428E+06    57.503328E+06  -114.909024E+06   344.828416E+06  -1.39394714E+03   344.824384E+06
             3942     57.47054E+06    57.470504E+06  -114.943872E+06   344.828224E+06       120.238815   344.828256E+06
             3943     57.46938E+06    57.469836E+06  -114.944664E+06   344.828384E+06       216.766830    344.82816E+06
             3944     57.47142E+06    57.471196E+06    -114.9428E+06   344.828096E+06       200.898804   344.828096E+06
             3945    57.471276E+06    57.471144E+06  -114.943112E+06   344.828192E+06       199.560410   344.828128E+06
             3946     57.46988E+06    57.465936E+06  -114.944696E+06   344.828736E+06       75.3594513     344.8288E+06
             3947    57.508444E+06    57.502616E+06  -114.910312E+06    344.82224E+06  -2.69000244E+03    344.82704E+06
             3948    57.490016E+06    57.483356E+06   -114.92868E+06   344.828992E+06       949.216553   344.825888E+06
             3949    57.475208E+06    57.473568E+06  -114.939296E+06   344.827392E+06      -565.865967   344.826848E+06
             3950    57.494856E+06     57.49546E+06  -114.920376E+06   344.823008E+06       333.683502   344.828224E+06
             3951     57.47184E+06     57.47218E+06    -114.9424E+06   344.828256E+06   276.307940E-03   344.827424E+06
             3952      57.5064E+06    57.494824E+06  -114.917784E+06   344.830464E+06       394.554993   344.825888E+06
             3953    57.472724E+06    57.472412E+06   -114.94108E+06   344.827936E+06      -466.176086   344.827744E+06
             3954    57.467744E+06    57.468656E+06  -114.946128E+06   344.829472E+06       40.3660202    344.82848E+06
             3955     57.47234E+06    57.472448E+06  -114.941104E+06   344.828128E+06      -224.943573   344.827936E+06
             3956    57.406808E+06    57.388104E+06   -115.01236E+06   344.836768E+06       568.401428    344.83664E+06
             3957     57.47528E+06    57.479964E+06   -114.93696E+06    344.82464E+06      -360.341003   344.828576E+06
             3958    57.470428E+06    57.471016E+06   -114.94364E+06      344.828E+06      -245.804611   344.827968E+06
             3959    57.507524E+06    57.510124E+06  -114.905896E+06   344.825632E+06      -551.291870   344.821792E+06
             3960    57.494148E+06    57.492748E+06   -114.91808E+06   344.821888E+06   1.16365283E+03   344.822912E+06
             3961    57.458652E+06    57.462712E+06  -114.955016E+06   344.833056E+06       543.190491   344.831104E+06
             3962    57.467004E+06    57.466832E+06   -114.94568E+06   344.827904E+06   2.80149292E+03   344.828224E+06
             3963    57.471008E+06    57.471828E+06  -114.940872E+06     344.8288E+06   1.66497351E+03   344.827104E+06
             3964    57.473884E+06    57.478368E+06  -114.939976E+06   344.827552E+06      -554.488586   344.827264E+06
             3965    57.393408E+06    57.381712E+06   -115.02272E+06   344.831872E+06   1.10657324E+03    344.83968E+06
             3966    57.435672E+06    57.421328E+06  -114.977736E+06   344.818976E+06      -824.985901   344.824416E+06
             3967    57.409708E+06     57.40192E+06  -115.001888E+06    344.82512E+06  -2.73633862E+03   344.835104E+06
             3968    57.456996E+06      57.4594E+06  -114.956416E+06   344.833536E+06      -435.378418   344.830496E+06
             3969    57.474032E+06     57.46908E+06  -114.941128E+06   344.826208E+06       885.477966   344.826912E+06
             3970    57.480376E+06    57.480004E+06  -114.932056E+06   344.825056E+06       368.975250    344.82496E+06
             3971    57.473488E+06     57.47194E+06  -114.941672E+06   344.826656E+06      -310.257233   344.828768E+06
             3972    57.462336E+06    57.461712E+06  -114.951832E+06   344.830976E+06      -435.756714   344.828928E+06
             3973    57.480696E+06    57.480464E+06  -114.938704E+06   344.832832E+06      -86.2512970   344.830272E+06
             3974    57.444116E+06    57.459164E+06   -114.96096E+06   344.830208E+06  -1.86715027E+03    344.82848E+06
             3975    57.484276E+06    57.489392E+06  -114.924192E+06    344.81504E+06  -7.88235107E+03   344.826432E+06
             3976    57.459688E+06      57.4597E+06  -114.953776E+06    344.83088E+06  -1.21551587E+03   344.830336E+06
             3977      57.4769E+06      57.4757E+06  -114.939288E+06   344.831232E+06      -627.359741     344.8272E+06
             3978    57.479124E+06    57.476168E+06   -114.93556E+06   344.827776E+06       685.688538   344.826688E+06
             3979    57.465788E+06    57.465228E+06  -114.946208E+06   344.829088E+06      -941.420105   344.828768E+06
             3980    57.468792E+06    57.468696E+06  -114.945296E+06   344.828096E+06       48.7039566   344.828672E+06
             3981    57.426908E+06    57.418248E+06   -114.99096E+06    344.83152E+06       163.505966   344.830208E+06
             3982    57.421428E+06    57.429052E+06  -114.979288E+06   344.830784E+06   3.60431055E+03   344.826688E+06
             3983    57.532852E+06    57.555604E+06  -114.877344E+06   344.828384E+06   1.18242542E+03   344.829056E+06
             3984    57.464036E+06    57.462828E+06  -114.953112E+06   344.829536E+06   2.13960034E+03   344.827776E+06
             3985    57.484652E+06    57.485228E+06  -114.927048E+06   344.818688E+06       246.004837   344.829312E+06
             3986    57.471344E+06    57.471252E+06  -114.943048E+06   344.828672E+06      -937.258118   344.828896E+06
             3987     57.47604E+06    57.474488E+06  -114.938224E+06   344.828128E+06      -450.499512    344.82656E+06
             3988    57.465512E+06     57.46756E+06  -114.947656E+06   344.830848E+06       248.660950   344.828064E+06
             3989    57.470764E+06     57.46964E+06  -114.944512E+06     344.8288E+06       163.914780   344.828352E+06
             3990    57.488408E+06    57.490788E+06  -114.921856E+06   344.826688E+06      -200.198181   344.824352E+06
             3991    57.467572E+06     57.44782E+06  -114.951992E+06    344.82368E+06       749.884338   344.824736E+06
             3992    57.468264E+06    57.468664E+06   -114.94484E+06   344.828768E+06       542.541138   344.827712E+06
             3993     57.47346E+06    57.473112E+06  -114.940552E+06   344.827488E+06      -555.822327   344.828096E+06
             3994    57.472472E+06    57.472636E+06  -114.941424E+06    344.82704E+06      -50.3779793   344.828096E+06
             3995    57.467596E+06    57.473536E+06   -114.94668E+06   344.829472E+06  -1.62827307E+03   344.829568E+06
             3996    57.503928E+06    57.486708E+06   -114.91888E+06   344.828992E+06   4.10690479E+03   344.824032E+06
             3997    57.468736E+06    57.467412E+06  -114.947088E+06    344.82768E+06      -494.960602   344.827648E+06
             3998    57.447684E+06    57.454444E+06  -114.960464E+06   344.828864E+06   3.74855347E+03   344.830144E+06
             3999    57.462384E+06    57.468264E+06  -114.947712E+06   344.828352E+06      -712.687622   344.829536E+06
             4000    57.474108E+06    57.473228E+06   -114.94236E+06   344.828096E+06       58.9834213   344.827936E+06
             4001    57.472312E+06    57.466496E+06  -114.944992E+06   344.828768E+06       611.774048   344.828192E+06
             4002       57.475E+06    57.476004E+06   -114.93944E+06   344.828672E+06       599.536011    344.82672E+06
             4003     57.52018E+06    57.526588E+06  -114.891032E+06   344.817632E+06   2.09302686E+03   344.824192E+06
             4004     57.47306E+06    57.472536E+06  -114.940504E+06   344.826816E+06   1.39360559E+03   344.827776E+06
             4005     57.47378E+06    57.475152E+06  -114.939968E+06   344.829152E+06      -93.5125427   344.828256E+06
             4006    57.503528E+06    57.511688E+06  -114.907976E+06   344.822208E+06   4.66795752E+03   344.829152E+06
             4007    57.459772E+06      57.4625E+06  -114.954008E+06   344.831232E+06  -3.48064038E+03   344.829536E+06
             4008    57.469976E+06    57.470508E+06  -114.943584E+06   344.827712E+06      -904.700195   344.827584E+06
             4009    57.517808E+06    57.506168E+06  -114.908288E+06    344.82912E+06  -1.14183838E+03   344.824768E+06
             4010    57.455836E+06      57.4609E+06  -114.955968E+06   344.829952E+06  -3.34035840E+03   344.830048E+06
             4011    57.482912E+06     57.48358E+06  -114.929392E+06   344.825216E+06   3.42244751E+03   344.826528E+06
             4012     57.42434E+06    57.440824E+06  -114.976496E+06   344.827968E+06   4.43711035E+03   344.832544E+06
             4013    57.469924E+06    57.462764E+06    -114.9432E+06   344.823296E+06       793.163513   344.827488E+06
             4014    57.466792E+06    57.464684E+06  -114.949648E+06   344.827904E+06       131.277679   344.826816E+06
             4015    57.474656E+06    57.472744E+06  -114.942328E+06   344.828416E+06       682.678223   344.828096E+06
             4016    57.471328E+06    57.470076E+06  -114.944096E+06   344.827616E+06      -257.337463   344.828096E+06
             4017    57.459372E+06      57.4648E+06  -114.953808E+06     344.8312E+06       348.446808    344.83008E+06
             4018    57.484224E+06     57.45986E+06  -114.935904E+06   344.823904E+06   7.12869873E+03    344.81616E+06
             4019    57.464864E+06     57.46612E+06  -114.946824E+06   344.827104E+06       557.447632   344.828096E+06
             4020    57.416676E+06    57.428856E+06   -114.98608E+06   344.827072E+06  -3.84788208E+03   344.831392E+06
             4021     57.49572E+06    57.492296E+06  -114.922792E+06   344.824544E+06  -2.75493042E+03   344.829632E+06
             4022    57.478864E+06    57.480568E+06  -114.936032E+06   344.828128E+06      -822.877258   344.826944E+06
             4023    57.473884E+06    57.474632E+06  -114.937144E+06   344.826944E+06      -649.145935   344.827648E+06
             4024    57.478076E+06     57.47824E+06  -114.939776E+06   344.831424E+06   1.05314392E+03    344.82576E+06
             4025    57.470164E+06    57.467684E+06  -114.945256E+06   344.827392E+06      -143.387100    344.82704E+06
             4026    57.454896E+06    57.471368E+06  -114.952352E+06   344.829024E+06  -3.30111670E+03   344.832448E+06
             4027     57.49288E+06    57.497284E+06  -114.919512E+06   344.828256E+06  -2.55286792E+03   344.822784E+06
             4028    57.460188E+06    57.454724E+06   -114.95424E+06   344.830912E+06   2.35929956E+03   344.825408E+06
             4029     57.45842E+06     57.46358E+06  -114.950952E+06   344.825248E+06  -1.99231323E+03    344.82816E+06
             4030    57.443184E+06    57.448168E+06  -114.967256E+06    344.82944E+06       897.056274   344.828832E+06
             4031     57.45138E+06    57.448608E+06  -114.964192E+06   344.837216E+06   2.45730054E+03     344.8272E+06
             4032    57.472124E+06    57.472276E+06  -114.941672E+06    344.82768E+06      -321.095551   344.828032E+06
             4033    57.489468E+06    57.472004E+06  -114.931776E+06   344.822144E+06   2.22769336E+03   344.824768E+06
             4034    57.469388E+06     57.47138E+06  -114.943464E+06   344.829184E+06      -437.062592    344.82832E+06
             4035    57.475824E+06     57.47374E+06  -114.940448E+06   344.827872E+06   1.84524512E+03    344.82704E+06
             4036    57.448028E+06     57.45682E+06  -114.960816E+06   344.826976E+06   1.50397534E+03   344.833984E+06
             4037      57.4785E+06    57.476376E+06  -114.936936E+06   344.827136E+06   1.01310962E+03   344.827552E+06
             4038    57.470564E+06    57.472348E+06  -114.942408E+06   344.829152E+06      -941.112793   344.828064E+06
             4039      57.4321E+06    57.436916E+06  -114.973704E+06    344.82128E+06      -452.163757   344.831936E+06
             4040    57.432652E+06    57.447276E+06  -114.974184E+06    344.83408E+06  -2.58379663E+03   344.831616E+06
             4041    57.472704E+06    57.471908E+06  -114.941984E+06   344.827744E+06       194.195282   344.827776E+06
             4042     57.47082E+06    57.471896E+06  -114.942064E+06   344.827488E+06      -766.347656   344.827232E+06
             4043    57.477936E+06    57.470772E+06  -114.940016E+06   344.827872E+06   1.21559509E+03   344.826944E+06
             4044    57.466664E+06    57.467356E+06  -114.946168E+06   344.827648E+06      -482.153748   344.828224E+06
             4045    57.468704E+06     57.46894E+06  -114.948168E+06   344.830688E+06      -485.832947    344.82864E+06
             4046    57.478628E+06      57.4773E+06  -114.936888E+06   344.829664E+06       99.1232300   344.828128E+06
             4047     57.42172E+06    57.416824E+06  -114.996016E+06   344.836032E+06   3.24526953E+03   344.840256E+06
             4048    57.442676E+06     57.44126E+06   -114.97324E+06   344.837056E+06      -489.770905   344.830272E+06
             4049    57.476844E+06    57.475788E+06   -114.93888E+06   344.828064E+06      -452.650787   344.827264E+06
             4050     57.46978E+06    57.470648E+06   -114.94388E+06   344.827776E+06       207.269913    344.82816E+06
             4051    57.465156E+06    57.465716E+06  -114.947832E+06   344.828416E+06   1.38689539E+03    344.82896E+06
             4052    57.500236E+06    57.493768E+06  -114.919328E+06   344.828576E+06   2.19006177E+03   344.826336E+06
             4053    57.472108E+06    57.472704E+06  -114.942056E+06    344.82768E+06      -610.382202      344.828E+06
             4054    57.478148E+06    57.477092E+06  -114.936896E+06   344.828256E+06   2.00085913E+03    344.82688E+06
             4055    57.513316E+06    57.524976E+06  -114.903312E+06   344.825248E+06      -760.023987   344.825088E+06
             4056    57.462752E+06    57.457328E+06  -114.954632E+06    344.82672E+06       218.599838   344.830304E+06
             4057    57.480456E+06    57.480248E+06  -114.931912E+06   344.826688E+06       393.990814   344.826208E+06
             4058    57.471988E+06    57.472388E+06   -114.94156E+06   344.827808E+06      -93.0850677    344.82784E+06
             4059    57.470936E+06    57.470224E+06   -114.94312E+06   344.827936E+06       35.4941635   344.828096E+06
             4060    57.469696E+06    57.466956E+06  -114.947336E+06   344.832608E+06   1.91302014E+03   344.828736E+06
             4061    57.474016E+06    57.476872E+06  -114.942016E+06   344.827232E+06      -34.0036812   344.827488E+06
             4062    57.478192E+06     57.48006E+06   -114.93604E+06   344.825856E+06      -373.037506   344.828512E+06
             4063    57.472292E+06    57.472648E+06  -114.941264E+06   344.827424E+06       369.347595   344.827328E+06
             4064    57.470692E+06    57.472028E+06  -114.942224E+06   344.827744E+06  -1.09408289E+03   344.827232E+06
             4065    57.476208E+06    57.470704E+06    -114.9392E+06   344.819456E+06       336.673523   344.830304E+06
             4066     57.47034E+06     57.46998E+06   -114.94452E+06   344.827936E+06      -336.826416   344.828032E+06
             4067    57.470636E+06    57.466284E+06  -114.943848E+06     344.8256E+06       133.602798   344.827328E+06
             4068    57.445352E+06    57.441052E+06  -114.968728E+06   344.836992E+06   2.60634644E+03   344.828832E+06
             4069    57.467944E+06     57.46734E+06   -114.94548E+06   344.827616E+06       146.678192   344.828608E+06
             4070    57.464764E+06    57.465228E+06  -114.946912E+06   344.827552E+06  -3.28356104E+03   344.828896E+06
             4071     57.47158E+06    57.471828E+06  -114.941512E+06   344.827744E+06      -421.679871   344.827904E+06
             4072     57.47044E+06     57.47144E+06  -114.943416E+06    344.82816E+06       88.5173035   344.828288E+06
             4073     57.46238E+06    57.466692E+06   -114.94824E+06   344.826624E+06  -4.83505322E+03   344.827392E+06
             4074    57.551944E+06    57.549808E+06  -114.856496E+06   344.814944E+06   3.59069702E+03   344.811808E+06
             4075     57.47222E+06    57.479812E+06    -114.9428E+06   344.831488E+06      -350.111481    344.82608E+06
             4076    57.462716E+06    57.465636E+06  -114.948008E+06   344.827744E+06       324.143372    344.82928E+06
             4077    57.468656E+06    57.466452E+06   -114.94536E+06   344.829056E+06      -663.743896   344.827328E+06
             4078    57.469148E+06    57.468804E+06  -114.944288E+06   344.828032E+06   2.22696313E+03   344.827968E+06
             4079    57.483552E+06    57.484552E+06  -114.931768E+06   344.828192E+06       726.669800   344.830208E+06
             4080    57.463712E+06    57.475436E+06  -114.942736E+06   344.829248E+06       202.780197   344.830304E+06
             4081    57.439512E+06    57.434668E+06  -114.975576E+06   344.831616E+06       501.294434   344.829728E+06
             4082    57.476712E+06    57.478568E+06  -114.934264E+06    344.82816E+06   1.15640588E+03   344.827392E+06
             4083    57.472136E+06    57.471552E+06   -114.94232E+06   344.828192E+06      -432.282349   344.828416E+06
             4084    57.471424E+06    57.470888E+06  -114.943208E+06   344.828064E+06       72.1165924   344.828064E+06
             4085    57.475928E+06    57.472524E+06  -114.941616E+06   344.832416E+06  -1.27700781E+03   344.826464E+06
             4086    57.470224E+06    57.469816E+06  -114.943848E+06   344.827968E+06       88.8927307   344.828096E+06
             4087    57.419972E+06     57.42576E+06  -114.989416E+06   344.836672E+06   1.95161694E+03   344.831904E+06
             4088    57.467308E+06    57.468436E+06  -114.947336E+06   344.828512E+06      -512.132751    344.83024E+06
             4089    57.440504E+06    57.439976E+06  -114.970392E+06    344.83648E+06  -1.73322742E+03   344.828384E+06
             4090     57.46548E+06    57.470296E+06  -114.946552E+06   344.827584E+06   1.94065649E+03   344.828224E+06
             4091    57.463316E+06    57.463032E+06  -114.949768E+06   344.825376E+06  -2.26666577E+03   344.828608E+06
             4092    57.473324E+06    57.472244E+06  -114.941336E+06   344.828096E+06      -64.2199478    344.82944E+06
             4093     57.47498E+06     57.46972E+06  -114.944944E+06   344.827936E+06  -2.41315820E+03   344.830208E+06
             4094    57.478684E+06    57.478488E+06  -114.934728E+06   344.826912E+06  -2.46099756E+03    344.82704E+06
             4095     57.46974E+06    57.469092E+06  -114.943272E+06   344.825664E+06  -1.02122540E+03   344.828032E+06
             4096    57.477036E+06    57.474456E+06  -114.938144E+06     344.8272E+06       678.173401   344.827296E+06
             4097    57.472112E+06    57.471648E+06  -114.942632E+06   344.831136E+06      -373.216400   344.828096E+06
             4098    57.488052E+06    57.481884E+06   -114.93032E+06    344.83024E+06  -1.39475916E+03   344.824096E+06
             4099    57.480116E+06    57.477212E+06  -114.930744E+06   344.827232E+06      -297.298218    344.82768E+06
             4100    57.472128E+06    57.470844E+06  -114.942976E+06    344.82944E+06       298.464081   344.827616E+06
             4101    57.500832E+06    57.506164E+06  -114.912168E+06   344.824768E+06   1.75651062E+03   344.824896E+06
             4102    57.471152E+06    57.473016E+06  -114.940888E+06   344.825504E+06       191.512619   344.830848E+06
             4103    57.471576E+06      57.4711E+06  -114.942184E+06   344.827872E+06      -136.825989    344.82736E+06
             4104    57.474536E+06    57.473712E+06  -114.939608E+06    344.82816E+06      -585.159180   344.828224E+06
             4105    57.465636E+06     57.46584E+06  -114.947632E+06   344.828608E+06      -568.095093   344.828544E+06
             4106    57.455304E+06       57.456E+06  -114.957752E+06   344.829408E+06   1.78620886E+03   344.829088E+06
             4107    57.471656E+06     57.47214E+06  -114.942048E+06   344.828064E+06       74.0972900   344.828192E+06
             4108    57.524464E+06     57.53514E+06     -114.883E+06   344.818624E+06      -665.958557   344.821056E+06
             4109    57.430024E+06    57.439916E+06  -114.975792E+06   344.829824E+06      -5.53739691   344.829152E+06
             4110    57.489572E+06    57.489116E+06    -114.9206E+06   344.827776E+06       305.957092   344.822784E+06
             4111    57.482624E+06    57.497236E+06  -114.928608E+06    344.83328E+06       479.264252   344.830464E+06
             4112    57.508544E+06    57.508176E+06  -114.906568E+06   344.823328E+06   4.65502832E+03   344.823584E+06
             4113    57.441832E+06    57.432192E+06    -114.9704E+06   344.834368E+06       338.469574   344.828672E+06
             4114      57.5445E+06    57.564204E+06  -114.864368E+06   344.820288E+06      -279.988800    344.82368E+06
             4115    57.458464E+06    57.448524E+06  -114.957248E+06   344.827296E+06   1.50782104E+03    344.82544E+06
             4116    57.465228E+06    57.462688E+06   -114.95036E+06   344.829088E+06      -573.350098   344.828288E+06
             4117     57.47288E+06     57.47256E+06  -114.942184E+06   344.827552E+06      -598.476929   344.827296E+06
             4118    57.473284E+06    57.480064E+06  -114.937952E+06    344.82912E+06      -714.648743   344.826464E+06
             4119    57.468812E+06     57.46638E+06  -114.947968E+06   344.826976E+06   1.26031091E+03   344.827712E+06
             4120    57.456476E+06    57.457104E+06   -114.95184E+06   344.823072E+06       608.990295   344.834368E+06
             4121    57.454828E+06    57.453148E+06  -114.958152E+06   344.825216E+06   1.01963043E+03    344.83168E+06
             4122     57.47778E+06    57.478032E+06  -114.933736E+06   344.830752E+06       509.333801   344.823936E+06
             4123    57.470168E+06    57.470772E+06   -114.94316E+06   344.828032E+06      -447.171539   344.827744E+06
             4124    57.477136E+06    57.469604E+06  -114.934696E+06   344.820544E+06      -564.616394   344.828384E+06
             4125     57.45576E+06    57.458304E+06  -114.955816E+06    344.83776E+06      -728.591125   344.828608E+06
             4126    57.496724E+06    57.508604E+06  -114.917288E+06   344.830208E+06      -445.370453   344.823296E+06
             4127    57.474292E+06     57.48038E+06  -114.940736E+06    344.82896E+06       812.698242   344.829088E+06
             4128    57.481844E+06    57.485084E+06  -114.933584E+06     344.8272E+06      -576.513794   344.825792E+06
             4129    57.476756E+06    57.475476E+06  -114.936024E+06   344.825952E+06      -356.978241   344.827616E+06
             4130    57.482068E+06    57.477596E+06  -114.934048E+06     344.8296E+06   1.98011926E+03   344.828288E+06
             4131    57.482676E+06    57.480836E+06  -114.929368E+06   344.822496E+06      -513.481934   344.827424E+06
             4132    57.480204E+06     57.47896E+06  -114.933288E+06   344.824704E+06  -2.16732202E+03   344.826656E+06
             4133    57.489712E+06     57.48746E+06  -114.925792E+06    344.82656E+06      -697.013184   344.825504E+06
             4134     57.47704E+06    57.477416E+06  -114.938696E+06    344.82816E+06       399.285950   344.828416E+06
             4135    57.457796E+06    57.459848E+06  -114.953456E+06   344.828096E+06       601.940308   344.827744E+06
             4136    57.468692E+06    57.469156E+06  -114.945968E+06   344.829664E+06      -179.492676    344.82912E+06
             4137    57.474828E+06     57.47496E+06  -114.940232E+06   344.826528E+06  -2.22855298E+03   344.825536E+06
             4138    57.465048E+06    57.462112E+06   -114.94964E+06   344.826048E+06       614.438049   344.828832E+06
             4139    57.494628E+06    57.490976E+06   -114.92276E+06   344.829248E+06       968.889954   344.825376E+06
             4140    57.473504E+06    57.473996E+06  -114.941096E+06      344.828E+06   1.14381116E+03   344.827968E+06
             4141    57.511876E+06    57.513852E+06  -114.901488E+06   344.820128E+06   1.21437122E+03   344.827872E+06
             4142     57.47634E+06    57.471512E+06  -114.939264E+06   344.828096E+06      -444.102356   344.824192E+06
             4143    57.472264E+06    57.472364E+06  -114.942064E+06   344.828448E+06       165.094742    344.82704E+06
             4144    57.471652E+06     57.47174E+06  -114.942176E+06   344.827776E+06      -106.450645   344.827904E+06
             4145    57.462912E+06    57.468104E+06  -114.944216E+06   344.821408E+06   1.37275598E+03   344.828384E+06
             4146     57.48444E+06    57.479772E+06  -114.931776E+06   344.826912E+06   2.11010815E+03   344.827008E+06
             4147    57.469776E+06    57.466532E+06   -114.94208E+06    344.82544E+06  -1.00357440E+03   344.821824E+06
             4148    57.471524E+06    57.472576E+06  -114.943232E+06   344.824448E+06      -799.743408   344.827712E+06
             4149    57.475412E+06    57.474412E+06  -114.939456E+06    344.82848E+06   1.68352722E+03   344.827936E+06
             4150    57.463452E+06      57.4601E+06  -114.948152E+06   344.826784E+06   1.48200146E+03     344.8304E+06
             4151    57.474568E+06    57.474164E+06  -114.939944E+06   344.827616E+06      -377.819122      344.828E+06
             4152    57.467972E+06      57.4679E+06  -114.947608E+06   344.830144E+06       418.776581   344.827936E+06
             4153    57.477512E+06    57.475788E+06  -114.937272E+06   344.828096E+06       407.564636    344.82704E+06
             4154    57.460004E+06    57.457428E+06  -114.955712E+06     344.8304E+06   1.16088672E+03   344.827392E+06
             4155     57.46066E+06    57.461024E+06  -114.955904E+06   344.828384E+06   1.34822424E+03     344.8296E+06
             4156    57.450416E+06     57.44882E+06   -114.96216E+06   344.830944E+06  -1.05760083E+03   344.832096E+06
             4157    57.449788E+06    57.439684E+06   -114.96728E+06    344.83232E+06      -95.2406006   344.824192E+06
             4158     57.47462E+06    57.474112E+06  -114.938296E+06   344.828928E+06      -873.816406   344.826944E+06
             4159    57.467008E+06    57.465768E+06   -114.94728E+06   344.828544E+06       192.687012   344.828608E+06
             4160     57.47736E+06     57.47532E+06    -114.9378E+06   344.827936E+06       470.002319   344.826848E+06
             4161    57.472556E+06     57.47762E+06   -114.93548E+06   344.826592E+06  -2.61572681E+03   344.827904E+06
             4162     57.46582E+06     57.46504E+06  -114.948176E+06   344.827712E+06      -518.480103   344.828608E+06
             4163    57.473144E+06    57.472716E+06  -114.937856E+06   344.825216E+06      -893.134705   344.830912E+06
             4164    57.521556E+06    57.511728E+06  -114.901056E+06   344.822656E+06  -9.24810938E+03   344.823616E+06
             4165    57.477492E+06       57.478E+06   -114.93492E+06   344.827808E+06  -2.44601929E+03    344.82864E+06
             4166    57.469896E+06    57.468864E+06  -114.945648E+06    344.82784E+06   1.41149060E+03   344.828832E+06
             4167    57.476728E+06      57.4695E+06  -114.936664E+06   344.823872E+06      -570.738953   344.822944E+06
             4168    57.452568E+06    57.460316E+06    -114.9542E+06   344.824896E+06   1.35271667E+03   344.829152E+06
             4169    57.492724E+06    57.484836E+06  -114.926112E+06   344.826688E+06       805.246948   344.826752E+06
             4170    57.462032E+06    57.452908E+06  -114.953136E+06   344.823104E+06  -3.58108398E+03    344.82272E+06
             4171    57.475372E+06     57.47482E+06  -114.937624E+06   344.827264E+06   1.03034058E+03   344.825792E+06
             4172    57.463864E+06     57.46502E+06  -114.949608E+06    344.82832E+06      -436.048340    344.82768E+06
             4173    57.471456E+06    57.472368E+06  -114.942296E+06      344.828E+06      -13.3278933   344.828352E+06
             4174      57.4805E+06    57.488672E+06  -114.926752E+06   344.817152E+06  -1.62189954E+03   344.829536E+06
             4175    57.484332E+06    57.490544E+06  -114.928184E+06   344.827008E+06      -421.378448   344.825792E+06
             4176    57.474984E+06    57.475908E+06  -114.937288E+06   344.827712E+06      -677.015503    344.82736E+06
             4177    57.475864E+06    57.476172E+06  -114.938088E+06   344.828032E+06       81.6838531   344.827776E+06
             4178     57.46402E+06    57.464552E+06  -114.948424E+06    344.82848E+06      -14.0698080   344.828928E+06
             4179    57.471284E+06    57.472416E+06  -114.942304E+06    344.82816E+06       226.608490   344.827424E+06
             4180    57.472848E+06    57.473916E+06  -114.940744E+06    344.82768E+06       202.213211   344.827328E+06
             4181    57.477492E+06    57.476832E+06  -114.935904E+06   344.826432E+06       90.4244537   344.826816E+06
             4182    57.387236E+06    57.389112E+06  -115.026048E+06   344.843104E+06       854.466614    344.83664E+06
             4183    57.469052E+06     57.47734E+06  -114.939632E+06   344.826816E+06  -2.07539722E+03   344.829184E+06
             4184    57.468392E+06    57.470244E+06  -114.944488E+06   344.826784E+06      -909.354553   344.831488E+06
             4185     57.46462E+06    57.461196E+06  -114.950776E+06   344.829248E+06       353.595520   344.828672E+06
             4186    57.487404E+06     57.49044E+06  -114.920736E+06   344.820672E+06   1.32857642E+03    344.82688E+06
             4187    57.472928E+06    57.473432E+06  -114.940312E+06   344.827904E+06      -124.662560   344.827648E+06
             4188    57.470224E+06    57.470732E+06  -114.942216E+06    344.82816E+06       159.561234   344.827936E+06
             4189    57.471984E+06    57.471188E+06  -114.942712E+06   344.828512E+06      -357.728882   344.826432E+06
             4190     57.48846E+06    57.494188E+06  -114.925152E+06    344.82528E+06      -130.044922   344.828544E+06
             4191     57.47186E+06     57.47184E+06  -114.941976E+06   344.827648E+06       66.0655823   344.827648E+06
             4192    57.469972E+06    57.468196E+06  -114.943552E+06   344.828864E+06   1.16335071E+03    344.82912E+06
             4193    57.468036E+06      57.4664E+06  -114.946776E+06   344.828032E+06      -285.248474   344.828448E+06
             4194    57.471936E+06    57.473104E+06  -114.941936E+06   344.828224E+06       111.064865   344.828064E+06
             4195    57.475908E+06    57.471268E+06  -114.939816E+06   344.826912E+06       575.864990    344.82528E+06
             4196     57.46878E+06      57.4733E+06  -114.945816E+06    344.82992E+06      -957.504211   344.828896E+06
             4197    57.476896E+06    57.476852E+06  -114.936472E+06   344.828032E+06       49.2951088   344.828512E+06
             4198    57.470896E+06    57.470364E+06  -114.942552E+06   344.827936E+06       160.544510    344.82848E+06
             4199    57.465436E+06    57.467432E+06   -114.95008E+06   344.831232E+06   1.23223535E+03     344.8312E+06
             4200    57.473912E+06    57.474144E+06  -114.940272E+06    344.82848E+06       44.6047287   344.827488E+06
             4201    57.474276E+06    57.471412E+06  -114.940304E+06   344.825408E+06      -450.437408   344.825184E+06
             4202     57.48006E+06    57.472008E+06  -114.937248E+06   344.826208E+06      -527.204834   344.824544E+06
             4203    57.463908E+06    57.464212E+06  -114.951264E+06    344.82928E+06  -1.04200024E+03   344.830272E+06
             4204    57.470136E+06    57.466708E+06  -114.941544E+06   344.827104E+06       666.885986    344.82896E+06
             4205        57.47E+06    57.470684E+06  -114.943016E+06   344.827424E+06       514.986206     344.8288E+06
             4206    57.459164E+06    57.462492E+06  -114.952632E+06   344.829184E+06   2.09200586E+03    344.82832E+06
             4207    57.471024E+06    57.469796E+06   -114.94496E+06    344.82704E+06  -1.56831799E+03   344.825792E+06
             4208      57.4764E+06    57.476572E+06  -114.937816E+06   344.828768E+06   1.71965076E+03   344.828768E+06
             4209    57.473564E+06    57.472512E+06  -114.941616E+06   344.828864E+06       535.991333   344.828032E+06
             4210     57.46498E+06     57.46876E+06  -114.943856E+06   344.827744E+06   1.36391528E+03   344.828384E+06
             4211    57.471552E+06    57.472904E+06  -114.939464E+06   344.828928E+06   1.09766077E+03   344.829184E+06
             4212    57.470832E+06    57.471096E+06  -114.942632E+06    344.82752E+06      -684.875366   344.828352E+06
             4213    57.470012E+06    57.466996E+06  -114.945664E+06   344.830464E+06      -666.637512     344.8272E+06
             4214     57.46866E+06    57.466064E+06  -114.946128E+06   344.828544E+06   2.15484790E+03   344.827904E+06
             4215    57.436416E+06    57.444516E+06  -114.969944E+06   344.829728E+06  -1.29126306E+03   344.829216E+06
             4216    57.444744E+06    57.454316E+06  -114.962224E+06    344.82832E+06   1.59608655E+03   344.830976E+06
             4217    57.465336E+06      57.4785E+06  -114.939576E+06   344.821952E+06   2.02513501E+03    344.83168E+06
             4218    57.465956E+06    57.462428E+06  -114.949944E+06   344.828448E+06  -1.39689941E+03   344.828768E+06
             4219      57.4856E+06     57.47892E+06  -114.933048E+06   344.828992E+06  -1.15732800E+03   344.825056E+06
             4220    57.459036E+06    57.461236E+06  -114.952112E+06    344.82752E+06  -1.35865845E+03   344.828096E+06
             4221    57.492724E+06    57.487216E+06   -114.92604E+06   344.829376E+06   2.13799854E+03   344.826496E+06
             4222    57.466356E+06    57.468136E+06  -114.945144E+06   344.826272E+06  -2.59153638E+03   344.827776E+06
             4223    57.542024E+06      57.5427E+06  -114.870216E+06    344.81488E+06   1.28478125E+03    344.81744E+06
             4224    57.471328E+06    57.471688E+06  -114.943304E+06   344.829408E+06   1.59469653E+03   344.829664E+06
             4225    57.462004E+06    57.467632E+06   -114.94612E+06    344.82304E+06      -327.356659     344.8288E+06
             4226    57.472884E+06    57.473804E+06  -114.939032E+06    344.82512E+06       278.506500   344.827648E+06
             4227    57.499652E+06    57.490588E+06  -114.919312E+06   344.825056E+06       338.480743   344.826112E+06
             4228    57.470272E+06    57.470784E+06  -114.943376E+06   344.827968E+06      -181.068970   344.827648E+06
             4229    57.477664E+06    57.477404E+06  -114.934248E+06   344.827424E+06   1.38132349E+03   344.828192E+06
             4230     57.42826E+06    57.436176E+06    -114.9826E+06   344.833952E+06  -6.31500439E+03   344.831136E+06
             4231     57.47042E+06    57.469108E+06  -114.944104E+06   344.826816E+06       219.827332   344.827264E+06
             4232     57.44132E+06    57.444384E+06  -114.971832E+06    344.83616E+06       143.134354   344.830592E+06
             4233    57.473988E+06    57.473804E+06  -114.940112E+06   344.829024E+06   1.61610449E+03   344.828992E+06
             4234     57.46472E+06    57.460972E+06  -114.949672E+06   344.824608E+06       771.393372   344.831424E+06
             4235    57.463728E+06    57.462736E+06  -114.949512E+06   344.828704E+06      -505.362183   344.830144E+06
             4236    57.491964E+06    57.484216E+06    -114.9274E+06   344.829056E+06       298.734100    344.82448E+06
             4237    57.472508E+06    57.477388E+06  -114.940152E+06    344.82848E+06  -1.12530408E+03   344.825472E+06
             4238    57.471332E+06    57.471668E+06  -114.943544E+06     344.8272E+06      -386.011993    344.82736E+06
             4239    57.420116E+06    57.425364E+06   -114.99244E+06   344.836224E+06  -6.22045654E+03   344.832096E+06
             4240    57.438584E+06    57.427232E+06  -114.974832E+06     344.8336E+06       705.378418   344.828768E+06
             4241    57.462436E+06    57.467096E+06  -114.953576E+06   344.835328E+06      -497.501953   344.829312E+06
             4242    57.476972E+06    57.475236E+06  -114.944088E+06   344.828096E+06  -1.26897729E+03   344.826112E+06
             4243    57.515852E+06    57.504428E+06  -114.912704E+06   344.833344E+06   5.67835742E+03   344.826496E+06
             4244    57.468776E+06     57.46888E+06   -114.94528E+06   344.827936E+06       31.0266647     344.8288E+06
             4245    57.491216E+06    57.489712E+06  -114.918592E+06   344.825152E+06      -77.6865158   344.825024E+06
             4246    57.462976E+06    57.464932E+06  -114.949376E+06   344.828928E+06      -900.798950   344.829568E+06
             4247    57.452588E+06    57.460692E+06  -114.955568E+06    344.82688E+06      -407.878174   344.831072E+06
             4248     57.50778E+06    57.509724E+06  -114.904096E+06    344.81952E+06  -1.10572766E+03    344.81984E+06
             4249    57.472172E+06     57.47254E+06  -114.942264E+06      344.828E+06  -1.13686072E+03    344.82736E+06
             4250    57.462524E+06    57.463484E+06   -114.95344E+06   344.828992E+06   1.02291821E+03   344.828672E+06
             4251    57.477292E+06    57.482884E+06  -114.936112E+06   344.828608E+06       784.351440   344.830656E+06
             4252    57.476736E+06    57.483236E+06  -114.935624E+06   344.829888E+06      -424.519348   344.829504E+06
             4253    57.450616E+06    57.455412E+06  -114.961336E+06   344.829536E+06   1.09083533E+03   344.833568E+06
             4254    57.455532E+06    57.455896E+06  -114.957544E+06   344.828096E+06  -2.67065820E+03   344.828768E+06
             4255    57.467208E+06    57.469144E+06     -114.946E+06   344.830112E+06            -514.   344.826912E+06
             4256    57.487572E+06    57.484372E+06  -114.928352E+06   344.826944E+06      -256.070557   344.827328E+06
             4257      57.4666E+06    57.466672E+06  -114.947808E+06   344.826976E+06  -1.97763892E+03    344.82672E+06
             4258    57.464764E+06    57.486208E+06  -114.939328E+06   344.827232E+06   4.13482324E+03    344.82688E+06
             4259    57.500744E+06    57.514196E+06  -114.908848E+06   344.824608E+06       659.194153   344.823424E+06
             4260    57.487028E+06     57.48608E+06   -114.92484E+06    344.82464E+06   1.13209277E+03   344.823424E+06
             4261    57.463264E+06    57.465804E+06  -114.947688E+06   344.829952E+06       368.854065   344.828736E+06
             4262     57.47438E+06      57.4755E+06  -114.937736E+06   344.826848E+06      -391.187592   344.827328E+06
             4263    57.416932E+06    57.422896E+06  -114.997544E+06   344.830912E+06   -8.4961875E+03   344.836192E+06
             4264    57.426804E+06     57.40948E+06   -114.99104E+06   344.833248E+06      -576.059998   344.828288E+06
             4265      57.4605E+06     57.46366E+06  -114.950472E+06   344.828768E+06       964.479187   344.829728E+06
             4266    57.471192E+06    57.472424E+06  -114.942208E+06     344.8288E+06       284.702606   344.828096E+06
             4267    57.477764E+06    57.476912E+06  -114.937744E+06   344.828672E+06       431.791107   344.826496E+06
             4268    57.479728E+06     57.49376E+06  -114.925304E+06   344.821984E+06   1.10174036E+03   344.825504E+06
             4269    57.477416E+06    57.477348E+06  -114.937016E+06   344.827648E+06       16.3966217    344.82672E+06
             4270      57.4627E+06    57.463032E+06  -114.951032E+06   344.829184E+06      -652.892822   344.827136E+06
             4271    57.460572E+06    57.459076E+06   -114.95564E+06   344.827552E+06  -2.50656836E+03     344.8296E+06
             4272    57.495788E+06    57.484112E+06    -114.9314E+06   344.824832E+06  -4.30628418E+03   344.831584E+06
             4273    57.471516E+06    57.472052E+06  -114.942408E+06    344.82784E+06       36.7722931   344.827936E+06
             4274    57.471812E+06    57.471656E+06  -114.942792E+06   344.828832E+06      -34.8094254   344.828416E+06
             4275    57.459664E+06     57.46126E+06  -114.954488E+06   344.831776E+06       45.5522690   344.830016E+06
             4276    57.462176E+06    57.466336E+06  -114.951968E+06   344.828992E+06  -1.92265747E+03    344.82928E+06
             4277    57.461384E+06    57.457952E+06  -114.953352E+06   344.828992E+06   1.27640503E+03    344.82896E+06
             4278    57.492168E+06     57.49546E+06   -114.92216E+06   344.826496E+06      -668.096375    344.82336E+06
             4279    57.472212E+06    57.472696E+06  -114.941312E+06   344.827392E+06      -340.588684   344.827456E+06
             4280    57.468372E+06    57.469292E+06  -114.945256E+06   344.829344E+06      -160.949768   344.828352E+06
             4281    57.474064E+06    57.475752E+06  -114.939808E+06   344.828448E+06       432.951202   344.828064E+06
             4282    57.406236E+06    57.389932E+06  -115.010504E+06   344.832032E+06      -797.245117   344.830208E+06
             4283    57.546484E+06    57.543196E+06  -114.866352E+06   344.819136E+06       613.290344   344.814368E+06
             4284    57.458956E+06    57.455344E+06  -114.957216E+06    344.82528E+06       399.106018   344.829664E+06
             4285     57.49638E+06    57.486568E+06  -114.926368E+06   344.824192E+06  -2.45311230E+03   344.825536E+06
             4286    57.468408E+06    57.465784E+06   -114.94776E+06   344.828416E+06      -760.318176   344.829344E+06
             4287    57.446336E+06    57.445964E+06  -114.969312E+06   344.828896E+06      -790.906433   344.831424E+06
             4288    57.500796E+06    57.490652E+06  -114.920968E+06   344.824544E+06  -3.67679419E+03   344.826208E+06
             4289    57.441248E+06    57.432688E+06  -114.972096E+06   344.829248E+06       364.092010   344.826656E+06
             4290    57.462004E+06    57.460108E+06  -114.953096E+06   344.827296E+06  -1.93815845E+03   344.829024E+06
             4291    57.541684E+06    57.561772E+06  -114.867304E+06     344.8208E+06      -165.232239   344.823456E+06
             4292    57.457416E+06    57.461724E+06  -114.956032E+06   344.831552E+06  -2.09759277E+03   344.831392E+06
             4293    57.428548E+06    57.434024E+06  -114.982176E+06    344.83408E+06  -2.11473389E+03   344.831552E+06
             4294     57.47096E+06    57.469696E+06   -114.94324E+06    344.82848E+06      -306.432373    344.82816E+06
             4295     57.48298E+06    57.478152E+06  -114.932704E+06   344.826304E+06      -775.762451   344.826272E+06
             4296    57.496028E+06    57.494548E+06  -114.917872E+06   344.820384E+06      -716.815186   344.826464E+06
             4297    57.489096E+06    57.496848E+06  -114.921736E+06   344.823968E+06  -2.22172534E+03   344.827232E+06
             4298    57.470228E+06    57.472172E+06  -114.942536E+06    344.83168E+06  -2.26098682E+03   344.824608E+06
             4299    57.473388E+06    57.479776E+06  -114.939504E+06   344.830336E+06  -2.59194189E+03    344.82848E+06
             4300    57.469612E+06    57.470484E+06  -114.944008E+06   344.828512E+06       264.742493   344.828096E+06
             4301    57.472656E+06    57.473172E+06  -114.941232E+06   344.829056E+06      -489.574280   344.827808E+06
             4302    57.518736E+06    57.515688E+06  -114.897528E+06   344.821088E+06  -1.95626709E+03    344.81808E+06
             4303    57.501416E+06    57.493516E+06    -114.9194E+06   344.823328E+06  -1.15531494E+03   344.826624E+06
             4304     57.49698E+06    57.490084E+06   -114.92196E+06   344.825088E+06  -1.24116687E+03    344.82672E+06
             4305    57.461064E+06    57.464036E+06  -114.951024E+06   344.828704E+06      -884.852722    344.82832E+06
             4306    57.458532E+06    57.461724E+06  -114.953648E+06   344.829888E+06   1.04352844E+03   344.830432E+06
             4307    57.470964E+06    57.468716E+06  -114.946504E+06   344.829184E+06       960.917969   344.828448E+06
             4308    57.476096E+06    57.475408E+06  -114.938216E+06   344.827072E+06   1.89847778E+03   344.828096E+06
             4309    57.484852E+06    57.483808E+06   -114.92948E+06    344.82336E+06  -2.60522607E+03   344.827232E+06
             4310    57.474396E+06    57.484804E+06  -114.930368E+06   344.821248E+06  -1.78350842E+03   344.822528E+06
             4311    57.473756E+06     57.47282E+06  -114.940624E+06   344.827776E+06       52.1812439    344.82784E+06
             4312    57.465696E+06     57.46348E+06  -114.950104E+06    344.83136E+06   3.74068018E+03   344.826304E+06
             4313    57.459964E+06    57.458836E+06  -114.954848E+06   344.831616E+06   3.21380957E+03   344.826688E+06
             4314    57.473512E+06     57.47372E+06  -114.939952E+06   344.828256E+06       202.839478   344.827936E+06
             4315     57.46636E+06    57.466988E+06  -114.947328E+06    344.82912E+06       19.4891491   344.828384E+06
             4316    57.472076E+06      57.4584E+06  -114.947608E+06   344.826688E+06  -6.63858789E+03   344.823072E+06
             4317    57.471916E+06     57.47142E+06  -114.942008E+06    344.82784E+06      -104.758362      344.828E+06
             4318     57.47022E+06     57.47032E+06   -114.94372E+06   344.827808E+06       222.096298      344.828E+06
             4319     57.46408E+06    57.459536E+06  -114.950744E+06   344.827808E+06      -671.012451   344.826368E+06
             4320    57.457008E+06    57.457116E+06  -114.953056E+06   344.828384E+06  -1.49415881E+03   344.828768E+06
             4321    57.483916E+06    57.481292E+06   -114.93048E+06   344.826496E+06  -1.07841345E+03   344.823168E+06
             4322    57.463964E+06     57.46214E+06  -114.947192E+06   344.825696E+06      -567.877869   344.829408E+06
             4323    57.473644E+06    57.471288E+06  -114.941808E+06    344.82688E+06       333.422333      344.828E+06
             4324    57.463752E+06    57.457348E+06  -114.950096E+06   344.825536E+06  -1.78771887E+03    344.82688E+06
             4325    57.472112E+06    57.472504E+06  -114.942328E+06   344.826688E+06   1.04665173E+03     344.8296E+06
             4326    57.473108E+06    57.473132E+06  -114.941352E+06    344.82896E+06      -147.028687   344.828224E+06
             4327    57.454376E+06     57.45814E+06  -114.958056E+06   344.830304E+06       790.908325   344.829888E+06
             4328     57.47154E+06    57.471628E+06  -114.942288E+06   344.827712E+06      -23.1162472   344.828128E+06
             4329    57.490828E+06    57.497144E+06  -114.924776E+06   344.830304E+06  -1.48788806E+03   344.827456E+06
             4330    57.494328E+06    57.483296E+06  -114.929056E+06   344.828416E+06  -2.97995313E+03      344.828E+06
             4331    57.472492E+06    57.472432E+06  -114.940888E+06   344.827296E+06       229.637482   344.827744E+06
             4332     57.47898E+06    57.478564E+06  -114.935624E+06      344.824E+06  -1.16118018E+03    344.82672E+06
             4333    57.478188E+06      57.4775E+06  -114.936352E+06   344.829536E+06       485.445770   344.826944E+06
             4334    57.479532E+06    57.478904E+06  -114.934832E+06   344.827904E+06      -184.128922    344.82624E+06
             4335     57.46186E+06     57.46516E+06  -114.951352E+06   344.826208E+06  -6.96044531E+03   344.830624E+06
             4336     57.43878E+06    57.436308E+06   -114.97052E+06    344.83504E+06   1.85909766E+03   344.828896E+06
             4337    57.538052E+06    57.525144E+06  -114.884776E+06   344.818848E+06  -10.1787031E+03    344.82256E+06
             4338    57.459712E+06    57.458836E+06  -114.955384E+06   344.825088E+06      -250.622986   344.828032E+06
             4339    57.430788E+06     57.43562E+06  -114.976576E+06   344.836256E+06   2.70473096E+03      344.832E+06
             4340     57.50344E+06    57.491888E+06  -114.924344E+06     344.8296E+06       886.966187   344.827168E+06
             4341    57.476532E+06     57.48086E+06  -114.938824E+06   344.826144E+06       79.5160370   344.828704E+06
             4342    57.466884E+06     57.46636E+06  -114.947544E+06   344.829024E+06       265.679840   344.828384E+06
             4343    57.467068E+06    57.460884E+06    -114.9508E+06   344.832192E+06       815.716431   344.829952E+06
             4344     57.48164E+06    57.479184E+06   -114.93256E+06   344.826976E+06       171.029480   344.825728E+06
             4345    57.473324E+06    57.473976E+06  -114.939696E+06   344.827744E+06      -497.361389   344.827136E+06
             4346    57.473064E+06    57.474332E+06      -114.94E+06   344.826976E+06      -399.495392   344.827968E+06
             4347    57.477716E+06    57.481448E+06  -114.935632E+06    344.82832E+06   1.08505872E+03   344.831136E+06
             4348    57.504648E+06     57.50232E+06   -114.91108E+06   344.821632E+06  -6.66731836E+03   344.825152E+06
             4349    57.467092E+06    57.468012E+06  -114.950472E+06   344.827488E+06      -676.827576   344.826976E+06
             4350    57.435568E+06    57.426528E+06  -114.981888E+06   344.833024E+06  -2.61670752E+03   344.835296E+06
             4351    57.482588E+06    57.485396E+06   -114.93296E+06    344.82976E+06      -770.322693   344.825664E+06
             4352    57.476488E+06    57.475792E+06  -114.938872E+06   344.829376E+06       861.941650   344.828192E+06
             4353    57.475796E+06      57.4777E+06  -114.936344E+06   344.827712E+06      -761.578491   344.825216E+06
             4354    57.474076E+06    57.474868E+06  -114.938064E+06   344.827808E+06       433.963898   344.828192E+06
             4355    57.448304E+06    57.440884E+06  -114.964616E+06    344.82432E+06       597.372192   344.832032E+06
             4356    57.438032E+06    57.436872E+06  -114.973376E+06   344.835808E+06       688.223389    344.83008E+06
             4357    57.467956E+06    57.463184E+06  -114.944624E+06   344.826976E+06       520.112854   344.826144E+06
             4358    57.519672E+06     57.51904E+06   -114.89788E+06   344.819776E+06      -611.219849   344.829984E+06
             4359    57.473568E+06    57.467864E+06   -114.94116E+06   344.826752E+06      -988.313599   344.827168E+06
             4360    57.465544E+06    57.468196E+06  -114.948128E+06   344.828384E+06  -1.16478027E+03    344.82896E+06
             4361      57.4849E+06     57.48108E+06  -114.930312E+06     344.8248E+06       607.275269   344.828448E+06
             4362     57.47272E+06    57.471476E+06  -114.940536E+06   344.826976E+06       998.765198   344.827392E+06
             4363    57.479112E+06    57.483004E+06  -114.934648E+06    344.83136E+06      -878.939270    344.82592E+06
             4364    57.455208E+06     57.44544E+06  -114.958536E+06   344.825152E+06      -110.754669     344.8296E+06
             4365    57.469336E+06     57.47098E+06  -114.946256E+06   344.829984E+06       452.197662   344.828384E+06
             4366    57.474812E+06    57.473968E+06  -114.937712E+06    344.82528E+06       342.657898   344.827296E+06
             4367    57.456432E+06    57.453592E+06  -114.958152E+06   344.825728E+06      -262.292480   344.829344E+06
             4368     57.47874E+06     57.48116E+06  -114.931824E+06    344.82304E+06       593.814514   344.826976E+06
             4369    57.462408E+06    57.463636E+06  -114.949016E+06   344.826464E+06       48.0423965   344.832224E+06
             4370    57.474884E+06     57.47378E+06  -114.939768E+06   344.827008E+06       654.708069   344.827776E+06
             4371    57.467256E+06    57.462448E+06   -114.95032E+06    344.82848E+06  -1.61659949E+03   344.828224E+06
             4372    57.468392E+06    57.469324E+06  -114.945152E+06   344.828224E+06      -173.302856   344.828096E+06
             4373    57.474444E+06    57.474508E+06  -114.945144E+06   344.831072E+06       101.722717   344.826752E+06
             4374    57.478216E+06    57.476104E+06   -114.93776E+06   344.826144E+06  -1.34158899E+03   344.830944E+06
             4375     57.46574E+06     57.46752E+06  -114.945592E+06   344.827904E+06       421.232208   344.829312E+06
             4376    57.494868E+06    57.497108E+06  -114.917248E+06   344.822688E+06       43.8086052   344.825088E+06
             4377    57.471472E+06      57.4715E+06  -114.942536E+06   344.828224E+06       164.110916   344.827968E+06
             4378    57.465264E+06    57.466868E+06  -114.948352E+06    344.82992E+06      -696.603271   344.826112E+06
             4379    57.452208E+06    57.458292E+06  -114.955192E+06   344.825536E+06       893.895325   344.828928E+06
             4380    57.464312E+06    57.450956E+06  -114.953424E+06   344.822304E+06  -5.03881348E+03   344.824256E+06
             4381    57.470732E+06     57.46968E+06   -114.94276E+06   344.828032E+06       27.5327053   344.828384E+06
             4382    57.497548E+06     57.49668E+06  -114.918616E+06   344.823168E+06      -424.333130   344.827072E+06
             4383     57.46804E+06    57.470432E+06  -114.945464E+06   344.826816E+06  -1.83839612E+03    344.82624E+06
             4384    57.473548E+06    57.474488E+06  -114.939128E+06   344.826784E+06      -485.076874   344.829696E+06
             4385    57.465928E+06    57.467444E+06   -114.94888E+06   344.828544E+06      -194.817902   344.828768E+06
             4386    57.493236E+06    57.490616E+06  -114.921768E+06   344.818528E+06      -53.7137680   344.827424E+06
             4387    57.468996E+06    57.471496E+06  -114.943848E+06   344.827712E+06      -662.844055    344.82752E+06
             4388     57.47284E+06    57.476632E+06  -114.943104E+06   344.830144E+06   3.53345312E+03    344.83168E+06
             4389    57.487192E+06     57.48884E+06    -114.9284E+06   344.830304E+06      -721.588257    344.82688E+06
             4390    57.468624E+06    57.467212E+06  -114.945632E+06   344.828352E+06       404.102966   344.827072E+06
             4391    57.466424E+06    57.466692E+06   -114.94632E+06   344.826016E+06      -518.388733      344.828E+06
             4392    57.476828E+06    57.474716E+06  -114.938016E+06   344.827744E+06       709.478577   344.827456E+06
             4393    57.466964E+06    57.467972E+06  -114.945936E+06   344.827008E+06  -2.36107349E+03    344.82816E+06
             4394     57.47744E+06    57.472408E+06  -114.939424E+06   344.827104E+06       959.990784    344.82752E+06
             4395    57.547548E+06      57.5258E+06  -114.882816E+06   344.829376E+06  -5.87955469E+03   344.815904E+06
             4396    57.468224E+06    57.468364E+06  -114.944904E+06    344.82912E+06       176.270157   344.828896E+06
             4397    57.477976E+06     57.48318E+06    -114.9352E+06   344.829216E+06      -411.098785   344.825664E+06
             4398     57.47452E+06    57.480788E+06   -114.93792E+06    344.82896E+06      -109.418037   344.827712E+06
             4399    57.431632E+06    57.443904E+06  -114.973424E+06   344.828384E+06  -1.65728210E+03   344.833312E+06
             4400    57.471424E+06    57.472168E+06  -114.942552E+06   344.827776E+06      -43.4339638   344.828416E+06
             4401    57.472872E+06    57.468592E+06  -114.943424E+06   344.832384E+06       102.924355   344.822912E+06
             4402    57.471532E+06    57.470724E+06  -114.942536E+06   344.827264E+06      -590.508423   344.827904E+06
             4403    57.474092E+06     57.47082E+06  -114.941952E+06   344.827264E+06       106.188797   344.826816E+06
             4404    57.472496E+06    57.472408E+06  -114.940992E+06   344.827424E+06      -348.006836   344.827392E+06
             4405    57.472192E+06     57.47192E+06   -114.94228E+06   344.827584E+06       15.6009483    344.82768E+06
             4406    57.466308E+06    57.468412E+06  -114.946208E+06     344.8288E+06       846.600159   344.828352E+06
             4407    57.477852E+06    57.476536E+06  -114.937536E+06   344.828832E+06   1.58366296E+03   344.827456E+06
             4408    57.466752E+06    57.466172E+06  -114.947072E+06   344.828096E+06       41.9839211    344.82864E+06
             4409    57.466096E+06    57.468816E+06  -114.945256E+06   344.825792E+06      -356.431000   344.828192E+06
             4410    57.474752E+06      57.4742E+06  -114.939712E+06   344.827744E+06      -118.710152   344.827904E+06
             4411    57.470828E+06    57.472952E+06  -114.941072E+06   344.827968E+06       276.815704   344.828704E+06
             4412    57.472004E+06    57.470764E+06  -114.942952E+06   344.828224E+06      -267.099182    344.82832E+06
             4413    57.473192E+06    57.472828E+06  -114.941208E+06   344.827712E+06       223.384857    344.82784E+06
             4414    57.481708E+06    57.481564E+06  -114.929728E+06    344.82656E+06      -976.076904   344.825408E+06
             4415    57.480788E+06    57.479096E+06  -114.933184E+06   344.828736E+06      -489.355957   344.826496E+06
             4416    57.467052E+06    57.468236E+06  -114.944448E+06   344.827232E+06  -1.45393542E+03   344.829088E+06
             4417    57.467104E+06    57.466236E+06  -114.944704E+06   344.827904E+06   1.82117456E+03   344.827168E+06
             4418     57.46402E+06    57.456872E+06  -114.951952E+06   344.832032E+06       61.7853012   344.827328E+06
             4419    57.462532E+06    57.464092E+06  -114.951336E+06   344.830976E+06   1.36649878E+03    344.82864E+06
             4420    57.458356E+06     57.45528E+06  -114.959312E+06   344.829632E+06   2.67345972E+03   344.828864E+06
             4421    57.469572E+06    57.463936E+06  -114.948408E+06    344.83296E+06      -379.872345   344.826208E+06
             4422    57.479556E+06      57.4754E+06  -114.936832E+06    344.82512E+06  -1.32706409E+03   344.826944E+06
             4423     57.58288E+06    57.597132E+06  -114.825936E+06   344.816576E+06   3.17333936E+03    344.80928E+06
             4424    57.465936E+06    57.467372E+06  -114.949904E+06    344.82848E+06      -754.805847   344.829184E+06
             4425    57.471972E+06    57.471728E+06  -114.941544E+06   344.827104E+06  -1.13233911E+03   344.828352E+06
             4426    57.470892E+06    57.471452E+06  -114.942464E+06   344.828768E+06       57.8893814   344.828608E+06
             4427    57.468152E+06    57.470208E+06    -114.9442E+06   344.825664E+06      -264.060944   344.827424E+06
             4428    57.474208E+06     57.47358E+06  -114.938656E+06   344.827712E+06       823.922974    344.82704E+06
             4429    57.476832E+06    57.481348E+06  -114.935272E+06   344.827968E+06       954.056030   344.828064E+06
             4430    57.464328E+06    57.460624E+06  -114.952536E+06   344.823904E+06       62.6262093    344.82944E+06
             4431    57.469052E+06    57.466936E+06  -114.945728E+06   344.828672E+06  -1.00517963E+03   344.827616E+06
             4432     57.46512E+06    57.469336E+06  -114.946096E+06   344.826976E+06  -1.81262256E+03   344.829664E+06
             4433    57.477852E+06    57.475876E+06  -114.937232E+06   344.828288E+06  -1.84178955E+03   344.825856E+06
             4434    57.462984E+06     57.46418E+06  -114.953408E+06   344.827552E+06  -2.56811548E+03   344.828384E+06
             4435    57.470192E+06    57.468012E+06  -114.943376E+06   344.826816E+06       198.718353   344.827904E+06
             4436     57.44902E+06    57.444892E+06  -114.964536E+06    344.82688E+06  -1.09036804E+03    344.82912E+06
             4437    57.483628E+06    57.485268E+06  -114.929936E+06   344.826176E+06  -2.00644946E+03    344.82608E+06
             4438    57.471504E+06    57.467576E+06  -114.945264E+06   344.829792E+06       900.169189   344.825888E+06
             4439    57.475956E+06    57.471728E+06  -114.941912E+06     344.8288E+06   1.37019202E+03   344.826944E+06
             4440    57.496312E+06    57.486276E+06   -114.92624E+06   344.824512E+06  -1.05762317E+03   344.823136E+06
             4441     57.45674E+06    57.458996E+06  -114.954008E+06   344.828192E+06       192.337372   344.829536E+06
             4442    57.475108E+06      57.4747E+06  -114.938384E+06   344.827776E+06      -762.071045     344.8264E+06
             4443    57.480152E+06    57.477068E+06  -114.937576E+06   344.828352E+06      -850.685608     344.8272E+06
             4444    57.472244E+06     57.47214E+06     -114.942E+06    344.82464E+06       847.044434   344.830624E+06
             4445    57.470276E+06    57.469736E+06  -114.943992E+06   344.828096E+06       335.023254   344.828096E+06
             4446     57.46828E+06    57.470324E+06   -114.94408E+06   344.828128E+06       20.4125519    344.82864E+06
             4447    57.475944E+06     57.47674E+06  -114.936568E+06   344.827744E+06       73.8750153   344.826656E+06
             4448    57.472252E+06     57.47252E+06  -114.942032E+06   344.827872E+06      -338.524200   344.827872E+06
             4449    57.496848E+06    57.492336E+06  -114.921224E+06   344.829472E+06   2.30436182E+03   344.825632E+06
             4450    57.469604E+06     57.46828E+06  -114.945576E+06   344.827648E+06       319.957764   344.829024E+06
             4451    57.463468E+06    57.464436E+06   -114.95216E+06   344.828672E+06       66.4044189   344.829216E+06
             4452    57.479432E+06    57.481988E+06  -114.933064E+06   344.826688E+06       581.820679   344.828032E+06
             4453    57.474344E+06     57.47328E+06   -114.94064E+06   344.827744E+06       19.6406002   344.827488E+06
             4454     57.47038E+06    57.470548E+06  -114.943344E+06    344.82784E+06      -78.8415756   344.827616E+06
             4455     57.47172E+06     57.47188E+06  -114.942712E+06    344.82864E+06       46.8015251   344.827616E+06
             4456    57.471744E+06     57.47206E+06  -114.942776E+06   344.828256E+06      -439.433411   344.828256E+06
             4457    57.476648E+06    57.478356E+06   -114.93792E+06   344.821856E+06      -907.637756    344.83024E+06
             4458    57.463648E+06    57.466028E+06  -114.946104E+06    344.82624E+06      -395.868774   344.828704E+06
             4459     57.47318E+06    57.472576E+06  -114.941248E+06      344.828E+06      -354.784760   344.827584E+06
             4460    57.473196E+06    57.472788E+06  -114.940808E+06   344.828192E+06      -282.541748    344.82768E+06
             4461    57.475512E+06    57.474812E+06  -114.938528E+06   344.827776E+06      -128.763702   344.827456E+06
             4462      57.4755E+06     57.47866E+06  -114.936472E+06   344.826304E+06       576.937439    344.82784E+06
             4463    57.473184E+06      57.4701E+06  -114.942136E+06   344.826752E+06       119.507782   344.827584E+06
             4464    57.463892E+06    57.462736E+06   -114.94636E+06   344.829056E+06  -1.30993835E+03     344.8296E+06
             4465    57.458032E+06    57.455508E+06  -114.957728E+06    344.83024E+06       791.406189   344.824832E+06
             4466    57.460936E+06    57.453492E+06  -114.958144E+06    344.83344E+06   1.85576147E+03   344.829408E+06
             4467      57.4709E+06    57.470404E+06  -114.941672E+06   344.829184E+06       85.1958466   344.828896E+06
             4468      57.4735E+06    57.475052E+06   -114.93988E+06    344.82768E+06       341.886078   344.827744E+06
             4469    57.468232E+06     57.46482E+06  -114.945496E+06   344.828128E+06       591.507019   344.831328E+06
             4470    57.470736E+06     57.46718E+06  -114.944832E+06   344.830976E+06      -421.494385   344.827712E+06
             4471    57.468464E+06    57.467968E+06  -114.946376E+06   344.828128E+06       520.964417   344.828256E+06
             4472    57.470152E+06    57.470212E+06  -114.943192E+06   344.827936E+06       352.729828   344.827584E+06
             4473    57.473464E+06    57.455504E+06  -114.946912E+06   344.830208E+06   1.37410938E+03   344.823936E+06
             4474     57.46576E+06    57.463612E+06  -114.948864E+06   344.828384E+06      -140.800888   344.828416E+06
             4475    57.468024E+06      57.4685E+06  -114.947176E+06   344.828256E+06       101.137199   344.826624E+06
             4476    57.475388E+06    57.476084E+06  -114.937144E+06    344.82576E+06      -506.024017   344.830144E+06
             4477    57.460732E+06    57.456592E+06   -114.95452E+06   344.828096E+06       964.064209    344.82992E+06
             4478    57.471152E+06      57.4723E+06  -114.942312E+06   344.828352E+06      -303.742340   344.828256E+06
             4479    57.475644E+06    57.471896E+06  -114.937616E+06   344.824032E+06       984.267395    344.83008E+06
             4480    57.471308E+06    57.466192E+06  -114.943928E+06   344.827936E+06      -857.734558   344.828864E+06
             4481    57.452956E+06    57.453836E+06  -114.962568E+06   344.828736E+06   1.04176306E+03    344.83088E+06
             4482    57.502112E+06      57.5054E+06  -114.914704E+06   344.821952E+06      -719.056396   344.825664E+06
             4483    57.455612E+06    57.455628E+06  -114.957488E+06   344.831136E+06   1.27317395E+03   344.828832E+06
             4484    57.451648E+06    57.442144E+06   -114.96828E+06   344.839104E+06   2.22471948E+03   344.828544E+06
             4485    57.428484E+06     57.41806E+06   -114.98964E+06   344.836576E+06       249.442276   344.828352E+06
             4486    57.476052E+06    57.478448E+06  -114.938808E+06   344.829088E+06       986.737854   344.825664E+06
             4487    57.505176E+06    57.507132E+06  -114.906264E+06   344.820064E+06       827.060669   344.826784E+06
             4488     57.46356E+06      57.4652E+06    -114.9512E+06   344.828896E+06       762.279358   344.828928E+06
             4489    57.471028E+06    57.466992E+06   -114.94636E+06   344.830496E+06  -2.68456567E+03   344.828768E+06
             4490    57.491544E+06     57.49202E+06  -114.926904E+06   344.832736E+06       727.512024   344.826112E+06
             4491    57.490448E+06    57.490448E+06  -114.926856E+06    344.83264E+06       898.066284   344.827136E+06
             4492      57.4799E+06    57.477112E+06  -114.934264E+06   344.825472E+06       733.988892   344.826688E+06
             4493    57.483652E+06      57.4809E+06  -114.932144E+06   344.828192E+06   1.02560522E+03    344.82704E+06
             4494     57.44994E+06    57.458316E+06  -114.958912E+06   344.829568E+06      -727.103394   344.828256E+06
             4495     57.46974E+06     57.46892E+06  -114.943384E+06   344.826656E+06   1.04751965E+03   344.827328E+06
             4496    57.470392E+06    57.465604E+06  -114.946664E+06   344.829472E+06   1.11071570E+03   344.828192E+06
             4497    57.482424E+06     57.47232E+06  -114.942504E+06   344.830624E+06  -1.69313831E+03   344.826112E+06
             4498    57.468944E+06    57.469364E+06   -114.94396E+06   344.826976E+06       903.145935   344.828032E+06
             4499    57.459844E+06    57.467272E+06  -114.947408E+06   344.827552E+06      -792.666443   344.827968E+06
             4500    57.466576E+06      57.4685E+06  -114.944984E+06   344.826848E+06       167.109161   344.828704E+06
             4501    57.442476E+06    57.449156E+06  -114.964696E+06    344.82208E+06  -9.09223535E+03   344.830016E+06
             4502    57.408128E+06    57.423216E+06   -114.99296E+06   344.831424E+06  -1.45508386E+03   344.832256E+06
             4503    57.465668E+06    57.465064E+06  -114.948648E+06    344.82784E+06       200.316666   344.828544E+06
             4504    57.472648E+06    57.471968E+06  -114.941312E+06    344.82752E+06      -158.973907   344.828512E+06
             4505     57.51934E+06     57.50614E+06  -114.903536E+06   344.824576E+06   1.61868970E+03   344.822752E+06
             4506    57.476732E+06    57.474784E+06  -114.939728E+06   344.828096E+06       443.417389   344.828032E+06
             4507    57.455268E+06    57.447604E+06  -114.959648E+06   344.828128E+06      -162.118240   344.827552E+06
             4508    57.468708E+06     57.46908E+06  -114.944336E+06   344.827424E+06       56.3610954   344.828192E+06
             4509    57.469436E+06    57.467788E+06  -114.945288E+06   344.826784E+06  -1.33791406E+03   344.827904E+06
             4510      57.4498E+06    57.449392E+06  -114.968208E+06   344.834496E+06       899.197510   344.830336E+06
             4511    57.472988E+06     57.47108E+06  -114.944344E+06   344.828224E+06   1.65034094E+03   344.827712E+06
             4512    57.470708E+06     57.47022E+06  -114.943528E+06   344.828608E+06       220.510223   344.827936E+06
             4513     57.45796E+06    57.464352E+06  -114.954312E+06    344.83104E+06      -266.329834    344.83072E+06
             4514    57.472472E+06    57.473548E+06  -114.941648E+06   344.827104E+06      -756.503540   344.828768E+06
             4515    57.482912E+06    57.484884E+06  -114.933408E+06   344.834848E+06   1.04649512E+03   344.825248E+06
             4516     57.47646E+06    57.476828E+06  -114.937936E+06   344.824576E+06  -1.14356726E+03   344.830112E+06
             4517    57.469772E+06     57.47054E+06   -114.94344E+06   344.828448E+06      -235.586319   344.827776E+06
             4518    57.471476E+06    57.473256E+06   -114.94068E+06    344.82768E+06      -278.566986   344.827104E+06
             4519     57.46974E+06    57.466032E+06  -114.946144E+06   344.829344E+06   1.39963696E+03   344.827808E+06
             4520    57.469224E+06    57.467488E+06  -114.945864E+06    344.82816E+06       645.162659   344.829152E+06
             4521    57.469588E+06    57.476584E+06  -114.944432E+06   344.828928E+06      -436.665741   344.830784E+06
             4522    57.449824E+06    57.456016E+06  -114.956576E+06   344.828864E+06      -454.925232   344.830112E+06
             4523    57.466464E+06    57.467124E+06  -114.948336E+06   344.828896E+06      -527.064453   344.829568E+06
             4524     57.47048E+06    57.469968E+06  -114.943208E+06   344.827936E+06       294.016327   344.827872E+06
             4525    57.483728E+06     57.48432E+06  -114.931736E+06    344.83104E+06      -553.228943   344.826432E+06
             4526    57.470124E+06    57.469492E+06  -114.943408E+06    344.82768E+06       342.417450   344.828288E+06
             4527    57.470464E+06    57.471628E+06  -114.940832E+06   344.828608E+06   2.25756226E+03   344.827264E+06
             4528    57.474776E+06    57.469984E+06  -114.944472E+06   344.830624E+06      -487.576050     344.8264E+06
             4529    57.467192E+06       57.469E+06  -114.945096E+06   344.827456E+06      -965.555847   344.828128E+06
             4530     57.47236E+06    57.472204E+06  -114.941352E+06   344.827904E+06      -353.552582   344.827648E+06
             4531    57.478692E+06     57.47882E+06   -114.93436E+06    344.82688E+06      -69.7287369   344.826432E+06
             4532    57.470932E+06     57.47214E+06  -114.941944E+06   344.828032E+06      -127.218178   344.827712E+06
             4533    57.471356E+06    57.471528E+06  -114.942232E+06   344.827552E+06      -144.945160   344.827712E+06
             4534     57.47384E+06    57.473052E+06  -114.940736E+06      344.828E+06      -295.645721   344.827584E+06
             4535    57.469172E+06    57.469184E+06   -114.94484E+06   344.827808E+06       16.9888935   344.827872E+06
             4536    57.423844E+06     57.44116E+06  -114.975192E+06   344.826304E+06   1.04960583E+03   344.830688E+06
             4537    57.471756E+06      57.4728E+06  -114.941776E+06   344.828256E+06       361.341064   344.827456E+06
             4538    57.457292E+06    57.456784E+06  -114.958624E+06     344.8304E+06      -566.897461   344.829792E+06
             4539    57.457816E+06      57.4592E+06  -114.953528E+06   344.829952E+06       523.282776   344.827936E+06
             4540    57.474992E+06    57.476532E+06  -114.936592E+06   344.827008E+06       876.140930   344.826176E+06
             4541    57.467872E+06    57.474124E+06  -114.940352E+06   344.825952E+06      -56.9548378   344.827232E+06
             4542    57.475216E+06    57.479384E+06    -114.9356E+06   344.827488E+06       315.213318   344.827744E+06
             4543    57.462048E+06    57.465112E+06  -114.949336E+06   344.830688E+06   4.27968604E+03    344.82896E+06
             4544    57.461088E+06     57.46342E+06  -114.951144E+06   344.830368E+06   5.45264160E+03   344.829568E+06
             4545    57.474992E+06    57.470392E+06  -114.941704E+06   344.827552E+06      -611.394287   344.827776E+06
             4546    57.472248E+06    57.470668E+06  -114.941168E+06    344.82928E+06      -563.645325    344.82768E+06
             4547    57.446108E+06    57.447148E+06  -114.967928E+06   344.828928E+06      -311.650696   344.833056E+06
             4548    57.475104E+06    57.480224E+06   -114.93768E+06   344.827648E+06      -164.076355   344.827584E+06
             4549    57.457872E+06     57.45678E+06  -114.958896E+06   344.832704E+06   1.34776294E+03   344.826464E+06
             4550    57.454488E+06    57.450496E+06    -114.9606E+06   344.827968E+06       34.2409515    344.83008E+06
             4551    57.465332E+06    57.467092E+06   -114.94744E+06   344.828608E+06   1.35178247E+03   344.828672E+06
             4552    57.479796E+06    57.478312E+06  -114.934168E+06    344.82784E+06       186.753006   344.826976E+06
             4553     57.50556E+06    57.513844E+06  -114.909344E+06   344.824672E+06  -1.37789636E+03    344.82208E+06
             4554    57.471864E+06    57.472036E+06  -114.941224E+06   344.827488E+06       636.998230   344.827744E+06
             4555     57.46492E+06    57.465916E+06  -114.949016E+06   344.829376E+06       92.2082825   344.828128E+06
             4556    57.475396E+06    57.473096E+06  -114.938448E+06   344.827072E+06       635.160400   344.827968E+06
             4557    57.468464E+06     57.46524E+06  -114.947696E+06   344.827424E+06   1.87338416E+03    344.82736E+06
             4558    57.469608E+06    57.471028E+06  -114.943168E+06   344.828384E+06       349.438416    344.82864E+06
             4559    57.490396E+06      57.5051E+06  -114.919864E+06   344.830016E+06  -2.28729541E+03   344.828192E+06
             4560    57.464896E+06     57.46568E+06  -114.949336E+06   344.827296E+06      -211.401398   344.830464E+06
             4561      57.4722E+06     57.47504E+06   -114.94348E+06   344.830272E+06      -645.879028   344.826592E+06
             4562     57.47302E+06    57.474184E+06  -114.939768E+06   344.827904E+06      -328.146790   344.827136E+06
             4563    57.483868E+06    57.493172E+06   -114.93004E+06   344.832704E+06       492.827087   344.828256E+06
             4564    57.470212E+06    57.469272E+06  -114.945216E+06   344.827776E+06      -308.707092   344.828224E+06
             4565     57.48968E+06    57.499192E+06  -114.923192E+06   344.824288E+06      -795.535278   344.826784E+06
             4566    57.469388E+06    57.467692E+06  -114.946368E+06   344.828064E+06      -159.574768   344.828352E+06
             4567    57.476196E+06    57.475092E+06  -114.935376E+06   344.827968E+06       603.011047    344.82992E+06
             4568    57.469236E+06    57.469496E+06  -114.945128E+06   344.828416E+06      -253.680542   344.827712E+06
             4569    57.455124E+06    57.463116E+06   -114.95628E+06     344.8304E+06  -1.49523413E+03    344.82992E+06
             4570    57.470396E+06    57.473356E+06  -114.945488E+06    344.83072E+06   1.03475781E+03   344.828032E+06
             4571      57.4715E+06    57.473332E+06  -114.941904E+06   344.827296E+06       127.858742   344.829056E+06
             4572    57.473876E+06    57.474336E+06   -114.93912E+06   344.827296E+06       485.460815   344.827264E+06
             4573    57.476952E+06     57.47662E+06  -114.937984E+06   344.824576E+06      -461.818665    344.82624E+06
             4574    57.484212E+06    57.482608E+06   -114.92848E+06   344.824864E+06       49.6847458   344.826592E+06
             4575    57.564492E+06     57.54812E+06  -114.864896E+06   344.823904E+06   4.03065088E+03   344.823232E+06
             4576    57.479572E+06    57.475156E+06  -114.937512E+06    344.82432E+06  -10.3736191E+03   344.825408E+06
             4577     57.46906E+06    57.467736E+06  -114.949296E+06   344.833536E+06   2.37912793E+03   344.828224E+06
             4578    57.430556E+06    57.434244E+06  -114.983504E+06     344.8368E+06      -262.212280   344.834112E+06
             4579    57.471736E+06    57.471928E+06  -114.942048E+06   344.827584E+06       186.216629    344.82784E+06
             4580    57.442964E+06    57.447448E+06    -114.9682E+06   344.833696E+06       746.808960   344.830112E+06
             4581    57.459544E+06    57.457256E+06  -114.957288E+06   344.831392E+06  -1.78736938E+03   344.829344E+06
             4582    57.472976E+06    57.472056E+06  -114.941168E+06    344.82848E+06      -294.386139   344.827648E+06
             4583     57.44282E+06    57.448496E+06  -114.967464E+06   344.825696E+06  -2.68280908E+03   344.828384E+06
             4584     57.47136E+06     57.46778E+06  -114.943936E+06    344.82816E+06   2.38979419E+03    344.82752E+06
             4585    57.472736E+06    57.473284E+06  -114.941512E+06   344.827648E+06      -291.295593    344.82704E+06
             4586      57.4781E+06    57.475148E+06  -114.937672E+06    344.82768E+06       35.7869339   344.826048E+06
             4587    57.475012E+06     57.47566E+06  -114.938536E+06   344.827296E+06      -267.444397   344.827744E+06
             4588     57.47132E+06     57.47182E+06  -114.941344E+06   344.826976E+06       38.1609535   344.828064E+06
             4589    57.460924E+06    57.463896E+06  -114.953416E+06   344.829248E+06  -3.19957788E+03   344.827808E+06
             4590    57.466784E+06    57.469656E+06  -114.947736E+06   344.828384E+06      -110.938545   344.827328E+06
             4591    57.472336E+06    57.472636E+06  -114.941376E+06   344.827648E+06      -688.793396    344.82864E+06
             4592    57.474408E+06     57.47184E+06  -114.942312E+06   344.828128E+06  -1.68490466E+03    344.82672E+06
             4593    57.477276E+06     57.47576E+06  -114.936528E+06   344.827744E+06  -2.11676636E+03   344.827168E+06
             4594     57.46606E+06    57.466724E+06   -114.94636E+06   344.828352E+06      -150.744812   344.828192E+06
             4595    57.470984E+06    57.470768E+06  -114.943512E+06   344.828384E+06       354.912292      344.828E+06
             4596    57.468988E+06      57.4665E+06  -114.944928E+06   344.827296E+06      -170.928757   344.827712E+06
             4597    57.455312E+06    57.458236E+06  -114.956752E+06     344.8304E+06      -388.472015   344.830656E+06
             4598    57.476516E+06    57.476932E+06  -114.938616E+06   344.829984E+06       124.481483   344.828096E+06
             4599     57.47378E+06    57.469656E+06  -114.943096E+06   344.827488E+06  -2.56955786E+03   344.828256E+06
             4600    57.473588E+06     57.47542E+06  -114.940032E+06   344.828288E+06      -352.846893   344.827744E+06
             4601    57.470156E+06    57.470652E+06   -114.94368E+06   344.828064E+06       68.6470795   344.828128E+06
             4602    57.480568E+06     57.47958E+06   -114.93728E+06   344.831456E+06       248.343628   344.827296E+06
             4603    57.470556E+06      57.4708E+06  -114.943416E+06   344.828448E+06      -86.1192322      344.828E+06
             4604     57.47218E+06    57.470476E+06  -114.942992E+06   344.827456E+06       76.3921890   344.826688E+06
             4605      57.4899E+06    57.485632E+06  -114.926216E+06   344.824832E+06  -1.96130383E+03   344.828736E+06
             4606     57.46208E+06    57.462732E+06  -114.950456E+06    344.83056E+06       224.852173   344.828192E+06
             4607    57.463496E+06    57.469976E+06  -114.947128E+06   344.828768E+06       256.588928   344.828032E+06
             4608    57.472788E+06    57.472944E+06    -114.9408E+06   344.827712E+06      -210.354721   344.827744E+06
             4609    57.467456E+06    57.470532E+06  -114.944136E+06   344.830336E+06      -300.009399   344.827104E+06
             4610     57.47886E+06     57.48048E+06   -114.93316E+06    344.82656E+06       65.1814346   344.826624E+06
             4611    57.472936E+06    57.472316E+06  -114.939776E+06   344.827392E+06   1.23715820E+03   344.829728E+06
             4612    57.503016E+06    57.518168E+06  -114.904872E+06    344.82544E+06       714.989746   344.823424E+06
             4613     57.46238E+06    57.461812E+06  -114.950728E+06   344.828192E+06       390.289612   344.826176E+06
             4614    57.493484E+06    57.486632E+06  -114.925648E+06   344.829536E+06   2.19649341E+03   344.824896E+06
             4615     57.44932E+06    57.452952E+06  -114.962304E+06   344.831008E+06  -1.58817371E+03   344.829984E+06
             4616    57.489504E+06    57.484504E+06   -114.92572E+06   344.825856E+06  -3.52677002E+03    344.82944E+06
             4617    57.471176E+06    57.471596E+06  -114.942792E+06   344.827936E+06       334.189575      344.828E+06
             4618     57.47586E+06    57.474412E+06   -114.94104E+06    344.82896E+06       684.463135   344.826912E+06
             4619    57.477908E+06    57.478268E+06     -114.936E+06      344.828E+06  -1.12371692E+03   344.828416E+06
             4620     57.46186E+06     57.45972E+06  -114.949392E+06   344.825984E+06  -1.13389709E+03   344.832928E+06
             4621    57.483188E+06    57.473268E+06  -114.939736E+06   344.829728E+06       328.494080   344.826752E+06
             4622    57.480292E+06    57.479636E+06  -114.934728E+06      344.828E+06  -1.42318848E+03   344.827008E+06
             4623    57.476124E+06     57.47826E+06  -114.936656E+06   344.824064E+06      -998.607178   344.829536E+06
             4624    57.488232E+06    57.485104E+06  -114.929176E+06   344.825504E+06      -812.050171   344.826816E+06
             4625    57.471244E+06    57.477372E+06  -114.939144E+06   344.827104E+06       319.233032   344.829792E+06
             4626    57.449408E+06    57.480564E+06   -114.94448E+06   344.823072E+06  -1.43352600E+03   344.832192E+06
             4627    57.482796E+06    57.488468E+06  -114.926272E+06    344.83152E+06   10.6729785E+03   344.825376E+06
             4628    57.464408E+06    57.463488E+06    -114.9484E+06     344.8288E+06       72.0596085   344.828288E+06
             4629    57.468284E+06    57.468036E+06  -114.945832E+06   344.830944E+06      -219.069275   344.828096E+06
             4630     57.46466E+06    57.465708E+06  -114.952736E+06   344.828256E+06       220.892181   344.831456E+06
             4631    57.470688E+06    57.467568E+06    -114.9436E+06   344.830944E+06   1.01319305E+03   344.827616E+06
             4632     57.46858E+06     57.46592E+06  -114.945664E+06   344.827104E+06       818.923340   344.828512E+06
             4633    57.473212E+06    57.472248E+06  -114.941384E+06   344.827744E+06       344.736053   344.827872E+06
             4634    57.483212E+06    57.479492E+06   -114.93296E+06   344.826816E+06  -2.79396948E+03     344.8264E+06
             4635    57.463208E+06    57.455892E+06  -114.955024E+06   344.835776E+06       63.8070259     344.8288E+06
             4636    57.470816E+06     57.46488E+06  -114.942568E+06   344.825728E+06   2.16803516E+03   344.829632E+06
             4637    57.474896E+06    57.471764E+06  -114.943168E+06    344.82944E+06   1.21665393E+03   344.825632E+06
             4638    57.434552E+06    57.420096E+06   -114.98248E+06   344.829536E+06   2.32815283E+03    344.82912E+06
             4639    57.473284E+06    57.474828E+06  -114.938632E+06   344.826944E+06      -65.0206528   344.828832E+06
             4640    57.475892E+06    57.477356E+06  -114.934992E+06   344.826144E+06  -2.70738037E+03   344.828192E+06
             4641     57.46408E+06    57.467376E+06   -114.94612E+06   344.826496E+06   1.55297620E+03   344.829664E+06
             4642    57.473104E+06    57.473708E+06  -114.940448E+06   344.828448E+06       405.507111    344.82832E+06
             4643    57.476896E+06     57.47334E+06  -114.940728E+06   344.829984E+06      -874.384155   344.826912E+06
             4644    57.442844E+06    57.444452E+06  -114.973048E+06   344.833312E+06  -2.33860132E+03   344.828992E+06
             4645     57.50494E+06    57.496592E+06   -114.91732E+06   344.826112E+06  -4.88255322E+03   344.826304E+06
             4646    57.476448E+06    57.473732E+06  -114.939856E+06   344.826528E+06  -1.66801514E+03   344.827872E+06
             4647    57.470496E+06    57.469208E+06   -114.94356E+06   344.828544E+06  -2.47076074E+03   344.827904E+06
             4648    57.466204E+06    57.464204E+06  -114.944848E+06   344.830016E+06   1.50125305E+03   344.829984E+06
             4649    57.469668E+06    57.470032E+06  -114.943256E+06   344.829056E+06       426.018951   344.828544E+06
             4650     57.48214E+06    57.488268E+06  -114.930168E+06   344.825472E+06  -1.46410510E+03    344.82656E+06
             4651    57.469024E+06    57.467832E+06  -114.945792E+06     344.8288E+06      -502.374359   344.827968E+06
             4652    57.501312E+06     57.49666E+06  -114.915384E+06   344.825792E+06   2.41729492E+03   344.824864E+06
             4653    57.482888E+06    57.480172E+06   -114.93324E+06   344.825344E+06       346.075439   344.827168E+06
             4654     57.47084E+06     57.47184E+06  -114.942688E+06    344.82848E+06   2.26150610E+03   344.827296E+06
             4655    57.471344E+06    57.470268E+06   -114.94056E+06   344.831488E+06   1.39815161E+03    344.82784E+06
             4656     57.41338E+06    57.403956E+06  -115.002672E+06   344.839904E+06   6.13560645E+03     344.8288E+06
             4657    57.485596E+06      57.4829E+06  -114.932104E+06   344.827552E+06  -1.37873572E+03   344.827776E+06
             4658    57.470296E+06     57.47158E+06  -114.943008E+06   344.828576E+06   2.70952539E+03   344.827616E+06
             4659    57.446816E+06     57.45582E+06   -114.96632E+06   344.835488E+06       643.701477   344.835136E+06
             4660    57.466588E+06      57.4662E+06  -114.946224E+06   344.828864E+06  -1.92609729E+03   344.826432E+06
             4661    57.468832E+06    57.469248E+06  -114.944784E+06   344.828576E+06      -28.4921169   344.827808E+06
             4662    57.468444E+06    57.468608E+06  -114.945216E+06   344.828928E+06      -188.002655   344.827552E+06
             4663    57.471988E+06    57.471612E+06  -114.942712E+06   344.828352E+06      -96.6265411   344.827648E+06
             4664      57.4733E+06     57.47358E+06  -114.941048E+06   344.828512E+06       18.7483330   344.828096E+06
             4665    57.469616E+06    57.470496E+06  -114.944216E+06   344.826048E+06      -304.932648    344.82816E+06
             4666     57.46678E+06    57.467068E+06  -114.947264E+06     344.8288E+06       204.459000   344.828384E+06
             4667    57.472028E+06    57.472616E+06  -114.941368E+06   344.828288E+06       161.838272   344.827616E+06
             4668     57.47088E+06     57.47042E+06    -114.9438E+06    344.82816E+06      -79.0008392   344.828032E+06
             4669     57.47476E+06      57.4734E+06  -114.942648E+06   344.826912E+06       126.894913    344.82448E+06
             4670    57.471568E+06     57.47138E+06  -114.942736E+06   344.828096E+06      -212.746887   344.828288E+06
             4671     57.47094E+06    57.471036E+06  -114.943184E+06    344.82832E+06       159.849792   344.827968E+06
             4672    57.469556E+06    57.469572E+06   -114.94436E+06      344.828E+06      -52.0854263   344.828096E+06
             4673    57.470988E+06    57.471488E+06    -114.9428E+06   344.828064E+06      -126.323334      344.828E+06
             4674    57.466176E+06    57.466864E+06  -114.947544E+06   344.829216E+06       179.892136   344.828192E+06
             4675    57.473044E+06    57.472208E+06  -114.941592E+06   344.827968E+06       12.6450586    344.82784E+06
             4676    57.471152E+06    57.470604E+06  -114.942864E+06   344.828096E+06       282.696960    344.82768E+06
             4677    57.467084E+06    57.466464E+06  -114.946696E+06   344.828448E+06       1.72514391   344.828832E+06
             4678    57.472092E+06    57.472276E+06  -114.941136E+06   344.827616E+06       153.939697   344.828032E+06
             4679    57.473404E+06      57.4731E+06  -114.940664E+06   344.827584E+06      -169.806686   344.828096E+06
             4680    57.478836E+06      57.4778E+06  -114.936192E+06   344.826656E+06       25.4833031    344.82624E+06
             4681    57.449016E+06    57.454988E+06  -114.958656E+06   344.827104E+06   3.02878516E+03   344.829856E+06
             4682    57.476316E+06    57.476132E+06  -114.936632E+06   344.829024E+06   1.26376660E+03   344.828096E+06
             4683    57.473168E+06    57.474264E+06  -114.938672E+06   344.828512E+06   1.00753668E+03   344.829152E+06
             4684    57.474364E+06     57.47512E+06  -114.938664E+06   344.828512E+06      -28.4038086   344.827552E+06
             4685    57.469964E+06    57.468264E+06  -114.943944E+06   344.828736E+06   1.34022925E+03   344.830112E+06
             4686    57.466768E+06    57.468336E+06  -114.945408E+06   344.827968E+06       43.4061165   344.828352E+06
             4687    57.470096E+06    57.463944E+06  -114.948712E+06   344.831488E+06       685.457642   344.829472E+06
             4688    57.456836E+06    57.457688E+06   -114.95368E+06    344.83296E+06       887.683960   344.829088E+06
             4689    57.481116E+06    57.485388E+06  -114.933568E+06   344.826144E+06  -2.65062988E+03    344.82736E+06
             4690    57.467832E+06    57.467656E+06  -114.947104E+06    344.82848E+06   1.10121326E+03    344.82832E+06
             4691     57.47242E+06     57.47058E+06  -114.942224E+06   344.826336E+06  -1.19811292E+03   344.827264E+06
             4692    57.454308E+06    57.447936E+06  -114.962768E+06    344.82928E+06  -2.10627490E+03    344.82944E+06
             4693     57.46378E+06    57.466352E+06  -114.947408E+06   344.828192E+06      -595.104004   344.828128E+06
             4694    57.469704E+06    57.470052E+06  -114.943824E+06   344.828544E+06       388.928497   344.828448E+06
             4695    57.471008E+06    57.471156E+06  -114.942992E+06   344.827744E+06      -361.926361   344.827808E+06
             4696     57.47248E+06    57.472672E+06   -114.94208E+06    344.82848E+06       163.180191   344.828416E+06
             4697    57.478676E+06    57.477192E+06  -114.936112E+06   344.827456E+06       37.9565773   344.827328E+06
             4698    57.472056E+06    57.472436E+06  -114.941408E+06   344.828032E+06      -28.9514141   344.827744E+06
             4699    57.471212E+06    57.473788E+06  -114.940256E+06   344.828736E+06   2.18563574E+03     344.8288E+06
             4700    57.455516E+06    57.458272E+06  -114.956384E+06   344.831328E+06   3.34175952E+03   344.829088E+06
             4701    57.489108E+06    57.484596E+06  -114.927384E+06   344.826592E+06  -2.01740979E+03   344.825952E+06
             4702    57.467168E+06     57.46832E+06  -114.947344E+06   344.828608E+06      -578.465759    344.82848E+06
             4703    57.471976E+06     57.47134E+06   -114.94164E+06   344.828192E+06       499.214783   344.828256E+06
             4704    57.463352E+06    57.463952E+06  -114.950592E+06    344.82896E+06      -467.334808    344.82912E+06
             4705    57.481096E+06     57.48106E+06  -114.929672E+06   344.828288E+06       1.00400221   344.825632E+06
             4706      57.4694E+06      57.4689E+06  -114.945064E+06   344.828096E+06      -154.904099   344.827872E+06
             4707    57.471032E+06    57.470356E+06  -114.943488E+06   344.827936E+06      -160.936646   344.828512E+06
             4708    57.465308E+06     57.46144E+06  -114.948464E+06    344.82912E+06      -347.700104    344.82848E+06
             4709     57.46954E+06     57.46874E+06    -114.9444E+06   344.829152E+06       254.105270   344.828704E+06
             4710    57.477444E+06    57.478008E+06  -114.935576E+06   344.827392E+06       2.28425837   344.827168E+06
             4711    57.471968E+06       57.475E+06  -114.941312E+06   344.827584E+06      -345.420929   344.830592E+06
             4712    57.469988E+06    57.470492E+06    -114.9428E+06   344.827744E+06       197.762924   344.828576E+06
             4713     57.47444E+06    57.472928E+06   -114.93976E+06   344.826848E+06      -622.844543    344.82832E+06
             4714    57.472532E+06    57.473208E+06  -114.939048E+06   344.826624E+06      -878.140564    344.82896E+06
             4715     57.49086E+06     57.50032E+06  -114.917896E+06   344.821952E+06  -1.37479858E+03    344.82752E+06
             4716     57.48288E+06    57.485416E+06  -114.928464E+06   344.827584E+06      -511.483398   344.827808E+06
             4717    57.471184E+06    57.472392E+06  -114.943552E+06    344.82768E+06      -124.896973   344.827872E+06
             4718    57.494672E+06     57.49092E+06  -114.920952E+06   344.823104E+06  -2.90884399E+03   344.825856E+06
             4719    57.454492E+06    57.459576E+06  -114.954232E+06    344.82624E+06       222.785706   344.829024E+06
             4720    57.482792E+06    57.483068E+06  -114.929168E+06   344.826528E+06       283.188660      344.824E+06
             4721    57.546956E+06    57.559728E+06  -114.869728E+06    344.82528E+06  -6.32816553E+03   344.822016E+06
             4722    57.467328E+06    57.471292E+06  -114.947024E+06   344.828224E+06      -625.831421   344.828192E+06
             4723    57.483484E+06    57.482932E+06  -114.930336E+06   344.827552E+06       504.771301    344.82464E+06
             4724    57.472596E+06    57.468392E+06  -114.946272E+06   344.831328E+06      -316.297882   344.829024E+06
             4725    57.476848E+06    57.473776E+06  -114.940536E+06    344.82992E+06      -184.468262   344.828128E+06
             4726    57.471672E+06    57.471712E+06  -114.941944E+06    344.82784E+06      -35.4921532   344.828224E+06
             4727    57.478084E+06    57.481008E+06   -114.93504E+06   344.827232E+06      -94.2739792   344.826656E+06
             4728    57.469424E+06    57.469364E+06  -114.944576E+06   344.827904E+06      -451.016296   344.827904E+06
             4729    57.485244E+06    57.482736E+06  -114.933008E+06   344.827744E+06   1.87897559E+03   344.826208E+06
             4730    57.420276E+06    57.416548E+06   -114.99168E+06   344.838112E+06   3.05746533E+03   344.830048E+06
             4731    57.439192E+06    57.448044E+06  -114.969896E+06   344.830912E+06   1.87804773E+03   344.830336E+06
             4732    57.468988E+06    57.469204E+06  -114.945008E+06    344.82816E+06       34.3731651    344.82864E+06
             4733    57.476284E+06    57.474864E+06  -114.938528E+06    344.82784E+06       615.820679   344.827552E+06
             4734    57.469428E+06    57.469512E+06  -114.943544E+06   344.827488E+06      -137.330917   344.827712E+06
             4735    57.469904E+06     57.47044E+06  -114.943528E+06   344.827968E+06      -241.076553    344.82768E+06
             4736    57.471628E+06    57.475932E+06  -114.941728E+06   344.827712E+06  -1.38240540E+03   344.828128E+06
             4737    57.476912E+06    57.475028E+06  -114.938688E+06   344.827968E+06      -180.134720     344.8272E+06
             4738    57.475244E+06    57.476652E+06  -114.938296E+06   344.827808E+06      -471.868256   344.827328E+06
             4739    57.472056E+06    57.475808E+06  -114.940032E+06   344.827744E+06      -607.106079   344.828448E+06
             4740      57.4764E+06    57.476152E+06  -114.937496E+06   344.826816E+06       271.003052   344.827808E+06
             4741    57.470756E+06    57.471764E+06  -114.942224E+06   344.828192E+06       88.5953674   344.828096E+06
             4742    57.477168E+06    57.481308E+06   -114.93468E+06    344.82752E+06   1.57827710E+03   344.830208E+06
             4743    57.473308E+06    57.473512E+06  -114.939632E+06   344.829984E+06       432.002441      344.828E+06
             4744     57.47194E+06    57.473304E+06   -114.94572E+06     344.8296E+06   1.00818982E+03   344.828256E+06
             4745    57.463424E+06    57.462692E+06  -114.951392E+06   344.827808E+06      -990.348083   344.826752E+06
             4746    57.479756E+06     57.47772E+06  -114.934928E+06   344.825504E+06       67.5317612    344.82672E+06
             4747    57.474972E+06    57.473664E+06  -114.944696E+06    344.83008E+06       509.677246   344.827136E+06
             4748    57.476736E+06    57.475916E+06  -114.938328E+06   344.827584E+06       207.438553   344.827072E+06
             4749    57.470896E+06    57.472356E+06  -114.940888E+06    344.82864E+06   1.92605396E+03   344.828128E+06
             4750    57.472676E+06    57.474156E+06  -114.939352E+06   344.827712E+06       27.5994186    344.82752E+06
             4751    57.470412E+06     57.47002E+06  -114.945128E+06    344.82864E+06       865.749695    344.82752E+06
             4752    57.468252E+06    57.471764E+06  -114.942008E+06   344.822528E+06  -3.71866162E+03   344.827776E+06
             4753    57.477756E+06    57.478052E+06  -114.937416E+06   344.827552E+06      -886.406311   344.827072E+06
             4754    57.459964E+06      57.4629E+06   -114.95168E+06   344.829088E+06   3.20474878E+03   344.829312E+06
             4755    57.466096E+06    57.467132E+06  -114.949136E+06    344.83088E+06   1.30953809E+03    344.83072E+06
             4756    57.470404E+06    57.470128E+06  -114.944032E+06   344.830912E+06       297.777405   344.828128E+06
             4757    57.498864E+06    57.498312E+06  -114.913136E+06   344.821824E+06   1.56731152E+03   344.827808E+06
             4758    57.461888E+06    57.466192E+06  -114.946128E+06    344.82832E+06   1.44422070E+03   344.828928E+06
             4759    57.471692E+06    57.474232E+06  -114.939808E+06   344.828736E+06   2.50911328E+03   344.828864E+06
             4760    57.469388E+06    57.470316E+06   -114.94452E+06   344.827872E+06  -1.79597559E+03   344.826496E+06
             4761    57.472652E+06    57.473824E+06  -114.939056E+06   344.824992E+06      -43.5637665   344.827808E+06
             4762    57.474052E+06    57.469268E+06  -114.941696E+06   344.828736E+06  -2.29964624E+03   344.826112E+06
             4763    57.474104E+06    57.473608E+06  -114.940256E+06   344.827776E+06      -447.209167   344.827616E+06
             4764      57.4738E+06    57.472924E+06  -114.940776E+06   344.827808E+06      -156.973541   344.827968E+06
             4765    57.479656E+06    57.477928E+06  -114.933336E+06   344.826944E+06       863.831665    344.82672E+06
             4766     57.46724E+06    57.466728E+06  -114.946688E+06   344.828704E+06      -927.185974   344.829312E+06
             4767    57.470608E+06    57.475684E+06  -114.936336E+06   344.818976E+06   2.95192261E+03   344.830336E+06
             4768    57.469092E+06    57.469116E+06   -114.94504E+06   344.828128E+06      -761.951782   344.828544E+06
             4769    57.471452E+06     57.48516E+06    -114.9386E+06   344.830848E+06       33.1831436   344.832224E+06
             4770    57.440788E+06    57.450248E+06    -114.9628E+06   344.819488E+06  -4.90500928E+03   344.830656E+06
             4771    57.425504E+06    57.438536E+06  -114.978544E+06   344.826208E+06  -2.57435742E+03   344.830848E+06
             4772    57.460088E+06     57.46082E+06  -114.947008E+06   344.825632E+06       885.820862    344.82352E+06
             4773    57.460532E+06      57.4638E+06  -114.950752E+06   344.829824E+06  -3.32234839E+03     344.8296E+06
             4774    57.454112E+06    57.461948E+06  -114.949296E+06   344.825024E+06  -2.52725806E+03   344.828736E+06
             4775    57.416256E+06    57.441368E+06   -114.97944E+06   344.837696E+06   2.82109888E+03   344.831744E+06
             4776    57.474112E+06    57.469736E+06  -114.940432E+06    344.82752E+06       22.6306477    344.82816E+06
             4777    57.466876E+06    57.469132E+06  -114.945256E+06   344.828928E+06       516.983276    344.82992E+06
             4778    57.468564E+06    57.466648E+06  -114.945784E+06   344.827296E+06   1.18405127E+03   344.827968E+06
             4779    57.471896E+06    57.470348E+06  -114.944696E+06   344.830816E+06  -1.46621729E+03   344.826432E+06
             4780    57.475164E+06    57.467488E+06  -114.939928E+06    344.82464E+06      -643.159851    344.82608E+06
             4781    57.472564E+06    57.471792E+06  -114.941528E+06    344.82912E+06       291.304688   344.829504E+06
             4782    57.486516E+06    57.489748E+06   -114.92604E+06   344.825792E+06       760.997925   344.828256E+06
             4783    57.471536E+06    57.466608E+06   -114.94424E+06   344.826592E+06       819.186951    344.82608E+06
             4784    57.462528E+06    57.467984E+06  -114.946424E+06   344.823456E+06      -644.044373   344.829184E+06
             4785    57.466156E+06    57.465792E+06  -114.946048E+06    344.82816E+06       22.8384361   344.827936E+06
             4786    57.457424E+06    57.457836E+06  -114.955176E+06    344.83056E+06   2.46316797E+03   344.828256E+06
             4787    57.476256E+06    57.475148E+06   -114.93704E+06   344.827296E+06       520.004578    344.82736E+06
             4788    57.476536E+06      57.4755E+06  -114.937032E+06   344.827808E+06       531.050171   344.827424E+06
             4789    57.472972E+06    57.472232E+06  -114.940376E+06   344.827104E+06  -2.01035864E+03   344.826272E+06
             4790    57.501832E+06    57.495684E+06   -114.91672E+06   344.826784E+06   3.31686011E+03    344.82544E+06
             4791     57.47358E+06    57.473208E+06  -114.940608E+06    344.82768E+06      -324.565948   344.827648E+06
             4792    57.456716E+06    57.458268E+06  -114.953936E+06    344.82736E+06  -1.37627808E+03   344.828352E+06
             4793    57.472168E+06    57.472352E+06   -114.94256E+06      344.828E+06       527.790833   344.827776E+06
             4794    57.473444E+06     57.47346E+06  -114.940752E+06    344.82768E+06       168.043121   344.827776E+06
             4795    57.477416E+06    57.475072E+06  -114.935936E+06   344.827488E+06      -576.696655   344.826464E+06
             4796     57.47078E+06    57.473296E+06  -114.942664E+06   344.827616E+06   1.35096118E+03    344.82768E+06
             4797    57.459108E+06    57.454052E+06   -114.95572E+06    344.82928E+06       505.712311   344.827904E+06
             4798    57.465836E+06    57.465496E+06  -114.947336E+06   344.827104E+06      -367.630890   344.827744E+06
             4799    57.478508E+06    57.477936E+06  -114.935848E+06   344.826464E+06      -53.4424858   344.827616E+06
             4800    57.470352E+06    57.471164E+06  -114.942832E+06    344.82784E+06       115.478256   344.828064E+06
             4801    57.472484E+06     57.47202E+06  -114.939384E+06   344.824352E+06       21.8996563   344.828608E+06
             4802    57.467392E+06    57.459808E+06  -114.948264E+06   344.826272E+06       623.415344   344.825792E+06
             4803     57.46886E+06    57.471412E+06  -114.945672E+06    344.83088E+06       871.069519   344.829312E+06
             4804    57.468952E+06    57.469252E+06  -114.943248E+06    344.82832E+06       213.274582    344.82464E+06
             4805    57.470476E+06     57.47136E+06  -114.943152E+06   344.828384E+06  -1.52866089E+03   344.826496E+06
             4806    57.470056E+06     57.47112E+06  -114.943264E+06   344.828224E+06      -235.904709   344.827776E+06
             4807    57.473692E+06     57.47028E+06  -114.943248E+06   344.832192E+06   2.35513940E+03   344.828064E+06
             4808      57.4705E+06    57.474648E+06  -114.940288E+06   344.826656E+06      -1.42882848   344.828928E+06
             4809        57.48E+06     57.48116E+06  -114.933896E+06   344.829312E+06      -294.153717   344.825472E+06
             4810    57.468844E+06     57.47088E+06  -114.943264E+06    344.82848E+06       609.409851   344.829696E+06
             4811    57.471172E+06     57.47156E+06  -114.943464E+06   344.829344E+06       546.487244    344.82864E+06
             4812    57.469712E+06    57.471592E+06  -114.940768E+06   344.826848E+06      -559.618103    344.82704E+06
             4813    57.496972E+06    57.502092E+06  -114.916576E+06   344.829856E+06      -776.083679   344.822112E+06
             4814    57.468652E+06    57.466288E+06   -114.94516E+06   344.829056E+06      -903.896362   344.827296E+06
             4815    57.472568E+06    57.473716E+06   -114.94036E+06   344.825376E+06       694.812683   344.825824E+06
             4816    57.471796E+06    57.473912E+06  -114.940136E+06   344.825568E+06      -380.485321   344.828224E+06
             4817     57.47328E+06     57.46962E+06  -114.941696E+06   344.828064E+06  -1.12618262E+03   344.824448E+06
             4818    57.473688E+06    57.471464E+06  -114.940824E+06    344.82816E+06      -866.670471   344.827968E+06
             4819    57.480124E+06    57.478752E+06  -114.935376E+06   344.829792E+06       495.774689   344.827392E+06
             4820    57.429436E+06    57.441504E+06  -114.977416E+06    344.83232E+06      -675.351318   344.831968E+06
             4821    57.469452E+06    57.471612E+06  -114.943336E+06   344.830176E+06   2.48472388E+03   344.829376E+06
             4822    57.461176E+06    57.463312E+06  -114.954928E+06     344.8272E+06  -2.10012280E+03   344.826816E+06
             4823    57.466032E+06    57.466408E+06   -114.94888E+06    344.82704E+06       836.540344   344.830816E+06
             4824      57.4736E+06    57.470612E+06  -114.942432E+06   344.827488E+06      -762.655884   344.828832E+06
             4825    57.471856E+06     57.47096E+06   -114.94124E+06     344.8272E+06      -888.688843    344.82688E+06
             4826     57.47268E+06    57.472408E+06  -114.941256E+06    344.82864E+06      -293.532959   344.826976E+06
             4827    57.470872E+06     57.46912E+06  -114.944032E+06   344.828256E+06      -316.596283   344.826496E+06
             4828    57.469236E+06    57.465976E+06  -114.946104E+06   344.828896E+06      -808.496277   344.827584E+06
             4829    57.477892E+06    57.476608E+06  -114.936896E+06   344.828448E+06      -681.997070   344.826464E+06
             4830     57.47244E+06    57.472164E+06  -114.942296E+06   344.827872E+06       88.3922424   344.828032E+06
             4831    57.471912E+06    57.473408E+06  -114.939112E+06   344.826816E+06      -127.011909   344.829312E+06
             4832    57.452208E+06    57.461684E+06  -114.956576E+06   344.830336E+06  -2.83694604E+03   344.829952E+06
             4833    57.464736E+06    57.466396E+06   -114.94684E+06   344.829856E+06   3.40975049E+03   344.828224E+06
             4834    57.473192E+06    57.471832E+06  -114.941848E+06   344.827296E+06      -139.761154   344.828384E+06
             4835    57.468428E+06    57.470756E+06  -114.944432E+06   344.828832E+06      -145.348877     344.8288E+06
             4836      57.4721E+06    57.471896E+06  -114.942376E+06   344.828416E+06       349.717255    344.82832E+06
             4837    57.473204E+06    57.472472E+06  -114.940896E+06   344.827968E+06       40.3592567   344.827744E+06
             4838    57.473688E+06     57.47578E+06  -114.939104E+06   344.827872E+06      -303.189911   344.827392E+06
             4839     57.46694E+06    57.468052E+06  -114.945792E+06     344.8288E+06   1.58234656E+03   344.829536E+06
             4840     57.46048E+06     57.45716E+06  -114.954672E+06   344.829088E+06   1.59921155E+03   344.830816E+06
             4841    57.478196E+06    57.478884E+06   -114.93864E+06     344.8288E+06   1.38066858E+03   344.827424E+06
             4842     57.47534E+06    57.474116E+06  -114.938952E+06   344.827808E+06   1.07478589E+03   344.826848E+06
             4843    57.470324E+06    57.470792E+06  -114.945192E+06   344.828736E+06   1.07173279E+03   344.828928E+06
             4844    57.480412E+06    57.477556E+06  -114.936136E+06   344.830208E+06      -676.178894   344.827232E+06
             4845    57.478192E+06    57.482368E+06   -114.93428E+06   344.827904E+06   1.43822852E+03   344.830112E+06
             4846    57.504436E+06    57.516132E+06  -114.905536E+06   344.822912E+06      -507.508820   344.823168E+06
             4847    57.466232E+06    57.467916E+06  -114.946696E+06   344.827936E+06       567.863037   344.826944E+06
             4848     57.46882E+06     57.46922E+06   -114.94528E+06      344.828E+06      -432.278351   344.828512E+06
             4849    57.483172E+06    57.482088E+06   -114.92984E+06   344.824832E+06       597.572144     344.8264E+06
             4850      57.4709E+06    57.468748E+06  -114.943344E+06    344.82848E+06       157.871490   344.827328E+06
             4851    57.473752E+06    57.471288E+06  -114.939432E+06    344.82656E+06       637.332275    344.82656E+06
             4852    57.464608E+06    57.462588E+06  -114.950712E+06    344.82912E+06      -591.647766   344.829312E+06
             4853     57.46862E+06    57.469796E+06  -114.946752E+06   344.828704E+06       788.869385   344.828768E+06
             4854    57.457832E+06     57.45408E+06  -114.955856E+06   344.824992E+06       420.128937   344.831104E+06
             4855     57.48524E+06    57.485344E+06  -114.922784E+06   344.824992E+06       657.895813    344.82496E+06
             4856    57.467708E+06    57.469908E+06  -114.945088E+06   344.829952E+06  -2.75071191E+03   344.828128E+06
             4857    57.388608E+06    57.409364E+06  -115.005568E+06   344.827072E+06  -3.29164771E+03   344.830848E+06
             4858     57.46342E+06    57.465248E+06  -114.950816E+06   344.829056E+06      -136.879318   344.830368E+06
             4859    57.462224E+06    57.454116E+06   -114.95504E+06   344.834784E+06      -976.182556    344.82768E+06
             4860    57.450596E+06     57.44404E+06  -114.964088E+06   344.833056E+06       698.717163   344.829152E+06
             4861     57.47182E+06    57.471752E+06  -114.942272E+06   344.828064E+06      -34.9733086   344.828128E+06
             4862    57.473072E+06    57.472964E+06  -114.941416E+06   344.827776E+06      -176.154343   344.828128E+06
             4863    57.471164E+06    57.471032E+06   -114.94316E+06   344.828352E+06       207.840897   344.827872E+06
             4864     57.47002E+06    57.470316E+06  -114.943536E+06   344.827776E+06       611.523682   344.828096E+06
             4865    57.465504E+06     57.46814E+06  -114.947784E+06   344.829248E+06  -1.09238245E+03   344.828384E+06
             4866    57.455804E+06    57.453724E+06  -114.954824E+06   344.822144E+06   1.18299829E+03   344.830848E+06
             4867    57.468168E+06    57.469696E+06  -114.946312E+06   344.827744E+06  -1.27871375E+03   344.827776E+06
             4868    57.460984E+06    57.462032E+06  -114.953656E+06    344.83168E+06       751.605347   344.830144E+06
             4869     57.47652E+06    57.473056E+06  -114.939152E+06   344.828928E+06      -84.1760330   344.827776E+06


  Minimum            57.327988E+06    57.323112E+06  -115.081872E+06   344.804672E+06  -10.7533994E+03     344.8056E+06
       At Element               37              665               37             1871             1641             2639

  Maximum             57.59384E+06     57.62076E+06  -114.811456E+06     344.8528E+06   19.0453281E+03   344.842336E+06
       At Element             2091             1871             1871               37             3927             3848

            Total   279.827950E+09   279.827926E+09  -559.655691E+09   1.67896765E+12  -111.200144E+03   1.67896699E+12


