********************************************************************************
Field Output Report, written Wed Mar 20 14:54:06 2019

Source 1
---------

   ODB: C:/AbaqusTemp/realSimulation/squarePlateUltra_right-qrtr-parabola.odb
   Step: Step-1
   Frame: Increment      1: Step Time =    1.000

Loc 1 : Nodal values from source 1

Output sorted by column "Node Label".

Field Output reported at nodes for part: PART-2-1
   Computation algorithm: EXTRAPOLATE_COMPUTE_AVERAGE
   Averaged at nodes
   Averaging regions: ODB_REGIONS

      Node Label           S.S11           S.S22           S.S33           S.S12
                          @Loc 1          @Loc 1          @Loc 1          @Loc 1
---------------------------------------------------------------------------------
               1     71.0628E+06     31.1198E+06              0.    -11.7188E-03
               2     71.0418E+06     30.8830E+06              0.        -449.145
               3     71.1223E+06     30.6953E+06              0.        -922.121
               4     71.2019E+06     30.5127E+06              0.    -1.41847E+03
               5     71.2806E+06     30.3350E+06              0.    -1.93773E+03
               6     71.3588E+06     30.1620E+06              0.    -2.47951E+03
               7     71.4365E+06     29.9935E+06              0.    -3.04343E+03
               8     71.5139E+06     29.8291E+06              0.    -3.62918E+03
               9     71.5911E+06     29.6687E+06              0.    -4.23645E+03
              10     71.6683E+06     29.5121E+06              0.    -4.86500E+03
              11     71.7456E+06     29.3590E+06              0.    -5.51458E+03
              12     71.8232E+06     29.2093E+06              0.    -6.18502E+03
              13     71.9011E+06     29.0627E+06              0.    -6.87616E+03
              14     71.9795E+06     28.9192E+06              0.    -7.58788E+03
              15     72.0586E+06     28.7784E+06              0.    -8.32008E+03
              16     72.1384E+06     28.6403E+06              0.    -9.07268E+03
              17     72.2192E+06     28.5046E+06              0.    -9.84568E+03
              18     72.3009E+06     28.3711E+06              0.    -10.6390E+03
              19     72.3838E+06     28.2398E+06              0.    -11.4528E+03
              20     72.4679E+06     28.1105E+06              0.    -12.2870E+03
              21     72.5534E+06     27.9829E+06              0.    -13.1418E+03
              22     72.6403E+06     27.8570E+06              0.    -14.0171E+03
              23     72.7288E+06     27.7326E+06              0.    -14.9133E+03
              24     72.8191E+06     27.6096E+06              0.    -15.8304E+03
              25     72.9112E+06     27.4877E+06              0.    -16.7685E+03
              26     73.0052E+06     27.3670E+06              0.    -17.7280E+03
              27     73.1012E+06     27.2473E+06              0.    -18.7091E+03
              28     73.1994E+06     27.1283E+06              0.    -19.7119E+03
              29     73.2998E+06     27.0101E+06              0.    -20.7368E+03
              30     73.4026E+06     26.8924E+06              0.    -21.7842E+03
              31     73.5079E+06     26.7753E+06              0.    -22.8542E+03
              32     73.6158E+06     26.6584E+06              0.    -23.9473E+03
              33     73.7263E+06     26.5418E+06              0.    -25.0639E+03
              34     73.8396E+06     26.4253E+06              0.    -26.2044E+03
              35     73.9559E+06     26.3089E+06              0.    -27.3691E+03
              36     74.0751E+06     26.1923E+06              0.    -28.5586E+03
              37     74.1975E+06     26.0756E+06              0.    -29.7732E+03
              38     74.3231E+06     25.9585E+06              0.    -31.0136E+03
              39      74.452E+06     25.8411E+06              0.    -32.2801E+03
              40     74.5844E+06     25.7231E+06              0.    -33.5735E+03
              41     74.7203E+06     25.6046E+06              0.    -34.8941E+03
              42     74.8599E+06     25.4853E+06              0.    -36.2426E+03
              43     75.0033E+06     25.3653E+06              0.    -37.6197E+03
              44     75.1506E+06     25.2444E+06              0.    -39.0259E+03
              45     75.3019E+06     25.1226E+06              0.    -40.4618E+03
              46     75.4573E+06     24.9997E+06              0.    -41.9283E+03
              47     75.6169E+06     24.8756E+06              0.    -43.4260E+03
              48     75.7810E+06     24.7504E+06              0.    -44.9555E+03
              49     75.9495E+06     24.6238E+06              0.    -46.5178E+03
              50     76.1226E+06     24.4959E+06              0.    -48.1135E+03
              51     76.3004E+06     24.3664E+06              0.    -49.7434E+03
              52     76.4830E+06     24.2355E+06              0.    -51.4084E+03
              53     76.6707E+06     24.1029E+06              0.    -53.1094E+03
              54     76.8635E+06     23.9685E+06              0.    -54.8471E+03
              55     77.0615E+06     23.8324E+06              0.    -56.6226E+03
              56     77.2649E+06     23.6945E+06              0.    -58.4367E+03
              57     77.4737E+06     23.5545E+06              0.    -60.2904E+03
              58     77.6883E+06     23.4126E+06              0.    -62.1847E+03
              59     77.9086E+06     23.2686E+06              0.    -64.1206E+03
              60     78.1348E+06     23.1224E+06              0.    -66.0992E+03
              61     78.3672E+06     22.9740E+06              0.    -68.1215E+03
              62     78.6057E+06     22.8233E+06              0.    -70.1885E+03
              63     78.8507E+06     22.6702E+06              0.    -72.3016E+03
              64     79.1021E+06     22.5147E+06              0.    -74.4617E+03
              65     79.3603E+06     22.3566E+06              0.    -76.6702E+03
              66     79.6252E+06     22.1960E+06              0.    -78.9282E+03
              67     79.8972E+06     22.0327E+06              0.    -81.2370E+03
              68     80.1764E+06     21.8667E+06              0.    -83.5979E+03
              69     80.4629E+06     21.6980E+06              0.    -86.0122E+03
              70     80.7570E+06     21.5263E+06              0.    -88.4812E+03
              71     81.0587E+06     21.3518E+06              0.    -91.0064E+03
              72     81.3684E+06     21.1743E+06              0.    -93.5892E+03
              73     81.6861E+06     20.9937E+06              0.    -96.2311E+03
              74     82.0120E+06     20.8101E+06              0.    -98.9336E+03
              75     82.3464E+06     20.6232E+06              0.    -101.698E+03
              76     82.6895E+06     20.4332E+06              0.    -104.526E+03
              77     83.0414E+06     20.2399E+06              0.    -107.420E+03
              78     83.4024E+06     20.0432E+06              0.    -110.381E+03
              79     83.7726E+06     19.8431E+06              0.    -113.410E+03
              80     84.1523E+06     19.6396E+06              0.    -116.510E+03
              81     84.5418E+06     19.4325E+06              0.    -119.682E+03
              82     84.9412E+06     19.2219E+06              0.    -122.929E+03
              83     85.3507E+06     19.0077E+06              0.    -126.251E+03
              84     85.7706E+06     18.7898E+06              0.    -129.652E+03
              85     86.2012E+06     18.5681E+06              0.    -133.132E+03
              86     86.6427E+06     18.3427E+06              0.    -136.695E+03
              87     87.0954E+06     18.1134E+06              0.    -140.342E+03
              88     87.5594E+06     17.8803E+06              0.    -144.076E+03
              89     88.0352E+06     17.6432E+06              0.    -147.898E+03
              90     88.5228E+06     17.4022E+06              0.    -151.811E+03
              91     89.0228E+06     17.1571E+06              0.    -155.817E+03
              92     89.5352E+06     16.9080E+06              0.    -159.919E+03
              93     90.0604E+06     16.6548E+06              0.    -164.119E+03
              94     90.5988E+06     16.3975E+06              0.    -168.421E+03
              95     91.1505E+06     16.1360E+06              0.    -172.825E+03
              96     91.7160E+06     15.8703E+06              0.    -177.336E+03
              97     92.2956E+06     15.6003E+06              0.    -181.956E+03
              98     92.8895E+06     15.3261E+06              0.    -186.687E+03
              99     93.4982E+06     15.0476E+06              0.    -191.534E+03
             100     94.1219E+06     14.7648E+06              0.    -196.498E+03
             101     94.7611E+06     14.4776E+06              0.    -201.583E+03
             102     95.4161E+06     14.1861E+06              0.    -206.793E+03
             103     96.0872E+06     13.8902E+06              0.    -212.129E+03
             104     96.7749E+06     13.5900E+06              0.    -217.597E+03
             105     97.4795E+06     13.2853E+06              0.    -223.200E+03
             106     98.2015E+06     12.9762E+06              0.    -228.940E+03
             107     98.9413E+06     12.6627E+06              0.    -234.823E+03
             108     99.6992E+06     12.3448E+06              0.    -240.851E+03
             109     100.476E+06     12.0226E+06              0.    -247.029E+03
             110     101.271E+06     11.6959E+06              0.    -253.361E+03
             111     102.087E+06     11.3649E+06              0.    -259.851E+03
             112     102.922E+06     11.0295E+06              0.    -266.503E+03
             113     103.778E+06     10.6898E+06              0.    -273.323E+03
             114     104.654E+06     10.3458E+06              0.    -280.314E+03
             115     105.553E+06     9.99754E+06              0.    -287.483E+03
             116     106.473E+06     9.64508E+06              0.    -294.833E+03
             117     107.416E+06     9.28846E+06              0.    -302.369E+03
             118     108.382E+06     8.92773E+06              0.    -310.099E+03
             119     109.371E+06     8.56296E+06              0.    -318.026E+03
             120     110.385E+06     8.19422E+06              0.    -326.156E+03
             121     111.424E+06     7.82159E+06              0.    -334.497E+03
             122     112.488E+06     7.44515E+06              0.    -343.053E+03
             123     113.579E+06     7.06500E+06              0.    -351.832E+03
             124     114.696E+06     6.68125E+06              0.     -360.84E+03
             125     115.841E+06     6.29401E+06              0.    -370.084E+03
             126     117.014E+06     5.90340E+06              0.    -379.572E+03
             127     118.216E+06     5.50956E+06              0.    -389.310E+03
             128     119.447E+06     5.11263E+06              0.    -399.307E+03
             129     120.709E+06     4.71279E+06              0.    -409.571E+03
             130     122.003E+06     4.31018E+06              0.    -420.110E+03
             131     123.328E+06     3.90501E+06              0.    -430.934E+03
             132     124.686E+06     3.49747E+06              0.    -442.051E+03
             133     126.078E+06     3.08776E+06              0.    -453.471E+03
             134     127.504E+06     2.67613E+06              0.    -465.205E+03
             135     128.966E+06     2.26281E+06              0.    -477.262E+03
             136     130.465E+06     1.84805E+06              0.    -489.654E+03
             137     132.001E+06     1.43215E+06              0.    -502.393E+03
             138     133.575E+06     1.01540E+06              0.    -515.490E+03
             139     135.189E+06     598.108E+03              0.    -528.958E+03
             140     136.844E+06     180.622E+03              0.    -542.810E+03
             141     138.540E+06    -236.705E+03              0.    -557.060E+03
             142     140.280E+06    -653.484E+03              0.    -571.723E+03
             143     142.064E+06    -1.06931E+06              0.    -586.815E+03
             144     143.893E+06    -1.48376E+06              0.     -602.35E+03
             145     145.769E+06    -1.89636E+06              0.    -618.347E+03
             146     147.693E+06    -2.30663E+06              0.    -634.823E+03
             147     149.666E+06    -2.71404E+06              0.    -651.797E+03
             148     151.691E+06    -3.11806E+06              0.    -669.288E+03
             149     153.768E+06    -3.51809E+06              0.    -687.319E+03
             150     155.900E+06    -3.91351E+06              0.    -705.911E+03
             151     158.087E+06    -4.30366E+06              0.    -725.087E+03
             152     160.331E+06    -4.68786E+06              0.    -744.873E+03
             153     162.636E+06    -5.06536E+06              0.    -765.296E+03
             154     165.001E+06    -5.43537E+06              0.    -786.382E+03
             155     167.429E+06    -5.79706E+06              0.    -808.162E+03
             156     169.923E+06    -6.14955E+06              0.    -830.667E+03
             157     172.485E+06    -6.49190E+06              0.    -853.932E+03
             158     175.116E+06    -6.82313E+06              0.    -877.992E+03
             159     177.819E+06    -7.14216E+06              0.    -902.886E+03
             160     180.597E+06    -7.44790E+06              0.    -928.654E+03
             161     183.452E+06    -7.73915E+06              0.    -955.340E+03
             162     186.387E+06    -8.01466E+06              0.    -982.992E+03
             163     189.405E+06    -8.27307E+06              0.    -1.01166E+06
             164     192.509E+06    -8.51299E+06              0.    -1.04140E+06
             165     195.702E+06    -8.73288E+06              0.    -1.07226E+06
             166     198.987E+06    -8.93115E+06              0.    -1.10432E+06
             167     202.369E+06    -9.10609E+06              0.    -1.13763E+06
             168     205.851E+06    -9.25588E+06              0.    -1.17228E+06
             169     209.437E+06    -9.37858E+06              0.    -1.20833E+06
             170     213.132E+06    -9.47213E+06              0.    -1.24588E+06
             171     216.940E+06    -9.53432E+06              0.    -1.28502E+06
             172     220.865E+06    -9.56282E+06              0.    -1.32585E+06
             173     224.914E+06    -9.55509E+06              0.    -1.36848E+06
             174     229.092E+06    -9.50847E+06              0.    -1.41303E+06
             175     233.404E+06    -9.42008E+06              0.    -1.45963E+06
             176     237.858E+06    -9.28684E+06              0.    -1.50842E+06
             177     242.460E+06    -9.10546E+06              0.    -1.55957E+06
             178     247.217E+06    -8.87237E+06              0.    -1.61324E+06
             179     252.138E+06    -8.58378E+06              0.    -1.66964E+06
             180     257.231E+06    -8.23557E+06              0.    -1.72897E+06
             181     262.505E+06    -7.82332E+06              0.    -1.79146E+06
             182     267.972E+06    -7.34226E+06              0.    -1.85739E+06
             183     273.642E+06    -6.78718E+06              0.    -1.92704E+06
             184     279.526E+06     -6.1525E+06              0.    -2.00074E+06
             185     285.640E+06    -5.43211E+06              0.    -2.07886E+06
             186     291.996E+06    -4.61937E+06              0.    -2.16182E+06
             187     298.612E+06    -3.70705E+06              0.    -2.25009E+06
             188     305.504E+06    -2.68720E+06              0.    -2.34419E+06
             189     312.694E+06    -1.55115E+06              0.    -2.44474E+06
             190     320.203E+06    -289.331E+03              0.    -2.55242E+06
             191     328.055E+06     1.10884E+06              0.    -2.66806E+06
             192     336.278E+06     2.65502E+06              0.    -2.79256E+06
             193     344.904E+06     4.36227E+06              0.    -2.92701E+06
             194     353.968E+06     6.24507E+06              0.    -3.07268E+06
             195     363.510E+06     8.31974E+06              0.    -3.23104E+06
             196     373.576E+06     10.6046E+06              0.    -3.40387E+06
             197     384.220E+06     13.1205E+06              0.    -3.59328E+06
             198     395.505E+06     15.8912E+06              0.    -3.80179E+06
             199     407.502E+06     18.9439E+06              0.    -4.03253E+06
             200     420.297E+06     22.3101E+06              0.    -4.28927E+06
             201     433.993E+06     26.0265E+06              0.    -4.57676E+06
             202     448.714E+06     30.1364E+06              0.    -4.90096E+06
             203     464.609E+06     34.6911E+06              0.    -5.26946E+06
             204     481.864E+06     39.7526E+06              0.    -5.69216E+06
             205     500.712E+06     45.3965E+06              0.    -6.18210E+06
             206     521.452E+06     51.7164E+06              0.    -6.75691E+06
             207     544.473E+06     58.8311E+06              0.    -7.44102E+06
             208     570.295E+06     66.8939E+06              0.    -8.26922E+06
             209     599.637E+06     76.1089E+06              0.    -9.29284E+06
             210     633.531E+06     86.7569E+06              0.    -10.5909E+06
             211     673.530E+06     99.2423E+06              0.    -12.2916E+06
             212     722.123E+06     114.178E+06              0.    -14.6179E+06
             213     783.729E+06     132.595E+06              0.    -17.9870E+06
             214     866.961E+06     156.258E+06              0.    -23.3295E+06
             215     994.251E+06     189.917E+06              0.    -32.7861E+06
             216     1.30732E+09     248.027E+06              0.    -52.2915E+06
             217     1.60409E+09     356.269E+06              0.    -196.290E+06
             218     71.0612E+06     31.1192E+06              0.    -80.6993E+03
             219     71.0402E+06     30.8824E+06              0.    -80.5601E+03
             220     71.1207E+06     30.6948E+06              0.    -79.4865E+03
             221     71.2002E+06     30.5123E+06              0.    -78.5736E+03
             222     71.2790E+06     30.3347E+06              0.    -77.8173E+03
             223     71.3571E+06     30.1618E+06              0.    -77.2133E+03
             224     71.4348E+06     29.9933E+06              0.    -76.7577E+03
             225     71.5121E+06     29.8290E+06              0.    -76.4469E+03
             226     71.5893E+06     29.6686E+06              0.    -76.2773E+03
             227     71.6665E+06     29.5121E+06              0.    -76.2457E+03
             228     71.7437E+06     29.3591E+06              0.    -76.3488E+03
             229     71.8212E+06     29.2094E+06              0.    -76.5837E+03
             230     71.8991E+06     29.0630E+06              0.    -76.9476E+03
             231     71.9775E+06     28.9195E+06              0.    -77.4379E+03
             232     72.0566E+06     28.7787E+06              0.    -78.0522E+03
             233     72.1364E+06     28.6407E+06              0.    -78.7881E+03
             234     72.2171E+06     28.5050E+06              0.    -79.6435E+03
             235     72.2988E+06     28.3716E+06              0.    -80.6164E+03
             236     72.3816E+06     28.2404E+06              0.    -81.7049E+03
             237     72.4657E+06     28.1111E+06              0.    -82.9074E+03
             238     72.5511E+06     27.9836E+06              0.    -84.2222E+03
             239     72.6380E+06     27.8577E+06              0.    -85.6480E+03
             240     72.7265E+06     27.7334E+06              0.    -87.1833E+03
             241     72.8168E+06     27.6104E+06              0.    -88.8272E+03
             242     72.9088E+06     27.4886E+06              0.    -90.5784E+03
             243     73.0028E+06     27.3679E+06              0.    -92.4360E+03
             244     73.0988E+06     27.2482E+06              0.    -94.3993E+03
             245     73.1969E+06     27.1293E+06              0.    -96.4675E+03
             246     73.2973E+06     27.0112E+06              0.    -98.6401E+03
             247     73.4000E+06     26.8936E+06              0.    -100.917E+03
             248     73.5053E+06     26.7764E+06              0.    -103.297E+03
             249     73.6131E+06     26.6597E+06              0.    -105.780E+03
             250     73.7236E+06     26.5431E+06              0.    -108.366E+03
             251     73.8369E+06     26.4267E+06              0.    -111.056E+03
             252     73.9530E+06     26.3103E+06              0.    -113.848E+03
             253     74.0722E+06     26.1937E+06              0.    -116.744E+03
             254     74.1946E+06     26.0770E+06              0.    -119.743E+03
             255     74.3201E+06     25.9600E+06              0.    -122.846E+03
             256     74.4490E+06     25.8426E+06              0.    -126.053E+03
             257     74.5813E+06     25.7247E+06              0.    -129.365E+03
             258     74.7172E+06     25.6062E+06              0.    -132.783E+03
             259     74.8567E+06     25.4871E+06              0.    -136.306E+03
             260     75.0000E+06     25.3671E+06              0.    -139.937E+03
             261     75.1472E+06     25.2463E+06              0.    -143.675E+03
             262     75.2985E+06     25.1245E+06              0.    -147.522E+03
             263     75.4538E+06     25.0016E+06              0.    -151.478E+03
             264     75.6134E+06     24.8776E+06              0.    -155.546E+03
             265     75.7773E+06     24.7524E+06              0.    -159.726E+03
             266     75.9458E+06     24.6259E+06              0.    -164.019E+03
             267     76.1188E+06     24.4980E+06              0.    -168.427E+03
             268     76.2965E+06     24.3687E+06              0.    -172.951E+03
             269     76.4791E+06     24.2377E+06              0.    -177.594E+03
             270     76.6667E+06     24.1052E+06              0.    -182.355E+03
             271     76.8594E+06     23.9709E+06              0.    -187.238E+03
             272     77.0573E+06     23.8349E+06              0.    -192.244E+03
             273     77.2606E+06     23.6970E+06              0.    -197.375E+03
             274     77.4694E+06     23.5571E+06              0.    -202.633E+03
             275     77.6838E+06     23.4153E+06              0.    -208.019E+03
             276     77.9041E+06     23.2713E+06              0.    -213.537E+03
             277     78.1302E+06     23.1252E+06              0.    -219.187E+03
             278     78.3624E+06     22.9768E+06              0.    -224.974E+03
             279     78.6009E+06     22.8262E+06              0.    -230.898E+03
             280     78.8457E+06     22.6732E+06              0.    -236.962E+03
             281     79.0970E+06     22.5177E+06              0.    -243.169E+03
             282     79.3551E+06     22.3597E+06              0.    -249.522E+03
             283     79.6199E+06     22.1992E+06              0.    -256.022E+03
             284     79.8918E+06     22.0360E+06              0.    -262.674E+03
             285     80.1709E+06     21.8701E+06              0.    -269.479E+03
             286     80.4573E+06     21.7014E+06              0.    -276.442E+03
             287     80.7512E+06     21.5298E+06              0.    -283.563E+03
             288     81.0528E+06     21.3554E+06              0.    -290.848E+03
             289     81.3623E+06     21.1779E+06              0.    -298.299E+03
             290     81.6799E+06     20.9974E+06              0.    -305.919E+03
             291     82.0057E+06     20.8139E+06              0.    -313.712E+03
             292     82.3399E+06     20.6271E+06              0.    -321.681E+03
             293     82.6828E+06     20.4372E+06              0.    -329.830E+03
             294     83.0346E+06     20.2439E+06              0.    -338.163E+03
             295     83.3954E+06     20.0474E+06              0.    -346.682E+03
             296     83.7655E+06     19.8474E+06              0.    -355.393E+03
             297     84.1450E+06     19.6439E+06              0.    -364.299E+03
             298     84.5343E+06     19.4370E+06              0.    -373.404E+03
             299     84.9335E+06     19.2265E+06              0.    -382.712E+03
             300     85.3429E+06     19.0123E+06              0.    -392.228E+03
             301     85.7626E+06     18.7945E+06              0.    -401.955E+03
             302     86.1930E+06     18.5730E+06              0.    -411.899E+03
             303     86.6343E+06     18.3476E+06              0.    -422.064E+03
             304     87.0868E+06     18.1185E+06              0.    -432.455E+03
             305     87.5506E+06     17.8855E+06              0.    -443.076E+03
             306     88.0261E+06     17.6485E+06              0.    -453.932E+03
             307     88.5136E+06     17.4076E+06              0.    -465.029E+03
             308     89.0132E+06     17.1627E+06              0.    -476.371E+03
             309     89.5254E+06     16.9137E+06              0.    -487.965E+03
             310     90.0504E+06     16.6606E+06              0.    -499.815E+03
             311     90.5885E+06     16.4034E+06              0.    -511.926E+03
             312     91.1400E+06     16.1420E+06              0.    -524.306E+03
             313     91.7053E+06     15.8764E+06              0.    -536.958E+03
             314     92.2846E+06     15.6066E+06              0.    -549.891E+03
             315     92.8782E+06     15.3326E+06              0.    -563.109E+03
             316     93.4866E+06     15.0542E+06              0.    -576.619E+03
             317     94.1101E+06     14.7715E+06              0.    -590.427E+03
             318     94.7489E+06     14.4845E+06              0.    -604.540E+03
             319     95.4036E+06     14.1931E+06              0.    -618.965E+03
             320     96.0744E+06     13.8974E+06              0.    -633.709E+03
             321     96.7618E+06     13.5973E+06              0.    -648.778E+03
             322     97.4661E+06     13.2928E+06              0.    -664.181E+03
             323     98.1877E+06     12.9838E+06              0.    -679.925E+03
             324     98.9271E+06     12.6705E+06              0.    -696.017E+03
             325     99.6847E+06     12.3528E+06              0.    -712.465E+03
             326     100.461E+06     12.0307E+06              0.    -729.278E+03
             327     101.256E+06     11.7042E+06              0.    -746.464E+03
             328     102.071E+06     11.3734E+06              0.    -764.032E+03
             329     102.906E+06     11.0382E+06              0.    -781.990E+03
             330     103.761E+06     10.6987E+06              0.    -800.347E+03
             331     104.637E+06     10.3549E+06              0.    -819.113E+03
             332     105.535E+06     10.0068E+06              0.    -838.298E+03
             333     106.455E+06     9.65457E+06              0.    -857.912E+03
             334     107.397E+06     9.29816E+06              0.    -877.964E+03
             335     108.363E+06     8.93765E+06              0.    -898.465E+03
             336     109.352E+06     8.57309E+06              0.    -919.426E+03
             337     110.365E+06     8.20458E+06              0.    -940.859E+03
             338     111.404E+06     7.83217E+06              0.    -962.775E+03
             339     112.467E+06     7.45596E+06              0.    -985.185E+03
             340     113.557E+06     7.07605E+06              0.    -1.00810E+06
             341     114.674E+06     6.69254E+06              0.    -1.03154E+06
             342     115.818E+06     6.30555E+06              0.    -1.05551E+06
             343     116.991E+06     5.91519E+06              0.    -1.08003E+06
             344     118.192E+06     5.52162E+06              0.    -1.10511E+06
             345     119.423E+06     5.12496E+06              0.    -1.13076E+06
             346     120.684E+06     4.72539E+06              0.    -1.15701E+06
             347     121.977E+06     4.32307E+06              0.    -1.18386E+06
             348     123.301E+06     3.91818E+06              0.    -1.21134E+06
             349     124.658E+06     3.51094E+06              0.    -1.23945E+06
             350     126.049E+06     3.10153E+06              0.    -1.26823E+06
             351     127.475E+06     2.69021E+06              0.    -1.29768E+06
             352     128.936E+06     2.27720E+06              0.    -1.32782E+06
             353     130.434E+06     1.86278E+06              0.    -1.35868E+06
             354     131.969E+06     1.44721E+06              0.    -1.39028E+06
             355     133.542E+06     1.03080E+06              0.    -1.42264E+06
             356     135.155E+06     613.867E+03              0.    -1.45577E+06
             357     136.809E+06     196.744E+03              0.    -1.48971E+06
             358     138.505E+06    -220.209E+03              0.    -1.52448E+06
             359     140.243E+06    -636.605E+03              0.    -1.56011E+06
             360     142.026E+06    -1.05204E+06              0.    -1.59662E+06
             361     143.854E+06    -1.46608E+06              0.    -1.63404E+06
             362     145.728E+06    -1.87826E+06              0.    -1.67240E+06
             363     147.651E+06    -2.28810E+06              0.    -1.71173E+06
             364     149.623E+06    -2.69507E+06              0.    -1.75207E+06
             365     151.647E+06    -3.09863E+06              0.    -1.79345E+06
             366     153.722E+06    -3.49819E+06              0.    -1.83591E+06
             367     155.852E+06    -3.89313E+06              0.    -1.87949E+06
             368     158.038E+06    -4.28278E+06              0.    -1.92423E+06
             369     160.281E+06    -4.66647E+06              0.    -1.97017E+06
             370     162.583E+06    -5.04343E+06              0.    -2.01735E+06
             371     164.947E+06    -5.41288E+06              0.    -2.06584E+06
             372     167.374E+06    -5.77400E+06              0.    -2.11567E+06
             373     169.865E+06    -6.12590E+06              0.    -2.16691E+06
             374     172.425E+06    -6.46764E+06              0.    -2.21961E+06
             375     175.054E+06    -6.79823E+06              0.    -2.27384E+06
             376     177.755E+06    -7.11661E+06              0.    -2.32966E+06
             377     180.530E+06    -7.42167E+06              0.    -2.38715E+06
             378     183.383E+06    -7.71220E+06              0.    -2.44638E+06
             379     186.315E+06    -7.98697E+06              0.    -2.50743E+06
             380     189.330E+06    -8.24461E+06              0.    -2.57039E+06
             381     192.431E+06    -8.48372E+06              0.    -2.63536E+06
             382     195.621E+06    -8.70278E+06              0.    -2.70243E+06
             383     198.904E+06    -8.90017E+06              0.    -2.77172E+06
             384     202.282E+06    -9.07420E+06              0.    -2.84334E+06
             385     205.761E+06    -9.22303E+06              0.    -2.91742E+06
             386     209.343E+06    -9.34473E+06              0.    -2.99411E+06
             387     213.034E+06    -9.43723E+06              0.    -3.07354E+06
             388     216.837E+06    -9.49832E+06              0.    -3.15588E+06
             389     220.758E+06    -9.52565E+06              0.    -3.24131E+06
             390     224.802E+06    -9.51670E+06              0.    -3.33003E+06
             391     228.975E+06    -9.46879E+06              0.    -3.42223E+06
             392     233.282E+06    -9.37904E+06              0.    -3.51816E+06
             393     237.729E+06    -9.24435E+06              0.    -3.61807E+06
             394     242.325E+06    -9.06143E+06              0.    -3.72224E+06
             395     247.075E+06    -8.82672E+06              0.    -3.83097E+06
             396     251.988E+06    -8.53640E+06              0.    -3.94460E+06
             397     257.074E+06    -8.18635E+06              0.    -4.06351E+06
             398     262.340E+06    -7.77212E+06              0.    -4.18812E+06
             399     267.797E+06    -7.28895E+06              0.    -4.31889E+06
             400     273.456E+06    -6.73160E+06              0.    -4.45634E+06
             401     279.330E+06    -6.09448E+06              0.    -4.60106E+06
             402     285.431E+06    -5.37146E+06              0.    -4.75371E+06
             403     291.775E+06    -4.55587E+06              0.    -4.91501E+06
             404     298.376E+06    -3.64046E+06              0.    -5.08581E+06
             405     305.253E+06    -2.61726E+06              0.    -5.26705E+06
             406     312.425E+06    -1.47754E+06              0.    -5.45983E+06
             407     319.914E+06    -211.702E+03              0.    -5.66538E+06
             408     327.744E+06     1.19088E+06              0.    -5.88515E+06
             409     335.943E+06     2.74195E+06              0.    -6.12078E+06
             410     344.541E+06     4.45459E+06              0.    -6.37421E+06
             411     353.574E+06     6.34342E+06              0.    -6.64771E+06
             412     363.081E+06     8.42481E+06              0.    -6.94392E+06
             413     373.107E+06     10.7173E+06              0.    -7.26602E+06
             414     383.705E+06     13.2418E+06              0.    -7.61777E+06
             415     394.936E+06     16.0222E+06              0.    -8.00372E+06
             416     406.870E+06     19.0860E+06              0.    -8.42941E+06
             417     419.591E+06     22.4651E+06              0.    -8.90162E+06
             418     433.199E+06     26.1965E+06              0.    -9.42877E+06
             419     447.814E+06     30.3239E+06              0.    -10.0214E+06
             420     463.579E+06     34.8994E+06              0.    -10.6931E+06
             421     480.674E+06     39.9858E+06              0.    -11.4612E+06
             422     499.322E+06     45.6598E+06              0.    -12.3487E+06
             423     519.804E+06     52.0167E+06              0.    -13.3863E+06
             424     542.486E+06     59.1774E+06              0.    -14.6162E+06
             425     567.852E+06     67.2982E+06              0.    -16.0980E+06
             426     596.557E+06     76.5876E+06              0.    -17.9182E+06
             427     629.523E+06     87.3326E+06              0.    -20.2074E+06
             428     668.092E+06     99.9446E+06              0.    -23.1719E+06
             429     714.322E+06     115.049E+06              0.    -27.1528E+06
             430     771.529E+06     133.641E+06              0.    -32.7752E+06
             431     845.641E+06     157.587E+06              0.    -41.0834E+06
             432     948.189E+06     190.200E+06              0.    -55.5887E+06
             433     1.04176E+09     235.590E+06              0.    -69.4836E+06
             434     1.12519E+09     308.174E+06              0.    -157.829E+06
             435     71.0564E+06     31.1172E+06              0.    -161.329E+03
             436     71.0354E+06     30.8807E+06              0.    -161.051E+03
             437     71.1158E+06     30.6933E+06              0.    -158.904E+03
             438     71.1952E+06     30.5111E+06              0.    -157.079E+03
             439     71.2739E+06     30.3337E+06              0.    -155.567E+03
             440     71.3519E+06     30.1610E+06              0.    -154.360E+03
             441     71.4295E+06     29.9927E+06              0.    -153.449E+03
             442     71.5068E+06     29.8286E+06              0.    -152.828E+03
             443     71.5839E+06     29.6685E+06              0.    -152.489E+03
             444     71.6609E+06     29.5121E+06              0.    -152.425E+03
             445     71.7381E+06     29.3593E+06              0.    -152.631E+03
             446     71.8155E+06     29.2098E+06              0.    -153.101E+03
             447     71.8933E+06     29.0636E+06              0.    -153.829E+03
             448     71.9716E+06     28.9202E+06              0.    -154.809E+03
             449     72.0505E+06     28.7797E+06              0.    -156.037E+03
             450     72.1302E+06     28.6418E+06              0.    -157.508E+03
             451     72.2108E+06     28.5063E+06              0.    -159.218E+03
             452     72.2924E+06     28.3731E+06              0.    -161.163E+03
             453     72.3751E+06     28.2420E+06              0.    -163.339E+03
             454     72.4591E+06     28.1129E+06              0.    -165.743E+03
             455     72.5444E+06     27.9856E+06              0.    -168.371E+03
             456     72.6312E+06     27.8599E+06              0.    -171.222E+03
             457     72.7196E+06     27.7357E+06              0.    -174.291E+03
             458     72.8097E+06     27.6128E+06              0.    -177.577E+03
             459     72.9016E+06     27.4912E+06              0.    -181.078E+03
             460     72.9955E+06     27.3707E+06              0.    -184.792E+03
             461     73.0914E+06     27.2512E+06              0.    -188.717E+03
             462     73.1894E+06     27.1324E+06              0.    -192.851E+03
             463     73.2896E+06     27.0144E+06              0.    -197.194E+03
             464     73.3923E+06     26.8969E+06              0.    -201.745E+03
             465     73.4974E+06     26.7800E+06              0.    -206.503E+03
             466     73.6050E+06     26.6633E+06              0.    -211.467E+03
             467     73.7154E+06     26.5469E+06              0.    -216.638E+03
             468     73.8285E+06     26.4306E+06              0.    -222.014E+03
             469     73.9446E+06     26.3144E+06              0.    -227.597E+03
             470     74.0636E+06     26.1980E+06              0.    -233.386E+03
             471     74.1857E+06     26.0815E+06              0.    -239.381E+03
             472     74.3111E+06     25.9646E+06              0.    -245.585E+03
             473     74.4398E+06     25.8474E+06              0.    -251.996E+03
             474     74.5720E+06     25.7296E+06              0.    -258.617E+03
             475     74.7077E+06     25.6113E+06              0.    -265.449E+03
             476     74.8470E+06     25.4922E+06              0.    -272.493E+03
             477     74.9902E+06     25.3724E+06              0.    -279.751E+03
             478     75.1372E+06     25.2518E+06              0.    -287.224E+03
             479     75.2882E+06     25.1301E+06              0.    -294.914E+03
             480     75.4434E+06     25.0074E+06              0.    -302.824E+03
             481     75.6028E+06     24.8836E+06              0.    -310.955E+03
             482     75.7665E+06     24.7586E+06              0.    -319.311E+03
             483     75.9347E+06     24.6322E+06              0.    -327.894E+03
             484     76.1075E+06     24.5045E+06              0.    -336.706E+03
             485      76.285E+06     24.3753E+06              0.    -345.750E+03
             486     76.4674E+06     24.2446E+06              0.    -355.031E+03
             487     76.6547E+06     24.1122E+06              0.    -364.550E+03
             488     76.8471E+06     23.9781E+06              0.    -374.311E+03
             489     77.0448E+06     23.8422E+06              0.    -384.318E+03
             490     77.2478E+06     23.7045E+06              0.    -394.575E+03
             491     77.4563E+06     23.5648E+06              0.    -405.086E+03
             492     77.6705E+06     23.4232E+06              0.    -415.854E+03
             493     77.8904E+06     23.2794E+06              0.    -426.884E+03
             494     78.1163E+06     23.1335E+06              0.    -438.180E+03
             495     78.3482E+06     22.9853E+06              0.    -449.747E+03
             496     78.5863E+06     22.8349E+06              0.    -461.589E+03
             497     78.8308E+06     22.6821E+06              0.    -473.713E+03
             498     79.0819E+06     22.5268E+06              0.    -486.121E+03
             499     79.3395E+06     22.3691E+06              0.    -498.820E+03
             500     79.6041E+06     22.2087E+06              0.    -511.816E+03
             501     79.8756E+06     22.0457E+06              0.    -525.113E+03
             502     80.1543E+06     21.8800E+06              0.    -538.717E+03
             503     80.4403E+06     21.7116E+06              0.    -552.635E+03
             504     80.7338E+06     21.5403E+06              0.    -566.871E+03
             505     81.0350E+06     21.3660E+06              0.    -581.434E+03
             506     81.3441E+06     21.1888E+06              0.    -596.328E+03
             507     81.6613E+06     21.0086E+06              0.    -611.561E+03
             508     81.9866E+06     20.8253E+06              0.    -627.140E+03
             509     82.3204E+06     20.6388E+06              0.    -643.070E+03
             510     82.6629E+06     20.4491E+06              0.    -659.360E+03
             511     83.0142E+06     20.2561E+06              0.    -676.017E+03
             512     83.3745E+06     20.0598E+06              0.    -693.048E+03
             513     83.7441E+06     19.8601E+06              0.    -710.461E+03
             514     84.1231E+06     19.6570E+06              0.    -728.264E+03
             515     84.5119E+06     19.4503E+06              0.    -746.465E+03
             516     84.9105E+06     19.2401E+06              0.    -765.072E+03
             517     85.3193E+06     19.0262E+06              0.    -784.094E+03
             518     85.7385E+06     18.8087E+06              0.    -803.539E+03
             519     86.1683E+06     18.5875E+06              0.    -823.417E+03
             520     86.6090E+06     18.3625E+06              0.    -843.736E+03
             521     87.0609E+06     18.1337E+06              0.    -864.507E+03
             522     87.5241E+06     17.9010E+06              0.    -885.738E+03
             523     87.9989E+06     17.6644E+06              0.    -907.439E+03
             524     88.4857E+06     17.4238E+06              0.    -929.621E+03
             525     88.9847E+06     17.1792E+06              0.    -952.294E+03
             526     89.4962E+06     16.9306E+06              0.    -975.469E+03
             527     90.0205E+06     16.6779E+06              0.    -999.156E+03
             528     90.5578E+06     16.4211E+06              0.    -1.02337E+06
             529     91.1086E+06     16.1601E+06              0.    -1.04811E+06
             530     91.6730E+06     15.8949E+06              0.    -1.07340E+06
             531     92.2515E+06     15.6255E+06              0.    -1.09925E+06
             532     92.8443E+06     15.3519E+06              0.    -1.12568E+06
             533     93.4518E+06     15.0739E+06              0.    -1.15268E+06
             534     94.0744E+06     14.7917E+06              0.    -1.18028E+06
             535     94.7124E+06     14.5051E+06              0.    -1.20849E+06
             536     95.3661E+06     14.2142E+06              0.    -1.23733E+06
             537     96.0360E+06     13.9189E+06              0.    -1.26680E+06
             538     96.7224E+06     13.6192E+06              0.    -1.29692E+06
             539     97.4256E+06     13.3152E+06              0.    -1.32771E+06
             540     98.1462E+06     13.0068E+06              0.    -1.35917E+06
             541     98.8846E+06     12.6940E+06              0.    -1.39134E+06
             542     99.6411E+06     12.3768E+06              0.    -1.42422E+06
             543     100.416E+06     12.0552E+06              0.    -1.45782E+06
             544     101.210E+06     11.7292E+06              0.    -1.49217E+06
             545     102.024E+06     11.3989E+06              0.    -1.52729E+06
             546     102.857E+06     11.0643E+06              0.    -1.56318E+06
             547     103.711E+06     10.7254E+06              0.    -1.59987E+06
             548     104.586E+06     10.3821E+06              0.    -1.63738E+06
             549     105.483E+06     10.0347E+06              0.    -1.67573E+06
             550     106.401E+06     9.68304E+06              0.    -1.71493E+06
             551     107.342E+06     9.32725E+06              0.    -1.75500E+06
             552     108.306E+06     8.96737E+06              0.    -1.79598E+06
             553     109.294E+06     8.60347E+06              0.    -1.83787E+06
             554     110.306E+06     8.23562E+06              0.    -1.88071E+06
             555     111.342E+06     7.86389E+06              0.    -1.92451E+06
             556     112.404E+06     7.48838E+06              0.     -1.9693E+06
             557     113.493E+06     7.10919E+06              0.    -2.01510E+06
             558     114.608E+06     6.72641E+06              0.    -2.06194E+06
             559     115.750E+06     6.34016E+06              0.    -2.10985E+06
             560     116.920E+06     5.95057E+06              0.    -2.15885E+06
             561     118.120E+06     5.55778E+06              0.    -2.20897E+06
             562     119.349E+06     5.16193E+06              0.    -2.26024E+06
             563     120.608E+06     4.76318E+06              0.    -2.31269E+06
             564     121.898E+06     4.36170E+06              0.    -2.36635E+06
             565     123.220E+06     3.95768E+06              0.    -2.42126E+06
             566     124.575E+06     3.55132E+06              0.    -2.47744E+06
             567     125.964E+06     3.14282E+06              0.    -2.53494E+06
             568     127.387E+06     2.73243E+06              0.    -2.59379E+06
             569     128.846E+06     2.32038E+06              0.    -2.65403E+06
             570     130.341E+06     1.90693E+06              0.    -2.71570E+06
             571     131.873E+06     1.49237E+06              0.    -2.77883E+06
             572     133.444E+06     1.07699E+06              0.    -2.84349E+06
             573     135.054E+06     661.116E+03              0.    -2.90969E+06
             574     136.705E+06     245.081E+03              0.    -2.97751E+06
             575     138.397E+06    -170.755E+03              0.    -3.04698E+06
             576     140.132E+06    -586.001E+03              0.    -3.11816E+06
             577     141.911E+06    -1.00026E+06              0.     -3.1911E+06
             578     143.736E+06    -1.41308E+06              0.    -3.26586E+06
             579     145.607E+06    -1.82401E+06              0.    -3.34250E+06
             580     147.526E+06    -2.23256E+06              0.    -3.42108E+06
             581     149.494E+06    -2.63821E+06              0.    -3.50167E+06
             582     151.513E+06    -3.04040E+06              0.    -3.58434E+06
             583     153.585E+06    -3.43855E+06              0.    -3.66915E+06
             584     155.710E+06    -3.83204E+06              0.    -3.75620E+06
             585     157.891E+06    -4.22019E+06              0.    -3.84556E+06
             586     160.129E+06    -4.60233E+06              0.    -3.93732E+06
             587     162.427E+06    -4.97769E+06              0.    -4.03157E+06
             588     164.785E+06    -5.34549E+06              0.    -4.12840E+06
             589     167.206E+06    -5.70490E+06              0.    -4.22793E+06
             590     169.692E+06    -6.05502E+06              0.    -4.33026E+06
             591     172.245E+06    -6.39494E+06              0.    -4.43550E+06
             592     174.868E+06    -6.72362E+06              0.    -4.54379E+06
             593     177.562E+06    -7.04003E+06              0.    -4.65525E+06
             594     180.331E+06    -7.34303E+06              0.    -4.77004E+06
             595     183.176E+06    -7.63144E+06              0.    -4.88829E+06
             596     186.100E+06    -7.90400E+06              0.    -5.01017E+06
             597     189.107E+06    -8.15934E+06              0.    -5.13586E+06
             598     192.200E+06    -8.39604E+06              0.    -5.26554E+06
             599     195.381E+06    -8.61259E+06              0.    -5.39942E+06
             600     198.654E+06    -8.80737E+06              0.    -5.53771E+06
             601     202.022E+06    -8.97867E+06              0.    -5.68064E+06
             602     205.490E+06    -9.12464E+06              0.    -5.82848E+06
             603     209.061E+06    -9.24334E+06              0.    -5.98148E+06
             604     212.739E+06    -9.33270E+06              0.    -6.13996E+06
             605     216.530E+06    -9.39048E+06              0.    -6.30423E+06
             606     220.437E+06    -9.41435E+06              0.    -6.47464E+06
             607     224.467E+06    -9.40174E+06              0.    -6.65157E+06
             608     228.624E+06    -9.34997E+06              0.    -6.83545E+06
             609     232.914E+06    -9.25614E+06              0.    -7.02672E+06
             610     237.344E+06    -9.11715E+06              0.    -7.22590E+06
             611     241.920E+06    -8.92966E+06              0.    -7.43353E+06
             612     246.650E+06    -8.69010E+06              0.    -7.65022E+06
             613     251.542E+06    -8.39461E+06              0.    -7.87664E+06
             614     256.603E+06    -8.03906E+06              0.    -8.11352E+06
             615     261.843E+06    -7.61896E+06              0.    -8.36171E+06
             616     267.273E+06    -7.12949E+06              0.    -8.62211E+06
             617     272.902E+06    -6.56540E+06              0.    -8.89575E+06
             618     278.743E+06    -5.92102E+06              0.    -9.18377E+06
             619     284.808E+06    -5.19017E+06              0.    -9.48745E+06
             620     291.112E+06    -4.36612E+06              0.    -9.80826E+06
             621     297.670E+06    -3.44154E+06              0.    -10.1478E+06
             622     304.500E+06    -2.40836E+06              0.    -10.5080E+06
             623     311.619E+06    -1.25776E+06              0.    -10.8910E+06
             624     319.050E+06     19.9824E+03              0.    -11.2991E+06
             625     326.815E+06     1.43565E+06              0.    -11.7352E+06
             626     334.942E+06     3.00113E+06              0.    -12.2025E+06
             627     343.458E+06     4.72975E+06              0.    -12.7048E+06
             628     352.399E+06     6.63632E+06              0.    -13.2464E+06
             629     361.801E+06     8.73756E+06              0.    -13.8325E+06
             630     371.707E+06     11.0523E+06              0.    -14.4691E+06
             631     382.168E+06     13.6019E+06              0.    -15.1636E+06
             632     393.239E+06     16.4109E+06              0.    -15.9247E+06
             633     404.988E+06     19.5073E+06              0.    -16.7628E+06
             634     417.491E+06     22.9239E+06              0.    -17.6910E+06
             635     430.839E+06     26.6987E+06              0.    -18.7250E+06
             636     445.142E+06     30.8769E+06              0.    -19.8847E+06
             637     460.528E+06     35.5123E+06              0.    -21.1952E+06
             638     477.156E+06     40.6699E+06              0.    -22.6886E+06
             639     495.219E+06     46.4295E+06              0.    -24.4067E+06
             640     514.954E+06     52.8905E+06              0.    -26.4044E+06
             641     536.664E+06     60.1791E+06              0.    -28.7564E+06
             642     560.728E+06     68.4592E+06              0.    -31.5648E+06
             643     587.638E+06     77.9491E+06              0.    -34.9740E+06
             644     618.031E+06     88.9483E+06              0.    -39.1928E+06
             645     652.733E+06     101.883E+06              0.    -44.5306E+06
             646     692.779E+06     117.382E+06              0.    -51.4620E+06
             647     739.288E+06     136.421E+06              0.    -60.6891E+06
             648     792.622E+06     160.550E+06              0.    -73.4011E+06
             649     844.867E+06     191.748E+06              0.    -89.3430E+06
             650     887.755E+06     239.529E+06              0.    -107.075E+06
             651     925.952E+06     278.218E+06              0.    -142.675E+06
             652     71.0484E+06     31.1138E+06              0.    -241.821E+03
             653     71.0275E+06     30.8779E+06              0.    -241.404E+03
             654     71.1077E+06     30.6909E+06              0.    -238.187E+03
             655     71.1870E+06     30.5090E+06              0.    -235.451E+03
             656     71.2655E+06     30.3320E+06              0.    -233.185E+03
             657     71.3433E+06     30.1597E+06              0.    -231.375E+03
             658     71.4207E+06     29.9917E+06              0.    -230.010E+03
             659     71.4978E+06     29.8280E+06              0.    -229.078E+03
             660     71.5748E+06     29.6682E+06              0.    -228.570E+03
             661     71.6517E+06     29.5122E+06              0.    -228.475E+03
             662     71.7287E+06     29.3597E+06              0.    -228.784E+03
             663     71.8059E+06     29.2105E+06              0.    -229.488E+03
             664     71.8835E+06     29.0646E+06              0.    -230.578E+03
             665     71.9617E+06     28.9216E+06              0.    -232.047E+03
             666     72.0404E+06     28.7813E+06              0.    -233.888E+03
             667     72.1200E+06     28.6437E+06              0.    -236.093E+03
             668     72.2004E+06     28.5085E+06              0.    -238.656E+03
             669     72.2818E+06     28.3756E+06              0.    -241.571E+03
             670     72.3644E+06     28.2448E+06              0.    -244.833E+03
             671     72.4481E+06     28.1159E+06              0.    -248.436E+03
             672     72.5333E+06     27.9889E+06              0.    -252.376E+03
             673     72.6199E+06     27.8634E+06              0.    -256.648E+03
             674     72.7081E+06     27.7395E+06              0.    -261.249E+03
             675     72.7980E+06     27.6169E+06              0.    -266.175E+03
             676     72.8898E+06     27.4956E+06              0.    -271.422E+03
             677     72.9834E+06     27.3753E+06              0.    -276.989E+03
             678     73.0791E+06     27.2560E+06              0.    -282.872E+03
             679     73.1769E+06     27.1375E+06              0.    -289.069E+03
             680     73.2769E+06     27.0198E+06              0.    -295.579E+03
             681     73.3793E+06     26.9026E+06              0.    -302.400E+03
             682     73.4842E+06     26.7858E+06              0.    -309.532E+03
             683     73.5916E+06     26.6694E+06              0.    -316.973E+03
             684     73.7017E+06     26.5533E+06              0.    -324.723E+03
             685     73.8146E+06     26.4373E+06              0.    -332.781E+03
             686     73.9304E+06     26.3212E+06              0.    -341.149E+03
             687     74.0492E+06     26.2051E+06              0.    -349.826E+03
             688     74.1711E+06     26.0888E+06              0.    -358.813E+03
             689     74.2962E+06     25.9722E+06              0.    -368.111E+03
             690     74.4246E+06     25.8552E+06              0.    -377.721E+03
             691     74.5565E+06     25.7377E+06              0.    -387.646E+03
             692     74.6919E+06     25.6197E+06              0.    -397.886E+03
             693     74.8310E+06     25.5009E+06              0.    -408.444E+03
             694     74.9738E+06     25.3813E+06              0.    -419.322E+03
             695     75.1205E+06     25.2609E+06              0.    -430.523E+03
             696     75.2712E+06     25.1396E+06              0.    -442.050E+03
             697      75.426E+06     25.0171E+06              0.    -453.906E+03
             698     75.5850E+06     24.8936E+06              0.    -466.094E+03
             699     75.7484E+06     24.7688E+06              0.    -478.618E+03
             700     75.9163E+06     24.6428E+06              0.    -491.482E+03
             701     76.0887E+06     24.5153E+06              0.    -504.691E+03
             702     76.2658E+06     24.3864E+06              0.    -518.247E+03
             703     76.4478E+06     24.2559E+06              0.    -532.157E+03
             704     76.6347E+06     24.1238E+06              0.    -546.425E+03
             705     76.8267E+06     23.9900E+06              0.    -561.056E+03
             706     77.0240E+06     23.8545E+06              0.    -576.056E+03
             707     77.2265E+06     23.7170E+06              0.    -591.429E+03
             708     77.4346E+06     23.5777E+06              0.    -607.183E+03
             709     77.6483E+06     23.4363E+06              0.    -623.323E+03
             710     77.8678E+06     23.2929E+06              0.    -639.855E+03
             711     78.0931E+06     23.1473E+06              0.    -656.786E+03
             712     78.3245E+06     22.9995E+06              0.    -674.123E+03
             713     78.5621E+06     22.8494E+06              0.    -691.874E+03
             714     78.8061E+06     22.6969E+06              0.    -710.044E+03
             715     79.0566E+06     22.5420E+06              0.    -728.643E+03
             716     79.3137E+06     22.3846E+06              0.    -747.677E+03
             717     79.5776E+06     22.2246E+06              0.    -767.154E+03
             718     79.8485E+06     22.0620E+06              0.    -787.084E+03
             719     80.1266E+06     21.8967E+06              0.    -807.475E+03
             720     80.4120E+06     21.7286E+06              0.    -828.335E+03
             721     80.7049E+06     21.5576E+06              0.    -849.673E+03
             722     81.0054E+06     21.3838E+06              0.    -871.500E+03
             723     81.3138E+06     21.2070E+06              0.    -893.824E+03
             724     81.6303E+06     21.0272E+06              0.    -916.655E+03
             725     81.9549E+06     20.8443E+06              0.    -940.004E+03
             726      82.288E+06     20.6583E+06              0.    -963.881E+03
             727     82.6297E+06     20.4690E+06              0.    -988.296E+03
             728     82.9802E+06     20.2765E+06              0.    -1.01326E+06
             729     83.3397E+06     20.0806E+06              0.    -1.03879E+06
             730     83.7084E+06     19.8814E+06              0.    -1.06488E+06
             731     84.0867E+06     19.6787E+06              0.    -1.09157E+06
             732     84.4745E+06     19.4725E+06              0.    -1.11885E+06
             733     84.8723E+06     19.2628E+06              0.    -1.14673E+06
             734     85.2802E+06     19.0494E+06              0.    -1.17524E+06
             735     85.6984E+06     18.8324E+06              0.    -1.20439E+06
             736     86.1272E+06     18.6117E+06              0.    -1.23418E+06
             737     86.5669E+06     18.3873E+06              0.    -1.26463E+06
             738     87.0177E+06     18.1590E+06              0.    -1.29576E+06
             739     87.4799E+06     17.9268E+06              0.    -1.32758E+06
             740     87.9537E+06     17.6908E+06              0.    -1.36010E+06
             741     88.4394E+06     17.4508E+06              0.    -1.39335E+06
             742     88.9372E+06     17.2068E+06              0.    -1.42733E+06
             743     89.4475E+06     16.9588E+06              0.    -1.46206E+06
             744     89.9706E+06     16.7067E+06              0.    -1.49756E+06
             745     90.5067E+06     16.4505E+06              0.    -1.53384E+06
             746     91.0561E+06     16.1902E+06              0.    -1.57093E+06
             747     91.6193E+06     15.9257E+06              0.    -1.60883E+06
             748     92.1964E+06     15.6570E+06              0.    -1.64757E+06
             749     92.7879E+06     15.3840E+06              0.    -1.68717E+06
             750     93.3940E+06     15.1067E+06              0.    -1.72764E+06
             751     94.0151E+06     14.8252E+06              0.    -1.76900E+06
             752     94.6515E+06     14.5394E+06              0.    -1.81128E+06
             753     95.3037E+06     14.2492E+06              0.    -1.85449E+06
             754     95.9720E+06     13.9547E+06              0.    -1.89865E+06
             755     96.6567E+06     13.6558E+06              0.    -1.94379E+06
             756     97.3583E+06     13.3526E+06              0.    -1.98993E+06
             757     98.0772E+06     13.0450E+06              0.    -2.03708E+06
             758     98.8137E+06     12.7330E+06              0.    -2.08528E+06
             759     99.5684E+06     12.4166E+06              0.    -2.13455E+06
             760     100.342E+06     12.0959E+06              0.    -2.18491E+06
             761     101.134E+06     11.7709E+06              0.    -2.23638E+06
             762     101.945E+06     11.4415E+06              0.    -2.28900E+06
             763     102.777E+06     11.1078E+06              0.    -2.34278E+06
             764     103.629E+06     10.7698E+06              0.    -2.39776E+06
             765     104.502E+06     10.4275E+06              0.    -2.45397E+06
             766     105.396E+06     10.0811E+06              0.    -2.51142E+06
             767     106.312E+06     9.73043E+06              0.    -2.57016E+06
             768     107.250E+06     9.37568E+06              0.    -2.63021E+06
             769     108.212E+06     9.01686E+06              0.    -2.69161E+06
             770     109.197E+06     8.65405E+06              0.    -2.75438E+06
             771     110.206E+06     8.28730E+06              0.    -2.81856E+06
             772     111.240E+06     7.91672E+06              0.    -2.88418E+06
             773     112.300E+06     7.54237E+06              0.    -2.95129E+06
             774     113.385E+06     7.16436E+06              0.    -3.01991E+06
             775     114.497E+06     6.78280E+06              0.    -3.09009E+06
             776     115.636E+06     6.39780E+06              0.    -3.16186E+06
             777     116.804E+06     6.00948E+06              0.    -3.23527E+06
             778     118.000E+06     5.61800E+06              0.    -3.31035E+06
             779     119.225E+06     5.22348E+06              0.    -3.38716E+06
             780     120.481E+06     4.82610E+06              0.    -3.46573E+06
             781     121.768E+06     4.42602E+06              0.    -3.54612E+06
             782     123.086E+06     4.02344E+06              0.    -3.62837E+06
             783     124.437E+06     3.61855E+06              0.    -3.71253E+06
             784     125.822E+06     3.21156E+06              0.    -3.79866E+06
             785     127.241E+06     2.80272E+06              0.    -3.88681E+06
             786     128.696E+06     2.39225E+06              0.    -3.97703E+06
             787     130.186E+06     1.98043E+06              0.    -4.06940E+06
             788     131.714E+06     1.56755E+06              0.    -4.16396E+06
             789     133.280E+06     1.15388E+06              0.    -4.26079E+06
             790     134.885E+06     739.766E+03              0.    -4.35994E+06
             791     136.531E+06     325.540E+03              0.    -4.46150E+06
             792     138.218E+06    -88.4376E+03              0.    -4.56554E+06
             793     139.948E+06    -501.774E+03              0.    -4.67213E+06
             794     141.721E+06    -914.066E+03              0.    -4.78135E+06
             795     143.540E+06    -1.32487E+06              0.    -4.89329E+06
             796     145.405E+06    -1.73372E+06              0.    -5.00804E+06
             797     147.317E+06    -2.14014E+06              0.    -5.12569E+06
             798     149.279E+06    -2.54358E+06              0.    -5.24635E+06
             799     151.291E+06    -2.94350E+06              0.    -5.37011E+06
             800     153.356E+06    -3.33931E+06              0.    -5.49708E+06
             801     155.474E+06    -3.73038E+06              0.    -5.62739E+06
             802     157.647E+06    -4.11605E+06              0.    -5.76114E+06
             803     159.877E+06    -4.49561E+06              0.    -5.89848E+06
             804     162.166E+06    -4.86832E+06              0.    -6.03954E+06
             805     164.515E+06    -5.23337E+06              0.    -6.18446E+06
             806     166.927E+06    -5.58994E+06              0.    -6.33340E+06
             807     169.404E+06    -5.93713E+06              0.    -6.48651E+06
             808     171.947E+06    -6.27400E+06              0.    -6.64398E+06
             809     174.559E+06    -6.59952E+06              0.    -6.80599E+06
             810     177.242E+06    -6.91266E+06              0.    -6.97274E+06
             811     179.999E+06    -7.21227E+06              0.    -7.14444E+06
             812     182.831E+06    -7.49715E+06              0.    -7.32130E+06
             813     185.743E+06    -7.76603E+06              0.    -7.50358E+06
             814     188.737E+06    -8.01755E+06              0.    -7.69153E+06
             815     191.815E+06    -8.25028E+06              0.    -7.88544E+06
             816     194.981E+06    -8.46268E+06              0.    -8.08559E+06
             817     198.238E+06    -8.65313E+06              0.    -8.29230E+06
             818     201.589E+06    -8.81990E+06              0.    -8.50594E+06
             819     205.039E+06    -8.96114E+06              0.    -8.72686E+06
             820     208.591E+06    -9.07489E+06              0.    -8.95548E+06
             821     212.250E+06    -9.15904E+06              0.    -9.19223E+06
             822     216.019E+06    -9.21137E+06              0.    -9.43759E+06
             823     219.904E+06    -9.22950E+06              0.    -9.69207E+06
             824     223.909E+06    -9.21085E+06              0.    -9.95625E+06
             825     228.041E+06    -9.15272E+06              0.    -10.2307E+06
             826     232.303E+06    -9.05216E+06              0.    -10.5162E+06
             827     236.704E+06    -8.90605E+06              0.    -10.8134E+06
             828     241.249E+06    -8.71103E+06              0.    -11.1231E+06
             829     245.945E+06    -8.46348E+06              0.    -11.4462E+06
             830     250.800E+06    -8.15949E+06              0.    -11.7837E+06
             831     255.822E+06    -7.79489E+06              0.    -12.1367E+06
             832     261.020E+06    -7.36513E+06              0.    -12.5065E+06
             833     266.403E+06    -6.86532E+06              0.    -12.8942E+06
             834     271.983E+06    -6.29015E+06              0.    -13.3015E+06
             835     277.769E+06    -5.63387E+06              0.    -13.7300E+06
             836     283.775E+06    -4.89021E+06              0.    -14.1816E+06
             837     290.014E+06    -4.05232E+06              0.    -14.6584E+06
             838     296.501E+06    -3.11275E+06              0.    -15.1628E+06
             839     303.252E+06    -2.06330E+06              0.    -15.6974E+06
             840     310.285E+06    -894.975E+03              0.    -16.2654E+06
             841      317.62E+06     402.137E+03              0.    -16.8702E+06
             842     325.279E+06     1.83903E+06              0.    -17.5159E+06
             843     333.286E+06     3.42788E+06              0.    -18.2071E+06
             844     341.669E+06     5.18230E+06              0.    -18.9492E+06
             845     350.458E+06     7.11749E+06              0.    -19.7484E+06
             846     359.689E+06     9.25060E+06              0.    -20.6120E+06
             847     369.400E+06     11.6010E+06              0.    -21.5486E+06
             848     379.637E+06     14.1907E+06              0.    -22.5684E+06
             849     390.449E+06      17.045E+06              0.    -23.6835E+06
             850     401.897E+06     20.1930E+06              0.    -24.9086E+06
             851     414.047E+06     23.6685E+06              0.    -26.2614E+06
             852     426.977E+06     27.5111E+06              0.    -27.7635E+06
             853     440.780E+06     31.7679E+06              0.    -29.4415E+06
             854     455.563E+06     36.4949E+06              0.    -31.3288E+06
             855     471.451E+06     41.7602E+06              0.    -33.4672E+06
             856     488.594E+06     47.6474E+06              0.    -35.9100E+06
             857     507.169E+06     54.2606E+06              0.    -38.7260E+06
             858     527.385E+06     61.7320E+06              0.    -42.0051E+06
             859     549.484E+06     70.2326E+06              0.    -45.8653E+06
             860     573.745E+06     79.9885E+06              0.    -50.4646E+06
             861     600.460E+06     91.3058E+06              0.    -56.0130E+06
             862     629.877E+06     104.609E+06              0.    -62.7875E+06
             863     662.036E+06     120.498E+06              0.    -71.1290E+06
             864     696.334E+06     139.844E+06              0.    -81.3942E+06
             865     730.166E+06     163.820E+06              0.    -93.4682E+06
             866     759.596E+06     194.875E+06              0.    -105.876E+06
             867     779.706E+06     230.998E+06              0.    -114.069E+06
             868     800.013E+06     256.137E+06              0.    -134.172E+06
             869     71.0372E+06     31.1091E+06              0.    -322.107E+03
             870     71.0164E+06     30.8739E+06              0.    -321.551E+03
             871     71.0964E+06     30.6874E+06              0.    -317.265E+03
             872     71.1754E+06     30.5061E+06              0.    -313.622E+03
             873     71.2537E+06     30.3296E+06              0.    -310.603E+03
             874     71.3313E+06     30.1578E+06              0.    -308.192E+03
             875     71.4085E+06     29.9904E+06              0.    -306.373E+03
             876     71.4854E+06     29.8271E+06              0.    -305.132E+03
             877     71.5620E+06     29.6678E+06              0.    -304.455E+03
             878     71.6387E+06     29.5122E+06              0.    -304.329E+03
             879     71.7155E+06     29.3602E+06              0.     -304.74E+03
             880     71.7925E+06     29.2115E+06              0.    -305.677E+03
             881     71.8699E+06     29.0660E+06              0.    -307.130E+03
             882     71.9478E+06     28.9234E+06              0.    -309.087E+03
             883     72.0263E+06     28.7836E+06              0.    -311.538E+03
             884     72.1056E+06     28.6464E+06              0.    -314.475E+03
             885     72.1858E+06     28.5116E+06              0.    -317.889E+03
             886     72.2670E+06     28.3791E+06              0.    -321.772E+03
             887     72.3493E+06     28.2486E+06              0.    -326.117E+03
             888     72.4328E+06     28.1202E+06              0.    -330.916E+03
             889     72.5177E+06     27.9935E+06              0.    -336.164E+03
             890     72.6041E+06     27.8684E+06              0.    -341.854E+03
             891     72.6920E+06     27.7449E+06              0.    -347.982E+03
             892     72.7817E+06     27.6227E+06              0.    -354.543E+03
             893     72.8731E+06     27.5017E+06              0.    -361.532E+03
             894     72.9665E+06     27.3818E+06              0.    -368.947E+03
             895     73.0618E+06     27.2628E+06              0.    -376.783E+03
             896     73.1593E+06     27.1447E+06              0.    -385.037E+03
             897     73.2591E+06     27.0273E+06              0.    -393.708E+03
             898     73.3612E+06     26.9104E+06              0.    -402.794E+03
             899     73.4658E+06     26.7940E+06              0.    -412.293E+03
             900     73.5729E+06     26.6780E+06              0.    -422.204E+03
             901     73.6826E+06     26.5622E+06              0.    -432.527E+03
             902     73.7952E+06     26.4465E+06              0.    -443.260E+03
             903     73.9106E+06     26.3309E+06              0.    -454.406E+03
             904     74.0291E+06     26.2151E+06              0.    -465.963E+03
             905     74.1506E+06     26.0991E+06              0.    -477.933E+03
             906     74.2753E+06     25.9829E+06              0.    -490.318E+03
             907     74.4034E+06     25.8663E+06              0.    -503.118E+03
             908     74.5348E+06     25.7491E+06              0.    -516.337E+03
             909     74.6698E+06     25.6314E+06              0.    -529.976E+03
             910     74.8085E+06     25.5130E+06              0.    -544.039E+03
             911     74.9509E+06     25.3938E+06              0.    -558.528E+03
             912     75.0971E+06     25.2737E+06              0.    -573.447E+03
             913     75.2474E+06     25.1527E+06              0.    -588.801E+03
             914     75.4017E+06     25.0307E+06              0.    -604.592E+03
             915     75.5602E+06     24.9075E+06              0.    -620.826E+03
             916     75.7231E+06     24.7831E+06              0.    -637.507E+03
             917     75.8905E+06     24.6575E+06              0.    -654.641E+03
             918     76.0624E+06     24.5304E+06              0.    -672.234E+03
             919     76.2390E+06     24.4019E+06              0.    -690.290E+03
             920     76.4204E+06     24.2718E+06              0.    -708.817E+03
             921     76.6067E+06     24.1401E+06              0.    -727.821E+03
             922     76.7982E+06     24.0067E+06              0.    -747.308E+03
             923     76.9948E+06     23.8716E+06              0.    -767.286E+03
             924     77.1968E+06     23.7346E+06              0.    -787.763E+03
             925     77.4042E+06     23.5957E+06              0.    -808.745E+03
             926     77.6172E+06     23.4547E+06              0.    -830.242E+03
             927     77.8360E+06     23.3118E+06              0.    -852.261E+03
             928     78.0607E+06     23.1666E+06              0.    -874.812E+03
             929     78.2914E+06     23.0193E+06              0.    -897.904E+03
             930     78.5283E+06     22.8696E+06              0.    -921.545E+03
             931     78.7715E+06     22.7176E+06              0.    -945.746E+03
             932     79.0212E+06     22.5632E+06              0.    -970.517E+03
             933     79.2775E+06     22.4063E+06              0.    -995.868E+03
             934     79.5406E+06     22.2468E+06              0.    -1.02181E+06
             935     79.8107E+06     22.0847E+06              0.    -1.04835E+06
             936     80.0879E+06     21.9199E+06              0.    -1.07551E+06
             937     80.3724E+06     21.7523E+06              0.    -1.10329E+06
             938     80.6644E+06     21.5820E+06              0.    -1.13171E+06
             939     80.9640E+06     21.4087E+06              0.    -1.16078E+06
             940     81.2715E+06     21.2325E+06              0.    -1.19052E+06
             941     81.5869E+06     21.0532E+06              0.    -1.22092E+06
             942     81.9106E+06     20.8709E+06              0.    -1.25202E+06
             943     82.2426E+06     20.6854E+06              0.    -1.28382E+06
             944     82.5832E+06     20.4968E+06              0.    -1.31634E+06
             945     82.9326E+06     20.3049E+06              0.    -1.34959E+06
             946     83.2910E+06     20.1097E+06              0.    -1.38358E+06
             947     83.6586E+06     19.9111E+06              0.    -1.41834E+06
             948     84.0356E+06     19.7091E+06              0.    -1.45388E+06
             949     84.4223E+06     19.5036E+06              0.    -1.49020E+06
             950     84.8188E+06     19.2945E+06              0.    -1.52735E+06
             951     85.2254E+06     19.0819E+06              0.    -1.56531E+06
             952     85.6423E+06     18.8656E+06              0.    -1.60413E+06
             953     86.0698E+06     18.6456E+06              0.    -1.64380E+06
             954     86.5081E+06     18.4219E+06              0.    -1.68436E+06
             955     86.9574E+06     18.1944E+06              0.    -1.72581E+06
             956     87.4181E+06     17.9630E+06              0.    -1.76819E+06
             957     87.8904E+06     17.7278E+06              0.    -1.81150E+06
             958     88.3745E+06     17.4886E+06              0.    -1.85577E+06
             959     88.8708E+06     17.2455E+06              0.    -1.90103E+06
             960     89.3794E+06     16.9983E+06              0.    -1.94728E+06
             961     89.9008E+06     16.7471E+06              0.    -1.99455E+06
             962     90.4352E+06     16.4918E+06              0.    -2.04287E+06
             963     90.9828E+06     16.2323E+06              0.    -2.09225E+06
             964     91.5441E+06     15.9687E+06              0.    -2.14273E+06
             965     92.1194E+06     15.7009E+06              0.    -2.19432E+06
             966     92.7089E+06     15.4289E+06              0.    -2.24705E+06
             967     93.3130E+06     15.1527E+06              0.    -2.30094E+06
             968     93.9321E+06     14.8721E+06              0.    -2.35601E+06
             969     94.5664E+06     14.5873E+06              0.    -2.41231E+06
             970     95.2164E+06     14.2982E+06              0.    -2.46985E+06
             971     95.8825E+06     14.0047E+06              0.    -2.52865E+06
             972     96.5649E+06     13.7070E+06              0.    -2.58876E+06
             973     97.2642E+06     13.4048E+06              0.    -2.65019E+06
             974     97.9806E+06     13.0984E+06              0.    -2.71298E+06
             975     98.7147E+06     12.7876E+06              0.    -2.77716E+06
             976     99.4668E+06     12.4724E+06              0.    -2.84276E+06
             977     100.237E+06     12.1529E+06              0.    -2.90981E+06
             978     101.027E+06     11.8291E+06              0.    -2.97834E+06
             979     101.836E+06     11.5010E+06              0.    -3.04840E+06
             980     102.664E+06     11.1685E+06              0.    -3.12001E+06
             981     103.513E+06     10.8319E+06              0.    -3.19321E+06
             982     104.383E+06     10.4910E+06              0.    -3.26803E+06
             983     105.274E+06     10.1459E+06              0.    -3.34453E+06
             984     106.187E+06      9.7967E+06              0.    -3.42272E+06
             985     107.122E+06     9.44340E+06              0.    -3.50267E+06
             986     108.080E+06     9.08606E+06              0.    -3.58440E+06
             987     109.062E+06     8.72476E+06              0.    -3.66796E+06
             988     110.067E+06     8.35957E+06              0.    -3.75340E+06
             989     111.097E+06     7.99057E+06              0.    -3.84076E+06
             990     112.153E+06     7.61784E+06              0.    -3.93009E+06
             991     113.234E+06     7.24150E+06              0.    -4.02143E+06
             992     114.342E+06     6.86163E+06              0.    -4.11484E+06
             993     115.477E+06     6.47837E+06              0.    -4.21038E+06
             994     116.640E+06     6.09183E+06              0.    -4.30808E+06
             995     117.832E+06     5.70217E+06              0.    -4.40802E+06
             996     119.053E+06     5.30952E+06              0.    -4.51025E+06
             997     120.304E+06     4.91405E+06              0.    -4.61482E+06
             998     121.585E+06     4.51593E+06              0.    -4.72180E+06
             999     122.899E+06     4.11535E+06              0.    -4.83126E+06
            1000     124.245E+06     3.71252E+06              0.    -4.94326E+06
            1001     125.624E+06     3.30764E+06              0.    -5.05787E+06
            1002     127.037E+06     2.90095E+06              0.    -5.17517E+06
            1003     128.486E+06     2.49271E+06              0.    -5.29523E+06
            1004     129.970E+06     2.08316E+06              0.    -5.41812E+06
            1005     131.492E+06     1.67260E+06              0.    -5.54394E+06
            1006     133.051E+06     1.26133E+06              0.    -5.67276E+06
            1007     134.649E+06     849.672E+03              0.    -5.80468E+06
            1008     136.288E+06     437.969E+03              0.    -5.93979E+06
            1009     137.968E+06     26.5828E+03              0.    -6.07818E+06
            1010     139.690E+06    -384.090E+03              0.    -6.21997E+06
            1011     141.456E+06    -793.644E+03              0.    -6.36525E+06
            1012     143.266E+06    -1.20163E+06              0.    -6.51414E+06
            1013     145.122E+06    -1.60759E+06              0.    -6.66675E+06
            1014     147.026E+06    -2.01102E+06              0.    -6.82322E+06
            1015     148.979E+06    -2.41139E+06              0.    -6.98367E+06
            1016     150.981E+06    -2.80815E+06              0.    -7.14823E+06
            1017     153.036E+06    -3.20070E+06              0.    -7.31706E+06
            1018     155.143E+06    -3.58841E+06              0.    -7.49030E+06
            1019     157.306E+06    -3.97061E+06              0.    -7.66811E+06
            1020     159.525E+06    -4.34659E+06              0.    -7.85068E+06
            1021     161.802E+06    -4.71560E+06              0.    -8.03817E+06
            1022     164.139E+06    -5.07683E+06              0.    -8.23077E+06
            1023     166.538E+06    -5.42945E+06              0.    -8.42870E+06
            1024     169.001E+06    -5.77255E+06              0.    -8.63216E+06
            1025     171.530E+06    -6.10518E+06              0.    -8.84138E+06
            1026     174.127E+06    -6.42632E+06              0.    -9.05661E+06
            1027     176.794E+06    -6.73491E+06              0.    -9.27811E+06
            1028     179.535E+06    -7.02980E+06              0.    -9.50614E+06
            1029     182.351E+06    -7.30977E+06              0.    -9.74102E+06
            1030     185.245E+06    -7.57356E+06              0.    -9.98305E+06
            1031     188.219E+06    -7.81978E+06              0.    -10.2326E+06
            1032     191.277E+06    -8.04699E+06              0.    -10.4900E+06
            1033     194.422E+06    -8.25364E+06              0.    -10.7556E+06
            1034     197.657E+06    -8.43808E+06              0.    -11.0299E+06
            1035     200.985E+06    -8.59858E+06              0.    -11.3133E+06
            1036     204.410E+06    -8.73326E+06              0.    -11.6063E+06
            1037     207.936E+06    -8.84014E+06              0.    -11.9095E+06
            1038     211.567E+06    -8.91710E+06              0.    -12.2234E+06
            1039     215.307E+06    -8.96189E+06              0.    -12.5486E+06
            1040     219.160E+06    -8.97208E+06              0.    -12.8858E+06
            1041     223.132E+06    -8.94509E+06              0.    -13.2358E+06
            1042     227.227E+06    -8.87816E+06              0.    -13.5993E+06
            1043     231.452E+06    -8.76833E+06              0.    -13.9772E+06
            1044     235.812E+06    -8.61242E+06              0.    -14.3705E+06
            1045     240.313E+06    -8.40703E+06              0.    -14.7802E+06
            1046     244.962E+06    -8.14847E+06              0.    -15.2075E+06
            1047     249.767E+06    -7.83281E+06              0.    -15.6537E+06
            1048     254.734E+06    -7.45577E+06              0.    -16.1201E+06
            1049     259.873E+06    -7.01276E+06              0.    -16.6084E+06
            1050     265.193E+06    -6.49880E+06              0.    -17.1202E+06
            1051     270.704E+06    -5.90848E+06              0.    -17.6574E+06
            1052     276.415E+06    -5.23594E+06              0.    -18.2223E+06
            1053     282.339E+06    -4.47479E+06              0.    -18.8171E+06
            1054     288.489E+06    -3.61806E+06              0.    -19.4447E+06
            1055     294.878E+06    -2.65813E+06              0.    -20.1080E+06
            1056     301.521E+06    -1.58661E+06              0.    -20.8105E+06
            1057     308.435E+06    -394.311E+03              0.    -21.5560E+06
            1058     315.638E+06     928.933E+03              0.    -22.3490E+06
            1059     323.150E+06     2.39440E+06              0.    -23.1945E+06
            1060     330.994E+06     4.01458E+06              0.    -24.0983E+06
            1061     339.194E+06     5.80348E+06              0.    -25.0671E+06
            1062     347.778E+06     7.77677E+06              0.    -26.1087E+06
            1063     356.775E+06     9.95210E+06              0.    -27.2320E+06
            1064     366.222E+06     12.3495E+06              0.    -28.4475E+06
            1065     376.155E+06     14.9918E+06              0.    -29.7677E+06
            1066     386.619E+06     17.9051E+06              0.    -31.2070E+06
            1067     397.662E+06     21.1196E+06              0.    -32.7830E+06
            1068     409.340E+06     24.6705E+06              0.    -34.5165E+06
            1069     421.715E+06     28.5989E+06              0.    -36.4325E+06
            1070     434.858E+06     32.9538E+06              0.    -38.5616E+06
            1071     448.848E+06     37.7935E+06              0.    -40.9409E+06
            1072     463.775E+06     43.1888E+06              0.    -43.6160E+06
            1073     479.738E+06     49.2261E+06              0.    -46.6435E+06
            1074     496.844E+06     56.0130E+06              0.    -50.0932E+06
            1075     515.204E+06     63.6848E+06              0.    -54.0522E+06
            1076     534.920E+06     72.4140E+06              0.    -58.6271E+06
            1077     556.066E+06     82.4246E+06              0.    -63.9472E+06
            1078     578.635E+06     94.0105E+06              0.    -70.1603E+06
            1079     602.447E+06     107.559E+06              0.    -77.4136E+06
            1080     626.967E+06     123.584E+06              0.    -85.7935E+06
            1081     650.969E+06     142.722E+06              0.    -95.1371E+06
            1082     672.491E+06     165.774E+06              0.    -104.656E+06
            1083     689.068E+06     192.644E+06              0.    -112.377E+06
            1084     698.451E+06     220.160E+06              0.    -115.596E+06
            1085     710.826E+06     238.531E+06              0.    -128.367E+06
            1086     71.0229E+06     31.1031E+06              0.    -402.116E+03
            1087     71.0021E+06     30.8688E+06              0.    -401.422E+03
            1088     71.0818E+06     30.6830E+06              0.    -396.072E+03
            1089     71.1605E+06     30.5024E+06              0.    -391.523E+03
            1090     71.2385E+06     30.3266E+06              0.    -387.754E+03
            1091     71.3158E+06     30.1554E+06              0.    -384.744E+03
            1092     71.3927E+06     29.9886E+06              0.    -382.474E+03
            1093     71.4693E+06     29.8260E+06              0.    -380.924E+03
            1094     71.5457E+06     29.6673E+06              0.    -380.079E+03
            1095     71.6221E+06     29.5123E+06              0.    -379.921E+03
            1096     71.6986E+06     29.3609E+06              0.    -380.434E+03
            1097     71.7753E+06     29.2128E+06              0.    -381.604E+03
            1098     71.8524E+06     29.0678E+06              0.    -383.417E+03
            1099     71.9300E+06     28.9257E+06              0.    -385.860E+03
            1100     72.0082E+06     28.7865E+06              0.    -388.921E+03
            1101     72.0872E+06     28.6498E+06              0.    -392.587E+03
            1102     72.1671E+06     28.5155E+06              0.    -396.849E+03
            1103     72.2479E+06     28.3835E+06              0.    -401.696E+03
            1104     72.3299E+06     28.2536E+06              0.    -407.120E+03
            1105     72.4131E+06     28.1256E+06              0.    -413.111E+03
            1106     72.4977E+06     27.9994E+06              0.    -419.662E+03
            1107     72.5837E+06     27.8748E+06              0.    -426.765E+03
            1108     72.6713E+06     27.7517E+06              0.    -434.415E+03
            1109     72.7606E+06     27.6300E+06              0.    -442.605E+03
            1110     72.8517E+06     27.5095E+06              0.    -451.330E+03
            1111     72.9447E+06     27.3901E+06              0.    -460.586E+03
            1112     73.0397E+06     27.2716E+06              0.    -470.368E+03
            1113     73.1369E+06     27.1539E+06              0.    -480.673E+03
            1114     73.2362E+06     27.0369E+06              0.    -491.497E+03
            1115     73.3379E+06     26.9205E+06              0.    -502.839E+03
            1116     73.4421E+06     26.8046E+06              0.    -514.697E+03
            1117     73.5488E+06     26.6890E+06              0.    -527.070E+03
            1118     73.6581E+06     26.5737E+06              0.    -539.956E+03
            1119     73.7702E+06     26.4584E+06              0.    -553.355E+03
            1120     73.8852E+06     26.3432E+06              0.    -567.268E+03
            1121     74.0032E+06     26.2279E+06              0.    -581.695E+03
            1122     74.1243E+06     26.1124E+06              0.    -596.638E+03
            1123     74.2485E+06     25.9966E+06              0.    -612.098E+03
            1124     74.3760E+06     25.8804E+06              0.    -628.078E+03
            1125     74.5070E+06     25.7637E+06              0.    -644.579E+03
            1126     74.6415E+06     25.6465E+06              0.    -661.605E+03
            1127     74.7796E+06     25.5285E+06              0.    -679.160E+03
            1128     74.9214E+06     25.4098E+06              0.    -697.247E+03
            1129     75.0671E+06     25.2902E+06              0.    -715.872E+03
            1130     75.2168E+06     25.1697E+06              0.    -735.037E+03
            1131     75.3705E+06     25.0481E+06              0.    -754.750E+03
            1132     75.5284E+06     24.9254E+06              0.    -775.015E+03
            1133     75.6907E+06     24.8015E+06              0.    -795.839E+03
            1134     75.8574E+06     24.6763E+06              0.    -817.227E+03
            1135     76.0286E+06     24.5498E+06              0.    -839.188E+03
            1136     76.2045E+06     24.4218E+06              0.    -861.728E+03
            1137     76.3852E+06     24.2922E+06              0.    -884.855E+03
            1138     76.5708E+06     24.1611E+06              0.    -908.578E+03
            1139     76.7615E+06     24.0282E+06              0.    -932.903E+03
            1140     76.9574E+06     23.8936E+06              0.    -957.842E+03
            1141     77.1585E+06     23.7571E+06              0.    -983.402E+03
            1142     77.3651E+06     23.6188E+06              0.    -1.00959E+06
            1143     77.5773E+06     23.4784E+06              0.    -1.03643E+06
            1144     77.7953E+06     23.3360E+06              0.    -1.06391E+06
            1145     78.0190E+06     23.1914E+06              0.    -1.09206E+06
            1146     78.2488E+06     23.0447E+06              0.    -1.12089E+06
            1147     78.4848E+06     22.8956E+06              0.    -1.15040E+06
            1148     78.7270E+06     22.7442E+06              0.    -1.18061E+06
            1149     78.9757E+06     22.5904E+06              0.    -1.21153E+06
            1150     79.2310E+06     22.4342E+06              0.    -1.24317E+06
            1151     79.4931E+06     22.2753E+06              0.    -1.27556E+06
            1152     79.7621E+06     22.1139E+06              0.    -1.30869E+06
            1153     80.0383E+06     21.9497E+06              0.    -1.34259E+06
            1154     80.3216E+06     21.7829E+06              0.    -1.37727E+06
            1155     80.6124E+06     21.6132E+06              0.    -1.41274E+06
            1156     80.9109E+06     21.4406E+06              0.    -1.44903E+06
            1157     81.2171E+06     21.2651E+06              0.    -1.48614E+06
            1158     81.5313E+06     21.0866E+06              0.    -1.52409E+06
            1159     81.8536E+06     20.9051E+06              0.    -1.56291E+06
            1160     82.1843E+06     20.7204E+06              0.    -1.60260E+06
            1161     82.5236E+06     20.5325E+06              0.    -1.64319E+06
            1162     82.8716E+06     20.3414E+06              0.    -1.68469E+06
            1163     83.2285E+06     20.1470E+06              0.    -1.72712E+06
            1164     83.5946E+06     19.9492E+06              0.    -1.77050E+06
            1165     83.9701E+06     19.7481E+06              0.    -1.81486E+06
            1166     84.3552E+06     19.5434E+06              0.    -1.86020E+06
            1167     84.7501E+06     19.3353E+06              0.    -1.90656E+06
            1168     85.1550E+06     19.1235E+06              0.    -1.95395E+06
            1169     85.5702E+06     18.9082E+06              0.    -2.00239E+06
            1170     85.9960E+06     18.6891E+06              0.    -2.05191E+06
            1171     86.4325E+06     18.4664E+06              0.    -2.10253E+06
            1172       86.88E+06     18.2398E+06              0.    -2.15427E+06
            1173     87.3388E+06     18.0095E+06              0.    -2.20715E+06
            1174     87.8091E+06     17.7753E+06              0.    -2.26121E+06
            1175     88.2912E+06     17.5371E+06              0.    -2.31647E+06
            1176     88.7854E+06     17.2950E+06              0.    -2.37294E+06
            1177     89.2920E+06     17.0490E+06              0.    -2.43067E+06
            1178     89.8112E+06     16.7988E+06              0.    -2.48966E+06
            1179     90.3433E+06     16.5447E+06              0.    -2.54997E+06
            1180     90.8887E+06     16.2864E+06              0.    -2.61160E+06
            1181     91.4477E+06     16.0240E+06              0.    -2.67459E+06
            1182     92.0205E+06     15.7574E+06              0.    -2.73897E+06
            1183     92.6075E+06     15.4866E+06              0.    -2.80477E+06
            1184     93.2091E+06     15.2116E+06              0.    -2.87202E+06
            1185     93.8255E+06     14.9324E+06              0.    -2.94076E+06
            1186     94.4571E+06     14.6489E+06              0.    -3.01101E+06
            1187     95.1044E+06     14.3611E+06              0.    -3.08281E+06
            1188     95.7676E+06     14.0690E+06              0.    -3.15619E+06
            1189     96.4471E+06     13.7726E+06              0.    -3.23119E+06
            1190     97.1433E+06     13.4719E+06              0.    -3.30785E+06
            1191     97.8566E+06     13.1669E+06              0.    -3.38620E+06
            1192     98.5875E+06     12.8576E+06              0.    -3.46628E+06
            1193     99.3363E+06     12.5440E+06              0.    -3.54813E+06
            1194     100.103E+06     12.2260E+06              0.    -3.63179E+06
            1195     100.889E+06     11.9038E+06              0.    -3.71730E+06
            1196     101.695E+06     11.5773E+06              0.    -3.80471E+06
            1197     102.520E+06     11.2466E+06              0.    -3.89405E+06
            1198     103.365E+06     10.9116E+06              0.    -3.98538E+06
            1199     104.231E+06     10.5725E+06              0.    -4.07874E+06
            1200     105.118E+06     10.2292E+06              0.    -4.17417E+06
            1201     106.026E+06     9.88176E+06              0.    -4.27173E+06
            1202     106.957E+06     9.53031E+06              0.    -4.37146E+06
            1203     107.911E+06     9.17488E+06              0.    -4.47342E+06
            1204     108.888E+06     8.81552E+06              0.    -4.57766E+06
            1205     109.889E+06     8.45232E+06              0.    -4.68424E+06
            1206     110.914E+06     8.08535E+06              0.    -4.79321E+06
            1207     111.965E+06     7.71470E+06              0.    -4.90464E+06
            1208     113.041E+06     7.34048E+06              0.    -5.01857E+06
            1209     114.144E+06     6.96280E+06              0.    -5.13508E+06
            1210     115.273E+06     6.58176E+06              0.    -5.25424E+06
            1211     116.431E+06     6.19751E+06              0.    -5.37610E+06
            1212     117.616E+06     5.81018E+06              0.    -5.50073E+06
            1213     118.831E+06     5.41992E+06              0.    -5.62822E+06
            1214     120.076E+06     5.02690E+06              0.    -5.75863E+06
            1215     121.351E+06     4.63129E+06              0.    -5.89204E+06
            1216     122.658E+06     4.23328E+06              0.    -6.02853E+06
            1217     123.997E+06     3.83308E+06              0.    -6.16819E+06
            1218     125.369E+06     3.43090E+06              0.    -6.31109E+06
            1219     126.775E+06     3.02697E+06              0.    -6.45734E+06
            1220     128.216E+06     2.62156E+06              0.    -6.60702E+06
            1221     129.693E+06     2.21493E+06              0.    -6.76023E+06
            1222     131.206E+06     1.80735E+06              0.    -6.91707E+06
            1223     132.757E+06     1.39914E+06              0.    -7.07766E+06
            1224     134.347E+06     990.631E+03              0.    -7.24209E+06
            1225     135.976E+06     582.156E+03              0.    -7.41049E+06
            1226     137.647E+06     174.086E+03              0.    -7.58297E+06
            1227     139.359E+06    -233.180E+03              0.    -7.75966E+06
            1228     141.115E+06    -639.231E+03              0.    -7.94071E+06
            1229     142.915E+06    -1.04362E+06              0.    -8.12623E+06
            1230     144.760E+06    -1.44587E+06              0.    -8.31638E+06
            1231     146.653E+06    -1.84549E+06              0.    -8.51131E+06
            1232     148.594E+06    -2.24194E+06              0.    -8.71119E+06
            1233     150.584E+06    -2.63466E+06              0.    -8.91618E+06
            1234     152.626E+06    -3.02304E+06              0.    -9.12645E+06
            1235     154.720E+06    -3.40646E+06              0.    -9.34221E+06
            1236     156.868E+06    -3.78423E+06              0.    -9.56364E+06
            1237     159.073E+06    -4.15564E+06              0.    -9.79096E+06
            1238     161.335E+06    -4.51993E+06              0.    -10.0244E+06
            1239     163.656E+06    -4.87629E+06              0.    -10.2641E+06
            1240     166.038E+06    -5.22387E+06              0.    -10.5105E+06
            1241     168.484E+06    -5.56176E+06              0.    -10.7637E+06
            1242     170.995E+06    -5.88899E+06              0.    -11.0241E+06
            1243     173.573E+06    -6.20455E+06              0.    -11.2918E+06
            1244     176.221E+06    -6.50734E+06              0.    -11.5674E+06
            1245     178.941E+06    -6.79622E+06              0.    -11.8510E+06
            1246     181.735E+06    -7.06995E+06              0.    -12.1431E+06
            1247     184.606E+06    -7.32726E+06              0.    -12.4440E+06
            1248     187.556E+06    -7.56674E+06              0.    -12.7542E+06
            1249     190.589E+06    -7.78693E+06              0.    -13.0741E+06
            1250     193.707E+06    -7.98627E+06              0.    -13.4041E+06
            1251     196.914E+06    -8.16309E+06              0.    -13.7449E+06
            1252     200.212E+06    -8.31563E+06              0.    -14.0969E+06
            1253     203.605E+06    -8.44200E+06              0.    -14.4607E+06
            1254     207.098E+06    -8.54018E+06              0.    -14.8371E+06
            1255     210.693E+06    -8.60804E+06              0.    -15.2266E+06
            1256     214.395E+06    -8.64327E+06              0.    -15.6300E+06
            1257     218.208E+06    -8.64344E+06              0.    -16.0482E+06
            1258     222.138E+06    -8.60591E+06              0.    -16.4821E+06
            1259     226.188E+06    -8.52789E+06              0.    -16.9325E+06
            1260     230.364E+06    -8.40637E+06              0.    -17.4006E+06
            1261     234.672E+06    -8.23812E+06              0.    -17.8876E+06
            1262     239.117E+06    -8.01967E+06              0.    -18.3947E+06
            1263     243.707E+06    -7.74730E+06              0.    -18.9232E+06
            1264     248.447E+06    -7.41697E+06              0.    -19.4748E+06
            1265     253.346E+06    -7.02436E+06              0.    -20.0510E+06
            1266     258.411E+06    -6.56478E+06              0.    -20.6539E+06
            1267     263.650E+06    -6.03314E+06              0.    -21.2853E+06
            1268     269.073E+06    -5.42393E+06              0.    -21.9477E+06
            1269     274.690E+06    -4.73117E+06              0.    -22.6435E+06
            1270     280.511E+06    -3.94832E+06              0.    -23.3757E+06
            1271     286.548E+06    -3.06825E+06              0.    -24.1473E+06
            1272     292.813E+06    -2.08316E+06              0.    -24.9620E+06
            1273     299.321E+06    -984.461E+03              0.    -25.8238E+06
            1274     306.086E+06     237.283E+03              0.    -26.7372E+06
            1275     313.124E+06     1.59250E+06              0.    -27.7074E+06
            1276     320.453E+06     3.09279E+06              0.    -28.7401E+06
            1277     328.093E+06     4.75100E+06              0.    -29.8422E+06
            1278     336.065E+06     6.58156E+06              0.    -31.0212E+06
            1279     344.393E+06     8.60060E+06              0.    -32.2859E+06
            1280     353.102E+06     10.8264E+06              0.    -33.6465E+06
            1281     362.221E+06     13.2795E+06              0.    -35.1147E+06
            1282     371.782E+06     15.9835E+06              0.    -36.7041E+06
            1283     381.819E+06     18.9655E+06              0.    -38.4308E+06
            1284     392.370E+06     22.2567E+06              0.    -40.3134E+06
            1285     403.477E+06     25.8933E+06              0.    -42.3742E+06
            1286     415.184E+06     29.9178E+06              0.    -44.6392E+06
            1287     427.539E+06     34.3806E+06              0.    -47.1393E+06
            1288     440.594E+06     39.3413E+06              0.    -49.9112E+06
            1289     454.400E+06     44.8722E+06              0.    -52.9987E+06
            1290     469.006E+06     51.0607E+06              0.    -56.4532E+06
            1291     484.452E+06     58.0141E+06              0.    -60.3348E+06
            1292     500.761E+06     65.8651E+06              0.    -64.7126E+06
            1293     517.917E+06     74.7793E+06              0.    -69.6618E+06
            1294     535.840E+06     84.9636E+06              0.    -75.2569E+06
            1295     554.329E+06     96.6756E+06              0.    -81.5533E+06
            1296     572.985E+06     110.230E+06              0.    -88.5467E+06
            1297     591.106E+06     125.985E+06              0.    -96.0857E+06
            1298     607.622E+06     144.294E+06              0.    -103.716E+06
            1299     621.173E+06     165.212E+06              0.    -110.467E+06
            1300     630.396E+06     187.819E+06              0.    -114.838E+06
            1301     634.302E+06     209.506E+06              0.    -115.224E+06
            1302     642.496E+06     223.779E+06              0.    -124.033E+06
            1303     71.0054E+06     31.0957E+06              0.    -481.782E+03
            1304     70.9848E+06     30.8625E+06              0.    -480.950E+03
            1305     71.0640E+06     30.6777E+06              0.    -474.540E+03
            1306     71.1424E+06     30.4979E+06              0.    -469.090E+03
            1307       71.22E+06     30.3229E+06              0.    -464.574E+03
            1308     71.2970E+06     30.1525E+06              0.    -460.967E+03
            1309     71.3735E+06     29.9865E+06              0.    -458.247E+03
            1310     71.4497E+06     29.8246E+06              0.    -456.391E+03
            1311     71.5258E+06     29.6667E+06              0.    -455.378E+03
            1312     71.6018E+06     29.5124E+06              0.    -455.188E+03
            1313     71.6779E+06     29.3617E+06              0.    -455.803E+03
            1314     71.7543E+06     29.2143E+06              0.    -457.205E+03
            1315     71.8310E+06     29.0700E+06              0.    -459.377E+03
            1316     71.9082E+06     28.9286E+06              0.    -462.303E+03
            1317     71.9861E+06     28.7900E+06              0.    -465.970E+03
            1318     72.0647E+06     28.6540E+06              0.    -470.362E+03
            1319     72.1442E+06     28.5203E+06              0.    -475.468E+03
            1320     72.2247E+06     28.3889E+06              0.    -481.275E+03
            1321     72.3063E+06     28.2596E+06              0.    -487.773E+03
            1322     72.3891E+06     28.1322E+06              0.    -494.950E+03
            1323     72.4733E+06     28.0066E+06              0.    -502.799E+03
            1324     72.5589E+06     27.8826E+06              0.    -511.309E+03
            1325     72.6461E+06     27.7601E+06              0.    -520.474E+03
            1326     72.7350E+06     27.6390E+06              0.    -530.287E+03
            1327     72.8256E+06     27.5190E+06              0.     -540.74E+03
            1328     72.9182E+06     27.4002E+06              0.    -551.829E+03
            1329     73.0127E+06     27.2822E+06              0.    -563.548E+03
            1330     73.1094E+06     27.1651E+06              0.    -575.894E+03
            1331     73.2083E+06     27.0487E+06              0.    -588.862E+03
            1332     73.3095E+06     26.9329E+06              0.    -602.451E+03
            1333     73.4132E+06     26.8175E+06              0.    -616.657E+03
            1334     73.5194E+06     26.7024E+06              0.    -631.480E+03
            1335     73.6282E+06     26.5876E+06              0.    -646.918E+03
            1336     73.7398E+06     26.4729E+06              0.    -662.971E+03
            1337     73.8542E+06     26.3583E+06              0.    -679.640E+03
            1338     73.9716E+06     26.2435E+06              0.    -696.924E+03
            1339     74.0921E+06     26.1286E+06              0.    -714.827E+03
            1340     74.2158E+06     26.0133E+06              0.    -733.348E+03
            1341     74.3427E+06     25.8977E+06              0.    -752.493E+03
            1342     74.4730E+06     25.7815E+06              0.    -772.262E+03
            1343     74.6069E+06     25.6648E+06              0.    -792.660E+03
            1344     74.7443E+06     25.5475E+06              0.    -813.692E+03
            1345     74.8855E+06     25.4293E+06              0.    -835.361E+03
            1346     75.0305E+06     25.3103E+06              0.    -857.673E+03
            1347     75.1794E+06     25.1903E+06              0.    -880.634E+03
            1348     75.3324E+06     25.0694E+06              0.    -904.250E+03
            1349     75.4896E+06     24.9473E+06              0.    -928.528E+03
            1350     75.6511E+06     24.8240E+06              0.    -953.476E+03
            1351     75.8169E+06     24.6994E+06              0.    -979.100E+03
            1352     75.9873E+06     24.5734E+06              0.    -1.00541E+06
            1353     76.1624E+06     24.4460E+06              0.    -1.03241E+06
            1354     76.3422E+06     24.3171E+06              0.    -1.06012E+06
            1355     76.5270E+06     24.1866E+06              0.    -1.08854E+06
            1356     76.7167E+06     24.0544E+06              0.    -1.11768E+06
            1357     76.9116E+06     23.9204E+06              0.    -1.14756E+06
            1358     77.1119E+06     23.7846E+06              0.    -1.17818E+06
            1359     77.3175E+06     23.6469E+06              0.    -1.20956E+06
            1360     77.5287E+06     23.5073E+06              0.    -1.24170E+06
            1361     77.7455E+06     23.3655E+06              0.    -1.27463E+06
            1362     77.9682E+06     23.2217E+06              0.    -1.30835E+06
            1363     78.1969E+06     23.0757E+06              0.    -1.34288E+06
            1364     78.4317E+06     22.9273E+06              0.    -1.37824E+06
            1365     78.6728E+06     22.7767E+06              0.    -1.41443E+06
            1366     78.9203E+06     22.6237E+06              0.    -1.45147E+06
            1367     79.1744E+06     22.4682E+06              0.    -1.48937E+06
            1368     79.4352E+06     22.3101E+06              0.    -1.52817E+06
            1369     79.7029E+06     22.1495E+06              0.    -1.56786E+06
            1370     79.9776E+06     21.9862E+06              0.    -1.60847E+06
            1371     80.2596E+06     21.8201E+06              0.    -1.65001E+06
            1372     80.5490E+06     21.6513E+06              0.    -1.69250E+06
            1373     80.8460E+06     21.4796E+06              0.    -1.73597E+06
            1374     81.1507E+06     21.3050E+06              0.    -1.78043E+06
            1375     81.4633E+06     21.1274E+06              0.    -1.82589E+06
            1376     81.7841E+06     20.9467E+06              0.    -1.87239E+06
            1377     82.1132E+06     20.7630E+06              0.    -1.91994E+06
            1378     82.4508E+06     20.5761E+06              0.    -1.96855E+06
            1379     82.7970E+06     20.3859E+06              0.    -2.01827E+06
            1380     83.1522E+06     20.1925E+06              0.    -2.06909E+06
            1381     83.5165E+06     19.9958E+06              0.    -2.12106E+06
            1382     83.8902E+06     19.7956E+06              0.    -2.17419E+06
            1383     84.2733E+06     19.5921E+06              0.    -2.22850E+06
            1384     84.6663E+06     19.3850E+06              0.    -2.28403E+06
            1385     85.0692E+06     19.1744E+06              0.    -2.34079E+06
            1386     85.4823E+06     18.9601E+06              0.    -2.39881E+06
            1387     85.9059E+06     18.7422E+06              0.    -2.45813E+06
            1388     86.3402E+06     18.5206E+06              0.    -2.51876E+06
            1389     86.7855E+06     18.2953E+06              0.    -2.58073E+06
            1390      87.242E+06     18.0662E+06              0.    -2.64407E+06
            1391     87.7099E+06     17.8332E+06              0.    -2.70882E+06
            1392     88.1896E+06     17.5963E+06              0.      -2.775E+06
            1393     88.6813E+06     17.3555E+06              0.    -2.84264E+06
            1394     89.1853E+06     17.1108E+06              0.    -2.91178E+06
            1395     89.7019E+06     16.8620E+06              0.    -2.98244E+06
            1396     90.2313E+06     16.6092E+06              0.    -3.05466E+06
            1397     90.7739E+06     16.3524E+06              0.    -3.12847E+06
            1398     91.3300E+06     16.0914E+06              0.    -3.20391E+06
            1399     91.8998E+06     15.8263E+06              0.    -3.28101E+06
            1400     92.4838E+06     15.5570E+06              0.    -3.35982E+06
            1401     93.0822E+06     15.2835E+06              0.    -3.44035E+06
            1402     93.6955E+06     15.0059E+06              0.    -3.52267E+06
            1403     94.3238E+06     14.7240E+06              0.    -3.60679E+06
            1404     94.9677E+06     14.4378E+06              0.    -3.69278E+06
            1405     95.6274E+06     14.1474E+06              0.    -3.78065E+06
            1406     96.3033E+06     13.8527E+06              0.    -3.87047E+06
            1407     96.9959E+06     13.5538E+06              0.    -3.96226E+06
            1408     97.7054E+06     13.2506E+06              0.    -4.05608E+06
            1409     98.4324E+06     12.9431E+06              0.    -4.15197E+06
            1410     99.1772E+06     12.6313E+06              0.    -4.24997E+06
            1411     99.9402E+06     12.3152E+06              0.    -4.35014E+06
            1412     100.722E+06     11.9950E+06              0.    -4.45253E+06
            1413     101.523E+06     11.6704E+06              0.    -4.55718E+06
            1414     102.343E+06     11.3417E+06              0.    -4.66415E+06
            1415     103.184E+06     11.0088E+06              0.    -4.77349E+06
            1416     104.045E+06     10.6718E+06              0.    -4.88526E+06
            1417     104.927E+06     10.3307E+06              0.    -4.99951E+06
            1418     105.831E+06     9.98549E+06              0.    -5.11629E+06
            1419     106.756E+06     9.63631E+06              0.    -5.23569E+06
            1420     107.705E+06     9.28319E+06              0.    -5.35774E+06
            1421     108.676E+06     8.92620E+06              0.    -5.48252E+06
            1422     109.671E+06     8.56542E+06              0.    -5.61010E+06
            1423     110.691E+06     8.20092E+06              0.    -5.74053E+06
            1424     111.735E+06     7.83281E+06              0.    -5.87389E+06
            1425     112.805E+06     7.46118E+06              0.    -6.01026E+06
            1426     113.901E+06     7.08615E+06              0.    -6.14971E+06
            1427     115.024E+06     6.70782E+06              0.    -6.29231E+06
            1428     116.175E+06     6.32635E+06              0.    -6.43814E+06
            1429     117.354E+06     5.94186E+06              0.    -6.58729E+06
            1430     118.561E+06     5.55451E+06              0.    -6.73984E+06
            1431     119.798E+06     5.16446E+06              0.    -6.89588E+06
            1432     121.066E+06     4.77191E+06              0.    -7.05551E+06
            1433     122.365E+06     4.37702E+06              0.    -7.21882E+06
            1434     123.695E+06     3.98002E+06              0.    -7.38590E+06
            1435     125.059E+06     3.58113E+06              0.    -7.55686E+06
            1436     126.456E+06     3.18057E+06              0.    -7.73180E+06
            1437     127.888E+06     2.77861E+06              0.    -7.91085E+06
            1438     129.355E+06     2.37551E+06              0.    -8.09410E+06
            1439     130.858E+06     1.97156E+06              0.    -8.28169E+06
            1440     132.399E+06     1.56707E+06              0.    -8.47374E+06
            1441     133.978E+06     1.16238E+06              0.    -8.67038E+06
            1442     135.597E+06     757.827E+03              0.    -8.87174E+06
            1443     137.256E+06     353.784E+03              0.    -9.07798E+06
            1444     138.956E+06    -49.3445E+03              0.    -9.28923E+06
            1445     140.699E+06    -451.144E+03              0.    -9.50566E+06
            1446     142.487E+06    -851.159E+03              0.    -9.72743E+06
            1447     144.319E+06    -1.24892E+06              0.    -9.95471E+06
            1448     146.198E+06    -1.64391E+06              0.    -10.1877E+06
            1449     148.124E+06    -2.03560E+06              0.    -10.4265E+06
            1450     150.100E+06    -2.42342E+06              0.    -10.6715E+06
            1451     152.126E+06    -2.80676E+06              0.    -10.9227E+06
            1452     154.204E+06    -3.18497E+06              0.    -11.1805E+06
            1453     156.335E+06    -3.55737E+06              0.    -11.4449E+06
            1454     158.522E+06    -3.92326E+06              0.    -11.7164E+06
            1455     160.766E+06    -4.28183E+06              0.    -11.9952E+06
            1456     163.068E+06    -4.63229E+06              0.    -12.2814E+06
            1457     165.431E+06    -4.97377E+06              0.    -12.5755E+06
            1458     167.855E+06    -5.30535E+06              0.    -12.8778E+06
            1459     170.345E+06    -5.62607E+06              0.    -13.1885E+06
            1460     172.900E+06    -5.93487E+06              0.    -13.5080E+06
            1461     175.524E+06    -6.23066E+06              0.    -13.8367E+06
            1462     178.218E+06    -6.51229E+06              0.    -14.1750E+06
            1463     180.986E+06    -6.77849E+06              0.    -14.5233E+06
            1464     183.829E+06    -7.02798E+06              0.    -14.8821E+06
            1465     186.750E+06    -7.25934E+06              0.    -15.2518E+06
            1466     189.752E+06    -7.47108E+06              0.    -15.6329E+06
            1467     192.837E+06    -7.66162E+06              0.    -16.0262E+06
            1468     196.010E+06    -7.82927E+06              0.    -16.4320E+06
            1469     199.272E+06    -7.97225E+06              0.    -16.8511E+06
            1470     202.627E+06    -8.08863E+06              0.    -17.2841E+06
            1471     206.079E+06    -8.17638E+06              0.    -17.7319E+06
            1472     209.631E+06    -8.23332E+06              0.    -18.1952E+06
            1473     213.288E+06    -8.25711E+06              0.    -18.6749E+06
            1474     217.053E+06    -8.24528E+06              0.    -19.1719E+06
            1475     220.931E+06    -8.19516E+06              0.    -19.6873E+06
            1476     224.926E+06    -8.10390E+06              0.    -20.2222E+06
            1477     229.044E+06    -7.96844E+06              0.    -20.7777E+06
            1478     233.289E+06    -7.78548E+06              0.    -21.3553E+06
            1479     237.668E+06    -7.55152E+06              0.    -21.9565E+06
            1480     242.186E+06    -7.26274E+06              0.    -22.5826E+06
            1481     246.849E+06    -6.91505E+06              0.    -23.2357E+06
            1482     251.665E+06    -6.50402E+06              0.    -23.9174E+06
            1483     256.641E+06    -6.02485E+06              0.    -24.6301E+06
            1484     261.783E+06    -5.47239E+06              0.    -25.3759E+06
            1485     267.102E+06    -4.84097E+06              0.    -26.1576E+06
            1486     272.605E+06    -4.12449E+06              0.    -26.9779E+06
            1487     278.303E+06    -3.31626E+06              0.    -27.8401E+06
            1488     284.206E+06    -2.40898E+06              0.    -28.7477E+06
            1489     290.324E+06    -1.39465E+06              0.    -29.7048E+06
            1490     296.671E+06    -264.478E+03              0.    -30.7157E+06
            1491     303.258E+06     991.225E+03              0.    -31.7855E+06
            1492     310.101E+06     2.38316E+06              0.    -32.9198E+06
            1493     317.213E+06     3.92324E+06              0.    -34.1250E+06
            1494     324.613E+06     5.62466E+06              0.    -35.4084E+06
            1495     332.317E+06     7.50225E+06              0.    -36.7781E+06
            1496     340.346E+06     9.57259E+06              0.    -38.2435E+06
            1497     348.718E+06     11.8544E+06              0.    -39.8153E+06
            1498     357.458E+06     14.3690E+06              0.    -41.5057E+06
            1499     366.588E+06     17.1404E+06              0.    -43.3289E+06
            1500     376.133E+06     20.1964E+06              0.    -45.3009E+06
            1501     386.121E+06     23.5689E+06              0.    -47.4405E+06
            1502     396.579E+06     27.2949E+06              0.    -49.7691E+06
            1503     407.533E+06     31.4175E+06              0.    -52.3116E+06
            1504     419.011E+06     35.9875E+06              0.    -55.0964E+06
            1505     431.034E+06     41.0649E+06              0.    -58.1559E+06
            1506     443.620E+06     46.7209E+06              0.    -61.5269E+06
            1507     456.774E+06     53.0410E+06              0.    -65.2497E+06
            1508     470.480E+06     60.1279E+06              0.    -69.3670E+06
            1509     484.692E+06     68.1053E+06              0.    -73.9210E+06
            1510     499.313E+06     77.1216E+06              0.    -78.9458E+06
            1511     514.167E+06     87.3527E+06              0.    -84.4547E+06
            1512     528.964E+06     99.0008E+06              0.    -90.4139E+06
            1513     543.252E+06     112.281E+06              0.    -96.6984E+06
            1514     556.394E+06     127.383E+06              0.    -103.021E+06
            1515     567.581E+06     144.358E+06              0.    -108.841E+06
            1516     575.946E+06     162.877E+06              0.    -113.315E+06
            1517     580.754E+06     181.893E+06              0.    -115.395E+06
            1518     581.609E+06     199.472E+06              0.    -114.158E+06
            1519     587.313E+06     210.989E+06              0.    -120.567E+06
            1520     70.9848E+06     31.0871E+06              0.    -561.036E+03
            1521     70.9642E+06     30.8551E+06              0.    -560.067E+03
            1522     71.0431E+06     30.6713E+06              0.    -552.602E+03
            1523     71.1210E+06     30.4925E+06              0.    -546.255E+03
            1524     71.1982E+06     30.3185E+06              0.    -540.996E+03
            1525     71.2747E+06     30.1491E+06              0.    -536.796E+03
            1526     71.3508E+06     29.9840E+06              0.    -533.628E+03
            1527     71.4266E+06     29.8230E+06              0.    -531.466E+03
            1528     71.5022E+06     29.6660E+06              0.    -530.286E+03
            1529     71.5778E+06     29.5126E+06              0.    -530.065E+03
            1530     71.6535E+06     29.3627E+06              0.    -530.780E+03
            1531     71.7295E+06     29.2161E+06              0.    -532.412E+03
            1532     71.8058E+06     29.0726E+06              0.    -534.941E+03
            1533     71.8826E+06      28.932E+06              0.    -538.349E+03
            1534     71.9600E+06     28.7942E+06              0.    -542.618E+03
            1535     72.0382E+06     28.6589E+06              0.    -547.732E+03
            1536     72.1172E+06     28.5260E+06              0.    -553.678E+03
            1537     72.1973E+06     28.3953E+06              0.    -560.440E+03
            1538     72.2784E+06     28.2667E+06              0.    -568.006E+03
            1539     72.3608E+06     28.1401E+06              0.    -576.364E+03
            1540     72.4445E+06     28.0152E+06              0.    -585.503E+03
            1541     72.5296E+06     27.8919E+06              0.    -595.413E+03
            1542     72.6163E+06     27.7700E+06              0.    -606.085E+03
            1543     72.7047E+06     27.6496E+06              0.    -617.511E+03
            1544     72.7948E+06     27.5303E+06              0.    -629.683E+03
            1545     72.8869E+06     27.4121E+06              0.    -642.595E+03
            1546     72.9809E+06     27.2948E+06              0.    -656.241E+03
            1547     73.0770E+06     27.1783E+06              0.    -670.617E+03
            1548     73.1754E+06     27.0626E+06              0.    -685.718E+03
            1549     73.2760E+06     26.9474E+06              0.    -701.541E+03
            1550     73.3791E+06     26.8327E+06              0.    -718.084E+03
            1551     73.4847E+06     26.7183E+06              0.    -735.344E+03
            1552     73.5929E+06     26.6041E+06              0.    -753.320E+03
            1553     73.7039E+06     26.4901E+06              0.    -772.013E+03
            1554     73.8177E+06     26.3760E+06              0.    -791.422E+03
            1555     73.9344E+06     26.2619E+06              0.    -811.549E+03
            1556     74.0542E+06     26.1476E+06              0.    -832.395E+03
            1557     74.1772E+06     26.0330E+06              0.    -853.962E+03
            1558     74.3034E+06     25.9180E+06              0.    -876.254E+03
            1559     74.4330E+06     25.8026E+06              0.    -899.273E+03
            1560     74.5661E+06     25.6865E+06              0.    -923.025E+03
            1561     74.7027E+06     25.5698E+06              0.    -947.515E+03
            1562     74.8431E+06     25.4523E+06              0.    -972.746E+03
            1563     74.9873E+06     25.3340E+06              0.    -998.727E+03
            1564     75.1354E+06     25.2147E+06              0.    -1.02546E+06
            1565     75.2875E+06     25.0944E+06              0.    -1.05296E+06
            1566     75.4438E+06     24.9730E+06              0.    -1.08123E+06
            1567     75.6043E+06     24.8504E+06              0.    -1.11028E+06
            1568     75.7693E+06     24.7266E+06              0.    -1.14012E+06
            1569     75.9387E+06     24.6013E+06              0.    -1.17075E+06
            1570     76.1128E+06     24.4747E+06              0.    -1.20219E+06
            1571     76.2916E+06     24.3465E+06              0.    -1.23445E+06
            1572     76.4753E+06     24.2167E+06              0.    -1.26754E+06
            1573     76.6640E+06     24.0853E+06              0.    -1.30148E+06
            1574     76.8578E+06     23.9521E+06              0.    -1.33626E+06
            1575     77.0568E+06     23.8171E+06              0.    -1.37192E+06
            1576     77.2613E+06     23.6802E+06              0.    -1.40845E+06
            1577     77.4712E+06     23.5413E+06              0.    -1.44588E+06
            1578     77.6869E+06     23.4004E+06              0.    -1.48422E+06
            1579     77.9083E+06     23.2574E+06              0.    -1.52348E+06
            1580     78.1356E+06     23.1122E+06              0.    -1.56369E+06
            1581     78.3691E+06     22.9648E+06              0.    -1.60485E+06
            1582     78.6088E+06     22.8150E+06              0.    -1.64699E+06
            1583     78.8549E+06     22.6629E+06              0.    -1.69012E+06
            1584     79.1075E+06     22.5083E+06              0.    -1.73425E+06
            1585     79.3668E+06     22.3512E+06              0.    -1.77942E+06
            1586     79.6330E+06     22.1915E+06              0.    -1.82563E+06
            1587     79.9061E+06     22.0291E+06              0.    -1.87291E+06
            1588     80.1865E+06     21.8641E+06              0.    -1.92128E+06
            1589     80.4742E+06     21.6962E+06              0.    -1.97075E+06
            1590     80.7695E+06     21.5256E+06              0.    -2.02136E+06
            1591     81.0724E+06     21.3520E+06              0.    -2.07312E+06
            1592     81.3832E+06     21.1754E+06              0.    -2.12605E+06
            1593     81.7021E+06     20.9959E+06              0.    -2.18018E+06
            1594     82.0293E+06     20.8132E+06              0.    -2.23554E+06
            1595     82.3649E+06     20.6275E+06              0.    -2.29214E+06
            1596     82.7092E+06     20.4385E+06              0.    -2.35001E+06
            1597     83.0623E+06     20.2462E+06              0.    -2.40919E+06
            1598     83.4244E+06     20.0507E+06              0.    -2.46969E+06
            1599     83.7958E+06     19.8518E+06              0.    -2.53154E+06
            1600     84.1768E+06     19.6494E+06              0.    -2.59477E+06
            1601     84.5674E+06     19.4436E+06              0.    -2.65941E+06
            1602     84.9679E+06     19.2343E+06              0.    -2.72549E+06
            1603     85.3786E+06     19.0214E+06              0.    -2.79303E+06
            1604     85.7997E+06     18.8048E+06              0.    -2.86208E+06
            1605     86.2315E+06     18.5846E+06              0.    -2.93266E+06
            1606     86.6741E+06     18.3607E+06              0.    -3.00480E+06
            1607     87.1278E+06     18.1330E+06              0.    -3.07854E+06
            1608     87.5930E+06     17.9015E+06              0.    -3.15391E+06
            1609     88.0698E+06     17.6661E+06              0.    -3.23094E+06
            1610     88.5585E+06     17.4269E+06              0.    -3.30968E+06
            1611     89.0595E+06     17.1837E+06              0.    -3.39015E+06
            1612     89.5729E+06     16.9365E+06              0.    -3.47240E+06
            1613     90.0991E+06     16.6854E+06              0.    -3.55647E+06
            1614     90.6384E+06     16.4301E+06              0.    -3.64238E+06
            1615     91.1911E+06     16.1709E+06              0.    -3.73019E+06
            1616     91.7575E+06     15.9075E+06              0.    -3.81993E+06
            1617     92.3379E+06     15.6400E+06              0.    -3.91165E+06
            1618     92.9327E+06     15.3683E+06              0.    -4.00539E+06
            1619     93.5421E+06     15.0925E+06              0.    -4.10119E+06
            1620     94.1666E+06     14.8125E+06              0.    -4.19910E+06
            1621     94.8065E+06     14.5283E+06              0.    -4.29916E+06
            1622     95.4621E+06     14.2398E+06              0.    -4.40143E+06
            1623     96.1338E+06     13.9472E+06              0.    -4.50595E+06
            1624     96.8220E+06     13.6503E+06              0.    -4.61278E+06
            1625     97.5271E+06     13.3492E+06              0.    -4.72196E+06
            1626     98.2494E+06     13.0438E+06              0.    -4.83354E+06
            1627     98.9895E+06     12.7342E+06              0.    -4.94759E+06
            1628     99.7477E+06     12.4204E+06              0.    -5.06415E+06
            1629     100.524E+06     12.1024E+06              0.    -5.18328E+06
            1630     101.320E+06     11.7803E+06              0.    -5.30505E+06
            1631     102.135E+06     11.4539E+06              0.    -5.42951E+06
            1632     102.970E+06     11.1235E+06              0.    -5.55673E+06
            1633     103.826E+06     10.7889E+06              0.    -5.68676E+06
            1634     104.702E+06     10.4504E+06              0.    -5.81968E+06
            1635     105.600E+06     10.1078E+06              0.    -5.95556E+06
            1636     106.519E+06     9.76126E+06              0.    -6.09445E+06
            1637     107.461E+06     9.41086E+06              0.    -6.23644E+06
            1638     108.426E+06     9.05666E+06              0.    -6.38159E+06
            1639     109.415E+06     8.69872E+06              0.    -6.52998E+06
            1640     110.427E+06     8.33714E+06              0.    -6.68170E+06
            1641     111.465E+06     7.97201E+06              0.    -6.83682E+06
            1642     112.527E+06     7.60343E+06              0.    -6.99543E+06
            1643     113.616E+06     7.23151E+06              0.    -7.15760E+06
            1644     114.731E+06     6.85638E+06              0.    -7.32344E+06
            1645     115.874E+06     6.47817E+06              0.    -7.49303E+06
            1646     117.044E+06     6.09702E+06              0.    -7.66647E+06
            1647     118.243E+06     5.71309E+06              0.    -7.84386E+06
            1648     119.471E+06     5.32655E+06              0.    -8.02529E+06
            1649     120.730E+06     4.93758E+06              0.    -8.21088E+06
            1650     122.019E+06     4.54637E+06              0.    -8.40074E+06
            1651     123.340E+06     4.15313E+06              0.    -8.59497E+06
            1652     124.693E+06     3.75809E+06              0.    -8.79370E+06
            1653     126.080E+06     3.36148E+06              0.    -8.99705E+06
            1654     127.500E+06     2.96357E+06              0.    -9.20515E+06
            1655     128.956E+06     2.56462E+06              0.    -9.41813E+06
            1656     130.448E+06     2.16494E+06              0.    -9.63613E+06
            1657     131.977E+06     1.76482E+06              0.    -9.85929E+06
            1658     133.544E+06     1.36461E+06              0.    -10.0878E+06
            1659     135.149E+06     964.656E+03              0.    -10.3217E+06
            1660     136.795E+06     565.338E+03              0.    -10.5613E+06
            1661     138.482E+06     167.062E+03              0.    -10.8067E+06
            1662     140.210E+06    -229.753E+03              0.    -11.0581E+06
            1663     141.983E+06    -624.645E+03              0.    -11.3156E+06
            1664     143.799E+06    -1.01713E+06              0.    -11.5796E+06
            1665     145.662E+06    -1.40671E+06              0.    -11.8501E+06
            1666     147.571E+06    -1.79283E+06              0.    -12.1274E+06
            1667     149.530E+06    -2.17491E+06              0.    -12.4117E+06
            1668     151.537E+06    -2.55234E+06              0.    -12.7033E+06
            1669     153.597E+06    -2.92446E+06              0.    -13.0024E+06
            1670     155.708E+06    -3.29059E+06              0.    -13.3093E+06
            1671     157.875E+06    -3.65000E+06              0.    -13.6243E+06
            1672     160.097E+06    -4.00190E+06              0.    -13.9476E+06
            1673     162.376E+06    -4.34547E+06              0.    -14.2796E+06
            1674     164.716E+06    -4.67984E+06              0.    -14.6206E+06
            1675     167.116E+06    -5.00406E+06              0.    -14.9710E+06
            1676     169.579E+06    -5.31717E+06              0.    -15.3311E+06
            1677     172.108E+06    -5.61809E+06              0.    -15.7014E+06
            1678     174.703E+06    -5.90573E+06              0.    -16.0823E+06
            1679     177.368E+06    -6.17891E+06              0.    -16.4741E+06
            1680     180.105E+06    -6.43636E+06              0.    -16.8775E+06
            1681     182.915E+06    -6.67675E+06              0.    -17.2928E+06
            1682     185.802E+06    -6.89867E+06              0.    -17.7207E+06
            1683     188.768E+06    -7.10059E+06              0.    -18.1618E+06
            1684     191.816E+06    -7.28093E+06              0.    -18.6166E+06
            1685     194.948E+06    -7.43795E+06              0.    -19.0859E+06
            1686     198.168E+06    -7.56986E+06              0.    -19.5703E+06
            1687     201.479E+06    -7.67468E+06              0.    -20.0708E+06
            1688     204.883E+06    -7.75037E+06              0.    -20.5879E+06
            1689     208.386E+06    -7.79469E+06              0.    -21.1228E+06
            1690     211.989E+06    -7.80530E+06              0.    -21.6764E+06
            1691     215.698E+06    -7.77965E+06              0.    -22.2497E+06
            1692     219.516E+06    -7.71503E+06              0.    -22.8439E+06
            1693     223.448E+06    -7.60856E+06              0.    -23.4602E+06
            1694     227.497E+06    -7.45710E+06              0.    -24.1000E+06
            1695     231.670E+06    -7.25731E+06              0.    -24.7648E+06
            1696     235.971E+06    -7.00561E+06              0.    -25.4561E+06
            1697     240.406E+06    -6.69811E+06              0.    -26.1758E+06
            1698     244.980E+06    -6.33063E+06              0.    -26.9257E+06
            1699     249.700E+06    -5.89865E+06              0.    -27.7079E+06
            1700     254.572E+06    -5.39730E+06              0.    -28.5248E+06
            1701     259.604E+06    -4.82128E+06              0.    -29.3790E+06
            1702     264.802E+06    -4.16482E+06              0.    -30.2732E+06
            1703     270.175E+06    -3.42167E+06              0.    -31.2106E+06
            1704     275.731E+06    -2.58500E+06              0.    -32.1945E+06
            1705     281.479E+06    -1.64734E+06              0.    -33.2289E+06
            1706     287.429E+06    -600.498E+03              0.    -34.3180E+06
            1707     293.591E+06     564.520E+03              0.    -35.4664E+06
            1708     299.976E+06     1.85763E+06              0.    -36.6795E+06
            1709     306.597E+06     3.28980E+06              0.    -37.9633E+06
            1710     313.464E+06     4.87320E+06              0.    -39.3243E+06
            1711     320.592E+06     6.62135E+06              0.    -40.7699E+06
            1712     327.994E+06     8.54941E+06              0.    -42.3087E+06
            1713     335.686E+06     10.6743E+06              0.    -43.9499E+06
            1714     343.681E+06     13.0152E+06              0.    -45.7044E+06
            1715     351.998E+06     15.5936E+06              0.    -47.5840E+06
            1716     360.650E+06     18.4342E+06              0.    -49.6024E+06
            1717     369.655E+06     21.5649E+06              0.    -51.7750E+06
            1718     379.027E+06     25.0180E+06              0.    -54.1190E+06
            1719     388.780E+06     28.8305E+06              0.    -56.6536E+06
            1720     398.926E+06     33.0453E+06              0.    -59.4005E+06
            1721     409.470E+06     37.7125E+06              0.    -62.3831E+06
            1722     420.411E+06     42.8903E+06              0.    -65.6269E+06
            1723     431.736E+06     48.6472E+06              0.    -69.1582E+06
            1724     443.415E+06     55.0631E+06              0.    -73.0026E+06
            1725     455.392E+06     62.2317E+06              0.    -77.1819E+06
            1726     467.575E+06     70.2617E+06              0.    -81.7086E+06
            1727     479.819E+06     79.2764E+06              0.    -86.5764E+06
            1728     491.908E+06     89.4116E+06              0.    -91.7448E+06
            1729     503.536E+06     100.805E+06              0.    -97.1136E+06
            1730     514.289E+06     113.571E+06              0.    -102.488E+06
            1731     523.656E+06     127.748E+06              0.    -107.535E+06
            1732     531.068E+06     143.197E+06              0.    -111.750E+06
            1733     535.992E+06     159.451E+06              0.    -114.471E+06
            1734     538.042E+06     175.566E+06              0.    -114.994E+06
            1735     537.072E+06     190.137E+06              0.    -112.785E+06
            1736     541.101E+06     199.638E+06              0.    -117.577E+06
            1737     70.9610E+06     31.0771E+06              0.    -639.810E+03
            1738     70.9406E+06     30.8466E+06              0.    -638.705E+03
            1739     71.0189E+06     30.6640E+06              0.    -630.192E+03
            1740     71.0964E+06     30.4864E+06              0.    -622.953E+03
            1741     71.1730E+06     30.3135E+06              0.    -616.955E+03
            1742     71.2491E+06     30.1452E+06              0.    -612.165E+03
            1743     71.3247E+06     29.9811E+06              0.    -608.552E+03
            1744     71.4000E+06     29.8212E+06              0.    -606.086E+03
            1745     71.4752E+06     29.6651E+06              0.    -604.740E+03
            1746     71.5503E+06     29.5127E+06              0.    -604.488E+03
            1747     71.6255E+06     29.3638E+06              0.    -605.303E+03
            1748     71.7009E+06     29.2182E+06              0.    -607.164E+03
            1749     71.7767E+06     29.0756E+06              0.    -610.048E+03
            1750     71.8530E+06     28.9359E+06              0.    -613.933E+03
            1751     71.9300E+06     28.7989E+06              0.    -618.801E+03
            1752     72.0076E+06     28.6645E+06              0.    -624.633E+03
            1753     72.0862E+06     28.5325E+06              0.    -631.413E+03
            1754     72.1657E+06     28.4027E+06              0.    -639.124E+03
            1755     72.2463E+06     28.2749E+06              0.    -647.752E+03
            1756     72.3281E+06     28.1491E+06              0.    -657.282E+03
            1757     72.4113E+06     28.0250E+06              0.    -667.704E+03
            1758     72.4959E+06     27.9025E+06              0.    -679.005E+03
            1759     72.5820E+06     27.7815E+06              0.    -691.174E+03
            1760     72.6698E+06     27.6618E+06              0.    -704.204E+03
            1761     72.7594E+06     27.5432E+06              0.    -718.084E+03
            1762     72.8508E+06     27.4258E+06              0.    -732.808E+03
            1763     72.9442E+06     27.3093E+06              0.    -748.370E+03
            1764     73.0398E+06     27.1936E+06              0.    -764.763E+03
            1765     73.1374E+06     27.0786E+06              0.    -781.983E+03
            1766     73.2374E+06     26.9641E+06              0.    -800.026E+03
            1767     73.3398E+06     26.8501E+06              0.    -818.890E+03
            1768     73.4448E+06     26.7365E+06              0.    -838.573E+03
            1769     73.5523E+06     26.6231E+06              0.    -859.072E+03
            1770     73.6625E+06     26.5098E+06              0.    -880.388E+03
            1771     73.7756E+06     26.3965E+06              0.    -902.520E+03
            1772     73.8915E+06     26.2831E+06              0.    -925.471E+03
            1773     74.0106E+06     26.1696E+06              0.    -949.242E+03
            1774     74.1327E+06     26.0557E+06              0.    -973.836E+03
            1775     74.2581E+06     25.9415E+06              0.    -999.255E+03
            1776     74.3869E+06     25.8268E+06              0.    -1.02550E+06
            1777     74.5191E+06     25.7115E+06              0.    -1.05259E+06
            1778     74.6548E+06     25.5955E+06              0.    -1.08051E+06
            1779     74.7943E+06     25.4788E+06              0.    -1.10929E+06
            1780     74.9375E+06     25.3613E+06              0.    -1.13891E+06
            1781     75.0846E+06     25.2428E+06              0.    -1.16940E+06
            1782     75.2358E+06     25.1233E+06              0.    -1.20076E+06
            1783     75.3910E+06     25.0027E+06              0.    -1.23299E+06
            1784     75.5505E+06     24.8809E+06              0.    -1.26611E+06
            1785     75.7144E+06     24.7579E+06              0.    -1.30014E+06
            1786     75.8827E+06     24.6335E+06              0.    -1.33507E+06
            1787     76.0556E+06     24.5076E+06              0.    -1.37092E+06
            1788     76.2333E+06     24.3803E+06              0.    -1.40771E+06
            1789     76.4157E+06     24.2514E+06              0.    -1.44544E+06
            1790     76.6032E+06     24.1208E+06              0.    -1.48413E+06
            1791     76.7957E+06     23.9885E+06              0.    -1.52379E+06
            1792     76.9934E+06     23.8544E+06              0.    -1.56445E+06
            1793     77.1965E+06     23.7185E+06              0.    -1.60611E+06
            1794     77.4051E+06     23.5805E+06              0.    -1.64879E+06
            1795     77.6193E+06     23.4406E+06              0.    -1.69250E+06
            1796     77.8393E+06     23.2985E+06              0.    -1.73727E+06
            1797     78.0651E+06     23.1543E+06              0.    -1.78311E+06
            1798     78.2970E+06     23.0079E+06              0.    -1.83005E+06
            1799     78.5351E+06     22.8591E+06              0.    -1.87809E+06
            1800     78.7796E+06     22.7080E+06              0.    -1.92727E+06
            1801     79.0305E+06     22.5545E+06              0.    -1.97759E+06
            1802     79.2881E+06     22.3984E+06              0.    -2.02909E+06
            1803     79.5524E+06     22.2398E+06              0.    -2.08178E+06
            1804     79.8238E+06     22.0786E+06              0.    -2.13568E+06
            1805     80.1023E+06     21.9147E+06              0.    -2.19083E+06
            1806     80.3881E+06     21.7480E+06              0.    -2.24724E+06
            1807     80.6813E+06     21.5785E+06              0.    -2.30494E+06
            1808     80.9822E+06     21.4061E+06              0.    -2.36395E+06
            1809     81.2910E+06     21.2308E+06              0.    -2.42430E+06
            1810     81.6077E+06     21.0525E+06              0.    -2.48602E+06
            1811     81.9327E+06     20.8711E+06              0.    -2.54913E+06
            1812     82.2660E+06     20.6866E+06              0.    -2.61366E+06
            1813     82.6080E+06     20.4990E+06              0.    -2.67964E+06
            1814     82.9587E+06     20.3081E+06              0.    -2.74710E+06
            1815     83.3184E+06     20.1139E+06              0.    -2.81607E+06
            1816     83.6873E+06     19.9164E+06              0.    -2.88658E+06
            1817     84.0656E+06     19.7155E+06              0.    -2.95867E+06
            1818     84.4536E+06     19.5111E+06              0.    -3.03236E+06
            1819     84.8514E+06     19.3033E+06              0.    -3.10769E+06
            1820     85.2592E+06     19.0919E+06              0.    -3.18469E+06
            1821     85.6775E+06     18.8769E+06              0.    -3.26340E+06
            1822     86.1062E+06     18.6583E+06              0.    -3.34386E+06
            1823     86.5458E+06      18.436E+06              0.    -3.42610E+06
            1824     86.9964E+06     18.2100E+06              0.    -3.51016E+06
            1825     87.4583E+06     17.9801E+06              0.    -3.59607E+06
            1826     87.9318E+06     17.7465E+06              0.    -3.68388E+06
            1827     88.4172E+06     17.5090E+06              0.    -3.77363E+06
            1828     88.9146E+06     17.2676E+06              0.    -3.86536E+06
            1829     89.4245E+06     17.0223E+06              0.    -3.95911E+06
            1830     89.9470E+06     16.7730E+06              0.    -4.05493E+06
            1831     90.4825E+06     16.5197E+06              0.    -4.15285E+06
            1832     91.0313E+06     16.2624E+06              0.    -4.25293E+06
            1833     91.5937E+06     16.0010E+06              0.    -4.35522E+06
            1834     92.1700E+06     15.7355E+06              0.    -4.45975E+06
            1835     92.7606E+06     15.4659E+06              0.    -4.56658E+06
            1836     93.3657E+06     15.1922E+06              0.    -4.67577E+06
            1837     93.9856E+06     14.9144E+06              0.    -4.78735E+06
            1838     94.6209E+06     14.6324E+06              0.    -4.90139E+06
            1839     95.2718E+06     14.3462E+06              0.    -5.01793E+06
            1840     95.9386E+06     14.0559E+06              0.    -5.13704E+06
            1841     96.6219E+06     13.7613E+06              0.    -5.25878E+06
            1842     97.3218E+06     13.4626E+06              0.    -5.38319E+06
            1843     98.0389E+06     13.1597E+06              0.    -5.51033E+06
            1844     98.7735E+06     12.8527E+06              0.    -5.64028E+06
            1845     99.5261E+06     12.5414E+06              0.    -5.77310E+06
            1846     100.297E+06     12.2261E+06              0.    -5.90884E+06
            1847     101.087E+06     11.9066E+06              0.    -6.04758E+06
            1848     101.896E+06     11.5830E+06              0.    -6.18938E+06
            1849     102.725E+06     11.2554E+06              0.    -6.33431E+06
            1850     103.574E+06     10.9237E+06              0.    -6.48245E+06
            1851     104.443E+06     10.5880E+06              0.    -6.63387E+06
            1852     105.334E+06     10.2484E+06              0.    -6.78865E+06
            1853     106.247E+06     9.90499E+06              0.    -6.94687E+06
            1854     107.181E+06     9.55772E+06              0.    -7.10860E+06
            1855     108.139E+06     9.20672E+06              0.    -7.27393E+06
            1856     109.120E+06     8.85205E+06              0.    -7.44294E+06
            1857     110.124E+06     8.49381E+06              0.    -7.61574E+06
            1858     111.154E+06     8.13210E+06              0.    -7.79239E+06
            1859     112.208E+06     7.76702E+06              0.    -7.97301E+06
            1860     113.288E+06     7.39868E+06              0.    -8.15769E+06
            1861     114.394E+06     7.02721E+06              0.    -8.34652E+06
            1862     115.527E+06     6.65274E+06              0.    -8.53962E+06
            1863     116.688E+06     6.27543E+06              0.    -8.73709E+06
            1864     117.877E+06     5.89542E+06              0.    -8.93904E+06
            1865     119.095E+06     5.51290E+06              0.    -9.14559E+06
            1866     120.343E+06     5.12804E+06              0.    -9.35685E+06
            1867     121.621E+06     4.74104E+06              0.    -9.57296E+06
            1868     122.931E+06     4.35211E+06              0.    -9.79403E+06
            1869     124.272E+06     3.96149E+06              0.    -10.0202E+06
            1870     125.647E+06     3.56941E+06              0.    -10.2516E+06
            1871     127.055E+06     3.17614E+06              0.    -10.4884E+06
            1872     128.498E+06     2.78195E+06              0.    -10.7307E+06
            1873     129.977E+06     2.38714E+06              0.    -10.9788E+06
            1874     131.492E+06     1.99202E+06              0.    -11.2326E+06
            1875     133.044E+06     1.59694E+06              0.    -11.4925E+06
            1876     134.635E+06     1.20225E+06              0.    -11.7586E+06
            1877     136.265E+06     808.340E+03              0.    -12.0311E+06
            1878     137.936E+06     415.612E+03              0.    -12.3101E+06
            1879     139.648E+06     24.4969E+03              0.    -12.5960E+06
            1880     141.403E+06    -364.540E+03              0.    -12.8888E+06
            1881     143.202E+06    -751.013E+03              0.    -13.1888E+06
            1882     145.046E+06    -1.13440E+06              0.    -13.4962E+06
            1883     146.937E+06    -1.51415E+06              0.    -13.8114E+06
            1884     148.875E+06    -1.88969E+06              0.    -14.1344E+06
            1885     150.862E+06    -2.26038E+06              0.    -14.4657E+06
            1886     152.899E+06    -2.62556E+06              0.    -14.8055E+06
            1887     154.988E+06    -2.98454E+06              0.    -15.1540E+06
            1888     157.131E+06    -3.33658E+06              0.    -15.5116E+06
            1889     159.328E+06    -3.68088E+06              0.    -15.8787E+06
            1890     161.582E+06    -4.01660E+06              0.    -16.2556E+06
            1891     163.895E+06    -4.34287E+06              0.    -16.6426E+06
            1892     166.267E+06    -4.65873E+06              0.    -17.0401E+06
            1893     168.701E+06    -4.96319E+06              0.    -17.4487E+06
            1894     171.199E+06    -5.25517E+06              0.    -17.8686E+06
            1895     173.762E+06    -5.53356E+06              0.    -18.3004E+06
            1896     176.394E+06    -5.79716E+06              0.    -18.7445E+06
            1897     179.095E+06    -6.04468E+06              0.    -19.2016E+06
            1898     181.868E+06    -6.27478E+06              0.    -19.6721E+06
            1899     184.716E+06    -6.48601E+06              0.    -20.1567E+06
            1900     187.641E+06    -6.67685E+06              0.    -20.6560E+06
            1901     190.645E+06    -6.84565E+06              0.    -21.1707E+06
            1902     193.732E+06    -6.99068E+06              0.    -21.7016E+06
            1903     196.904E+06    -7.11010E+06              0.    -22.2494E+06
            1904     200.164E+06    -7.20192E+06              0.    -22.8150E+06
            1905     203.515E+06    -7.26404E+06              0.    -23.3993E+06
            1906     206.960E+06    -7.29421E+06              0.    -24.0034E+06
            1907     210.504E+06    -7.29001E+06              0.    -24.6282E+06
            1908     214.148E+06    -7.24889E+06              0.    -25.2749E+06
            1909     217.899E+06    -7.16807E+06              0.    -25.9448E+06
            1910     221.758E+06    -7.04460E+06              0.    -26.6392E+06
            1911     225.731E+06    -6.87532E+06              0.    -27.3596E+06
            1912     229.822E+06    -6.65681E+06              0.    -28.1075E+06
            1913     234.035E+06    -6.38542E+06              0.    -28.8847E+06
            1914     238.376E+06    -6.05718E+06              0.    -29.6931E+06
            1915     242.850E+06    -5.66784E+06              0.    -30.5348E+06
            1916     247.462E+06    -5.21279E+06              0.    -31.4119E+06
            1917     252.218E+06    -4.68705E+06              0.    -32.3269E+06
            1918     257.124E+06    -4.08522E+06              0.    -33.2826E+06
            1919     262.187E+06    -3.40141E+06              0.    -34.2818E+06
            1920     267.414E+06    -2.62925E+06              0.    -35.3279E+06
            1921     272.811E+06    -1.76176E+06              0.    -36.4245E+06
            1922     278.387E+06     -791.31E+03              0.    -37.5754E+06
            1923     284.150E+06     290.439E+03              0.    -38.7851E+06
            1924     290.107E+06     1.49268E+06              0.    -40.0583E+06
            1925     296.268E+06     2.82551E+06              0.    -41.4006E+06
            1926     302.642E+06     4.30011E+06              0.    -42.8178E+06
            1927     309.239E+06     5.92886E+06              0.    -44.3165E+06
            1928     316.069E+06     7.72552E+06              0.    -45.9041E+06
            1929     323.141E+06     9.70546E+06              0.    -47.5887E+06
            1930     330.465E+06     11.8859E+06              0.    -49.3795E+06
            1931     338.053E+06     14.2860E+06              0.    -51.2865E+06
            1932     345.912E+06     16.9276E+06              0.    -53.3209E+06
            1933     354.053E+06     19.8354E+06              0.    -55.4951E+06
            1934     362.481E+06     23.0373E+06              0.    -57.8225E+06
            1935     371.203E+06     26.5650E+06              0.    -60.3180E+06
            1936     380.218E+06     30.4552E+06              0.    -62.9975E+06
            1937     389.525E+06     34.7493E+06              0.    -65.8777E+06
            1938     399.112E+06     39.4955E+06              0.    -68.9759E+06
            1939     408.958E+06     44.7486E+06              0.    -72.3084E+06
            1940     419.028E+06     50.5717E+06              0.    -75.8898E+06
            1941     429.267E+06     57.0368E+06              0.    -79.7297E+06
            1942     439.592E+06     64.2246E+06              0.    -83.8290E+06
            1943     449.887E+06     72.2246E+06              0.    -88.1730E+06
            1944     459.989E+06     81.1310E+06              0.    -92.7216E+06
            1945     469.677E+06     91.0364E+06              0.    -97.3954E+06
            1946     478.670E+06     102.016E+06              0.    -102.055E+06
            1947     486.623E+06     114.099E+06              0.    -106.480E+06
            1948     493.153E+06     127.220E+06              0.    -110.347E+06
            1949     497.877E+06     141.145E+06              0.    -113.228E+06
            1950     500.474E+06     155.391E+06              0.    -114.630E+06
            1951     500.760E+06     169.177E+06              0.    -114.080E+06
            1952     498.743E+06     181.474E+06              0.    -111.268E+06
            1953     501.675E+06     189.472E+06              0.    -114.918E+06
            1954     70.9341E+06     31.0658E+06              0.    -718.037E+03
            1955     70.9139E+06     30.8370E+06              0.    -716.797E+03
            1956     70.9917E+06     30.6557E+06              0.    -707.242E+03
            1957     71.0685E+06     30.4794E+06              0.    -699.118E+03
            1958     71.1446E+06     30.3078E+06              0.    -692.387E+03
            1959     71.2201E+06     30.1407E+06              0.    -687.010E+03
            1960     71.2952E+06     29.9779E+06              0.    -682.955E+03
            1961     71.3699E+06     29.8191E+06              0.    -680.188E+03
            1962     71.4445E+06     29.6642E+06              0.    -678.677E+03
            1963     71.5191E+06     29.5129E+06              0.    -678.393E+03
            1964     71.5937E+06     29.3651E+06              0.    -679.307E+03
            1965     71.6686E+06     29.2205E+06              0.    -681.395E+03
            1966     71.7439E+06     29.0790E+06              0.    -684.631E+03
            1967     71.8196E+06     28.9403E+06              0.    -688.991E+03
            1968     71.8960E+06     28.8044E+06              0.    -694.453E+03
            1969     71.9731E+06     28.6709E+06              0.    -700.998E+03
            1970     72.0511E+06     28.5399E+06              0.    -708.606E+03
            1971     72.1300E+06     28.4110E+06              0.    -717.259E+03
            1972     72.2100E+06     28.2842E+06              0.    -726.940E+03
            1973     72.2912E+06     28.1593E+06              0.    -737.636E+03
            1974     72.3738E+06     28.0361E+06              0.    -749.330E+03
            1975     72.4577E+06     27.9145E+06              0.    -762.012E+03
            1976     72.5432E+06     27.7944E+06              0.    -775.669E+03
            1977     72.6304E+06     27.6755E+06              0.    -790.290E+03
            1978     72.7193E+06     27.5579E+06              0.    -805.866E+03
            1979     72.8101E+06     27.4413E+06              0.    -822.389E+03
            1980     72.9028E+06     27.3257E+06              0.    -839.852E+03
            1981     72.9976E+06     27.2108E+06              0.    -858.248E+03
            1982     73.0946E+06     27.0967E+06              0.    -877.573E+03
            1983     73.1938E+06     26.9831E+06              0.    -897.821E+03
            1984     73.2955E+06     26.8699E+06              0.    -918.990E+03
            1985     73.3996E+06     26.7571E+06              0.    -941.077E+03
            1986     73.5063E+06     26.6445E+06              0.    -964.080E+03
            1987     73.6157E+06     26.5321E+06              0.    -988.000E+03
            1988     73.7280E+06     26.4196E+06              0.    -1.01284E+06
            1989     73.8431E+06     26.3071E+06              0.    -1.03859E+06
            1990     73.9612E+06     26.1944E+06              0.    -1.06527E+06
            1991     74.0825E+06     26.0814E+06              0.    -1.09286E+06
            1992     74.2069E+06     25.9680E+06              0.    -1.12139E+06
            1993     74.3347E+06     25.8542E+06              0.    -1.15085E+06
            1994     74.4659E+06     25.7397E+06              0.    -1.18124E+06
            1995     74.6007E+06     25.6246E+06              0.    -1.21258E+06
            1996     74.7391E+06     25.5088E+06              0.    -1.24486E+06
            1997     74.8812E+06     25.3921E+06              0.    -1.27811E+06
            1998     75.0273E+06     25.2745E+06              0.    -1.31232E+06
            1999     75.1773E+06     25.1559E+06              0.    -1.34750E+06
            2000     75.3314E+06     25.0362E+06              0.    -1.38368E+06
            2001     75.4897E+06     24.9154E+06              0.    -1.42084E+06
            2002     75.6523E+06     24.7933E+06              0.    -1.45902E+06
            2003     75.8194E+06     24.6698E+06              0.    -1.49822E+06
            2004      75.991E+06     24.5449E+06              0.    -1.53845E+06
            2005     76.1673E+06     24.4186E+06              0.    -1.57973E+06
            2006     76.3484E+06     24.2906E+06              0.    -1.62206E+06
            2007     76.5344E+06     24.1610E+06              0.    -1.66548E+06
            2008     76.7255E+06     24.0298E+06              0.    -1.70999E+06
            2009     76.9218E+06     23.8967E+06              0.    -1.75561E+06
            2010     77.1233E+06     23.7617E+06              0.    -1.80235E+06
            2011     77.3303E+06     23.6248E+06              0.    -1.85024E+06
            2012     77.5429E+06     23.4860E+06              0.    -1.89929E+06
            2013     77.7612E+06     23.3450E+06              0.    -1.94953E+06
            2014     77.9854E+06     23.2019E+06              0.    -2.00096E+06
            2015     78.2155E+06     23.0566E+06              0.    -2.05363E+06
            2016     78.4518E+06     22.9090E+06              0.    -2.10753E+06
            2017     78.6944E+06     22.7590E+06              0.    -2.16271E+06
            2018     78.9434E+06     22.6067E+06              0.    -2.21917E+06
            2019     79.1991E+06     22.4519E+06              0.    -2.27695E+06
            2020     79.4614E+06     22.2945E+06              0.    -2.33607E+06
            2021     79.7307E+06     22.1345E+06              0.    -2.39655E+06
            2022     80.0071E+06     21.9719E+06              0.    -2.45843E+06
            2023     80.2907E+06     21.8065E+06              0.    -2.52172E+06
            2024     80.5817E+06     21.6383E+06              0.    -2.58645E+06
            2025     80.8803E+06     21.4673E+06              0.    -2.65266E+06
            2026     81.1867E+06     21.2934E+06              0.    -2.72037E+06
            2027     81.5010E+06     21.1165E+06              0.    -2.78961E+06
            2028     81.8235E+06     20.9365E+06              0.    -2.86042E+06
            2029     82.1543E+06     20.7535E+06              0.    -2.93281E+06
            2030     82.4936E+06     20.5673E+06              0.    -3.00684E+06
            2031     82.8416E+06     20.3780E+06              0.    -3.08252E+06
            2032     83.1985E+06     20.1854E+06              0.    -3.15990E+06
            2033     83.5645E+06     19.9894E+06              0.    -3.23900E+06
            2034     83.9399E+06     19.7902E+06              0.    -3.31987E+06
            2035     84.3249E+06     19.5875E+06              0.    -3.40254E+06
            2036     84.7196E+06     19.3813E+06              0.    -3.48705E+06
            2037     85.1243E+06     19.1716E+06              0.    -3.57343E+06
            2038     85.5392E+06     18.9584E+06              0.    -3.66173E+06
            2039     85.9647E+06     18.7416E+06              0.    -3.75198E+06
            2040     86.4008E+06     18.5211E+06              0.    -3.84423E+06
            2041     86.8479E+06     18.2969E+06              0.    -3.93852E+06
            2042     87.3061E+06     18.0690E+06              0.    -4.03489E+06
            2043     87.7759E+06     17.8373E+06              0.    -4.13339E+06
            2044     88.2574E+06     17.6018E+06              0.    -4.23406E+06
            2045     88.7509E+06     17.3624E+06              0.    -4.33694E+06
            2046     89.2567E+06     17.1192E+06              0.    -4.44210E+06
            2047     89.7751E+06     16.8720E+06              0.    -4.54957E+06
            2048     90.3063E+06     16.6209E+06              0.    -4.65940E+06
            2049     90.8507E+06     16.3658E+06              0.    -4.77165E+06
            2050     91.4086E+06     16.1066E+06              0.    -4.88636E+06
            2051     91.9802E+06     15.8435E+06              0.    -5.00360E+06
            2052     92.5660E+06     15.5762E+06              0.    -5.12341E+06
            2053     93.1662E+06     15.3049E+06              0.    -5.24585E+06
            2054     93.7812E+06     15.0295E+06              0.    -5.37099E+06
            2055     94.4112E+06     14.7501E+06              0.    -5.49887E+06
            2056     95.0568E+06     14.4664E+06              0.    -5.62956E+06
            2057     95.7181E+06     14.1787E+06              0.    -5.76312E+06
            2058     96.3957E+06     13.8868E+06              0.    -5.89962E+06
            2059     97.0899E+06     13.5908E+06              0.    -6.03912E+06
            2060     97.8010E+06     13.2907E+06              0.    -6.18168E+06
            2061     98.5295E+06     12.9865E+06              0.    -6.32738E+06
            2062     99.2758E+06     12.6782E+06              0.    -6.47629E+06
            2063     100.040E+06     12.3658E+06              0.    -6.62848E+06
            2064     100.823E+06     12.0493E+06              0.    -6.78401E+06
            2065     101.626E+06     11.7288E+06              0.    -6.94298E+06
            2066     102.447E+06     11.4043E+06              0.    -7.10545E+06
            2067     103.289E+06     11.0759E+06              0.    -7.27151E+06
            2068     104.151E+06     10.7435E+06              0.    -7.44124E+06
            2069     105.034E+06     10.4073E+06              0.    -7.61473E+06
            2070     105.939E+06     10.0673E+06              0.    -7.79206E+06
            2071     106.865E+06     9.72358E+06              0.    -7.97332E+06
            2072     107.814E+06     9.37618E+06              0.    -8.15861E+06
            2073     108.787E+06     9.02520E+06              0.    -8.34802E+06
            2074     109.782E+06     8.67073E+06              0.    -8.54165E+06
            2075     110.802E+06     8.31287E+06              0.    -8.73960E+06
            2076     111.847E+06     7.95173E+06              0.    -8.94198E+06
            2077     112.917E+06     7.58742E+06              0.    -9.14889E+06
            2078     114.013E+06     7.22007E+06              0.    -9.36045E+06
            2079     115.136E+06     6.84982E+06              0.    -9.57677E+06
            2080     116.285E+06     6.47682E+06              0.    -9.79798E+06
            2081     117.463E+06     6.10123E+06              0.    -10.0242E+06
            2082     118.670E+06     5.72323E+06              0.    -10.2555E+06
            2083     119.906E+06     5.34300E+06              0.    -10.4921E+06
            2084     121.172E+06     4.96073E+06              0.    -10.7341E+06
            2085     122.469E+06     4.57666E+06              0.    -10.9817E+06
            2086     123.798E+06     4.19100E+06              0.    -11.2349E+06
            2087     125.159E+06     3.80402E+06              0.    -11.4940E+06
            2088     126.553E+06     3.41596E+06              0.    -11.7591E+06
            2089     127.982E+06     3.02711E+06              0.    -12.0304E+06
            2090     129.445E+06     2.63778E+06              0.    -12.3080E+06
            2091     130.944E+06     2.24828E+06              0.    -12.5921E+06
            2092     132.481E+06     1.85896E+06              0.    -12.8829E+06
            2093     134.055E+06     1.47018E+06              0.    -13.1807E+06
            2094     135.668E+06     1.08233E+06              0.    -13.4855E+06
            2095     137.321E+06     695.827E+03              0.    -13.7976E+06
            2096     139.014E+06     311.102E+03              0.    -14.1173E+06
            2097     140.750E+06    -71.3714E+03              0.    -14.4448E+06
            2098     142.529E+06    -451.100E+03              0.    -14.7802E+06
            2099     144.352E+06    -827.561E+03              0.    -15.1240E+06
            2100     146.221E+06    -1.20019E+06              0.    -15.4762E+06
            2101     148.136E+06    -1.56839E+06              0.    -15.8373E+06
            2102     150.100E+06    -1.93154E+06              0.    -16.2075E+06
            2103     152.113E+06    -2.28896E+06              0.    -16.5871E+06
            2104     154.177E+06    -2.63995E+06              0.    -16.9765E+06
            2105     156.293E+06    -2.98375E+06              0.    -17.3759E+06
            2106     158.463E+06    -3.31956E+06              0.    -17.7858E+06
            2107     160.688E+06    -3.64654E+06              0.    -18.2065E+06
            2108     162.970E+06    -3.96377E+06              0.    -18.6384E+06
            2109     165.311E+06    -4.27031E+06              0.     -19.082E+06
            2110     167.712E+06    -4.56514E+06              0.    -19.5377E+06
            2111     170.176E+06    -4.84718E+06              0.    -20.0060E+06
            2112     172.703E+06    -5.11528E+06              0.    -20.4874E+06
            2113     175.297E+06    -5.36823E+06              0.    -20.9825E+06
            2114     177.958E+06    -5.60473E+06              0.    -21.4917E+06
            2115     180.690E+06    -5.82341E+06              0.    -22.0158E+06
            2116     183.494E+06    -6.02281E+06              0.    -22.5554E+06
            2117     186.373E+06    -6.20136E+06              0.    -23.1111E+06
            2118     189.329E+06    -6.35741E+06              0.    -23.6838E+06
            2119     192.365E+06    -6.48920E+06              0.    -24.2742E+06
            2120     195.483E+06    -6.59485E+06              0.    -24.8832E+06
            2121     198.687E+06    -6.67234E+06              0.    -25.5116E+06
            2122     201.978E+06    -6.71953E+06              0.    -26.1605E+06
            2123     205.360E+06    -6.73413E+06              0.    -26.8309E+06
            2124     208.836E+06    -6.71371E+06              0.    -27.5240E+06
            2125     212.410E+06    -6.65563E+06              0.    -28.2410E+06
            2126     216.085E+06    -6.55709E+06              0.    -28.9831E+06
            2127     219.864E+06    -6.41509E+06              0.    -29.7519E+06
            2128     223.752E+06    -6.22640E+06              0.    -30.5488E+06
            2129     227.751E+06    -5.98755E+06              0.    -31.3756E+06
            2130     231.868E+06    -5.69481E+06              0.    -32.2340E+06
            2131     236.105E+06    -5.34415E+06              0.    -33.1260E+06
            2132     240.468E+06    -4.93124E+06              0.    -34.0537E+06
            2133     244.961E+06    -4.45138E+06              0.    -35.0195E+06
            2134     249.589E+06    -3.89951E+06              0.    -36.0259E+06
            2135     254.357E+06    -3.27011E+06              0.    -37.0757E+06
            2136     259.272E+06    -2.55722E+06              0.    -38.1719E+06
            2137     264.339E+06    -1.75433E+06              0.    -39.3178E+06
            2138     269.563E+06    -854.353E+03              0.    -40.5170E+06
            2139     274.951E+06     150.471E+03              0.    -41.7735E+06
            2140     280.509E+06     1.26862E+06              0.    -43.0916E+06
            2141     286.244E+06     2.50942E+06              0.    -44.4763E+06
            2142     292.163E+06     3.88311E+06              0.    -45.9326E+06
            2143     298.272E+06     5.40101E+06              0.    -47.4663E+06
            2144     304.578E+06     7.07564E+06              0.    -49.0839E+06
            2145     311.087E+06     8.92086E+06              0.    -50.7922E+06
            2146     317.806E+06     10.9521E+06              0.    -52.5989E+06
            2147     324.741E+06     13.1867E+06              0.    -54.5123E+06
            2148     331.897E+06     15.6437E+06              0.    -56.5414E+06
            2149     339.276E+06     18.3449E+06              0.    -58.6959E+06
            2150     346.882E+06     21.3145E+06              0.    -60.9865E+06
            2151     354.713E+06     24.5799E+06              0.    -63.4241E+06
            2152     362.765E+06     28.1721E+06              0.    -66.0203E+06
            2153     371.029E+06     32.1261E+06              0.    -68.7867E+06
            2154     379.490E+06     36.4812E+06              0.    -71.7345E+06
            2155     388.124E+06     41.2822E+06              0.    -74.8737E+06
            2156     396.894E+06     46.5791E+06              0.    -78.2112E+06
            2157     405.752E+06     52.4280E+06              0.    -81.7497E+06
            2158     414.625E+06     58.8902E+06              0.    -85.4837E+06
            2159     423.418E+06     66.0319E+06              0.    -89.3955E+06
            2160     432.007E+06     73.9211E+06              0.    -93.4486E+06
            2161     440.227E+06     82.6225E+06              0.    -97.5787E+06
            2162     447.878E+06     92.1882E+06              0.    -101.683E+06
            2163     454.718E+06     102.641E+06              0.    -105.607E+06
            2164     460.477E+06     113.948E+06              0.    -109.130E+06
            2165     464.877E+06     125.982E+06              0.    -111.967E+06
            2166     467.667E+06     138.477E+06              0.    -113.773E+06
            2167     468.662E+06     150.988E+06              0.    -114.185E+06
            2168     467.790E+06     162.881E+06              0.    -112.888E+06
            2169     465.100E+06     173.389E+06              0.    -109.702E+06
            2170     467.231E+06     180.206E+06              0.    -112.534E+06
            2171     70.9042E+06     31.0532E+06              0.     -795.65E+03
            2172     70.8841E+06     30.8263E+06              0.    -794.275E+03
            2173     70.9612E+06     30.6465E+06              0.    -783.687E+03
            2174     71.0375E+06     30.4716E+06              0.    -774.685E+03
            2175     71.1129E+06     30.3014E+06              0.    -767.225E+03
            2176     71.1878E+06     30.1357E+06              0.    -761.267E+03
            2177     71.2623E+06     29.9742E+06              0.    -756.773E+03
            2178     71.3364E+06     29.8168E+06              0.    -753.706E+03
            2179     71.4104E+06     29.6631E+06              0.    -752.031E+03
            2180     71.4843E+06     29.5131E+06              0.    -751.716E+03
            2181     71.5584E+06     29.3665E+06              0.    -752.729E+03
            2182     71.6326E+06     29.2231E+06              0.    -755.041E+03
            2183     71.7073E+06     29.0827E+06              0.    -758.626E+03
            2184     71.7824E+06     28.9452E+06              0.    -763.456E+03
            2185     71.8581E+06     28.8104E+06              0.    -769.509E+03
            2186     71.9346E+06     28.6781E+06              0.     -776.76E+03
            2187     72.0119E+06     28.5481E+06              0.    -785.189E+03
            2188     72.0902E+06     28.4203E+06              0.    -794.777E+03
            2189     72.1696E+06     28.2945E+06              0.    -805.504E+03
            2190     72.2501E+06     28.1706E+06              0.    -817.354E+03
            2191     72.3320E+06     28.0485E+06              0.    -830.312E+03
            2192     72.4152E+06     27.9279E+06              0.    -844.363E+03
            2193     72.5000E+06     27.8087E+06              0.    -859.495E+03
            2194     72.5865E+06     27.6909E+06              0.    -875.695E+03
            2195     72.6746E+06     27.5742E+06              0.    -892.954E+03
            2196     72.7646E+06     27.4586E+06              0.    -911.261E+03
            2197     72.8566E+06     27.3439E+06              0.    -930.610E+03
            2198     72.9506E+06     27.2300E+06              0.    -950.993E+03
            2199     73.0468E+06     27.1168E+06              0.    -972.404E+03
            2200     73.1452E+06     27.0042E+06              0.    -994.839E+03
            2201      73.246E+06     26.8919E+06              0.    -1.01829E+06
            2202     73.3493E+06     26.7801E+06              0.    -1.04277E+06
            2203     73.4551E+06     26.6684E+06              0.    -1.06825E+06
            2204     73.5636E+06     26.5569E+06              0.    -1.09476E+06
            2205     73.6749E+06     26.4454E+06              0.    -1.12228E+06
            2206     73.7890E+06     26.3338E+06              0.    -1.15081E+06
            2207     73.9062E+06     26.2220E+06              0.    -1.18037E+06
            2208     74.0264E+06     26.1100E+06              0.    -1.21095E+06
            2209     74.1498E+06     25.9976E+06              0.    -1.24255E+06
            2210     74.2766E+06     25.8847E+06              0.    -1.27519E+06
            2211     74.4067E+06     25.7712E+06              0.    -1.30886E+06
            2212     74.5403E+06     25.6571E+06              0.    -1.34358E+06
            2213     74.6776E+06     25.5422E+06              0.    -1.37935E+06
            2214     74.8185E+06     25.4265E+06              0.    -1.41619E+06
            2215     74.9633E+06     25.3099E+06              0.    -1.45409E+06
            2216     75.1121E+06     25.1923E+06              0.    -1.49307E+06
            2217     75.2649E+06     25.0736E+06              0.    -1.53315E+06
            2218     75.4219E+06     24.9538E+06              0.    -1.57433E+06
            2219     75.5831E+06     24.8327E+06              0.    -1.61663E+06
            2220     75.7488E+06     24.7103E+06              0.    -1.66006E+06
            2221     75.9190E+06     24.5865E+06              0.    -1.70463E+06
            2222     76.0938E+06     24.4612E+06              0.    -1.75036E+06
            2223     76.2734E+06     24.3343E+06              0.    -1.79727E+06
            2224     76.4578E+06     24.2059E+06              0.    -1.84537E+06
            2225     76.6473E+06     24.0757E+06              0.    -1.89468E+06
            2226     76.8419E+06     23.9438E+06              0.    -1.94522E+06
            2227     77.0418E+06     23.8100E+06              0.    -1.99701E+06
            2228     77.2470E+06     23.6743E+06              0.    -2.05006E+06
            2229     77.4578E+06     23.5366E+06              0.    -2.10441E+06
            2230     77.6743E+06     23.3968E+06              0.    -2.16006E+06
            2231     77.8965E+06     23.2549E+06              0.    -2.21705E+06
            2232     78.1247E+06     23.1109E+06              0.    -2.27539E+06
            2233     78.3590E+06     22.9646E+06              0.    -2.33511E+06
            2234     78.5995E+06     22.8159E+06              0.    -2.39623E+06
            2235     78.8464E+06     22.6649E+06              0.    -2.45878E+06
            2236     79.0999E+06     22.5114E+06              0.    -2.52279E+06
            2237       79.36E+06     22.3554E+06              0.    -2.58828E+06
            2238     79.6270E+06     22.1968E+06              0.    -2.65529E+06
            2239      79.901E+06     22.0356E+06              0.    -2.72383E+06
            2240     80.1822E+06     21.8717E+06              0.    -2.79394E+06
            2241     80.4707E+06      21.705E+06              0.    -2.86565E+06
            2242     80.7667E+06     21.5355E+06              0.    -2.93899E+06
            2243     81.0705E+06     21.3631E+06              0.    -3.01400E+06
            2244     81.3821E+06     21.1878E+06              0.    -3.09070E+06
            2245     81.7018E+06     21.0094E+06              0.    -3.16913E+06
            2246     82.0297E+06     20.8280E+06              0.    -3.24932E+06
            2247     82.3661E+06     20.6435E+06              0.    -3.33132E+06
            2248     82.7111E+06     20.4559E+06              0.    -3.41515E+06
            2249     83.0649E+06     20.2650E+06              0.    -3.50086E+06
            2250     83.4278E+06     20.0708E+06              0.    -3.58848E+06
            2251     83.7999E+06     19.8734E+06              0.    -3.67805E+06
            2252     84.1815E+06     19.6725E+06              0.    -3.76961E+06
            2253     84.5727E+06     19.4682E+06              0.    -3.86321E+06
            2254     84.9739E+06     19.2605E+06              0.    -3.95889E+06
            2255     85.3852E+06     19.0492E+06              0.    -4.05668E+06
            2256     85.8069E+06     18.8344E+06              0.    -4.15664E+06
            2257     86.2392E+06     18.6159E+06              0.    -4.25881E+06
            2258     86.6823E+06     18.3938E+06              0.    -4.36323E+06
            2259     87.1366E+06     18.1680E+06              0.    -4.46996E+06
            2260     87.6022E+06     17.9385E+06              0.    -4.57904E+06
            2261     88.0794E+06     17.7052E+06              0.    -4.69053E+06
            2262     88.5685E+06     17.4681E+06              0.    -4.80447E+06
            2263     89.0698E+06     17.2272E+06              0.    -4.92091E+06
            2264     89.5835E+06     16.9823E+06              0.    -5.03992E+06
            2265       90.11E+06     16.7336E+06              0.    -5.16154E+06
            2266     90.6495E+06     16.4810E+06              0.    -5.28584E+06
            2267     91.2024E+06     16.2243E+06              0.    -5.41286E+06
            2268     91.7688E+06     15.9637E+06              0.    -5.54267E+06
            2269     92.3493E+06     15.6991E+06              0.    -5.67533E+06
            2270      92.944E+06     15.4305E+06              0.     -5.8109E+06
            2271     93.5533E+06     15.1578E+06              0.    -5.94944E+06
            2272     94.1776E+06     14.8811E+06              0.    -6.09103E+06
            2273     94.8172E+06     14.6003E+06              0.    -6.23572E+06
            2274     95.4725E+06     14.3155E+06              0.    -6.38358E+06
            2275     96.1438E+06     14.0266E+06              0.    -6.53469E+06
            2276     96.8315E+06     13.7336E+06              0.    -6.68912E+06
            2277      97.536E+06     13.4366E+06              0.    -6.84693E+06
            2278     98.2577E+06     13.1355E+06              0.    -7.00821E+06
            2279     98.9969E+06     12.8304E+06              0.    -7.17303E+06
            2280     99.7542E+06     12.5213E+06              0.    -7.34148E+06
            2281     100.530E+06     12.2082E+06              0.    -7.51362E+06
            2282     101.324E+06     11.8912E+06              0.    -7.68956E+06
            2283     102.138E+06     11.5702E+06              0.    -7.86937E+06
            2284     102.972E+06     11.2454E+06              0.    -8.05314E+06
            2285     103.826E+06     10.9167E+06              0.    -8.24096E+06
            2286     104.700E+06     10.5842E+06              0.    -8.43293E+06
            2287     105.596E+06     10.2480E+06              0.    -8.62915E+06
            2288     106.513E+06     9.90822E+06              0.    -8.82970E+06
            2289     107.453E+06     9.56483E+06              0.    -9.03470E+06
            2290     108.415E+06     9.21794E+06              0.    -9.24425E+06
            2291     109.401E+06     8.86765E+06              0.    -9.45846E+06
            2292     110.411E+06     8.51407E+06              0.    -9.67743E+06
            2293     111.445E+06     8.15730E+06              0.    -9.90128E+06
            2294     112.504E+06     7.79746E+06              0.    -10.1301E+06
            2295     113.589E+06     7.43469E+06              0.    -10.3641E+06
            2296     114.700E+06     7.06912E+06              0.    -10.6034E+06
            2297     115.838E+06     6.70091E+06              0.    -10.8480E+06
            2298     117.003E+06     6.33022E+06              0.    -11.0981E+06
            2299     118.197E+06     5.95723E+06              0.    -11.3539E+06
            2300     119.420E+06     5.58212E+06              0.    -11.6155E+06
            2301     120.672E+06     5.20511E+06              0.    -11.8830E+06
            2302     121.955E+06     4.82641E+06              0.    -12.1566E+06
            2303     123.269E+06     4.44626E+06              0.    -12.4365E+06
            2304     124.615E+06     4.06491E+06              0.    -12.7228E+06
            2305     125.994E+06     3.68262E+06              0.    -13.0158E+06
            2306     127.406E+06     3.29969E+06              0.    -13.3155E+06
            2307     128.853E+06     2.91642E+06              0.    -13.6222E+06
            2308     130.336E+06     2.53314E+06              0.    -13.9361E+06
            2309     131.854E+06     2.15019E+06              0.    -14.2573E+06
            2310     133.410E+06     1.76794E+06              0.    -14.5861E+06
            2311     135.003E+06     1.38680E+06              0.    -14.9227E+06
            2312     136.636E+06     1.00717E+06              0.    -15.2674E+06
            2313     138.309E+06     629.503E+03              0.    -15.6203E+06
            2314     140.024E+06     254.275E+03              0.    -15.9817E+06
            2315     141.780E+06    -118.012E+03              0.    -16.3519E+06
            2316     143.580E+06    -486.828E+03              0.    -16.7312E+06
            2317     145.425E+06    -851.598E+03              0.    -17.1198E+06
            2318     147.316E+06    -1.21173E+06              0.    -17.5181E+06
            2319     149.253E+06    -1.56657E+06              0.    -17.9264E+06
            2320     151.239E+06    -1.91545E+06              0.    -18.3449E+06
            2321     153.275E+06    -2.25764E+06              0.    -18.7741E+06
            2322     155.362E+06    -2.59239E+06              0.    -19.2143E+06
            2323     157.501E+06    -2.91887E+06              0.    -19.6660E+06
            2324     159.695E+06    -3.23623E+06              0.    -20.1294E+06
            2325     161.944E+06    -3.54355E+06              0.    -20.6051E+06
            2326     164.250E+06    -3.83987E+06              0.    -21.0935E+06
            2327     166.615E+06    -4.12415E+06              0.    -21.5951E+06
            2328     169.040E+06    -4.39529E+06              0.    -22.1104E+06
            2329     171.528E+06    -4.65214E+06              0.    -22.6400E+06
            2330     174.080E+06    -4.89345E+06              0.    -23.1844E+06
            2331     176.698E+06    -5.11791E+06              0.    -23.7442E+06
            2332     179.384E+06    -5.32414E+06              0.    -24.3201E+06
            2333     182.140E+06    -5.51064E+06              0.    -24.9128E+06
            2334     184.969E+06    -5.67582E+06              0.    -25.5230E+06
            2335     187.872E+06    -5.81802E+06              0.    -26.1515E+06
            2336     190.852E+06    -5.93542E+06              0.    -26.7991E+06
            2337     193.911E+06    -6.02614E+06              0.    -27.4668E+06
            2338     197.052E+06    -6.08810E+06              0.    -28.1555E+06
            2339     200.278E+06    -6.11916E+06              0.    -28.8662E+06
            2340     203.590E+06    -6.11697E+06              0.    -29.6000E+06
            2341     206.993E+06    -6.07905E+06              0.    -30.3582E+06
            2342     210.489E+06    -6.00274E+06              0.    -31.1419E+06
            2343     214.082E+06    -5.88519E+06              0.    -31.9526E+06
            2344     217.773E+06    -5.72334E+06              0.    -32.7917E+06
            2345     221.568E+06    -5.51392E+06              0.    -33.6608E+06
            2346     225.469E+06    -5.25338E+06              0.    -34.5617E+06
            2347     229.479E+06    -4.93795E+06              0.    -35.4962E+06
            2348     233.604E+06    -4.56354E+06              0.    -36.4662E+06
            2349     237.846E+06    -4.12572E+06              0.    -37.4740E+06
            2350     242.210E+06    -3.61976E+06              0.    -38.5219E+06
            2351     246.699E+06    -3.04048E+06              0.    -39.6125E+06
            2352     251.319E+06    -2.38230E+06              0.    -40.7486E+06
            2353     256.074E+06    -1.63917E+06              0.    -41.9331E+06
            2354     260.968E+06    -804.495E+03              0.    -43.1693E+06
            2355     266.006E+06     128.915E+03              0.    -44.4607E+06
            2356     271.193E+06     1.16890E+06              0.    -45.8114E+06
            2357     276.533E+06     2.32403E+06              0.    -47.2254E+06
            2358     282.031E+06     3.60370E+06              0.    -48.7073E+06
            2359     287.692E+06     5.01825E+06              0.    -50.2621E+06
            2360     293.520E+06     6.57902E+06              0.    -51.8952E+06
            2361     299.518E+06     8.29857E+06              0.    -53.6124E+06
            2362     305.691E+06     10.1908E+06              0.    -55.4200E+06
            2363     312.042E+06     12.2709E+06              0.    -57.3247E+06
            2364     318.571E+06     14.5562E+06              0.    -59.3339E+06
            2365     325.278E+06     17.0654E+06              0.    -61.4550E+06
            2366     332.164E+06     19.8198E+06              0.    -63.6960E+06
            2367     339.222E+06     22.8430E+06              0.    -66.0652E+06
            2368     346.447E+06     26.1613E+06              0.    -68.5707E+06
            2369     353.825E+06     29.8041E+06              0.    -71.2203E+06
            2370     361.340E+06     33.8043E+06              0.    -74.0210E+06
            2371     368.968E+06     38.1981E+06              0.    -76.9779E+06
            2372     376.674E+06     43.0260E+06              0.    -80.0938E+06
            2373     384.413E+06     48.3320E+06              0.    -83.3666E+06
            2374     392.125E+06     54.1638E+06              0.    -86.7880E+06
            2375     399.733E+06     60.5711E+06              0.    -90.3396E+06
            2376     407.136E+06     67.6045E+06              0.    -93.9889E+06
            2377     414.213E+06     75.3110E+06              0.    -97.6839E+06
            2378     420.813E+06     83.7281E+06              0.    -101.346E+06
            2379     426.760E+06     92.8737E+06              0.    -104.861E+06
            2380     431.858E+06     102.731E+06              0.    -108.074E+06
            2381     435.902E+06     113.226E+06              0.    -110.785E+06
            2382     438.696E+06     124.203E+06              0.    -112.750E+06
            2383     440.079E+06     135.398E+06              0.    -113.698E+06
            2384     439.953E+06     146.419E+06              0.    -113.365E+06
            2385     438.300E+06     156.757E+06              0.    -111.540E+06
            2386     435.198E+06     165.833E+06              0.    -108.121E+06
            2387     436.732E+06     171.693E+06              0.    -110.326E+06
            2388     70.8712E+06     31.0393E+06              0.    -872.583E+03
            2389     70.8513E+06     30.8145E+06              0.    -871.075E+03
            2390     70.9277E+06     30.6363E+06              0.    -859.462E+03
            2391     71.0032E+06     30.4631E+06              0.    -849.589E+03
            2392     71.0780E+06     30.2944E+06              0.    -841.407E+03
            2393     71.1522E+06     30.1302E+06              0.    -834.873E+03
            2394     71.2260E+06     29.9702E+06              0.    -829.944E+03
            2395     71.2994E+06     29.8142E+06              0.    -826.579E+03
            2396     71.3727E+06     29.6620E+06              0.    -824.742E+03
            2397     71.4460E+06     29.5133E+06              0.    -824.395E+03
            2398     71.5194E+06     29.3681E+06              0.    -825.505E+03
            2399     71.5930E+06     29.2260E+06              0.    -828.041E+03
            2400     71.6669E+06     29.0869E+06              0.    -831.971E+03
            2401     71.7414E+06     28.9506E+06              0.    -837.268E+03
            2402     71.8164E+06     28.8170E+06              0.    -843.904E+03
            2403     71.8922E+06     28.6859E+06              0.    -851.856E+03
            2404     71.9688E+06     28.5572E+06              0.    -861.099E+03
            2405     72.0463E+06     28.4305E+06              0.    -871.612E+03
            2406     72.1250E+06     28.3059E+06              0.    -883.376E+03
            2407     72.2048E+06     28.1831E+06              0.    -896.370E+03
            2408     72.2859E+06     28.0621E+06              0.    -910.580E+03
            2409     72.3684E+06     27.9426E+06              0.    -925.988E+03
            2410     72.4524E+06     27.8246E+06              0.    -942.581E+03
            2411     72.5380E+06     27.7078E+06              0.    -960.347E+03
            2412     72.6254E+06     27.5922E+06              0.    -979.272E+03
            2413     72.7146E+06     27.4777E+06              0.    -999.349E+03
            2414     72.8057E+06     27.3640E+06              0.    -1.02057E+06
            2415     72.8988E+06     27.2512E+06              0.    -1.04292E+06
            2416     72.9941E+06     27.1390E+06              0.    -1.06640E+06
            2417     73.0916E+06     27.0274E+06              0.    -1.09100E+06
            2418     73.1915E+06     26.9162E+06              0.    -1.11672E+06
            2419     73.2938E+06     26.8054E+06              0.    -1.14356E+06
            2420     73.3986E+06     26.6948E+06              0.    -1.17151E+06
            2421     73.5061E+06     26.5843E+06              0.    -1.20057E+06
            2422     73.6164E+06     26.4738E+06              0.    -1.23075E+06
            2423     73.7295E+06     26.3633E+06              0.    -1.26204E+06
            2424     73.8456E+06     26.2525E+06              0.    -1.29445E+06
            2425     73.9647E+06     26.1415E+06              0.    -1.32798E+06
            2426     74.0870E+06     26.0301E+06              0.    -1.36263E+06
            2427     74.2125E+06     25.9183E+06              0.    -1.39842E+06
            2428     74.3414E+06     25.8059E+06              0.    -1.43535E+06
            2429     74.4738E+06     25.6928E+06              0.    -1.47342E+06
            2430     74.6098E+06     25.5790E+06              0.    -1.51265E+06
            2431     74.7494E+06     25.4644E+06              0.    -1.55304E+06
            2432     74.8929E+06     25.3489E+06              0.    -1.59460E+06
            2433     75.0402E+06     25.2324E+06              0.    -1.63735E+06
            2434     75.1916E+06     25.1148E+06              0.    -1.68129E+06
            2435     75.3471E+06     24.9961E+06              0.    -1.72645E+06
            2436     75.5069E+06     24.8762E+06              0.    -1.77283E+06
            2437     75.6710E+06     24.7549E+06              0.    -1.82045E+06
            2438     75.8396E+06     24.6323E+06              0.    -1.86932E+06
            2439     76.0128E+06     24.5081E+06              0.    -1.91947E+06
            2440     76.1907E+06     24.3825E+06              0.    -1.97090E+06
            2441     76.3734E+06     24.2552E+06              0.    -2.02364E+06
            2442     76.5611E+06     24.1263E+06              0.    -2.07771E+06
            2443     76.7539E+06     23.9956E+06              0.    -2.13313E+06
            2444     76.9519E+06     23.8631E+06              0.    -2.18991E+06
            2445     77.1552E+06     23.7287E+06              0.    -2.24808E+06
            2446      77.364E+06     23.5923E+06              0.    -2.30767E+06
            2447     77.5784E+06     23.4539E+06              0.    -2.36869E+06
            2448     77.7986E+06     23.3134E+06              0.    -2.43117E+06
            2449     78.0246E+06     23.1707E+06              0.    -2.49514E+06
            2450     78.2567E+06     23.0258E+06              0.    -2.56061E+06
            2451     78.4949E+06     22.8786E+06              0.    -2.62763E+06
            2452     78.7395E+06     22.7290E+06              0.    -2.69621E+06
            2453     78.9906E+06     22.5770E+06              0.    -2.76639E+06
            2454     79.2482E+06     22.4225E+06              0.    -2.83820E+06
            2455     79.5127E+06     22.2655E+06              0.    -2.91166E+06
            2456     79.7841E+06     22.1058E+06              0.    -2.98680E+06
            2457     80.0626E+06     21.9435E+06              0.    -3.06367E+06
            2458     80.3484E+06     21.7785E+06              0.    -3.14229E+06
            2459     80.6416E+06     21.6106E+06              0.    -3.22269E+06
            2460     80.9424E+06     21.4399E+06              0.    -3.30492E+06
            2461     81.2511E+06     21.2663E+06              0.    -3.38901E+06
            2462     81.5677E+06     21.0897E+06              0.    -3.47499E+06
            2463     81.8925E+06     20.9101E+06              0.    -3.56290E+06
            2464     82.2256E+06     20.7275E+06              0.    -3.65279E+06
            2465     82.5673E+06     20.5417E+06              0.    -3.74469E+06
            2466     82.9177E+06     20.3527E+06              0.    -3.83864E+06
            2467     83.2771E+06     20.1605E+06              0.    -3.93469E+06
            2468     83.6456E+06     19.9650E+06              0.    -4.03288E+06
            2469     84.0235E+06     19.7662E+06              0.    -4.13325E+06
            2470     84.4110E+06     19.5640E+06              0.    -4.23585E+06
            2471     84.8083E+06     19.3583E+06              0.    -4.34072E+06
            2472     85.2156E+06     19.1492E+06              0.    -4.44791E+06
            2473     85.6331E+06     18.9366E+06              0.    -4.55748E+06
            2474     86.0612E+06     18.7204E+06              0.    -4.66946E+06
            2475     86.5000E+06     18.5006E+06              0.    -4.78392E+06
            2476     86.9498E+06     18.2771E+06              0.    -4.90089E+06
            2477     87.4108E+06     18.0500E+06              0.    -5.02045E+06
            2478     87.8833E+06     17.8191E+06              0.    -5.14263E+06
            2479     88.3676E+06     17.5845E+06              0.    -5.26750E+06
            2480     88.8639E+06     17.3461E+06              0.    -5.39512E+06
            2481     89.3725E+06     17.1039E+06              0.    -5.52554E+06
            2482     89.8938E+06     16.8578E+06              0.    -5.65882E+06
            2483     90.4279E+06     16.6078E+06              0.    -5.79503E+06
            2484     90.9752E+06     16.3540E+06              0.    -5.93422E+06
            2485     91.5360E+06     16.0962E+06              0.    -6.07647E+06
            2486     92.1106E+06     15.8344E+06              0.    -6.22183E+06
            2487     92.6993E+06     15.5687E+06              0.    -6.37038E+06
            2488     93.3024E+06     15.2991E+06              0.    -6.52218E+06
            2489     93.9204E+06     15.0254E+06              0.    -6.67731E+06
            2490     94.5535E+06     14.7477E+06              0.    -6.83583E+06
            2491     95.2020E+06     14.4661E+06              0.    -6.99783E+06
            2492     95.8664E+06     14.1805E+06              0.    -7.16338E+06
            2493     96.5470E+06     13.8908E+06              0.    -7.33255E+06
            2494     97.2442E+06     13.5972E+06              0.    -7.50543E+06
            2495     97.9584E+06     13.2996E+06              0.    -7.68210E+06
            2496     98.6899E+06     12.9981E+06              0.    -7.86264E+06
            2497     99.4392E+06     12.6926E+06              0.    -8.04714E+06
            2498     100.207E+06     12.3832E+06              0.    -8.23569E+06
            2499     100.993E+06     12.0699E+06              0.    -8.42838E+06
            2500     101.798E+06     11.7528E+06              0.    -8.62531E+06
            2501     102.623E+06     11.4319E+06              0.    -8.82656E+06
            2502     103.467E+06     11.1072E+06              0.    -9.03224E+06
            2503     104.332E+06     10.7789E+06              0.    -9.24245E+06
            2504     105.218E+06     10.4469E+06              0.    -9.45730E+06
            2505     106.126E+06     10.1114E+06              0.    -9.67689E+06
            2506     107.055E+06     9.77240E+06              0.    -9.90132E+06
            2507     108.007E+06     9.43001E+06              0.    -10.1307E+06
            2508     108.982E+06     9.08431E+06              0.    -10.3652E+06
            2509     109.980E+06     8.73542E+06              0.    -10.6049E+06
            2510     111.003E+06     8.38345E+06              0.    -10.8499E+06
            2511     112.050E+06     8.02852E+06              0.    -11.1004E+06
            2512     113.122E+06     7.67076E+06              0.    -11.3565E+06
            2513     114.220E+06     7.31032E+06              0.    -11.6183E+06
            2514     115.345E+06     6.94736E+06              0.    -11.8859E+06
            2515     116.497E+06     6.58203E+06              0.    -12.1596E+06
            2516     117.677E+06     6.21453E+06              0.    -12.4394E+06
            2517     118.885E+06     5.84504E+06              0.    -12.7256E+06
            2518     120.123E+06     5.47378E+06              0.    -13.0182E+06
            2519     121.390E+06     5.10097E+06              0.    -13.3175E+06
            2520     122.688E+06     4.72684E+06              0.    -13.6236E+06
            2521     124.018E+06     4.35166E+06              0.    -13.9367E+06
            2522     125.379E+06     3.97569E+06              0.    -14.2570E+06
            2523     126.774E+06     3.59923E+06              0.    -14.5846E+06
            2524     128.203E+06     3.22258E+06              0.    -14.9199E+06
            2525     129.666E+06     2.84609E+06              0.    -15.2629E+06
            2526     131.165E+06     2.47010E+06              0.    -15.6140E+06
            2527     132.700E+06     2.09499E+06              0.    -15.9733E+06
            2528     134.273E+06     1.72116E+06              0.    -16.3410E+06
            2529     135.884E+06     1.34904E+06              0.    -16.7175E+06
            2530     137.535E+06     979.070E+03              0.    -17.1029E+06
            2531     139.226E+06     611.743E+03              0.    -17.4976E+06
            2532     140.958E+06     247.565E+03              0.    -17.9018E+06
            2533     142.733E+06    -112.923E+03              0.    -18.3159E+06
            2534     144.551E+06    -469.140E+03              0.    -18.7400E+06
            2535     146.415E+06    -820.481E+03              0.    -19.1746E+06
            2536     148.324E+06    -1.16629E+06              0.    -19.6200E+06
            2537     150.280E+06    -1.50588E+06              0.    -20.0765E+06
            2538     152.285E+06    -1.83852E+06              0.    -20.5445E+06
            2539     154.340E+06    -2.16344E+06              0.    -21.0245E+06
            2540     156.446E+06    -2.47980E+06              0.    -21.5167E+06
            2541     158.605E+06    -2.78675E+06              0.    -22.0217E+06
            2542     160.818E+06    -3.08333E+06              0.    -22.5399E+06
            2543     163.086E+06    -3.36858E+06              0.    -23.0718E+06
            2544     165.411E+06    -3.64146E+06              0.    -23.6179E+06
            2545     167.795E+06    -3.90083E+06              0.    -24.1787E+06
            2546     170.240E+06    -4.14552E+06              0.    -24.7548E+06
            2547     172.746E+06    -4.37429E+06              0.    -25.3468E+06
            2548     175.317E+06    -4.58579E+06              0.    -25.9554E+06
            2549     177.953E+06    -4.77862E+06              0.    -26.5812E+06
            2550     180.657E+06    -4.95125E+06              0.    -27.2250E+06
            2551     183.431E+06    -5.10209E+06              0.    -27.8875E+06
            2552     186.276E+06    -5.22943E+06              0.    -28.5696E+06
            2553     189.196E+06    -5.33144E+06              0.    -29.2720E+06
            2554     192.191E+06    -5.40619E+06              0.    -29.9958E+06
            2555     195.265E+06    -5.45160E+06              0.    -30.7419E+06
            2556     198.419E+06    -5.46547E+06              0.    -31.5114E+06
            2557     201.657E+06    -5.44543E+06              0.    -32.3055E+06
            2558     204.981E+06    -5.38895E+06              0.    -33.1253E+06
            2559     208.393E+06    -5.29335E+06              0.    -33.9721E+06
            2560     211.896E+06    -5.15571E+06              0.    -34.8473E+06
            2561     215.494E+06    -4.97295E+06              0.    -35.7525E+06
            2562     219.188E+06    -4.74173E+06              0.    -36.6892E+06
            2563     222.982E+06    -4.45848E+06              0.    -37.6592E+06
            2564     226.879E+06    -4.11935E+06              0.    -38.6643E+06
            2565     230.883E+06    -3.72019E+06              0.    -39.7066E+06
            2566     234.996E+06    -3.25655E+06              0.    -40.7881E+06
            2567     239.222E+06    -2.72360E+06              0.    -41.9112E+06
            2568     243.564E+06    -2.11612E+06              0.    -43.0785E+06
            2569     248.026E+06    -1.42847E+06              0.    -44.2926E+06
            2570     252.610E+06    -654.536E+03              0.    -45.5565E+06
            2571     257.321E+06     212.343E+03              0.    -46.8732E+06
            2572     262.162E+06     1.17940E+06              0.    -48.2463E+06
            2573     267.137E+06     2.25452E+06              0.    -49.6792E+06
            2574     272.247E+06     3.44631E+06              0.    -51.1761E+06
            2575     277.496E+06     4.76419E+06              0.    -52.7411E+06
            2576     282.887E+06     6.21847E+06              0.    -54.3787E+06
            2577     288.422E+06     7.82047E+06              0.    -56.0938E+06
            2578     294.102E+06     9.58262E+06              0.    -57.8914E+06
            2579     299.927E+06     11.5186E+06              0.    -59.7771E+06
            2580     305.897E+06     13.6436E+06              0.    -61.7564E+06
            2581     312.010E+06     15.9743E+06              0.    -63.8353E+06
            2582     318.263E+06     18.5290E+06              0.    -66.0197E+06
            2583     324.648E+06     21.3282E+06              0.    -68.3154E+06
            2584     331.157E+06     24.3943E+06              0.    -70.7281E+06
            2585     337.777E+06     27.7522E+06              0.    -73.2626E+06
            2586     344.490E+06     31.4293E+06              0.    -75.9231E+06
            2587     351.272E+06     35.4556E+06              0.    -78.7116E+06
            2588     358.093E+06     39.8638E+06              0.    -81.6277E+06
            2589     364.912E+06     44.6890E+06              0.    -84.6671E+06
            2590     371.679E+06     49.9686E+06              0.    -87.8198E+06
            2591     378.330E+06     55.7413E+06              0.    -91.0682E+06
            2592     384.785E+06     62.0452E+06              0.    -94.3837E+06
            2593     390.948E+06     68.9154E+06              0.    -97.7234E+06
            2594     396.705E+06     76.3801E+06              0.    -101.026E+06
            2595     401.924E+06     84.4533E+06              0.    -104.204E+06
            2596     406.458E+06     93.1265E+06              0.    -107.146E+06
            2597     410.153E+06     102.355E+06              0.    -109.704E+06
            2598     412.856E+06     112.043E+06              0.    -111.702E+06
            2599     414.432E+06     122.025E+06              0.    -112.938E+06
            2600     414.782E+06     132.054E+06              0.    -113.204E+06
            2601     413.858E+06     141.795E+06              0.    -112.307E+06
            2602     411.674E+06     150.839E+06              0.    -110.105E+06
            2603     408.314E+06     158.741E+06              0.    -106.542E+06
            2604     409.390E+06     163.805E+06              0.    -108.261E+06
            2605     70.8351E+06     31.0241E+06              0.    -948.770E+03
            2606     70.8154E+06     30.8016E+06              0.    -947.129E+03
            2607     70.8911E+06     30.6253E+06              0.    -934.502E+03
            2608     70.9659E+06     30.4537E+06              0.    -923.766E+03
            2609     71.0399E+06     30.2868E+06              0.    -914.869E+03
            2610     71.1134E+06     30.1242E+06              0.    -907.764E+03
            2611     71.1864E+06     29.9659E+06              0.    -902.403E+03
            2612     71.2591E+06     29.8114E+06              0.    -898.744E+03
            2613     71.3317E+06     29.6607E+06              0.    -896.745E+03
            2614     71.4042E+06     29.5136E+06              0.    -896.368E+03
            2615     71.4768E+06     29.3698E+06              0.    -897.574E+03
            2616     71.5497E+06     29.2291E+06              0.     -900.33E+03
            2617     71.6229E+06     29.0914E+06              0.    -904.602E+03
            2618     71.6966E+06     28.9566E+06              0.    -910.361E+03
            2619     71.7708E+06     28.8243E+06              0.    -917.575E+03
            2620     71.8458E+06     28.6945E+06              0.    -926.220E+03
            2621     71.9217E+06     28.5670E+06              0.    -936.269E+03
            2622     71.9984E+06     28.4417E+06              0.    -947.699E+03
            2623     72.0763E+06     28.3183E+06              0.    -960.488E+03
            2624     72.1553E+06     28.1968E+06              0.    -974.616E+03
            2625     72.2356E+06     28.0770E+06              0.    -990.064E+03
            2626     72.3172E+06     27.9587E+06              0.    -1.00682E+06
            2627     72.4004E+06     27.8419E+06              0.    -1.02486E+06
            2628     72.4852E+06     27.7263E+06              0.    -1.04417E+06
            2629     72.5716E+06     27.6119E+06              0.    -1.06475E+06
            2630     72.6599E+06     27.4985E+06              0.    -1.08657E+06
            2631     72.7501E+06     27.3860E+06              0.    -1.10964E+06
            2632     72.8423E+06     27.2743E+06              0.    -1.13394E+06
            2633     72.9366E+06     27.1633E+06              0.    -1.15947E+06
            2634     73.0331E+06     27.0528E+06              0.    -1.18622E+06
            2635     73.1320E+06     26.9427E+06              0.    -1.21418E+06
            2636     73.2332E+06     26.8330E+06              0.    -1.24336E+06
            2637     73.3370E+06     26.7236E+06              0.    -1.27374E+06
            2638     73.4434E+06     26.6142E+06              0.    -1.30534E+06
            2639     73.5525E+06     26.5048E+06              0.    -1.33815E+06
            2640     73.6645E+06     26.3954E+06              0.    -1.37217E+06
            2641     73.7794E+06     26.2858E+06              0.    -1.40740E+06
            2642     73.8973E+06     26.1759E+06              0.    -1.44386E+06
            2643     74.0183E+06     26.0657E+06              0.    -1.48154E+06
            2644     74.1426E+06     25.9550E+06              0.    -1.52044E+06
            2645     74.2701E+06     25.8437E+06              0.    -1.56059E+06
            2646     74.4012E+06     25.7318E+06              0.    -1.60198E+06
            2647     74.5358E+06     25.6192E+06              0.    -1.64462E+06
            2648     74.6740E+06     25.5058E+06              0.    -1.68853E+06
            2649     74.8160E+06     25.3915E+06              0.    -1.73372E+06
            2650     74.9618E+06     25.2762E+06              0.    -1.78019E+06
            2651     75.1116E+06     25.1598E+06              0.    -1.82797E+06
            2652     75.2656E+06     25.0423E+06              0.    -1.87706E+06
            2653     75.4237E+06     24.9236E+06              0.    -1.92748E+06
            2654     75.5861E+06     24.8036E+06              0.    -1.97925E+06
            2655     75.7530E+06     24.6822E+06              0.    -2.03238E+06
            2656     75.9244E+06     24.5594E+06              0.    -2.08689E+06
            2657     76.1004E+06     24.4351E+06              0.    -2.14281E+06
            2658     76.2813E+06     24.3092E+06              0.    -2.20014E+06
            2659     76.4670E+06     24.1816E+06              0.    -2.25892E+06
            2660     76.6578E+06     24.0522E+06              0.    -2.31916E+06
            2661     76.8537E+06     23.9211E+06              0.    -2.38089E+06
            2662     77.0550E+06     23.7881E+06              0.    -2.44412E+06
            2663     77.2616E+06     23.6532E+06              0.    -2.50889E+06
            2664     77.4738E+06     23.5162E+06              0.    -2.57523E+06
            2665     77.6917E+06     23.3772E+06              0.    -2.64315E+06
            2666     77.9154E+06     23.2360E+06              0.    -2.71268E+06
            2667     78.1450E+06     23.0927E+06              0.    -2.78385E+06
            2668     78.3808E+06     22.9470E+06              0.    -2.85670E+06
            2669     78.6228E+06     22.7990E+06              0.    -2.93125E+06
            2670     78.8713E+06     22.6486E+06              0.    -3.00753E+06
            2671     79.1262E+06     22.4958E+06              0.    -3.08558E+06
            2672     79.3879E+06     22.3404E+06              0.    -3.16543E+06
            2673     79.6565E+06     22.1825E+06              0.    -3.24711E+06
            2674     79.9321E+06     22.0219E+06              0.    -3.33066E+06
            2675     80.2149E+06     21.8587E+06              0.    -3.41611E+06
            2676     80.5050E+06     21.6926E+06              0.    -3.50350E+06
            2677     80.8027E+06     21.5238E+06              0.    -3.59288E+06
            2678     81.1081E+06     21.3520E+06              0.    -3.68427E+06
            2679     81.4214E+06     21.1774E+06              0.    -3.77772E+06
            2680     81.7427E+06     20.9998E+06              0.    -3.87327E+06
            2681     82.0723E+06     20.8191E+06              0.    -3.97096E+06
            2682     82.4104E+06     20.6353E+06              0.    -4.07084E+06
            2683     82.7571E+06     20.4484E+06              0.    -4.17295E+06
            2684     83.1126E+06     20.2584E+06              0.    -4.27733E+06
            2685     83.4772E+06     20.0650E+06              0.    -4.38404E+06
            2686     83.8511E+06     19.8684E+06              0.    -4.49311E+06
            2687     84.2344E+06     19.6685E+06              0.    -4.60461E+06
            2688     84.6275E+06     19.4651E+06              0.    -4.71857E+06
            2689     85.0304E+06     19.2584E+06              0.    -4.83506E+06
            2690     85.4435E+06     19.0481E+06              0.    -4.95412E+06
            2691     85.8669E+06     18.8344E+06              0.    -5.07581E+06
            2692      86.301E+06     18.6170E+06              0.    -5.20017E+06
            2693     86.7459E+06     18.3961E+06              0.    -5.32728E+06
            2694     87.2019E+06     18.1716E+06              0.    -5.45718E+06
            2695     87.6693E+06     17.9434E+06              0.    -5.58994E+06
            2696     88.1483E+06     17.7115E+06              0.    -5.72562E+06
            2697     88.6392E+06     17.4758E+06              0.    -5.86427E+06
            2698     89.1423E+06     17.2364E+06              0.    -6.00597E+06
            2699     89.6578E+06     16.9932E+06              0.    -6.15077E+06
            2700     90.1861E+06     16.7462E+06              0.    -6.29874E+06
            2701     90.7273E+06     16.4954E+06              0.    -6.44996E+06
            2702     91.2819E+06     16.2406E+06              0.    -6.60449E+06
            2703     91.8501E+06     15.9820E+06              0.    -6.76239E+06
            2704     92.4323E+06     15.7195E+06              0.    -6.92376E+06
            2705     93.0287E+06     15.4531E+06              0.    -7.08865E+06
            2706     93.6397E+06     15.1828E+06              0.    -7.25715E+06
            2707     94.2657E+06     14.9086E+06              0.    -7.42933E+06
            2708     94.9069E+06     14.6304E+06              0.    -7.60528E+06
            2709     95.5638E+06     14.3483E+06              0.    -7.78507E+06
            2710     96.2367E+06     14.0623E+06              0.    -7.96880E+06
            2711     96.9259E+06     13.7724E+06              0.    -8.15654E+06
            2712     97.6319E+06     13.4785E+06              0.    -8.34839E+06
            2713     98.3550E+06     13.1808E+06              0.    -8.54444E+06
            2714     99.0957E+06     12.8793E+06              0.    -8.74478E+06
            2715     99.8543E+06     12.5739E+06              0.    -8.94951E+06
            2716     100.631E+06     12.2648E+06              0.    -9.15872E+06
            2717     101.427E+06     11.9519E+06              0.    -9.37251E+06
            2718     102.242E+06     11.6353E+06              0.    -9.59100E+06
            2719     103.077E+06     11.3150E+06              0.    -9.81428E+06
            2720     103.931E+06     10.9911E+06              0.    -10.0425E+06
            2721     104.807E+06     10.6637E+06              0.    -10.2757E+06
            2722     105.703E+06     10.3329E+06              0.    -10.5140E+06
            2723     106.622E+06     9.99865E+06              0.    -10.7576E+06
            2724     107.562E+06     9.66113E+06              0.    -11.0065E+06
            2725     108.525E+06     9.32043E+06              0.    -11.2610E+06
            2726     109.511E+06     8.97664E+06              0.    -11.5211E+06
            2727     110.520E+06     8.62988E+06              0.    -11.7869E+06
            2728     111.555E+06     8.28027E+06              0.    -12.0587E+06
            2729     112.613E+06     7.92796E+06              0.    -12.3364E+06
            2730     113.698E+06     7.57309E+06              0.    -12.6204E+06
            2731     114.808E+06     7.21582E+06              0.    -12.9107E+06
            2732     115.946E+06     6.85631E+06              0.    -13.2075E+06
            2733     117.110E+06     6.49477E+06              0.    -13.5110E+06
            2734     118.303E+06     6.13138E+06              0.    -13.8213E+06
            2735     119.524E+06     5.76635E+06              0.    -14.1385E+06
            2736     120.775E+06     5.39991E+06              0.    -14.4630E+06
            2737     122.055E+06     5.03231E+06              0.    -14.7948E+06
            2738     123.367E+06     4.66381E+06              0.    -15.1342E+06
            2739     124.710E+06     4.29468E+06              0.    -15.4813E+06
            2740     126.086E+06     3.92522E+06              0.    -15.8363E+06
            2741     127.494E+06     3.55575E+06              0.    -16.1995E+06
            2742     128.937E+06     3.18660E+06              0.    -16.5712E+06
            2743     130.415E+06     2.81814E+06              0.    -16.9514E+06
            2744     131.928E+06     2.45074E+06              0.    -17.3405E+06
            2745     133.478E+06     2.08481E+06              0.    -17.7387E+06
            2746     135.066E+06     1.72080E+06              0.    -18.1463E+06
            2747     136.692E+06     1.35914E+06              0.    -18.5635E+06
            2748     138.357E+06     1.00033E+06              0.    -18.9906E+06
            2749     140.063E+06     644.902E+03              0.    -19.4280E+06
            2750     141.811E+06     293.389E+03              0.    -19.8759E+06
            2751     143.601E+06    -53.6140E+03              0.    -20.3347E+06
            2752     145.434E+06    -395.493E+03              0.    -20.8046E+06
            2753     147.313E+06    -731.583E+03              0.    -21.2862E+06
            2754     149.238E+06    -1.06119E+06              0.    -21.7796E+06
            2755     151.210E+06    -1.38356E+06              0.    -22.2853E+06
            2756     153.230E+06    -1.69793E+06              0.    -22.8038E+06
            2757     155.300E+06    -2.00344E+06              0.    -23.3354E+06
            2758     157.421E+06    -2.29921E+06              0.    -23.8807E+06
            2759     159.594E+06    -2.58430E+06              0.    -24.4400E+06
            2760     161.822E+06    -2.85771E+06              0.    -25.0139E+06
            2761     164.104E+06    -3.11838E+06              0.    -25.6030E+06
            2762     166.444E+06    -3.36518E+06              0.    -26.2077E+06
            2763     168.842E+06    -3.59691E+06              0.    -26.8287E+06
            2764     171.300E+06    -3.81230E+06              0.    -27.4666E+06
            2765     173.819E+06    -4.01000E+06              0.    -28.1220E+06
            2766     176.402E+06    -4.18858E+06              0.    -28.7957E+06
            2767     179.050E+06    -4.34649E+06              0.    -29.4884E+06
            2768     181.764E+06    -4.48212E+06              0.    -30.2009E+06
            2769     184.548E+06    -4.59373E+06              0.    -30.9341E+06
            2770     187.402E+06    -4.67947E+06              0.    -31.6887E+06
            2771     190.329E+06    -4.73738E+06              0.    -32.4659E+06
            2772     193.331E+06    -4.76534E+06              0.    -33.2665E+06
            2773     196.409E+06    -4.76114E+06              0.    -34.0916E+06
            2774     199.567E+06    -4.72236E+06              0.    -34.9425E+06
            2775     202.806E+06    -4.64646E+06              0.    -35.8203E+06
            2776     206.128E+06    -4.53070E+06              0.    -36.7263E+06
            2777     209.537E+06    -4.37214E+06              0.    -37.6619E+06
            2778     213.033E+06    -4.16765E+06              0.    -38.6287E+06
            2779     216.621E+06    -3.91386E+06              0.    -39.6282E+06
            2780     220.302E+06    -3.60715E+06              0.    -40.6621E+06
            2781     224.079E+06    -3.24363E+06              0.    -41.7322E+06
            2782     227.955E+06    -2.81912E+06              0.    -42.8406E+06
            2783     231.931E+06    -2.32911E+06              0.    -43.9893E+06
            2784     236.011E+06    -1.76873E+06              0.    -45.1805E+06
            2785     240.198E+06    -1.13274E+06              0.    -46.4167E+06
            2786     244.493E+06    -415.457E+03              0.    -47.7005E+06
            2787     248.899E+06     389.281E+03              0.    -49.0345E+06
            2788     253.418E+06     1.28814E+06              0.    -50.4218E+06
            2789     258.054E+06     2.28836E+06              0.    -51.8655E+06
            2790     262.806E+06     3.39783E+06              0.    -53.3690E+06
            2791     267.678E+06     4.62512E+06              0.    -54.9358E+06
            2792     272.670E+06     5.97960E+06              0.    -56.5696E+06
            2793     277.782E+06     7.47148E+06              0.    -58.2745E+06
            2794     283.015E+06     9.11193E+06              0.    -60.0545E+06
            2795     288.368E+06     10.9132E+06              0.    -61.9139E+06
            2796     293.839E+06     12.8886E+06              0.    -63.8572E+06
            2797     299.423E+06     15.0529E+06              0.    -65.8886E+06
            2798     305.117E+06     17.4221E+06              0.    -68.0126E+06
            2799     310.912E+06     20.0139E+06              0.    -70.2333E+06
            2800     316.798E+06     22.8476E+06              0.    -72.5542E+06
            2801     322.763E+06     25.9443E+06              0.    -74.9784E+06
            2802     328.790E+06     29.3270E+06              0.    -77.5075E+06
            2803     334.855E+06     33.0205E+06              0.    -80.1418E+06
            2804     340.931E+06     37.0517E+06              0.    -82.8788E+06
            2805     346.984E+06     41.4489E+06              0.    -85.7127E+06
            2806     352.969E+06      46.242E+06              0.    -88.6335E+06
            2807     358.833E+06     51.4612E+06              0.    -91.6243E+06
            2808     364.513E+06     57.1361E+06              0.    -94.6603E+06
            2809     369.931E+06     63.2937E+06              0.    -97.7056E+06
            2810        375.E+06     69.9554E+06              0.    -100.711E+06
            2811     379.617E+06     77.1328E+06              0.    -103.609E+06
            2812     383.669E+06     84.8215E+06              0.    -106.314E+06
            2813     387.038E+06     92.9936E+06              0.    -108.717E+06
            2814     389.603E+06     101.587E+06              0.    -110.685E+06
            2815     391.255E+06     110.495E+06              0.    -112.068E+06
            2816     391.901E+06     119.557E+06              0.    -112.701E+06
            2817     391.484E+06     128.548E+06              0.    -112.424E+06
            2818     389.986E+06     137.185E+06              0.    -111.095E+06
            2819     387.438E+06     145.137E+06              0.    -108.621E+06
            2820     383.914E+06     152.057E+06              0.    -104.972E+06
            2821     384.620E+06     156.444E+06              0.    -106.300E+06
            2822     70.7961E+06     31.0077E+06              0.    -1.02415E+06
            2823     70.7766E+06     30.7877E+06              0.    -1.02237E+06
            2824     70.8515E+06     30.6132E+06              0.    -1.00874E+06
            2825     70.9254E+06     30.4436E+06              0.    -997.154E+03
            2826     70.9986E+06     30.2785E+06              0.    -987.549E+03
            2827     71.0713E+06     30.1178E+06              0.    -979.878E+03
            2828     71.1435E+06     29.9611E+06              0.    -974.091E+03
            2829     71.2154E+06     29.8084E+06              0.    -970.140E+03
            2830     71.2872E+06     29.6593E+06              0.    -967.982E+03
            2831     71.3589E+06     29.5138E+06              0.    -967.573E+03
            2832     71.4307E+06     29.3716E+06              0.    -968.874E+03
            2833     71.5028E+06     29.2325E+06              0.    -971.848E+03
            2834     71.5752E+06     29.0963E+06              0.    -976.459E+03
            2835     71.6480E+06     28.9630E+06              0.    -982.673E+03
            2836     71.7215E+06     28.8322E+06              0.    -990.460E+03
            2837     71.7957E+06     28.7038E+06              0.    -999.790E+03
            2838     71.8707E+06     28.5777E+06              0.    -1.01064E+06
            2839     71.9466E+06     28.4538E+06              0.    -1.02297E+06
            2840     72.0236E+06     28.3318E+06              0.    -1.03678E+06
            2841     72.1017E+06     28.2116E+06              0.    -1.05202E+06
            2842     72.1811E+06     28.0931E+06              0.    -1.06870E+06
            2843     72.2618E+06     27.9761E+06              0.    -1.08678E+06
            2844     72.3441E+06     27.8606E+06              0.    -1.10625E+06
            2845     72.4279E+06     27.7463E+06              0.    -1.12710E+06
            2846     72.5134E+06     27.6332E+06              0.    -1.14931E+06
            2847     72.6007E+06     27.5210E+06              0.    -1.17286E+06
            2848     72.6899E+06     27.4098E+06              0.    -1.19776E+06
            2849     72.7810E+06     27.2993E+06              0.    -1.22399E+06
            2850     72.8743E+06     27.1895E+06              0.    -1.25154E+06
            2851     72.9698E+06     27.0803E+06              0.    -1.28041E+06
            2852     73.0675E+06     26.9715E+06              0.    -1.31059E+06
            2853     73.1676E+06     26.8630E+06              0.    -1.34208E+06
            2854     73.2703E+06     26.7547E+06              0.    -1.37488E+06
            2855     73.3755E+06     26.6466E+06              0.    -1.40898E+06
            2856     73.4834E+06     26.5384E+06              0.    -1.44439E+06
            2857     73.5941E+06     26.4302E+06              0.    -1.48111E+06
            2858     73.7077E+06     26.3219E+06              0.    -1.51914E+06
            2859     73.8243E+06     26.2132E+06              0.    -1.55849E+06
            2860     73.9439E+06     26.1042E+06              0.    -1.59915E+06
            2861     74.0668E+06     25.9947E+06              0.    -1.64115E+06
            2862     74.1930E+06     25.8847E+06              0.    -1.68448E+06
            2863     74.3225E+06     25.7741E+06              0.    -1.72915E+06
            2864     74.4556E+06     25.6627E+06              0.    -1.77517E+06
            2865     74.5923E+06     25.5506E+06              0.    -1.82256E+06
            2866     74.7327E+06     25.4376E+06              0.    -1.87133E+06
            2867     74.8769E+06     25.3236E+06              0.    -1.92149E+06
            2868     75.0250E+06     25.2085E+06              0.    -1.97305E+06
            2869     75.1772E+06     25.0924E+06              0.    -2.02603E+06
            2870     75.3336E+06     24.9750E+06              0.    -2.08045E+06
            2871     75.4941E+06     24.8564E+06              0.    -2.13632E+06
            2872     75.6591E+06     24.7364E+06              0.    -2.19366E+06
            2873     75.8286E+06     24.6149E+06              0.    -2.25249E+06
            2874     76.0027E+06     24.4920E+06              0.    -2.31283E+06
            2875     76.1815E+06     24.3675E+06              0.    -2.37471E+06
            2876     76.3651E+06     24.2414E+06              0.    -2.43814E+06
            2877     76.5537E+06     24.1136E+06              0.    -2.50316E+06
            2878     76.7475E+06     23.9839E+06              0.    -2.56977E+06
            2879     76.9464E+06     23.8525E+06              0.    -2.63801E+06
            2880     77.1507E+06     23.7191E+06              0.    -2.70791E+06
            2881     77.3605E+06     23.5837E+06              0.    -2.77950E+06
            2882     77.5759E+06     23.4463E+06              0.    -2.85279E+06
            2883     77.7971E+06     23.3068E+06              0.    -2.92783E+06
            2884     78.0241E+06     23.1650E+06              0.    -3.00463E+06
            2885     78.2572E+06     23.0211E+06              0.    -3.08324E+06
            2886     78.4965E+06     22.8748E+06              0.    -3.16369E+06
            2887     78.7421E+06     22.7262E+06              0.    -3.24601E+06
            2888     78.9941E+06     22.5751E+06              0.    -3.33023E+06
            2889     79.2528E+06     22.4216E+06              0.    -3.41639E+06
            2890     79.5183E+06     22.2655E+06              0.    -3.50453E+06
            2891     79.7907E+06     22.1068E+06              0.    -3.59468E+06
            2892     80.0703E+06     21.9455E+06              0.    -3.68688E+06
            2893     80.3571E+06     21.7814E+06              0.    -3.78118E+06
            2894     80.6514E+06     21.6145E+06              0.    -3.87762E+06
            2895     80.9532E+06     21.4449E+06              0.    -3.97623E+06
            2896     81.2629E+06     21.2723E+06              0.    -4.07706E+06
            2897     81.5805E+06     21.0968E+06              0.    -4.18015E+06
            2898     81.9063E+06     20.9183E+06              0.    -4.28555E+06
            2899     82.2405E+06     20.7367E+06              0.    -4.39331E+06
            2900     82.5832E+06     20.5521E+06              0.    -4.50348E+06
            2901     82.9346E+06     20.3643E+06              0.    -4.61609E+06
            2902     83.2949E+06     20.1733E+06              0.    -4.73121E+06
            2903     83.6644E+06     19.9791E+06              0.    -4.84889E+06
            2904     84.0433E+06     19.7816E+06              0.    -4.96917E+06
            2905     84.4317E+06     19.5807E+06              0.    -5.09212E+06
            2906     84.8299E+06     19.3765E+06              0.    -5.21778E+06
            2907     85.2382E+06     19.1688E+06              0.    -5.34621E+06
            2908     85.6566E+06     18.9577E+06              0.    -5.47748E+06
            2909     86.0856E+06     18.7431E+06              0.    -5.61163E+06
            2910     86.5252E+06     18.5250E+06              0.    -5.74874E+06
            2911     86.9759E+06     18.3033E+06              0.    -5.88886E+06
            2912     87.4377E+06     18.0779E+06              0.    -6.03206E+06
            2913      87.911E+06     17.8489E+06              0.    -6.17839E+06
            2914     88.3960E+06     17.6163E+06              0.    -6.32794E+06
            2915     88.8931E+06     17.3799E+06              0.    -6.48076E+06
            2916     89.4024E+06     17.1398E+06              0.    -6.63693E+06
            2917     89.9243E+06     16.8960E+06              0.    -6.79652E+06
            2918     90.4590E+06     16.6484E+06              0.    -6.95959E+06
            2919     91.0069E+06     16.3970E+06              0.    -7.12623E+06
            2920     91.5682E+06     16.1418E+06              0.    -7.29651E+06
            2921     92.1433E+06     15.8827E+06              0.    -7.47051E+06
            2922     92.7325E+06     15.6198E+06              0.    -7.64832E+06
            2923      93.336E+06     15.3531E+06              0.    -7.83000E+06
            2924     93.9543E+06     15.0825E+06              0.    -8.01565E+06
            2925     94.5876E+06     14.8081E+06              0.    -8.20534E+06
            2926     95.2364E+06     14.5299E+06              0.    -8.39918E+06
            2927     95.9009E+06     14.2478E+06              0.    -8.59725E+06
            2928     96.5815E+06     13.9618E+06              0.    -8.79964E+06
            2929     97.2786E+06     13.6721E+06              0.    -9.00646E+06
            2930     97.9927E+06     13.3786E+06              0.    -9.21778E+06
            2931     98.7240E+06     13.0813E+06              0.    -9.43372E+06
            2932     99.4729E+06     12.7803E+06              0.    -9.65437E+06
            2933      100.24E+06     12.4756E+06              0.    -9.87985E+06
            2934     101.026E+06     12.1672E+06              0.    -10.1103E+06
            2935     101.830E+06     11.8552E+06              0.    -10.3457E+06
            2936     102.654E+06     11.5396E+06              0.    -10.5863E+06
            2937     103.498E+06     11.2206E+06              0.    -10.8322E+06
            2938     104.362E+06     10.8982E+06              0.    -11.0834E+06
            2939     105.246E+06     10.5723E+06              0.    -11.3402E+06
            2940     106.152E+06     10.2433E+06              0.    -11.6026E+06
            2941     107.080E+06     9.91101E+06              0.    -11.8708E+06
            2942     108.030E+06     9.57568E+06              0.    -12.1449E+06
            2943     109.003E+06     9.23738E+06              0.    -12.4250E+06
            2944     109.999E+06     8.89623E+06              0.    -12.7113E+06
            2945     111.019E+06     8.55236E+06              0.    -13.0039E+06
            2946     112.064E+06     8.20591E+06              0.    -13.3030E+06
            2947     113.133E+06     7.85704E+06              0.    -13.6088E+06
            2948     114.228E+06     7.50589E+06              0.    -13.9213E+06
            2949     115.349E+06     7.15265E+06              0.    -14.2408E+06
            2950     116.497E+06     6.79751E+06              0.    -14.5674E+06
            2951     117.673E+06     6.44067E+06              0.    -14.9014E+06
            2952     118.877E+06     6.08234E+06              0.    -15.2428E+06
            2953     120.109E+06     5.72276E+06              0.    -15.5919E+06
            2954     121.371E+06     5.36217E+06              0.    -15.9489E+06
            2955     122.664E+06     5.00084E+06              0.    -16.3139E+06
            2956     123.987E+06     4.63906E+06              0.    -16.6873E+06
            2957     125.342E+06     4.27711E+06              0.    -17.0691E+06
            2958     126.729E+06     3.91534E+06              0.    -17.4597E+06
            2959     128.150E+06     3.55407E+06              0.    -17.8592E+06
            2960     129.605E+06     3.19367E+06              0.    -18.2680E+06
            2961     131.094E+06     2.83454E+06              0.    -18.6862E+06
            2962     132.620E+06     2.47708E+06              0.    -19.1141E+06
            2963     134.182E+06     2.12174E+06              0.    -19.5520E+06
            2964     135.782E+06     1.76897E+06              0.    -20.0002E+06
            2965     137.420E+06     1.41928E+06              0.    -20.4589E+06
            2966     139.097E+06     1.07320E+06              0.    -20.9286E+06
            2967     140.816E+06     731.271E+03              0.    -21.4095E+06
            2968     142.575E+06     394.103E+03              0.    -21.9019E+06
            2969     144.377E+06     62.3179E+03              0.    -22.4062E+06
            2970     146.223E+06    -263.411E+03              0.    -22.9227E+06
            2971     148.113E+06    -582.377E+03              0.    -23.4520E+06
            2972     150.049E+06    -893.825E+03              0.    -23.9943E+06
            2973     152.033E+06    -1.19696E+06              0.    -24.5500E+06
            2974     154.064E+06    -1.49093E+06              0.    -25.1197E+06
            2975     156.145E+06    -1.77484E+06              0.    -25.7039E+06
            2976     158.277E+06    -2.04773E+06              0.    -26.3029E+06
            2977     160.460E+06    -2.30859E+06              0.    -26.9173E+06
            2978     162.697E+06    -2.55635E+06              0.    -27.5477E+06
            2979     164.989E+06    -2.78984E+06              0.    -28.1946E+06
            2980     167.337E+06    -3.00788E+06              0.    -28.8586E+06
            2981     169.743E+06    -3.20916E+06              0.    -29.5404E+06
            2982     172.208E+06    -3.39232E+06              0.    -30.2407E+06
            2983     174.733E+06    -3.55590E+06              0.    -30.9602E+06
            2984     177.321E+06    -3.69835E+06              0.    -31.6996E+06
            2985     179.973E+06    -3.81801E+06              0.    -32.4597E+06
            2986     182.691E+06    -3.91314E+06              0.    -33.2413E+06
            2987     185.476E+06    -3.98187E+06              0.    -34.0455E+06
            2988     188.330E+06    -4.02219E+06              0.    -34.8730E+06
            2989     191.255E+06    -4.03200E+06              0.    -35.7250E+06
            2990     194.253E+06    -4.00901E+06              0.    -36.6026E+06
            2991     197.325E+06    -3.95081E+06              0.    -37.5067E+06
            2992     200.475E+06    -3.85481E+06              0.    -38.4387E+06
            2993     203.702E+06    -3.71826E+06              0.    -39.3999E+06
            2994     207.011E+06    -3.53817E+06              0.    -40.3916E+06
            2995     210.402E+06    -3.31140E+06              0.    -41.4153E+06
            2996     213.877E+06    -3.03453E+06              0.    -42.4725E+06
            2997     217.439E+06    -2.70392E+06              0.    -43.5649E+06
            2998     221.090E+06    -2.31566E+06              0.    -44.6943E+06
            2999     224.831E+06    -1.86554E+06              0.    -45.8626E+06
            3000     228.664E+06    -1.34901E+06              0.    -47.0717E+06
            3001     232.592E+06    -761.203E+03              0.    -48.3237E+06
            3002     236.616E+06    -96.8467E+03              0.     -49.621E+06
            3003     240.737E+06     649.743E+03              0.    -50.9659E+06
            3004     244.958E+06     1.48472E+06              0.    -52.3610E+06
            3005     249.279E+06     2.41472E+06              0.    -53.8089E+06
            3006     253.702E+06     3.44698E+06              0.    -55.3124E+06
            3007     258.226E+06     4.58929E+06              0.    -56.8746E+06
            3008     262.852E+06     5.85015E+06              0.    -58.4985E+06
            3009     267.580E+06     7.23878E+06              0.    -60.1872E+06
            3010     272.409E+06     8.76521E+06              0.    -61.9442E+06
            3011     277.335E+06     10.4403E+06              0.    -63.7726E+06
            3012     282.357E+06     12.2761E+06              0.    -65.6759E+06
            3013     287.470E+06     14.2853E+06              0.    -67.6572E+06
            3014     292.668E+06     16.4822E+06              0.    -69.7197E+06
            3015     297.943E+06     18.8820E+06              0.     -71.866E+06
            3016     303.285E+06     21.5014E+06              0.    -74.0983E+06
            3017     308.681E+06     24.3582E+06              0.    -76.4180E+06
            3018     314.114E+06     27.4720E+06              0.    -78.8254E+06
            3019     319.565E+06     30.8635E+06              0.    -81.3191E+06
            3020     325.008E+06     34.5550E+06              0.    -83.8957E+06
            3021     330.412E+06     38.5695E+06              0.    -86.5488E+06
            3022     335.741E+06     42.9311E+06              0.    -89.2681E+06
            3023     340.950E+06     47.6640E+06              0.    -92.0384E+06
            3024     345.986E+06     52.7915E+06              0.    -94.8376E+06
            3025     350.788E+06     58.3347E+06              0.    -97.6358E+06
            3026     355.285E+06     64.3104E+06              0.    -100.393E+06
            3027     359.396E+06     70.7279E+06              0.    -103.055E+06
            3028     363.033E+06     77.5857E+06              0.    -105.555E+06
            3029     366.104E+06     84.8653E+06              0.    -107.810E+06
            3030     368.513E+06     92.5256E+06              0.    -109.719E+06
            3031     370.169E+06     100.495E+06              0.    -111.165E+06
            3032     370.993E+06     108.666E+06              0.    -112.022E+06
            3033     370.925E+06     116.884E+06              0.    -112.156E+06
            3034     369.934E+06     124.952E+06              0.    -111.445E+06
            3035     368.022E+06     132.631E+06              0.    -109.785E+06
            3036     365.225E+06     139.652E+06              0.    -107.112E+06
            3037     361.618E+06     145.739E+06              0.    -103.416E+06
            3038     362.034E+06     149.547E+06              0.    -104.425E+06
            3039     70.7541E+06     30.9900E+06              0.    -1.09865E+06
            3040     70.7349E+06     30.7726E+06              0.    -1.09675E+06
            3041     70.8088E+06     30.6003E+06              0.    -1.08212E+06
            3042     70.8819E+06     30.4327E+06              0.    -1.06969E+06
            3043     70.9542E+06     30.2696E+06              0.    -1.05938E+06
            3044     71.0260E+06     30.1108E+06              0.    -1.05115E+06
            3045     71.0973E+06     29.9560E+06              0.    -1.04495E+06
            3046     71.1684E+06     29.8051E+06              0.    -1.04071E+06
            3047     71.2393E+06     29.6579E+06              0.    -1.03839E+06
            3048     71.3102E+06     29.5141E+06              0.    -1.03795E+06
            3049     71.3811E+06     29.3736E+06              0.    -1.03934E+06
            3050     71.4523E+06     29.2361E+06              0.    -1.04253E+06
            3051     71.5238E+06     29.1016E+06              0.    -1.04748E+06
            3052     71.5958E+06     28.9698E+06              0.    -1.05414E+06
            3053     71.6684E+06     28.8406E+06              0.    -1.06249E+06
            3054     71.7417E+06     28.7138E+06              0.    -1.07250E+06
            3055     71.8158E+06     28.5893E+06              0.    -1.08414E+06
            3056     71.8908E+06     28.4668E+06              0.    -1.09737E+06
            3057     71.9668E+06     28.3463E+06              0.    -1.11217E+06
            3058      72.044E+06     28.2275E+06              0.    -1.12853E+06
            3059     72.1224E+06     28.1105E+06              0.    -1.14641E+06
            3060     72.2022E+06     27.9949E+06              0.    -1.16581E+06
            3061     72.2835E+06     27.8807E+06              0.    -1.18669E+06
            3062     72.3663E+06     27.7678E+06              0.    -1.20905E+06
            3063     72.4508E+06     27.6561E+06              0.    -1.23288E+06
            3064     72.5370E+06     27.5453E+06              0.    -1.25814E+06
            3065     72.6251E+06     27.4354E+06              0.    -1.28485E+06
            3066     72.7152E+06     27.3263E+06              0.    -1.31298E+06
            3067     72.8073E+06     27.2178E+06              0.    -1.34254E+06
            3068     72.9016E+06     27.1099E+06              0.    -1.37350E+06
            3069     72.9981E+06     27.0024E+06              0.    -1.40588E+06
            3070     73.0971E+06     26.8952E+06              0.    -1.43965E+06
            3071     73.1984E+06     26.7882E+06              0.    -1.47483E+06
            3072     73.3024E+06     26.6814E+06              0.    -1.51141E+06
            3073     73.4090E+06     26.5746E+06              0.    -1.54939E+06
            3074     73.5183E+06     26.4677E+06              0.    -1.58878E+06
            3075     73.6305E+06     26.3606E+06              0.    -1.62957E+06
            3076     73.7457E+06     26.2533E+06              0.    -1.67177E+06
            3077     73.8639E+06     26.1456E+06              0.    -1.71539E+06
            3078     73.9853E+06     26.0375E+06              0.    -1.76043E+06
            3079     74.1099E+06     25.9288E+06              0.    -1.80690E+06
            3080     74.2379E+06     25.8196E+06              0.    -1.85481E+06
            3081     74.3694E+06     25.7096E+06              0.    -1.90418E+06
            3082     74.5044E+06     25.5988E+06              0.    -1.95501E+06
            3083     74.6431E+06     25.4872E+06              0.    -2.00732E+06
            3084     74.7855E+06     25.3746E+06              0.    -2.06111E+06
            3085     74.9318E+06     25.2609E+06              0.    -2.11641E+06
            3086     75.0822E+06     25.1462E+06              0.    -2.17324E+06
            3087     75.2366E+06     25.0303E+06              0.    -2.23160E+06
            3088     75.3952E+06     24.9131E+06              0.    -2.29152E+06
            3089     75.5582E+06     24.7946E+06              0.    -2.35302E+06
            3090     75.7256E+06     24.6747E+06              0.    -2.41612E+06
            3091     75.8975E+06     24.5533E+06              0.    -2.48084E+06
            3092     76.0741E+06     24.4303E+06              0.    -2.54720E+06
            3093     76.2555E+06     24.3058E+06              0.    -2.61523E+06
            3094     76.4418E+06     24.1795E+06              0.    -2.68496E+06
            3095     76.6331E+06     24.0515E+06              0.    -2.75640E+06
            3096     76.8296E+06     23.9217E+06              0.    -2.82959E+06
            3097     77.0314E+06     23.7900E+06              0.    -2.90455E+06
            3098     77.2386E+06     23.6563E+06              0.    -2.98132E+06
            3099     77.4514E+06     23.5206E+06              0.    -3.05992E+06
            3100     77.6698E+06     23.3828E+06              0.    -3.14039E+06
            3101     77.8940E+06     23.2429E+06              0.    -3.22276E+06
            3102     78.1242E+06     23.1008E+06              0.    -3.30706E+06
            3103     78.3605E+06     22.9564E+06              0.    -3.39333E+06
            3104     78.6031E+06     22.8096E+06              0.    -3.48160E+06
            3105     78.8520E+06     22.6605E+06              0.    -3.57192E+06
            3106     79.1075E+06     22.5089E+06              0.    -3.66431E+06
            3107     79.3697E+06     22.3548E+06              0.    -3.75882E+06
            3108     79.6387E+06     22.1981E+06              0.    -3.85549E+06
            3109     79.9148E+06     22.0389E+06              0.    -3.95436E+06
            3110     80.1980E+06     21.8769E+06              0.    -4.05548E+06
            3111     80.4886E+06     21.7122E+06              0.    -4.15888E+06
            3112     80.7867E+06     21.5447E+06              0.    -4.26462E+06
            3113     81.0925E+06     21.3744E+06              0.    -4.37273E+06
            3114     81.4061E+06     21.2011E+06              0.    -4.48327E+06
            3115     81.7278E+06     21.0250E+06              0.    -4.59628E+06
            3116     82.0577E+06     20.8458E+06              0.    -4.71182E+06
            3117     82.3961E+06     20.6636E+06              0.    -4.82993E+06
            3118     82.7431E+06     20.4782E+06              0.    -4.95067E+06
            3119     83.0989E+06     20.2898E+06              0.    -5.07409E+06
            3120     83.4637E+06     20.0981E+06              0.    -5.20025E+06
            3121     83.8377E+06     19.9032E+06              0.    -5.32920E+06
            3122     84.2212E+06     19.7050E+06              0.    -5.46100E+06
            3123     84.6144E+06     19.5035E+06              0.    -5.59571E+06
            3124     85.0174E+06     19.2987E+06              0.    -5.73340E+06
            3125     85.4305E+06     19.0904E+06              0.    -5.87411E+06
            3126     85.8539E+06     18.8787E+06              0.    -6.01792E+06
            3127     86.2879E+06     18.6635E+06              0.    -6.16488E+06
            3128     86.7327E+06     18.4448E+06              0.    -6.31508E+06
            3129     87.1886E+06     18.2225E+06              0.    -6.46856E+06
            3130     87.6558E+06     17.9967E+06              0.    -6.62541E+06
            3131     88.1346E+06     17.7673E+06              0.    -6.78569E+06
            3132     88.6251E+06     17.5342E+06              0.    -6.94948E+06
            3133     89.1278E+06     17.2975E+06              0.    -7.11685E+06
            3134     89.6429E+06     17.0570E+06              0.    -7.28788E+06
            3135     90.1706E+06     16.8129E+06              0.    -7.46264E+06
            3136     90.7113E+06     16.5650E+06              0.    -7.64122E+06
            3137     91.2652E+06     16.3135E+06              0.    -7.82369E+06
            3138     91.8327E+06     16.0581E+06              0.    -8.01014E+06
            3139     92.4140E+06     15.7990E+06              0.    -8.20065E+06
            3140     93.0095E+06     15.5362E+06              0.    -8.39532E+06
            3141     93.6195E+06     15.2695E+06              0.    -8.59422E+06
            3142     94.2444E+06     14.9992E+06              0.    -8.79746E+06
            3143     94.8844E+06     14.7250E+06              0.    -9.00513E+06
            3144     95.5399E+06     14.4471E+06              0.    -9.21731E+06
            3145     96.2113E+06     14.1655E+06              0.    -9.43412E+06
            3146     96.8990E+06     13.8801E+06              0.    -9.65564E+06
            3147     97.6032E+06     13.5910E+06              0.    -9.88200E+06
            3148     98.3245E+06     13.2983E+06              0.    -10.1133E+06
            3149     99.0632E+06     13.0019E+06              0.    -10.3496E+06
            3150     99.8196E+06     12.7020E+06              0.    -10.5911E+06
            3151     100.594E+06     12.3985E+06              0.    -10.8378E+06
            3152     101.388E+06     12.0914E+06              0.    -11.0899E+06
            3153     102.200E+06     11.7810E+06              0.    -11.3475E+06
            3154     103.032E+06     11.4671E+06              0.    -11.6108E+06
            3155     103.883E+06     11.1499E+06              0.    -11.8798E+06
            3156     104.756E+06     10.8295E+06              0.    -12.1547E+06
            3157     105.649E+06     10.5059E+06              0.    -12.4355E+06
            3158     106.563E+06     10.1793E+06              0.    -12.7226E+06
            3159     107.499E+06     9.84973E+06              0.    -13.0159E+06
            3160     108.458E+06     9.51730E+06              0.    -13.3157E+06
            3161     109.439E+06     9.18216E+06              0.    -13.6221E+06
            3162     110.444E+06     8.84442E+06              0.    -13.9352E+06
            3163     111.473E+06     8.50424E+06              0.    -14.2552E+06
            3164     112.526E+06     8.16177E+06              0.    -14.5823E+06
            3165     113.605E+06     7.81717E+06              0.    -14.9166E+06
            3166     114.709E+06     7.47062E+06              0.    -15.2583E+06
            3167     115.840E+06     7.12232E+06              0.    -15.6076E+06
            3168     116.997E+06     6.77247E+06              0.    -15.9647E+06
            3169     118.182E+06     6.42129E+06              0.    -16.3298E+06
            3170     119.395E+06     6.06902E+06              0.    -16.7030E+06
            3171     120.637E+06     5.71591E+06              0.    -17.0846E+06
            3172     121.909E+06     5.36224E+06              0.    -17.4747E+06
            3173     123.211E+06     5.00827E+06              0.    -17.8737E+06
            3174     124.544E+06     4.65434E+06              0.    -18.2817E+06
            3175     125.908E+06     4.30075E+06              0.    -18.6990E+06
            3176     127.305E+06     3.94787E+06              0.    -19.1257E+06
            3177     128.736E+06     3.59605E+06              0.    -19.5622E+06
            3178     130.200E+06     3.24571E+06              0.    -20.0088E+06
            3179     131.699E+06     2.89725E+06              0.    -20.4656E+06
            3180     133.234E+06     2.55112E+06              0.    -20.9330E+06
            3181     134.806E+06     2.20779E+06              0.    -21.4113E+06
            3182     136.415E+06     1.86778E+06              0.    -21.9008E+06
            3183     138.063E+06     1.53160E+06              0.    -22.4018E+06
            3184     139.749E+06     1.19984E+06              0.    -22.9146E+06
            3185     141.476E+06     873.088E+03              0.    -23.4396E+06
            3186     143.245E+06     551.986E+03              0.    -23.9772E+06
            3187     145.055E+06     237.215E+03              0.    -24.5277E+06
            3188     146.909E+06    -70.5080E+03              0.    -25.0915E+06
            3189     148.808E+06    -370.418E+03              0.    -25.6691E+06
            3190     150.751E+06    -661.711E+03              0.    -26.2609E+06
            3191     152.742E+06    -943.518E+03              0.    -26.8673E+06
            3192     154.780E+06    -1.21493E+06              0.    -27.4888E+06
            3193     156.867E+06    -1.47499E+06              0.    -28.1260E+06
            3194     159.004E+06    -1.72266E+06              0.    -28.7793E+06
            3195     161.193E+06    -1.95685E+06              0.    -29.4493E+06
            3196     163.434E+06    -2.17641E+06              0.    -30.1366E+06
            3197     165.729E+06    -2.38010E+06              0.    -30.8418E+06
            3198     168.080E+06    -2.56663E+06              0.    -31.5656E+06
            3199     170.487E+06    -2.73460E+06              0.    -32.3086E+06
            3200     172.952E+06    -2.88254E+06              0.    -33.0716E+06
            3201     175.477E+06    -3.00888E+06              0.    -33.8552E+06
            3202     178.062E+06    -3.11196E+06              0.    -34.6604E+06
            3203     180.710E+06    -3.18999E+06              0.    -35.4880E+06
            3204     183.422E+06    -3.24109E+06              0.    -36.3387E+06
            3205     186.200E+06    -3.26326E+06              0.    -37.2137E+06
            3206     189.044E+06    -3.25432E+06              0.    -38.1139E+06
            3207     191.957E+06    -3.21201E+06              0.    -39.0403E+06
            3208     194.940E+06    -3.13389E+06              0.    -39.9941E+06
            3209     197.995E+06    -3.01732E+06              0.    -40.9765E+06
            3210     201.124E+06    -2.85955E+06              0.    -41.9886E+06
            3211     204.327E+06    -2.65757E+06              0.    -43.0319E+06
            3212     207.607E+06    -2.40821E+06              0.    -44.1077E+06
            3213     210.965E+06    -2.10804E+06              0.    -45.2176E+06
            3214     214.403E+06    -1.75340E+06              0.    -46.3631E+06
            3215     217.922E+06    -1.34037E+06              0.    -47.5459E+06
            3216     221.523E+06    -864.711E+03              0.    -48.7677E+06
            3217     225.209E+06    -321.902E+03              0.    -50.0304E+06
            3218     228.979E+06     292.940E+03              0.    -51.3360E+06
            3219     232.835E+06     985.070E+03              0.    -52.6864E+06
            3220     236.777E+06     1.76015E+06              0.    -54.0840E+06
            3221     240.807E+06     2.62428E+06              0.    -55.5309E+06
            3222     244.925E+06     3.58405E+06              0.    -57.0295E+06
            3223     249.129E+06     4.64659E+06              0.    -58.5822E+06
            3224     253.421E+06     5.81959E+06              0.    -60.1915E+06
            3225     257.797E+06     7.11138E+06              0.    -61.8600E+06
            3226     262.258E+06     8.53097E+06              0.    -63.5903E+06
            3227     266.799E+06     10.0881E+06              0.    -65.3848E+06
            3228     271.417E+06     11.7934E+06              0.    -67.2460E+06
            3229     276.107E+06     13.6581E+06              0.    -69.1763E+06
            3230     280.864E+06     15.6948E+06              0.    -71.1776E+06
            3231     285.678E+06     17.9167E+06              0.    -73.2516E+06
            3232     290.540E+06     20.3381E+06              0.    -75.3995E+06
            3233     295.438E+06     22.9745E+06              0.    -77.6213E+06
            3234     300.355E+06     25.8424E+06              0.    -79.9165E+06
            3235     305.275E+06     28.9593E+06              0.    -82.2826E+06
            3236     310.174E+06     32.3436E+06              0.    -84.7156E+06
            3237     315.025E+06     36.0145E+06              0.    -87.2089E+06
            3238     319.797E+06     39.9916E+06              0.    -89.7525E+06
            3239     324.452E+06     44.2943E+06              0.    -92.3324E+06
            3240     328.946E+06     48.9415E+06              0.    -94.9294E+06
            3241     333.229E+06     53.9498E+06              0.    -97.5178E+06
            3242     337.243E+06     59.3326E+06              0.    -100.064E+06
            3243     340.925E+06     65.0979E+06              0.    -102.526E+06
            3244     344.204E+06     71.2452E+06              0.    -104.849E+06
            3245     347.005E+06     77.7623E+06              0.    -106.968E+06
            3246     349.252E+06     84.6211E+06              0.    -108.804E+06
            3247     350.871E+06     91.7724E+06              0.    -110.267E+06
            3248     351.793E+06     99.1408E+06              0.    -111.256E+06
            3249     351.963E+06     106.620E+06              0.    -111.665E+06
            3250     351.344E+06     114.070E+06              0.    -111.387E+06
            3251     349.921E+06     121.316E+06              0.    -110.327E+06
            3252     347.707E+06     128.158E+06              0.    -108.411E+06
            3253     344.744E+06     134.375E+06              0.    -105.595E+06
            3254     341.095E+06     139.744E+06              0.    -101.878E+06
            3255     341.273E+06     143.048E+06              0.    -102.628E+06
            3256     70.7092E+06     30.9711E+06              0.    -1.17221E+06
            3257     70.6902E+06     30.7566E+06              0.    -1.17018E+06
            3258     70.7632E+06     30.5865E+06              0.    -1.15458E+06
            3259     70.8353E+06     30.4210E+06              0.    -1.14131E+06
            3260     70.9067E+06     30.2600E+06              0.    -1.13031E+06
            3261     70.9775E+06     30.1033E+06              0.    -1.12153E+06
            3262     71.0480E+06     29.9505E+06              0.    -1.11491E+06
            3263     71.1181E+06     29.8016E+06              0.    -1.11038E+06
            3264     71.1881E+06     29.6563E+06              0.    -1.10791E+06
            3265     71.2580E+06     29.5144E+06              0.    -1.10744E+06
            3266     71.3281E+06     29.3757E+06              0.    -1.10892E+06
            3267     71.3983E+06     29.2400E+06              0.    -1.11233E+06
            3268     71.4689E+06     29.1073E+06              0.    -1.11760E+06
            3269     71.5400E+06     28.9772E+06              0.    -1.12471E+06
            3270     71.6116E+06     28.8497E+06              0.    -1.13362E+06
            3271     71.6839E+06     28.7245E+06              0.    -1.14429E+06
            3272     71.7570E+06     28.6016E+06              0.    -1.15670E+06
            3273     71.8311E+06     28.4807E+06              0.    -1.17082E+06
            3274     71.9061E+06     28.3617E+06              0.    -1.18661E+06
            3275     71.9823E+06     28.2446E+06              0.    -1.20406E+06
            3276     72.0597E+06     28.1290E+06              0.    -1.22314E+06
            3277     72.1385E+06     28.0150E+06              0.    -1.24383E+06
            3278     72.2186E+06     27.9023E+06              0.    -1.26611E+06
            3279     72.3004E+06     27.7909E+06              0.    -1.28997E+06
            3280     72.3837E+06     27.6805E+06              0.    -1.31538E+06
            3281     72.4688E+06     27.5712E+06              0.    -1.34234E+06
            3282     72.5558E+06     27.4628E+06              0.    -1.37083E+06
            3283     72.6447E+06     27.3551E+06              0.    -1.40085E+06
            3284     72.7356E+06     27.2480E+06              0.    -1.43237E+06
            3285     72.8287E+06     27.1415E+06              0.    -1.46541E+06
            3286     72.9240E+06     27.0354E+06              0.    -1.49994E+06
            3287     73.0216E+06     26.9296E+06              0.    -1.53598E+06
            3288     73.1216E+06     26.8241E+06              0.    -1.57351E+06
            3289     73.2242E+06     26.7187E+06              0.    -1.61253E+06
            3290     73.3294E+06     26.6133E+06              0.    -1.65305E+06
            3291     73.4373E+06     26.5078E+06              0.    -1.69506E+06
            3292     73.5480E+06     26.4021E+06              0.    -1.73858E+06
            3293     73.6617E+06     26.2962E+06              0.    -1.78360E+06
            3294     73.7784E+06     26.1900E+06              0.    -1.83013E+06
            3295     73.8981E+06     26.0833E+06              0.    -1.87818E+06
            3296     74.0211E+06     25.9760E+06              0.    -1.92776E+06
            3297     74.1474E+06     25.8682E+06              0.    -1.97887E+06
            3298     74.2771E+06     25.7597E+06              0.    -2.03153E+06
            3299     74.4103E+06     25.6504E+06              0.    -2.08576E+06
            3300     74.5472E+06     25.5402E+06              0.    -2.14155E+06
            3301     74.6878E+06     25.4291E+06              0.    -2.19894E+06
            3302     74.8322E+06     25.3170E+06              0.    -2.25793E+06
            3303     74.9805E+06     25.2038E+06              0.    -2.31855E+06
            3304     75.1329E+06     25.0894E+06              0.    -2.38081E+06
            3305     75.2894E+06     24.9738E+06              0.    -2.44473E+06
            3306     75.4502E+06     24.8569E+06              0.    -2.51033E+06
            3307     75.6154E+06     24.7386E+06              0.    -2.57764E+06
            3308     75.7850E+06     24.6188E+06              0.    -2.64667E+06
            3309     75.9593E+06     24.4975E+06              0.    -2.71746E+06
            3310     76.1383E+06     24.3746E+06              0.    -2.79003E+06
            3311     76.3221E+06     24.2501E+06              0.    -2.86440E+06
            3312     76.5109E+06     24.1238E+06              0.    -2.94060E+06
            3313     76.7048E+06     23.9957E+06              0.    -3.01867E+06
            3314     76.9038E+06     23.8658E+06              0.    -3.09863E+06
            3315     77.1083E+06     23.7339E+06              0.    -3.18051E+06
            3316     77.3182E+06     23.6001E+06              0.    -3.26435E+06
            3317     77.5337E+06     23.4642E+06              0.    -3.35018E+06
            3318     77.7549E+06     23.3262E+06              0.    -3.43803E+06
            3319     77.9820E+06     23.1860E+06              0.    -3.52795E+06
            3320     78.2152E+06     23.0435E+06              0.    -3.61996E+06
            3321     78.4545E+06     22.8988E+06              0.    -3.71411E+06
            3322     78.7001E+06     22.7517E+06              0.    -3.81043E+06
            3323     78.9521E+06     22.6022E+06              0.    -3.90897E+06
            3324     79.2107E+06     22.4503E+06              0.    -4.00977E+06
            3325     79.4762E+06     22.2958E+06              0.    -4.11287E+06
            3326     79.7485E+06     22.1387E+06              0.    -4.21831E+06
            3327     80.0279E+06     21.9790E+06              0.    -4.32615E+06
            3328     80.3145E+06     21.8166E+06              0.    -4.43642E+06
            3329     80.6086E+06     21.6515E+06              0.    -4.54918E+06
            3330     80.9102E+06     21.4835E+06              0.    -4.66447E+06
            3331     81.2196E+06     21.3127E+06              0.    -4.78235E+06
            3332     81.5369E+06     21.1390E+06              0.    -4.90286E+06
            3333     81.8624E+06     20.9624E+06              0.    -5.02607E+06
            3334     82.1961E+06     20.7827E+06              0.    -5.15201E+06
            3335     82.5383E+06     20.6001E+06              0.    -5.28076E+06
            3336     82.8893E+06     20.4143E+06              0.    -5.41236E+06
            3337     83.2491E+06     20.2254E+06              0.    -5.54688E+06
            3338     83.6180E+06     20.0333E+06              0.    -5.68437E+06
            3339     83.9962E+06     19.8379E+06              0.    -5.82490E+06
            3340     84.3839E+06     19.6394E+06              0.    -5.96853E+06
            3341     84.7813E+06     19.4375E+06              0.    -6.11532E+06
            3342     85.1887E+06     19.2322E+06              0.    -6.26534E+06
            3343     85.6063E+06     19.0236E+06              0.    -6.41865E+06
            3344     86.0342E+06     18.8116E+06              0.    -6.57533E+06
            3345     86.4728E+06     18.5961E+06              0.    -6.73544E+06
            3346     86.9224E+06     18.3771E+06              0.    -6.89906E+06
            3347      87.383E+06     18.1547E+06              0.    -7.06626E+06
            3348     87.8550E+06     17.9286E+06              0.    -7.23712E+06
            3349     88.3387E+06     17.6991E+06              0.    -7.41170E+06
            3350     88.8343E+06     17.4659E+06              0.    -7.59010E+06
            3351     89.3421E+06     17.2291E+06              0.    -7.77238E+06
            3352     89.8623E+06     16.9887E+06              0.    -7.95865E+06
            3353     90.3953E+06     16.7447E+06              0.    -8.14897E+06
            3354     90.9413E+06     16.4969E+06              0.    -8.34343E+06
            3355     91.5007E+06     16.2456E+06              0.    -8.54212E+06
            3356     92.0736E+06     15.9905E+06              0.    -8.74514E+06
            3357     92.6606E+06     15.7318E+06              0.    -8.95257E+06
            3358     93.2618E+06     15.4693E+06              0.    -9.16452E+06
            3359     93.8776E+06     15.2032E+06              0.    -9.38107E+06
            3360     94.5083E+06     14.9335E+06              0.    -9.60232E+06
            3361     95.1542E+06     14.6600E+06              0.    -9.82838E+06
            3362     95.8158E+06     14.3830E+06              0.    -10.0594E+06
            3363     96.4933E+06     14.1023E+06              0.    -10.2953E+06
            3364     97.1872E+06     13.8180E+06              0.    -10.5365E+06
            3365     97.8978E+06     13.5301E+06              0.    -10.7828E+06
            3366     98.6254E+06     13.2387E+06              0.    -11.0345E+06
            3367     99.3705E+06     12.9438E+06              0.    -11.2917E+06
            3368     100.134E+06     12.6454E+06              0.    -11.5545E+06
            3369     100.915E+06     12.3437E+06              0.    -11.8229E+06
            3370     101.715E+06     12.0386E+06              0.    -12.0972E+06
            3371     102.534E+06     11.7303E+06              0.    -12.3775E+06
            3372     103.373E+06     11.4187E+06              0.    -12.6639E+06
            3373     104.231E+06     11.1040E+06              0.    -12.9566E+06
            3374     105.110E+06     10.7863E+06              0.    -13.2556E+06
            3375     106.011E+06     10.4657E+06              0.    -13.5611E+06
            3376     106.932E+06     10.1422E+06              0.    -13.8733E+06
            3377     107.876E+06     9.81603E+06              0.    -14.1923E+06
            3378     108.841E+06     9.48727E+06              0.    -14.5184E+06
            3379     109.830E+06     9.15605E+06              0.    -14.8515E+06
            3380     110.843E+06     8.82253E+06              0.    -15.1920E+06
            3381     111.879E+06     8.48686E+06              0.    -15.5399E+06
            3382     112.940E+06     8.14921E+06              0.    -15.8956E+06
            3383     114.026E+06     7.80977E+06              0.    -16.2590E+06
            3384     115.138E+06     7.46872E+06              0.    -16.6305E+06
            3385     116.276E+06     7.12629E+06              0.    -17.0102E+06
            3386     117.441E+06     6.78269E+06              0.    -17.3983E+06
            3387     118.633E+06     6.43817E+06              0.    -17.7951E+06
            3388     119.854E+06     6.09299E+06              0.    -18.2006E+06
            3389     121.104E+06     5.74741E+06              0.    -18.6153E+06
            3390     122.383E+06     5.40173E+06              0.    -19.0392E+06
            3391     123.693E+06     5.05627E+06              0.    -19.4727E+06
            3392     125.033E+06     4.71135E+06              0.    -19.9159E+06
            3393     126.405E+06     4.36733E+06              0.    -20.3692E+06
            3394     127.809E+06     4.02459E+06              0.    -20.8327E+06
            3395     129.247E+06     3.68352E+06              0.    -21.3068E+06
            3396     130.718E+06     3.34456E+06              0.    -21.7917E+06
            3397     132.225E+06     3.00816E+06              0.    -22.2878E+06
            3398     133.767E+06     2.67479E+06              0.    -22.7953E+06
            3399     135.345E+06     2.34496E+06              0.    -23.3145E+06
            3400     136.960E+06     2.01923E+06              0.    -23.8458E+06
            3401     138.614E+06     1.69816E+06              0.    -24.3896E+06
            3402     140.306E+06     1.38237E+06              0.    -24.9461E+06
            3403     142.039E+06     1.07249E+06              0.    -25.5158E+06
            3404     143.813E+06     769.229E+03              0.    -26.0991E+06
            3405     145.628E+06     473.304E+03              0.    -26.6962E+06
            3406     147.486E+06     185.491E+03              0.    -27.3078E+06
            3407     149.388E+06    -93.3953E+03              0.    -27.9342E+06
            3408     151.335E+06    -362.475E+03              0.    -28.5759E+06
            3409     153.328E+06    -620.832E+03              0.    -29.2333E+06
            3410     155.368E+06    -867.486E+03              0.    -29.9070E+06
            3411     157.457E+06    -1.10140E+06              0.    -30.5975E+06
            3412     159.594E+06    -1.32146E+06              0.    -31.3054E+06
            3413     161.782E+06    -1.52651E+06              0.    -32.0313E+06
            3414     164.022E+06    -1.71531E+06              0.    -32.7757E+06
            3415     166.314E+06    -1.88652E+06              0.    -33.5393E+06
            3416     168.660E+06    -2.03875E+06              0.    -34.3228E+06
            3417     171.062E+06    -2.17052E+06              0.    -35.1270E+06
            3418     173.520E+06    -2.28024E+06              0.    -35.9525E+06
            3419     176.036E+06    -2.36621E+06              0.    -36.8001E+06
            3420     178.611E+06    -2.42667E+06              0.    -37.6708E+06
            3421     181.247E+06    -2.45968E+06              0.    -38.5653E+06
            3422     183.944E+06    -2.46324E+06              0.    -39.4846E+06
            3423     186.704E+06    -2.43517E+06              0.    -40.4296E+06
            3424     189.529E+06    -2.37318E+06              0.    -41.4014E+06
            3425     192.419E+06    -2.27480E+06              0.    -42.4011E+06
            3426     195.376E+06    -2.13740E+06              0.    -43.4298E+06
            3427     198.401E+06    -1.95820E+06              0.    -44.4887E+06
            3428     201.495E+06    -1.73419E+06              0.    -45.5791E+06
            3429      204.66E+06    -1.46219E+06              0.    -46.7022E+06
            3430     207.897E+06    -1.13876E+06              0.    -47.8596E+06
            3431     211.206E+06    -760.236E+03              0.    -49.0526E+06
            3432     214.589E+06    -322.702E+03              0.    -50.2828E+06
            3433     218.046E+06     178.061E+03              0.    -51.5518E+06
            3434     221.578E+06     746.564E+03              0.    -52.8614E+06
            3435     225.186E+06     1.38766E+06              0.    -54.2132E+06
            3436     228.870E+06     2.10656E+06              0.    -55.6090E+06
            3437     232.630E+06     2.90886E+06              0.    -57.0509E+06
            3438     236.465E+06     3.80059E+06              0.    -58.5406E+06
            3439     240.375E+06     4.78824E+06              0.    -60.0803E+06
            3440     244.359E+06     5.87879E+06              0.    -61.6718E+06
            3441     248.414E+06     7.07976E+06              0.    -63.3171E+06
            3442     252.539E+06     8.39924E+06              0.    -65.0183E+06
            3443     256.730E+06     9.84597E+06              0.    -66.7773E+06
            3444     260.984E+06     11.4293E+06              0.    -68.5956E+06
            3445     265.295E+06     13.1595E+06              0.    -70.4750E+06
            3446     269.656E+06     15.0472E+06              0.    -72.4166E+06
            3447     274.060E+06     17.1041E+06              0.    -74.4213E+06
            3448     278.497E+06     19.3427E+06              0.    -76.4893E+06
            3449     282.956E+06     21.7763E+06              0.    -78.6201E+06
            3450     287.422E+06     24.4190E+06              0.    -80.8121E+06
            3451     291.878E+06     27.2855E+06              0.    -83.0626E+06
            3452     296.305E+06     30.3914E+06              0.    -85.3670E+06
            3453     300.679E+06     33.7526E+06              0.    -87.7186E+06
            3454     304.973E+06     37.3852E+06              0.    -90.1081E+06
            3455     309.154E+06     41.3054E+06              0.    -92.5227E+06
            3456     313.186E+06     45.5280E+06              0.    -94.9454E+06
            3457     317.028E+06     50.0669E+06              0.    -97.3544E+06
            3458     320.631E+06     54.9327E+06              0.    -99.7213E+06
            3459     323.943E+06     60.1321E+06              0.    -102.011E+06
            3460     326.909E+06     65.6655E+06              0.    -104.180E+06
            3461     329.467E+06     71.5246E+06              0.    -106.175E+06
            3462     331.555E+06     77.6897E+06              0.    -107.935E+06
            3463     333.112E+06     84.1258E+06              0.    -109.388E+06
            3464     334.080E+06     90.7796E+06              0.    -110.452E+06
            3465     334.409E+06     97.5751E+06              0.    -111.043E+06
            3466     334.060E+06     104.412E+06              0.    -111.071E+06
            3467     333.013E+06     111.163E+06              0.    -110.452E+06
            3468     331.263E+06     117.677E+06              0.    -109.112E+06
            3469     328.831E+06     123.782E+06              0.    -106.996E+06
            3470     325.755E+06     129.298E+06              0.    -104.076E+06
            3471     322.094E+06     134.042E+06              0.    -100.358E+06
            3472     322.071E+06     136.897E+06              0.    -100.890E+06
            3473     70.6614E+06     30.9510E+06              0.    -1.24477E+06
            3474     70.6426E+06     30.7394E+06              0.    -1.24261E+06
            3475     70.7146E+06     30.5717E+06              0.    -1.22604E+06
            3476     70.7857E+06     30.4086E+06              0.    -1.21195E+06
            3477     70.8561E+06     30.2499E+06              0.    -1.20028E+06
            3478     70.9260E+06     30.0953E+06              0.    -1.19095E+06
            3479     70.9954E+06     29.9447E+06              0.    -1.18391E+06
            3480     71.0646E+06     29.7979E+06              0.    -1.17911E+06
            3481     71.1336E+06     29.6546E+06              0.    -1.17648E+06
            3482     71.2025E+06     29.5147E+06              0.    -1.17598E+06
            3483     71.2716E+06     29.3779E+06              0.    -1.17755E+06
            3484     71.3409E+06     29.2442E+06              0.    -1.18116E+06
            3485     71.4105E+06     29.1133E+06              0.    -1.18676E+06
            3486     71.4805E+06     28.9850E+06              0.    -1.19431E+06
            3487     71.5512E+06     28.8593E+06              0.    -1.20377E+06
            3488     71.6225E+06     28.7359E+06              0.    -1.21510E+06
            3489     71.6946E+06     28.6147E+06              0.    -1.22828E+06
            3490     71.7675E+06     28.4955E+06              0.    -1.24327E+06
            3491     71.8415E+06     28.3782E+06              0.    -1.26004E+06
            3492     71.9166E+06     28.2627E+06              0.    -1.27856E+06
            3493     71.9930E+06     28.1488E+06              0.    -1.29882E+06
            3494     72.0706E+06     28.0363E+06              0.    -1.32079E+06
            3495     72.1496E+06     27.9252E+06              0.    -1.34445E+06
            3496     72.2302E+06     27.8154E+06              0.    -1.36978E+06
            3497     72.3124E+06     27.7066E+06              0.    -1.39676E+06
            3498     72.3963E+06     27.5988E+06              0.    -1.42538E+06
            3499     72.4820E+06     27.4919E+06              0.    -1.45563E+06
            3500     72.5697E+06     27.3857E+06              0.     -1.4875E+06
            3501     72.6593E+06     27.2802E+06              0.    -1.52098E+06
            3502     72.7510E+06     27.1751E+06              0.    -1.55605E+06
            3503      72.845E+06     27.0706E+06              0.    -1.59272E+06
            3504     72.9412E+06     26.9663E+06              0.    -1.63098E+06
            3505     73.0399E+06     26.8622E+06              0.    -1.67082E+06
            3506     73.1410E+06     26.7583E+06              0.    -1.71226E+06
            3507     73.2447E+06     26.6544E+06              0.    -1.75528E+06
            3508     73.3511E+06     26.5504E+06              0.    -1.79989E+06
            3509     73.4602E+06     26.4463E+06              0.    -1.84609E+06
            3510     73.5723E+06     26.3419E+06              0.    -1.89389E+06
            3511     73.6873E+06     26.2371E+06              0.    -1.94329E+06
            3512     73.8053E+06     26.1319E+06              0.    -1.99431E+06
            3513     73.9266E+06     26.0262E+06              0.    -2.04694E+06
            3514     74.0511E+06     25.9199E+06              0.    -2.10121E+06
            3515     74.1789E+06     25.8130E+06              0.    -2.15712E+06
            3516     74.3103E+06     25.7052E+06              0.    -2.21469E+06
            3517     74.4452E+06     25.5966E+06              0.    -2.27393E+06
            3518     74.5837E+06     25.4871E+06              0.    -2.33486E+06
            3519     74.7261E+06     25.3766E+06              0.    -2.39749E+06
            3520     74.8723E+06     25.2650E+06              0.    -2.46184E+06
            3521     75.0225E+06     25.1523E+06              0.    -2.52794E+06
            3522     75.1768E+06     25.0384E+06              0.    -2.59580E+06
            3523     75.3353E+06     24.9231E+06              0.    -2.66545E+06
            3524     75.4981E+06     24.8065E+06              0.    -2.73690E+06
            3525     75.6653E+06     24.6885E+06              0.    -2.81019E+06
            3526     75.8371E+06     24.5690E+06              0.    -2.88534E+06
            3527     76.0135E+06     24.4479E+06              0.    -2.96238E+06
            3528     76.1947E+06     24.3251E+06              0.    -3.04133E+06
            3529     76.3808E+06     24.2007E+06              0.    -3.12223E+06
            3530     76.5719E+06     24.0745E+06              0.    -3.20511E+06
            3531     76.7681E+06     23.9465E+06              0.    -3.28999E+06
            3532     76.9696E+06     23.8165E+06              0.    -3.37691E+06
            3533     77.1764E+06     23.6847E+06              0.    -3.46591E+06
            3534     77.3889E+06     23.5507E+06              0.    -3.55702E+06
            3535     77.6069E+06     23.4148E+06              0.    -3.65028E+06
            3536     77.8307E+06     23.2766E+06              0.    -3.74572E+06
            3537     78.0605E+06     23.1363E+06              0.    -3.84339E+06
            3538     78.2963E+06     22.9937E+06              0.    -3.94333E+06
            3539     78.5384E+06     22.8488E+06              0.    -4.04557E+06
            3540     78.7867E+06     22.7016E+06              0.    -4.15016E+06
            3541     79.0416E+06     22.5519E+06              0.    -4.25715E+06
            3542     79.3032E+06     22.3997E+06              0.    -4.36658E+06
            3543     79.5716E+06     22.2450E+06              0.    -4.47850E+06
            3544     79.8469E+06     22.0876E+06              0.    -4.59296E+06
            3545     80.1293E+06     21.9277E+06              0.    -4.71000E+06
            3546     80.4191E+06     21.7650E+06              0.    -4.82967E+06
            3547     80.7163E+06     21.5996E+06              0.    -4.95203E+06
            3548     81.0212E+06     21.4314E+06              0.    -5.07713E+06
            3549     81.3338E+06     21.2604E+06              0.    -5.20503E+06
            3550     81.6545E+06     21.0864E+06              0.    -5.33578E+06
            3551     81.9833E+06     20.9095E+06              0.    -5.46944E+06
            3552     82.3205E+06     20.7296E+06              0.    -5.60607E+06
            3553     82.6663E+06     20.5467E+06              0.    -5.74573E+06
            3554     83.0207E+06     20.3607E+06              0.    -5.88847E+06
            3555     83.3842E+06     20.1716E+06              0.    -6.03437E+06
            3556     83.7568E+06     19.9793E+06              0.    -6.18349E+06
            3557     84.1387E+06     19.7838E+06              0.    -6.33589E+06
            3558     84.5302E+06     19.5851E+06              0.    -6.49164E+06
            3559     84.9315E+06     19.3831E+06              0.    -6.65082E+06
            3560     85.3428E+06     19.1777E+06              0.    -6.81348E+06
            3561     85.7644E+06     18.9691E+06              0.    -6.97972E+06
            3562     86.1964E+06      18.757E+06              0.    -7.14958E+06
            3563     86.6392E+06     18.5415E+06              0.    -7.32317E+06
            3564     87.0929E+06     18.3226E+06              0.    -7.50054E+06
            3565     87.5578E+06     18.1002E+06              0.    -7.68179E+06
            3566     88.0341E+06     17.8744E+06              0.    -7.86699E+06
            3567     88.5222E+06     17.6450E+06              0.    -8.05623E+06
            3568     89.0222E+06     17.4121E+06              0.    -8.24958E+06
            3569     89.5345E+06     17.1756E+06              0.    -8.44715E+06
            3570     90.0593E+06     16.9356E+06              0.    -8.64901E+06
            3571     90.5969E+06     16.6920E+06              0.    -8.85525E+06
            3572     91.1476E+06     16.4448E+06              0.    -9.06598E+06
            3573     91.7118E+06     16.1940E+06              0.    -9.28128E+06
            3574     92.2896E+06     15.9397E+06              0.    -9.50125E+06
            3575     92.8814E+06     15.6817E+06              0.    -9.72600E+06
            3576     93.4876E+06     15.4202E+06              0.    -9.95562E+06
            3577     94.1084E+06     15.1550E+06              0.    -10.1902E+06
            3578     94.7442E+06     14.8864E+06              0.    -10.4299E+06
            3579     95.3953E+06     14.6141E+06              0.    -10.6748E+06
            3580     96.0621E+06     14.3384E+06              0.    -10.9249E+06
            3581     96.7449E+06     14.0591E+06              0.    -11.1805E+06
            3582     97.4442E+06     13.7764E+06              0.    -11.4417E+06
            3583     98.1601E+06     13.4902E+06              0.    -11.7085E+06
            3584     98.8932E+06     13.2007E+06              0.    -11.9810E+06
            3585     99.6439E+06     12.9078E+06              0.    -12.2595E+06
            3586     100.412E+06     12.6117E+06              0.    -12.5440E+06
            3587     101.199E+06     12.3123E+06              0.    -12.8347E+06
            3588     102.005E+06     12.0098E+06              0.    -13.1317E+06
            3589     102.830E+06     11.7042E+06              0.    -13.4351E+06
            3590     103.674E+06     11.3956E+06              0.    -13.7451E+06
            3591     104.539E+06     11.0841E+06              0.    -14.0619E+06
            3592     105.424E+06     10.7698E+06              0.    -14.3855E+06
            3593     106.330E+06     10.4528E+06              0.    -14.7161E+06
            3594     107.257E+06     10.1332E+06              0.    -15.0540E+06
            3595     108.207E+06     9.81115E+06              0.    -15.3992E+06
            3596     109.178E+06     9.48682E+06              0.    -15.7520E+06
            3597     110.173E+06     9.16033E+06              0.    -16.1124E+06
            3598     111.191E+06     8.83184E+06              0.    -16.4808E+06
            3599     112.234E+06     8.50153E+06              0.    -16.8572E+06
            3600     113.301E+06     8.16959E+06              0.    -17.2418E+06
            3601     114.393E+06      7.8362E+06              0.    -17.6349E+06
            3602     115.510E+06     7.50159E+06              0.    -18.0367E+06
            3603     116.654E+06     7.16599E+06              0.    -18.4473E+06
            3604     117.825E+06     6.82964E+06              0.    -18.8669E+06
            3605     119.023E+06     6.49280E+06              0.    -19.2959E+06
            3606     120.250E+06     6.15575E+06              0.    -19.7344E+06
            3607     121.505E+06     5.81879E+06              0.    -20.1826E+06
            3608     122.790E+06     5.48224E+06              0.    -20.6408E+06
            3609     124.104E+06     5.14644E+06              0.    -21.1093E+06
            3610     125.450E+06     4.81174E+06              0.    -21.5883E+06
            3611     126.827E+06     4.47853E+06              0.    -22.0780E+06
            3612     128.236E+06     4.14721E+06              0.    -22.5788E+06
            3613     129.678E+06     3.81822E+06              0.    -23.0909E+06
            3614     131.154E+06     3.49201E+06              0.    -23.6147E+06
            3615     132.665E+06     3.16908E+06              0.    -24.1505E+06
            3616     134.210E+06     2.84993E+06              0.    -24.6985E+06
            3617     135.792E+06     2.53513E+06              0.    -25.2591E+06
            3618     137.411E+06     2.22524E+06              0.    -25.8327E+06
            3619     139.067E+06     1.92090E+06              0.    -26.4196E+06
            3620     140.762E+06     1.62275E+06              0.    -27.0203E+06
            3621     142.497E+06      1.3315E+06              0.     -27.635E+06
            3622     144.272E+06     1.04787E+06              0.    -28.2642E+06
            3623     146.088E+06     772.662E+03              0.    -28.9084E+06
            3624     147.946E+06     506.686E+03              0.    -29.5680E+06
            3625     149.847E+06     250.836E+03              0.    -30.2434E+06
            3626     151.793E+06     6.03866E+03              0.    -30.9352E+06
            3627     153.784E+06    -226.715E+03              0.    -31.6438E+06
            3628     155.821E+06    -446.373E+03              0.    -32.3698E+06
            3629     157.905E+06    -651.828E+03              0.    -33.1137E+06
            3630     160.037E+06    -841.890E+03              0.    -33.8761E+06
            3631     162.218E+06    -1.01531E+06              0.    -34.6577E+06
            3632     164.450E+06    -1.17075E+06              0.    -35.4591E+06
            3633     166.733E+06    -1.30681E+06              0.    -36.2808E+06
            3634     169.068E+06    -1.42198E+06              0.    -37.1238E+06
            3635     171.457E+06    -1.51465E+06              0.    -37.9886E+06
            3636     173.901E+06    -1.58315E+06              0.    -38.8760E+06
            3637     176.400E+06    -1.62566E+06              0.    -39.7869E+06
            3638     178.956E+06    -1.64027E+06              0.    -40.7221E+06
            3639     181.569E+06    -1.62494E+06              0.    -41.6825E+06
            3640     184.242E+06    -1.57749E+06              0.    -42.6691E+06
            3641     186.974E+06    -1.49561E+06              0.    -43.6827E+06
            3642     189.768E+06    -1.37684E+06              0.    -44.7245E+06
            3643     192.623E+06    -1.21854E+06              0.    -45.7955E+06
            3644     195.541E+06    -1.01791E+06              0.    -46.8969E+06
            3645     198.523E+06    -771.965E+03              0.    -48.0297E+06
            3646     201.569E+06    -477.501E+03              0.    -49.1954E+06
            3647     204.681E+06    -131.106E+03              0.    -50.3950E+06
            3648     207.858E+06     270.873E+03              0.    -51.6300E+06
            3649     211.101E+06     732.337E+03              0.    -52.9018E+06
            3650     214.411E+06     1.25747E+06              0.    -54.2118E+06
            3651     217.787E+06     1.85074E+06              0.    -55.5614E+06
            3652     221.230E+06     2.51695E+06              0.    -56.9523E+06
            3653     224.739E+06     3.26123E+06              0.    -58.3859E+06
            3654     228.312E+06     4.08910E+06              0.    -59.8639E+06
            3655     231.950E+06     5.00645E+06              0.    -61.3877E+06
            3656     235.651E+06     6.01963E+06              0.    -62.9590E+06
            3657     239.412E+06     7.13544E+06              0.    -64.5794E+06
            3658     243.230E+06     8.36115E+06              0.    -66.2502E+06
            3659     247.103E+06     9.70459E+06              0.    -67.9728E+06
            3660     251.026E+06     11.1741E+06              0.    -69.7483E+06
            3661     254.994E+06     12.7787E+06              0.    -71.5778E+06
            3662     259.000E+06     14.5279E+06              0.    -73.4618E+06
            3663     263.037E+06     16.4319E+06              0.    -75.4005E+06
            3664     267.096E+06     18.5016E+06              0.    -77.3936E+06
            3665     271.165E+06     20.7484E+06              0.    -79.4399E+06
            3666     275.233E+06     23.1845E+06              0.    -81.5375E+06
            3667     279.282E+06     25.8223E+06              0.    -83.6831E+06
            3668     283.297E+06     28.6752E+06              0.    -85.8719E+06
            3669     287.256E+06     31.7563E+06              0.    -88.0977E+06
            3670     291.135E+06     35.0793E+06              0.    -90.3514E+06
            3671     294.907E+06     38.6572E+06              0.    -92.6216E+06
            3672     298.541E+06     42.5026E+06              0.    -94.8932E+06
            3673     302.002E+06     46.6265E+06              0.    -97.1471E+06
            3674     305.251E+06     51.0377E+06              0.    -99.3595E+06
            3675     308.243E+06     55.7420E+06              0.    -101.501E+06
            3676     310.934E+06     60.7400E+06              0.    -103.535E+06
            3677     313.273E+06     66.0262E+06              0.    -105.420E+06
            3678     315.209E+06     71.5863E+06              0.    -107.105E+06
            3679     316.690E+06     77.3952E+06              0.    -108.532E+06
            3680     317.669E+06     83.4139E+06              0.    -109.636E+06
            3681     318.100E+06     89.5875E+06              0.    -110.347E+06
            3682     317.948E+06     95.8420E+06              0.    -110.592E+06
            3683     317.186E+06     102.084E+06              0.    -110.297E+06
            3684     315.805E+06     108.199E+06              0.    -109.394E+06
            3685     313.809E+06     114.057E+06              0.    -107.827E+06
            3686     311.218E+06     119.510E+06              0.    -105.555E+06
            3687     308.071E+06     124.409E+06              0.    -102.562E+06
            3688     304.418E+06     128.604E+06              0.    -98.8537E+06
            3689     304.222E+06     131.054E+06              0.     -99.199E+06
            3690     70.6107E+06     30.9296E+06              0.    -1.31627E+06
            3691     70.5923E+06     30.7213E+06              0.    -1.31398E+06
            3692     70.6631E+06     30.5561E+06              0.    -1.29646E+06
            3693     70.7332E+06     30.3955E+06              0.    -1.28156E+06
            3694     70.8025E+06     30.2391E+06              0.    -1.26921E+06
            3695     70.8714E+06     30.0869E+06              0.    -1.25935E+06
            3696     70.9397E+06     29.9385E+06              0.    -1.25190E+06
            3697     71.0079E+06     29.7939E+06              0.    -1.24682E+06
            3698     71.0758E+06     29.6528E+06              0.    -1.24404E+06
            3699     71.1437E+06     29.5150E+06              0.    -1.24351E+06
            3700     71.2118E+06     29.3803E+06              0.    -1.24518E+06
            3701     71.2800E+06     29.2486E+06              0.    -1.24899E+06
            3702     71.3485E+06     29.1196E+06              0.    -1.25491E+06
            3703     71.4175E+06     28.9933E+06              0.    -1.26289E+06
            3704     71.4871E+06     28.8695E+06              0.    -1.27289E+06
            3705     71.5573E+06     28.7479E+06              0.    -1.28487E+06
            3706     71.6283E+06     28.6286E+06              0.    -1.29880E+06
            3707     71.7002E+06     28.5112E+06              0.    -1.31465E+06
            3708     71.7731E+06     28.3957E+06              0.    -1.33238E+06
            3709     71.8471E+06     28.2819E+06              0.    -1.35197E+06
            3710     71.9222E+06     28.1697E+06              0.    -1.37338E+06
            3711     71.9987E+06     28.0589E+06              0.    -1.39661E+06
            3712     72.0765E+06     27.9495E+06              0.    -1.42162E+06
            3713     72.1559E+06     27.8413E+06              0.    -1.44840E+06
            3714     72.2368E+06     27.7342E+06              0.    -1.47693E+06
            3715     72.3195E+06     27.6280E+06              0.    -1.50720E+06
            3716     72.4039E+06     27.5227E+06              0.    -1.53918E+06
            3717     72.4902E+06     27.4182E+06              0.    -1.57287E+06
            3718     72.5785E+06     27.3142E+06              0.    -1.60827E+06
            3719     72.6688E+06     27.2108E+06              0.    -1.64535E+06
            3720     72.7613E+06     27.1078E+06              0.    -1.68412E+06
            3721     72.8561E+06     27.0051E+06              0.    -1.72457E+06
            3722     72.9532E+06     26.9027E+06              0.    -1.76670E+06
            3723     73.0528E+06     26.8003E+06              0.    -1.81051E+06
            3724     73.1550E+06     26.6980E+06              0.    -1.85599E+06
            3725     73.2597E+06     26.5956E+06              0.    -1.90315E+06
            3726     73.3672E+06     26.4930E+06              0.    -1.95200E+06
            3727     73.4775E+06     26.3902E+06              0.    -2.00254E+06
            3728     73.5908E+06     26.2871E+06              0.    -2.05477E+06
            3729     73.7071E+06     26.1835E+06              0.    -2.10870E+06
            3730     73.8264E+06     26.0794E+06              0.    -2.16435E+06
            3731     73.9491E+06     25.9748E+06              0.    -2.22173E+06
            3732     74.0750E+06     25.8694E+06              0.    -2.28084E+06
            3733     74.2043E+06     25.7633E+06              0.    -2.34170E+06
            3734     74.3371E+06     25.6564E+06              0.    -2.40433E+06
            3735     74.4735E+06     25.5486E+06              0.    -2.46874E+06
            3736     74.6137E+06     25.4398E+06              0.    -2.53496E+06
            3737     74.7577E+06     25.3300E+06              0.    -2.60299E+06
            3738     74.9056E+06     25.2190E+06              0.    -2.67287E+06
            3739     75.0575E+06     25.1068E+06              0.    -2.74461E+06
            3740     75.2136E+06     24.9933E+06              0.    -2.81824E+06
            3741     75.3739E+06     24.8786E+06              0.    -2.89378E+06
            3742     75.5385E+06     24.7624E+06              0.    -2.97126E+06
            3743     75.7076E+06     24.6447E+06              0.    -3.05070E+06
            3744     75.8813E+06     24.5255E+06              0.    -3.13214E+06
            3745     76.0597E+06     24.4047E+06              0.    -3.21560E+06
            3746     76.2429E+06     24.2822E+06              0.    -3.30112E+06
            3747     76.4311E+06     24.1580E+06              0.    -3.38873E+06
            3748     76.6243E+06     24.0319E+06              0.    -3.47845E+06
            3749     76.8227E+06     23.9040E+06              0.    -3.57034E+06
            3750     77.0263E+06     23.7742E+06              0.    -3.66441E+06
            3751     77.2354E+06     23.6424E+06              0.    -3.76072E+06
            3752     77.4501E+06     23.5086E+06              0.    -3.85930E+06
            3753     77.6705E+06     23.3727E+06              0.    -3.96018E+06
            3754     77.8966E+06     23.2346E+06              0.    -4.06342E+06
            3755     78.1288E+06     23.0943E+06              0.    -4.16905E+06
            3756     78.3671E+06     22.9517E+06              0.    -4.27712E+06
            3757     78.6116E+06     22.8068E+06              0.    -4.38767E+06
            3758     78.8625E+06     22.6594E+06              0.    -4.50075E+06
            3759     79.1200E+06     22.5097E+06              0.    -4.61641E+06
            3760     79.3842E+06     22.3575E+06              0.    -4.73470E+06
            3761     79.6552E+06     22.2027E+06              0.    -4.85566E+06
            3762     79.9332E+06     22.0453E+06              0.    -4.97936E+06
            3763     80.2184E+06     21.8853E+06              0.    -5.10583E+06
            3764     80.5110E+06     21.7226E+06              0.    -5.23515E+06
            3765     80.8110E+06     21.5571E+06              0.    -5.36736E+06
            3766     81.1188E+06     21.3888E+06              0.    -5.50252E+06
            3767     81.4344E+06     21.2177E+06              0.    -5.64069E+06
            3768     81.7580E+06     21.0438E+06              0.    -5.78194E+06
            3769     82.0898E+06     20.8668E+06              0.    -5.92631E+06
            3770     82.4301E+06     20.6869E+06              0.    -6.07389E+06
            3771     82.7790E+06     20.5040E+06              0.    -6.22472E+06
            3772     83.1366E+06     20.3180E+06              0.    -6.37888E+06
            3773     83.5033E+06     20.1290E+06              0.    -6.53644E+06
            3774     83.8791E+06     19.9367E+06              0.    -6.69746E+06
            3775     84.2644E+06     19.7414E+06              0.    -6.86203E+06
            3776     84.6592E+06     19.5428E+06              0.    -7.03020E+06
            3777     85.0640E+06     19.3409E+06              0.    -7.20205E+06
            3778     85.4787E+06     19.1358E+06              0.    -7.37767E+06
            3779     85.9038E+06     18.9273E+06              0.    -7.55712E+06
            3780     86.3394E+06     18.7156E+06              0.    -7.74049E+06
            3781     86.7857E+06     18.5004E+06              0.    -7.92786E+06
            3782     87.2430E+06     18.2819E+06              0.    -8.11932E+06
            3783     87.7116E+06     18.0600E+06              0.    -8.31494E+06
            3784     88.1917E+06     17.8346E+06              0.    -8.51482E+06
            3785     88.6836E+06     17.6057E+06              0.    -8.71904E+06
            3786     89.1874E+06     17.3735E+06              0.    -8.92769E+06
            3787     89.7036E+06     17.1377E+06              0.    -9.14088E+06
            3788     90.2324E+06     16.8984E+06              0.    -9.35869E+06
            3789     90.7740E+06     16.6557E+06              0.    -9.58122E+06
            3790     91.3287E+06     16.4094E+06              0.    -9.80857E+06
            3791     91.8969E+06     16.1597E+06              0.    -10.0408E+06
            3792     92.4789E+06     15.9064E+06              0.    -10.2781E+06
            3793     93.0749E+06     15.6497E+06              0.    -10.5206E+06
            3794     93.6853E+06     15.3895E+06              0.    -10.7682E+06
            3795     94.3103E+06     15.1258E+06              0.    -11.0213E+06
            3796     94.9504E+06     14.8587E+06              0.    -11.2798E+06
            3797     95.6059E+06     14.5881E+06              0.    -11.5439E+06
            3798     96.2770E+06     14.3142E+06              0.    -11.8136E+06
            3799     96.9642E+06     14.0369E+06              0.    -12.0892E+06
            3800     97.6679E+06     13.7563E+06              0.    -12.3708E+06
            3801     98.3883E+06     13.4724E+06              0.    -12.6584E+06
            3802     99.1259E+06     13.1853E+06              0.    -12.9523E+06
            3803     99.8810E+06     12.8951E+06              0.    -13.2525E+06
            3804     100.654E+06     12.6017E+06              0.    -13.5592E+06
            3805     101.446E+06     12.3053E+06              0.    -13.8725E+06
            3806     102.256E+06     12.0060E+06              0.    -14.1926E+06
            3807     103.085E+06     11.7038E+06              0.    -14.5196E+06
            3808     103.934E+06     11.3988E+06              0.    -14.8536E+06
            3809     104.803E+06     11.0911E+06              0.    -15.1949E+06
            3810     105.693E+06     10.7809E+06              0.    -15.5436E+06
            3811     106.603E+06     10.4683E+06              0.    -15.8999E+06
            3812     107.535E+06     10.1534E+06              0.    -16.2638E+06
            3813     108.489E+06     9.83630E+06              0.    -16.6357E+06
            3814     109.466E+06     9.51720E+06              0.    -17.0156E+06
            3815     110.465E+06     9.19626E+06              0.    -17.4038E+06
            3816     111.487E+06     8.87366E+06              0.    -17.8005E+06
            3817     112.534E+06     8.54958E+06              0.    -18.2058E+06
            3818     113.605E+06     8.22424E+06              0.    -18.6199E+06
            3819     114.701E+06     7.89784E+06              0.    -19.0431E+06
            3820     115.823E+06     7.57062E+06              0.    -19.4756E+06
            3821     116.971E+06     7.24283E+06              0.    -19.9176E+06
            3822     118.146E+06     6.91474E+06              0.    -20.3692E+06
            3823     119.348E+06     6.58664E+06              0.    -20.8308E+06
            3824     120.578E+06     6.25881E+06              0.    -21.3026E+06
            3825     121.836E+06     5.93160E+06              0.    -21.7849E+06
            3826     123.124E+06     5.60533E+06              0.    -22.2778E+06
            3827     124.442E+06     5.28037E+06              0.    -22.7817E+06
            3828     125.790E+06     4.95712E+06              0.    -23.2968E+06
            3829     127.170E+06     4.63598E+06              0.    -23.8234E+06
            3830     128.581E+06     4.31740E+06              0.    -24.3618E+06
            3831     130.025E+06     4.00183E+06              0.    -24.9124E+06
            3832     131.503E+06     3.68977E+06              0.    -25.4754E+06
            3833     133.014E+06     3.38176E+06              0.    -26.0512E+06
            3834     134.561E+06     3.07833E+06              0.    -26.6400E+06
            3835     136.143E+06     2.78008E+06              0.    -27.2423E+06
            3836     137.761E+06     2.48764E+06              0.    -27.8585E+06
            3837     139.417E+06     2.20167E+06              0.    -28.4888E+06
            3838     141.110E+06     1.92288E+06              0.    -29.1338E+06
            3839     142.843E+06     1.65200E+06              0.    -29.7937E+06
            3840     144.615E+06     1.38984E+06              0.    -30.4691E+06
            3841     146.427E+06     1.13722E+06              0.    -31.1604E+06
            3842     148.281E+06     895.038E+03              0.    -31.8680E+06
            3843     150.177E+06     664.235E+03              0.    -32.5924E+06
            3844     152.117E+06     445.811E+03              0.    -33.3342E+06
            3845     154.100E+06     240.823E+03              0.    -34.0939E+06
            3846     156.128E+06     50.3908E+03              0.    -34.8720E+06
            3847     158.202E+06    -124.287E+03              0.    -35.6690E+06
            3848     160.323E+06    -281.951E+03              0.    -36.4857E+06
            3849     162.491E+06    -421.260E+03              0.    -37.3225E+06
            3850     164.708E+06    -540.789E+03              0.    -38.1802E+06
            3851     166.975E+06    -639.034E+03              0.    -39.0595E+06
            3852     169.292E+06    -714.381E+03              0.    -39.9610E+06
            3853     171.660E+06    -765.133E+03              0.    -40.8855E+06
            3854     174.080E+06    -789.477E+03              0.    -41.8338E+06
            3855     176.554E+06    -785.488E+03              0.    -42.8067E+06
            3856     179.081E+06    -751.124E+03              0.    -43.8050E+06
            3857     181.664E+06    -684.202E+03              0.    -44.8297E+06
            3858     184.301E+06    -582.411E+03              0.    -45.8815E+06
            3859     186.995E+06    -443.285E+03              0.    -46.9616E+06
            3860     189.746E+06    -264.195E+03              0.    -48.0709E+06
            3861     192.554E+06    -42.3493E+03              0.    -49.2104E+06
            3862     195.420E+06     225.241E+03              0.    -50.3812E+06
            3863     198.345E+06     541.749E+03              0.    -51.5844E+06
            3864     201.329E+06     910.570E+03              0.    -52.8212E+06
            3865     204.371E+06     1.33533E+06              0.    -54.0927E+06
            3866     207.472E+06     1.81988E+06              0.    -55.4003E+06
            3867     210.631E+06     2.36835E+06              0.    -56.7450E+06
            3868     213.849E+06     2.98517E+06              0.    -58.1282E+06
            3869     217.124E+06     3.67502E+06              0.    -59.5511E+06
            3870     220.455E+06     4.44297E+06              0.    -61.0151E+06
            3871     223.842E+06     5.29437E+06              0.    -62.5212E+06
            3872     227.281E+06     6.23500E+06              0.    -64.0708E+06
            3873     230.771E+06     7.27099E+06              0.    -65.6649E+06
            3874     234.310E+06     8.40890E+06              0.    -67.3047E+06
            3875     237.892E+06     9.65575E+06              0.    -68.9909E+06
            3876     241.514E+06     11.0190E+06              0.    -70.7243E+06
            3877     245.172E+06     12.5066E+06              0.    -72.5054E+06
            3878     248.857E+06     14.1270E+06              0.    -74.3342E+06
            3879     252.565E+06     15.8892E+06              0.    -76.2106E+06
            3880     256.285E+06     17.8027E+06              0.    -78.1336E+06
            3881     260.007E+06     19.8773E+06              0.    -80.1017E+06
            3882     263.720E+06     22.1235E+06              0.    -82.1127E+06
            3883     267.411E+06     24.5522E+06              0.    -84.1631E+06
            3884     271.062E+06     27.1746E+06              0.    -86.2482E+06
            3885     274.657E+06     30.0018E+06              0.    -88.3617E+06
            3886     278.174E+06     33.0452E+06              0.    -90.4954E+06
            3887     281.589E+06     36.3158E+06              0.    -92.6387E+06
            3888     284.877E+06     39.8239E+06              0.    -94.7783E+06
            3889     288.007E+06     43.5788E+06              0.    -96.8976E+06
            3890     290.946E+06     47.5877E+06              0.    -98.9760E+06
            3891     293.659E+06     51.8555E+06              0.    -100.989E+06
            3892     296.106E+06     56.3830E+06              0.    -102.906E+06
            3893     298.247E+06     61.1666E+06              0.    -104.691E+06
            3894     300.038E+06     66.1957E+06              0.    -106.305E+06
            3895     301.438E+06     71.4517E+06              0.    -107.698E+06
            3896     302.404E+06     76.9060E+06              0.    -108.819E+06
            3897     302.898E+06     82.5175E+06              0.    -109.610E+06
            3898     302.886E+06     88.2315E+06              0.    -110.009E+06
            3899     302.342E+06     93.9778E+06              0.    -109.954E+06
            3900     301.252E+06     99.6701E+06              0.    -109.384E+06
            3901     299.611E+06     105.207E+06              0.    -108.246E+06
            3902     297.428E+06     110.474E+06              0.    -106.494E+06
            3903     294.726E+06     115.347E+06              0.    -104.101E+06
            3904     291.540E+06     119.698E+06              0.    -101.054E+06
            3905     287.912E+06     123.403E+06              0.    -97.3642E+06
            3906     287.569E+06     125.492E+06              0.    -97.5470E+06
            3907     70.5572E+06     30.9071E+06              0.    -1.38664E+06
            3908     70.5391E+06     30.7021E+06              0.    -1.38423E+06
            3909     70.6088E+06     30.5396E+06              0.    -1.36577E+06
            3910     70.6778E+06     30.3816E+06              0.    -1.35007E+06
            3911      70.746E+06     30.2277E+06              0.    -1.33706E+06
            3912     70.8137E+06     30.0780E+06              0.    -1.32667E+06
            3913     70.8810E+06     29.9320E+06              0.    -1.31883E+06
            3914      70.948E+06     29.7897E+06              0.    -1.31347E+06
            3915     71.0149E+06     29.6509E+06              0.    -1.31054E+06
            3916     71.0817E+06     29.5153E+06              0.    -1.30998E+06
            3917     71.1486E+06     29.3828E+06              0.    -1.31173E+06
            3918     71.2157E+06     29.2532E+06              0.    -1.31575E+06
            3919     71.2832E+06     29.1263E+06              0.    -1.32198E+06
            3920     71.3511E+06     29.0021E+06              0.    -1.33039E+06
            3921     71.4195E+06     28.8802E+06              0.    -1.34092E+06
            3922     71.4886E+06     28.7607E+06              0.    -1.35354E+06
            3923     71.5585E+06     28.6432E+06              0.    -1.36821E+06
            3924     71.6292E+06     28.5277E+06              0.    -1.38490E+06
            3925     71.7009E+06     28.4141E+06              0.    -1.40358E+06
            3926     71.7736E+06     28.3021E+06              0.    -1.42421E+06
            3927     71.8476E+06     28.1917E+06              0.    -1.44677E+06
            3928     71.9228E+06     28.0828E+06              0.    -1.47123E+06
            3929     71.9994E+06     27.9752E+06              0.    -1.49758E+06
            3930     72.0775E+06     27.8687E+06              0.    -1.52579E+06
            3931     72.1571E+06     27.7633E+06              0.    -1.55584E+06
            3932     72.2384E+06     27.6589E+06              0.    -1.58771E+06
            3933     72.3214E+06     27.5553E+06              0.    -1.62140E+06
            3934     72.4063E+06     27.4524E+06              0.    -1.65689E+06
            3935     72.4932E+06     27.3502E+06              0.    -1.69417E+06
            3936     72.5820E+06     27.2484E+06              0.    -1.73323E+06
            3937     72.6731E+06     27.1471E+06              0.    -1.77407E+06
            3938     72.7663E+06     27.0461E+06              0.    -1.81668E+06
            3939     72.8618E+06     26.9453E+06              0.    -1.86105E+06
            3940     72.9598E+06     26.8446E+06              0.    -1.90719E+06
            3941     73.0603E+06     26.7440E+06              0.    -1.95510E+06
            3942     73.1633E+06     26.6432E+06              0.    -2.00477E+06
            3943     73.2691E+06     26.5424E+06              0.    -2.05623E+06
            3944     73.3776E+06     26.4412E+06              0.    -2.10945E+06
            3945     73.4890E+06     26.3398E+06              0.    -2.16447E+06
            3946     73.6033E+06     26.2379E+06              0.    -2.22128E+06
            3947     73.7208E+06     26.1355E+06              0.    -2.27989E+06
            3948     73.8414E+06     26.0326E+06              0.    -2.34032E+06
            3949     73.9652E+06     25.9290E+06              0.    -2.40258E+06
            3950     74.0924E+06     25.8247E+06              0.    -2.46668E+06
            3951     74.2231E+06     25.7195E+06              0.    -2.53264E+06
            3952     74.3573E+06     25.6135E+06              0.    -2.60048E+06
            3953     74.4951E+06     25.5065E+06              0.    -2.67022E+06
            3954     74.6367E+06     25.3984E+06              0.    -2.74188E+06
            3955     74.7822E+06     25.2893E+06              0.    -2.81547E+06
            3956     74.9316E+06     25.1790E+06              0.    -2.89103E+06
            3957     75.0851E+06     25.0674E+06              0.    -2.96857E+06
            3958     75.2428E+06     24.9545E+06              0.    -3.04813E+06
            3959     75.4047E+06     24.8403E+06              0.    -3.12972E+06
            3960     75.5710E+06     24.7246E+06              0.    -3.21339E+06
            3961     75.7419E+06     24.6074E+06              0.    -3.29916E+06
            3962     75.9173E+06     24.4886E+06              0.    -3.38705E+06
            3963     76.0975E+06     24.3681E+06              0.    -3.47711E+06
            3964     76.2825E+06     24.2460E+06              0.    -3.56937E+06
            3965     76.4725E+06     24.1221E+06              0.    -3.66386E+06
            3966     76.6676E+06     23.9964E+06              0.    -3.76062E+06
            3967     76.8679E+06     23.8687E+06              0.    -3.85969E+06
            3968     77.0736E+06     23.7392E+06              0.    -3.96111E+06
            3969     77.2847E+06     23.6076E+06              0.    -4.06491E+06
            3970     77.5014E+06     23.4740E+06              0.    -4.17115E+06
            3971     77.7238E+06     23.3382E+06              0.    -4.27986E+06
            3972     77.9521E+06     23.2003E+06              0.    -4.39109E+06
            3973     78.1864E+06     23.0602E+06              0.    -4.50488E+06
            3974     78.4268E+06     22.9177E+06              0.    -4.62129E+06
            3975     78.6736E+06     22.7729E+06              0.    -4.74036E+06
            3976     78.9267E+06     22.6258E+06              0.    -4.86214E+06
            3977     79.1864E+06     22.4762E+06              0.    -4.98668E+06
            3978     79.4529E+06     22.3241E+06              0.    -5.11404E+06
            3979     79.7263E+06     22.1694E+06              0.    -5.24428E+06
            3980     80.0067E+06     22.0122E+06              0.    -5.37744E+06
            3981     80.2943E+06     21.8523E+06              0.    -5.51358E+06
            3982     80.5893E+06     21.6897E+06              0.    -5.65277E+06
            3983     80.8919E+06     21.5244E+06              0.    -5.79507E+06
            3984     81.2021E+06     21.3563E+06              0.    -5.94053E+06
            3985     81.5203E+06     21.1853E+06              0.    -6.08922E+06
            3986     81.8465E+06     21.0115E+06              0.    -6.24120E+06
            3987      82.181E+06     20.8348E+06              0.    -6.39655E+06
            3988     82.5239E+06     20.6552E+06              0.    -6.55532E+06
            3989     82.8755E+06     20.4725E+06              0.    -6.71760E+06
            3990     83.2359E+06     20.2868E+06              0.    -6.88344E+06
            3991     83.6053E+06     20.0980E+06              0.    -7.05293E+06
            3992     83.9840E+06     19.9062E+06              0.    -7.22614E+06
            3993     84.3721E+06     19.7111E+06              0.    -7.40314E+06
            3994     84.7698E+06     19.5130E+06              0.    -7.58401E+06
            3995     85.1774E+06     19.3116E+06              0.    -7.76883E+06
            3996     85.5952E+06     19.1069E+06              0.    -7.95769E+06
            3997     86.0232E+06     18.8991E+06              0.    -8.15066E+06
            3998     86.4618E+06     18.6879E+06              0.    -8.34783E+06
            3999     86.9112E+06     18.4734E+06              0.     -8.5493E+06
            4000     87.3716E+06     18.2556E+06              0.    -8.75514E+06
            4001     87.8433E+06     18.0344E+06              0.    -8.96545E+06
            4002     88.3265E+06     17.8099E+06              0.    -9.18032E+06
            4003     88.8216E+06     17.5820E+06              0.    -9.39986E+06
            4004     89.3286E+06     17.3507E+06              0.    -9.62414E+06
            4005     89.8480E+06     17.1160E+06              0.    -9.85328E+06
            4006     90.3801E+06     16.8779E+06              0.    -10.0874E+06
            4007     90.9250E+06     16.6364E+06              0.    -10.3265E+06
            4008     91.4830E+06     16.3915E+06              0.    -10.5708E+06
            4009     92.0546E+06     16.1432E+06              0.    -10.8204E+06
            4010     92.6399E+06     15.8915E+06              0.    -11.0754E+06
            4011     93.2392E+06     15.6365E+06              0.    -11.3359E+06
            4012     93.8530E+06     15.3781E+06              0.    -11.6020E+06
            4013     94.4815E+06     15.1163E+06              0.    -11.8738E+06
            4014     95.1250E+06     14.8512E+06              0.    -12.1515E+06
            4015     95.7839E+06     14.5829E+06              0.    -12.4352E+06
            4016     96.4585E+06     14.3113E+06              0.    -12.7249E+06
            4017     97.1492E+06     14.0365E+06              0.    -13.0209E+06
            4018     97.8563E+06     13.7586E+06              0.    -13.3233E+06
            4019     98.5801E+06     13.4776E+06              0.    -13.6322E+06
            4020     99.3212E+06     13.1935E+06              0.    -13.9477E+06
            4021     100.080E+06     12.9064E+06              0.    -14.2700E+06
            4022     100.856E+06     12.6165E+06              0.    -14.5993E+06
            4023     101.651E+06     12.3237E+06              0.    -14.9356E+06
            4024     102.465E+06     12.0282E+06              0.    -15.2792E+06
            4025     103.298E+06     11.7301E+06              0.    -15.6301E+06
            4026     104.150E+06     11.4294E+06              0.    -15.9887E+06
            4027     105.022E+06     11.1264E+06              0.    -16.3549E+06
            4028     105.915E+06     10.8210E+06              0.    -16.7291E+06
            4029     106.829E+06     10.5135E+06              0.    -17.1113E+06
            4030     107.764E+06     10.2040E+06              0.    -17.5018E+06
            4031     108.721E+06     9.89264E+06              0.    -17.9007E+06
            4032     109.700E+06      9.5796E+06              0.    -18.3082E+06
            4033     110.702E+06     9.26506E+06              0.    -18.7246E+06
            4034     111.727E+06     8.94921E+06              0.    -19.1499E+06
            4035     112.777E+06     8.63227E+06              0.    -19.5845E+06
            4036     113.850E+06     8.31445E+06              0.    -20.0286E+06
            4037     114.949E+06     7.99598E+06              0.    -20.4823E+06
            4038     116.073E+06     7.67714E+06              0.    -20.9458E+06
            4039     117.222E+06     7.35818E+06              0.    -21.4195E+06
            4040     118.399E+06     7.03940E+06              0.    -21.9035E+06
            4041     119.602E+06     6.72109E+06              0.    -22.3981E+06
            4042     120.834E+06     6.40359E+06              0.    -22.9036E+06
            4043     122.094E+06     6.08726E+06              0.    -23.4202E+06
            4044     123.382E+06     5.77244E+06              0.    -23.9481E+06
            4045     124.700E+06     5.45955E+06              0.    -24.4877E+06
            4046     126.049E+06     5.14900E+06              0.    -25.0393E+06
            4047     127.428E+06     4.84122E+06              0.    -25.6031E+06
            4048     128.839E+06      4.5367E+06              0.    -26.1795E+06
            4049     130.282E+06     4.23593E+06              0.    -26.7687E+06
            4050     131.758E+06     3.93944E+06              0.    -27.3711E+06
            4051     133.267E+06     3.64780E+06              0.    -27.9871E+06
            4052     134.811E+06     3.36159E+06              0.    -28.6170E+06
            4053     136.390E+06     3.08147E+06              0.    -29.2611E+06
            4054     138.004E+06     2.80808E+06              0.    -29.9199E+06
            4055     139.655E+06     2.54214E+06              0.    -30.5937E+06
            4056     141.344E+06     2.28441E+06              0.    -31.2829E+06
            4057     143.070E+06     2.03569E+06              0.    -31.9881E+06
            4058     144.835E+06     1.79681E+06              0.    -32.7095E+06
            4059     146.639E+06     1.56868E+06              0.    -33.4478E+06
            4060     148.484E+06     1.35224E+06              0.    -34.2032E+06
            4061     150.370E+06     1.14850E+06              0.    -34.9764E+06
            4062     152.298E+06     958.529E+03              0.    -35.7679E+06
            4063     154.268E+06     783.449E+03              0.    -36.5782E+06
            4064     156.282E+06     624.469E+03              0.    -37.4079E+06
            4065     158.340E+06     482.853E+03              0.    -38.2574E+06
            4066     160.443E+06     359.950E+03              0.    -39.1276E+06
            4067     162.592E+06     257.190E+03              0.    -40.0189E+06
            4068     164.787E+06     176.084E+03              0.    -40.9320E+06
            4069     167.030E+06     118.249E+03              0.    -41.8676E+06
            4070     169.320E+06     85.3870E+03              0.    -42.8264E+06
            4071     171.659E+06     79.3131E+03              0.    -43.8092E+06
            4072     174.048E+06     101.954E+03              0.    -44.8167E+06
            4073     176.487E+06     155.349E+03              0.    -45.8497E+06
            4074     178.976E+06     241.680E+03              0.    -46.9090E+06
            4075     181.516E+06     363.252E+03              0.    -47.9954E+06
            4076     184.108E+06     522.523E+03              0.    -49.1100E+06
            4077     186.752E+06     722.108E+03              0.    -50.2534E+06
            4078     189.448E+06     964.781E+03              0.    -51.4268E+06
            4079     192.196E+06     1.25351E+06              0.    -52.6310E+06
            4080     194.997E+06     1.59144E+06              0.    -53.8671E+06
            4081     197.850E+06     1.98192E+06              0.    -55.1360E+06
            4082     200.755E+06     2.42853E+06              0.    -56.4387E+06
            4083     203.712E+06     2.93507E+06              0.    -57.7763E+06
            4084     206.720E+06     3.50561E+06              0.    -59.1497E+06
            4085     209.777E+06     4.14445E+06              0.    -60.5601E+06
            4086     212.883E+06     4.85621E+06              0.    -62.0083E+06
            4087     216.036E+06     5.64579E+06              0.    -63.4954E+06
            4088     219.235E+06     6.51841E+06              0.    -65.0222E+06
            4089     222.476E+06     7.47964E+06              0.    -66.5895E+06
            4090     225.756E+06     8.53539E+06              0.    -68.1981E+06
            4091     229.073E+06     9.69195E+06              0.    -69.8483E+06
            4092     232.421E+06     10.9560E+06              0.    -71.5406E+06
            4093     235.796E+06     12.3346E+06              0.    -73.2751E+06
            4094     239.191E+06     13.8353E+06              0.    -75.0514E+06
            4095     242.601E+06     15.4659E+06              0.    -76.8690E+06
            4096     246.016E+06     17.2348E+06              0.    -78.7267E+06
            4097     249.428E+06     19.1506E+06              0.    -80.6227E+06
            4098     252.825E+06     21.2223E+06              0.    -82.5544E+06
            4099     256.195E+06     23.4593E+06              0.    -84.5183E+06
            4100     259.525E+06     25.8712E+06              0.    -86.5098E+06
            4101     262.798E+06     28.4675E+06              0.    -88.5230E+06
            4102     265.995E+06     31.2577E+06              0.    -90.5500E+06
            4103     269.097E+06     34.2513E+06              0.    -92.5814E+06
            4104     272.081E+06     37.4567E+06              0.    -94.6052E+06
            4105     274.920E+06     40.8817E+06              0.    -96.6067E+06
            4106     277.588E+06     44.5324E+06              0.    -98.5683E+06
            4107     280.053E+06     48.4129E+06              0.    -100.469E+06
            4108     282.284E+06     52.5243E+06              0.    -102.282E+06
            4109     284.245E+06     56.8638E+06              0.    -103.979E+06
            4110     285.901E+06     61.4238E+06              0.    -105.526E+06
            4111     287.216E+06     66.1904E+06              0.    -106.883E+06
            4112     288.154E+06     71.1417E+06              0.    -108.007E+06
            4113     288.682E+06     76.2470E+06              0.    -108.849E+06
            4114     288.769E+06     81.4648E+06              0.    -109.358E+06
            4115     288.391E+06     86.7418E+06              0.    -109.482E+06
            4116     287.529E+06     92.0120E+06              0.    -109.167E+06
            4117     286.176E+06     97.1969E+06              0.    -108.364E+06
            4118     284.332E+06     102.206E+06              0.    -107.029E+06
            4119     282.010E+06     106.940E+06              0.    -105.128E+06
            4120     279.232E+06     111.291E+06              0.    -102.640E+06
            4121     276.031E+06     115.153E+06              0.    -99.5572E+06
            4122     272.451E+06     118.422E+06              0.    -95.8927E+06
            4123     271.994E+06     120.191E+06              0.    -95.9408E+06
            4124     70.5010E+06     30.8834E+06              0.    -1.45583E+06
            4125     70.4832E+06     30.6820E+06              0.    -1.45330E+06
            4126     70.5517E+06     30.5223E+06              0.    -1.43392E+06
            4127     70.6195E+06     30.3669E+06              0.    -1.41743E+06
            4128     70.6865E+06     30.2158E+06              0.    -1.40377E+06
            4129     70.7531E+06     30.0686E+06              0.    -1.39286E+06
            4130     70.8192E+06     29.9252E+06              0.    -1.38462E+06
            4131     70.8851E+06     29.7853E+06              0.    -1.37900E+06
            4132     70.9508E+06     29.6489E+06              0.    -1.37592E+06
            4133     71.0164E+06     29.5156E+06              0.    -1.37533E+06
            4134     71.0822E+06     29.3854E+06              0.    -1.37716E+06
            4135     71.1482E+06     29.2581E+06              0.    -1.38138E+06
            4136     71.2145E+06     29.1334E+06              0.    -1.38792E+06
            4137     71.2812E+06     29.0113E+06              0.    -1.39674E+06
            4138     71.3484E+06     28.8915E+06              0.    -1.40780E+06
            4139     71.4163E+06     28.7740E+06              0.    -1.42104E+06
            4140     71.4850E+06     28.6586E+06              0.    -1.43645E+06
            4141     71.5545E+06     28.5451E+06              0.    -1.45397E+06
            4142     71.6249E+06     28.4334E+06              0.    -1.47357E+06
            4143     71.6964E+06     28.3234E+06              0.    -1.49523E+06
            4144     71.7691E+06     28.2150E+06              0.    -1.51891E+06
            4145     71.8430E+06     28.1079E+06              0.    -1.54459E+06
            4146     71.9183E+06     28.0021E+06              0.    -1.57225E+06
            4147     71.9950E+06     27.8975E+06              0.    -1.60186E+06
            4148     72.0732E+06     27.7940E+06              0.    -1.63340E+06
            4149     72.1531E+06     27.6913E+06              0.    -1.66686E+06
            4150     72.2347E+06     27.5895E+06              0.    -1.70223E+06
            4151     72.3181E+06     27.4885E+06              0.    -1.73948E+06
            4152     72.4035E+06     27.3880E+06              0.    -1.77862E+06
            4153     72.4908E+06     27.2880E+06              0.    -1.81962E+06
            4154     72.5802E+06     27.1885E+06              0.    -1.86249E+06
            4155     72.6718E+06     27.0892E+06              0.    -1.90721E+06
            4156     72.7657E+06     26.9902E+06              0.    -1.95379E+06
            4157     72.8620E+06     26.8912E+06              0.    -2.00223E+06
            4158     72.9607E+06     26.7923E+06              0.    -2.05252E+06
            4159     73.0619E+06     26.6934E+06              0.    -2.10466E+06
            4160     73.1658E+06     26.5942E+06              0.    -2.15867E+06
            4161     73.2725E+06     26.4949E+06              0.    -2.21455E+06
            4162     73.3819E+06     26.3952E+06              0.    -2.27229E+06
            4163     73.4943E+06     26.2951E+06              0.    -2.33193E+06
            4164     73.6096E+06     26.1946E+06              0.    -2.39345E+06
            4165     73.7281E+06     26.0934E+06              0.    -2.45688E+06
            4166     73.8498E+06     25.9916E+06              0.    -2.52223E+06
            4167     73.9748E+06     25.8891E+06              0.    -2.58952E+06
            4168     74.1032E+06     25.7858E+06              0.    -2.65876E+06
            4169     74.2350E+06     25.6817E+06              0.    -2.72996E+06
            4170     74.3704E+06     25.5766E+06              0.    -2.80316E+06
            4171     74.5096E+06     25.4704E+06              0.    -2.87838E+06
            4172     74.6525E+06     25.3632E+06              0.    -2.95562E+06
            4173     74.7993E+06     25.2549E+06              0.    -3.03493E+06
            4174     74.9501E+06     25.1453E+06              0.    -3.11632E+06
            4175     75.1050E+06     25.0344E+06              0.    -3.19982E+06
            4176     75.2640E+06     24.9222E+06              0.    -3.28546E+06
            4177     75.4275E+06     24.8086E+06              0.    -3.37327E+06
            4178     75.5953E+06     24.6934E+06              0.    -3.46329E+06
            4179     75.7676E+06     24.5768E+06              0.    -3.55554E+06
            4180     75.9446E+06     24.4585E+06              0.    -3.65006E+06
            4181     76.1264E+06     24.3386E+06              0.    -3.74689E+06
            4182     76.3130E+06     24.2169E+06              0.    -3.84606E+06
            4183     76.5047E+06     24.0934E+06              0.    -3.94761E+06
            4184     76.7014E+06     23.9681E+06              0.    -4.05158E+06
            4185     76.9034E+06     23.8409E+06              0.    -4.15801E+06
            4186     77.1108E+06     23.7117E+06              0.    -4.26695E+06
            4187     77.3236E+06     23.5805E+06              0.    -4.37844E+06
            4188     77.5421E+06     23.4472E+06              0.    -4.49252E+06
            4189     77.7663E+06     23.3118E+06              0.    -4.60924E+06
            4190     77.9964E+06     23.1742E+06              0.    -4.72866E+06
            4191     78.2326E+06     23.0344E+06              0.    -4.85081E+06
            4192     78.4749E+06     22.8922E+06              0.    -4.97575E+06
            4193     78.7235E+06     22.7478E+06              0.    -5.10354E+06
            4194     78.9786E+06     22.6009E+06              0.    -5.23423E+06
            4195     79.2403E+06     22.4516E+06              0.    -5.36786E+06
            4196     79.5088E+06     22.2998E+06              0.    -5.50451E+06
            4197     79.7842E+06     22.1455E+06              0.    -5.64423E+06
            4198     80.0666E+06     21.9886E+06              0.    -5.78708E+06
            4199     80.3563E+06     21.8290E+06              0.    -5.93312E+06
            4200     80.6534E+06     21.6668E+06              0.    -6.08241E+06
            4201     80.9581E+06     21.5019E+06              0.    -6.23502E+06
            4202     81.2705E+06     21.3341E+06              0.    -6.39101E+06
            4203     81.5908E+06     21.1636E+06              0.    -6.55046E+06
            4204     81.9192E+06     20.9903E+06              0.    -6.71343E+06
            4205     82.2559E+06     20.8140E+06              0.    -6.87999E+06
            4206     82.6011E+06     20.6348E+06              0.    -7.05022E+06
            4207     82.9549E+06     20.4527E+06              0.    -7.22419E+06
            4208     83.3176E+06     20.2675E+06              0.    -7.40198E+06
            4209     83.6893E+06     20.0793E+06              0.    -7.58365E+06
            4210     84.0703E+06     19.8881E+06              0.    -7.76931E+06
            4211     84.4607E+06     19.6937E+06              0.    -7.95901E+06
            4212     84.8609E+06     19.4963E+06              0.    -8.15286E+06
            4213     85.2709E+06     19.2956E+06              0.    -8.35093E+06
            4214     85.6910E+06     19.0918E+06              0.    -8.55330E+06
            4215     86.1215E+06     18.8848E+06              0.    -8.76008E+06
            4216     86.5625E+06     18.6746E+06              0.    -8.97135E+06
            4217     87.0144E+06     18.4611E+06              0.    -9.18720E+06
            4218     87.4773E+06     18.2443E+06              0.    -9.40773E+06
            4219     87.9515E+06     18.0243E+06              0.    -9.63303E+06
            4220     88.4372E+06     17.8010E+06              0.    -9.86320E+06
            4221     88.9347E+06     17.5744E+06              0.    -10.0983E+06
            4222     89.4443E+06     17.3445E+06              0.    -10.3386E+06
            4223     89.9663E+06     17.1113E+06              0.    -10.5840E+06
            4224     90.5009E+06     16.8748E+06              0.    -10.8347E+06
            4225     91.0483E+06     16.6350E+06              0.    -11.0908E+06
            4226     91.6089E+06     16.3919E+06              0.    -11.3524E+06
            4227     92.1830E+06     16.1455E+06              0.    -11.6196E+06
            4228     92.7709E+06     15.8958E+06              0.    -11.8926E+06
            4229     93.3728E+06     15.6429E+06              0.    -12.1715E+06
            4230     93.9891E+06     15.3868E+06              0.    -12.4563E+06
            4231     94.6201E+06     15.1275E+06              0.    -12.7473E+06
            4232     95.2661E+06     14.8650E+06              0.    -13.0445E+06
            4233     95.9275E+06     14.5993E+06              0.    -13.3481E+06
            4234     96.6046E+06     14.3306E+06              0.    -13.6582E+06
            4235     97.2977E+06     14.0589E+06              0.    -13.9749E+06
            4236     98.0072E+06     13.7842E+06              0.    -14.2985E+06
            4237     98.7335E+06     13.5066E+06              0.    -14.6289E+06
            4238     99.4769E+06     13.2262E+06              0.    -14.9665E+06
            4239     100.238E+06     12.9429E+06              0.    -15.3113E+06
            4240     101.017E+06     12.6570E+06              0.    -15.6635E+06
            4241     101.814E+06     12.3685E+06              0.    -16.0232E+06
            4242     102.629E+06     12.0776E+06              0.    -16.3906E+06
            4243     103.464E+06     11.7842E+06              0.    -16.7659E+06
            4244     104.318E+06     11.4886E+06              0.    -17.1493E+06
            4245     105.193E+06     11.1908E+06              0.    -17.5409E+06
            4246     106.087E+06     10.8911E+06              0.    -17.9408E+06
            4247     107.003E+06     10.5894E+06              0.    -18.3494E+06
            4248     107.939E+06     10.2862E+06              0.    -18.7667E+06
            4249     108.898E+06     9.98134E+06              0.    -19.1930E+06
            4250     109.878E+06      9.6752E+06              0.    -19.6285E+06
            4251     110.881E+06     9.36792E+06              0.    -20.0733E+06
            4252     111.908E+06     9.05972E+06              0.    -20.5278E+06
            4253     112.958E+06     8.75082E+06              0.    -20.9920E+06
            4254     114.032E+06     8.44147E+06              0.    -21.4662E+06
            4255     115.131E+06     8.13192E+06              0.    -21.9507E+06
            4256     116.255E+06     7.82244E+06              0.    -22.4457E+06
            4257     117.405E+06     7.51334E+06              0.    -22.9514E+06
            4258     118.581E+06     7.20492E+06              0.    -23.4680E+06
            4259     119.784E+06     6.89750E+06              0.    -23.9959E+06
            4260     121.014E+06     6.59146E+06              0.    -24.5353E+06
            4261     122.272E+06     6.28716E+06              0.    -25.0865E+06
            4262     123.559E+06     5.98499E+06              0.    -25.6497E+06
            4263     124.875E+06     5.68539E+06              0.    -26.2253E+06
            4264     126.221E+06     5.38880E+06              0.    -26.8134E+06
            4265     127.597E+06     5.09569E+06              0.    -27.4146E+06
            4266     129.004E+06     4.80657E+06              0.    -28.0290E+06
            4267     130.443E+06     4.52199E+06              0.    -28.6570E+06
            4268     131.914E+06     4.24249E+06              0.    -29.2989E+06
            4269     133.419E+06     3.96870E+06              0.    -29.9551E+06
            4270     134.956E+06     3.70124E+06              0.    -30.6260E+06
            4271     136.528E+06     3.44078E+06              0.    -31.3119E+06
            4272     138.135E+06     3.18806E+06              0.    -32.0132E+06
            4273     139.777E+06     2.94382E+06              0.    -32.7304E+06
            4274     141.456E+06     2.70887E+06              0.    -33.4638E+06
            4275     143.172E+06     2.48406E+06              0.    -34.2138E+06
            4276     144.925E+06     2.27029E+06              0.    -34.9810E+06
            4277     146.716E+06     2.06852E+06              0.    -35.7658E+06
            4278     148.547E+06     1.87975E+06              0.    -36.5687E+06
            4279     150.417E+06     1.70507E+06              0.    -37.3901E+06
            4280     152.328E+06     1.54559E+06              0.    -38.2307E+06
            4281     154.279E+06     1.40254E+06              0.    -39.0908E+06
            4282     156.273E+06     1.27718E+06              0.    -39.9712E+06
            4283     158.308E+06     1.17086E+06              0.    -40.8723E+06
            4284     160.387E+06     1.08501E+06              0.    -41.7948E+06
            4285     162.509E+06     1.02116E+06              0.    -42.7392E+06
            4286     164.675E+06     980.909E+03              0.    -43.7063E+06
            4287     166.886E+06     965.967E+03              0.    -44.6967E+06
            4288     169.142E+06     978.143E+03              0.    -45.7110E+06
            4289     171.444E+06     1.01936E+06              0.    -46.7500E+06
            4290     173.792E+06     1.09165E+06              0.    -47.8144E+06
            4291     176.186E+06     1.19718E+06              0.    -48.9050E+06
            4292     178.627E+06     1.33825E+06              0.    -50.0225E+06
            4293     181.115E+06     1.51730E+06              0.    -51.1677E+06
            4294     183.650E+06     1.73691E+06              0.    -52.3413E+06
            4295     186.231E+06     1.99984E+06              0.    -53.5444E+06
            4296     188.860E+06     2.30902E+06              0.    -54.7775E+06
            4297     191.535E+06     2.66754E+06              0.    -56.0417E+06
            4298     194.256E+06     3.07871E+06              0.    -57.3377E+06
            4299     197.023E+06     3.54604E+06              0.    -58.6663E+06
            4300     199.834E+06     4.07325E+06              0.    -60.0284E+06
            4301     202.689E+06     4.66432E+06              0.    -61.4248E+06
            4302     205.585E+06     5.32345E+06              0.    -62.8562E+06
            4303     208.522E+06     6.05511E+06              0.    -64.3233E+06
            4304     211.497E+06     6.86404E+06              0.    -65.8267E+06
            4305     214.508E+06     7.75530E+06              0.    -67.3670E+06
            4306     217.551E+06     8.73420E+06              0.    -68.9446E+06
            4307     220.623E+06     9.80642E+06              0.    -70.5596E+06
            4308     223.721E+06     10.9779E+06              0.    -72.2121E+06
            4309     226.838E+06     12.2550E+06              0.    -73.9019E+06
            4310     229.970E+06     13.6444E+06              0.    -75.6285E+06
            4311     233.109E+06     15.1529E+06              0.    -77.3909E+06
            4312     236.249E+06     16.7879E+06              0.    -79.1878E+06
            4313     239.381E+06     18.5571E+06              0.    -81.0170E+06
            4314     242.494E+06     20.4682E+06              0.    -82.8761E+06
            4315     245.579E+06     22.5293E+06              0.    -84.7614E+06
            4316     248.621E+06     24.7487E+06              0.    -86.6684E+06
            4317     251.607E+06     27.1345E+06              0.    -88.5915E+06
            4318     254.522E+06     29.6949E+06              0.    -90.5235E+06
            4319     257.346E+06     32.4378E+06              0.    -92.4556E+06
            4320      260.06E+06     35.3704E+06              0.    -94.3772E+06
            4321     262.643E+06     38.4991E+06              0.    -96.2753E+06
            4322     265.070E+06     41.8293E+06              0.    -98.1344E+06
            4323     267.315E+06     45.3643E+06              0.    -99.9361E+06
            4324     269.351E+06     49.1053E+06              0.    -101.659E+06
            4325     271.150E+06     53.0505E+06              0.    -103.277E+06
            4326     272.679E+06     57.1939E+06              0.    -104.763E+06
            4327     273.909E+06     61.5250E+06              0.    -106.082E+06
            4328     274.809E+06     66.0271E+06              0.    -107.199E+06
            4329     275.350E+06     70.6765E+06              0.    -108.074E+06
            4330     275.505E+06     75.4415E+06              0.    -108.663E+06
            4331     275.251E+06     80.2810E+06              0.    -108.921E+06
            4332     274.569E+06     85.1441E+06              0.    -108.803E+06
            4333     273.449E+06     89.9693E+06              0.    -108.263E+06
            4334     271.885E+06     94.6853E+06              0.    -107.262E+06
            4335     269.884E+06     99.2120E+06              0.    -105.763E+06
            4336     267.458E+06     103.462E+06              0.    -103.740E+06
            4337     264.630E+06     107.343E+06              0.    -101.178E+06
            4338     261.429E+06     110.764E+06              0.    -98.0736E+06
            4339     257.888E+06     113.636E+06              0.    -94.4399E+06
            4340     257.317E+06     115.104E+06              0.    -94.3711E+06
            4341     70.4421E+06     30.8586E+06              0.    -1.52377E+06
            4342     70.4246E+06     30.6609E+06              0.    -1.52112E+06
            4343     70.4919E+06     30.5041E+06              0.    -1.50084E+06
            4344     70.5584E+06     30.3516E+06              0.    -1.48358E+06
            4345     70.6242E+06     30.2032E+06              0.    -1.46928E+06
            4346     70.6895E+06     30.0588E+06              0.    -1.45786E+06
            4347     70.7544E+06     29.9180E+06              0.    -1.44923E+06
            4348     70.8191E+06     29.7807E+06              0.    -1.44334E+06
            4349     70.8836E+06     29.6468E+06              0.    -1.44012E+06
            4350     70.9480E+06     29.5160E+06              0.    -1.43950E+06
            4351     71.0126E+06     29.3881E+06              0.    -1.44142E+06
            4352     71.0774E+06     29.2631E+06              0.    -1.44583E+06
            4353     71.1424E+06     29.1408E+06              0.    -1.45267E+06
            4354     71.2079E+06     29.0209E+06              0.    -1.46190E+06
            4355     71.2739E+06     28.9034E+06              0.    -1.47347E+06
            4356     71.3406E+06     28.7880E+06              0.    -1.48733E+06
            4357     71.4080E+06     28.6747E+06              0.    -1.50345E+06
            4358     71.4762E+06     28.5633E+06              0.    -1.52178E+06
            4359     71.5453E+06     28.4537E+06              0.    -1.54230E+06
            4360     71.6155E+06     28.3457E+06              0.    -1.56496E+06
            4361     71.6868E+06     28.2393E+06              0.    -1.58975E+06
            4362     71.7594E+06     28.1342E+06              0.    -1.61662E+06
            4363     71.8333E+06     28.0304E+06              0.    -1.64557E+06
            4364     71.9085E+06     27.9277E+06              0.    -1.67655E+06
            4365     71.9853E+06     27.8261E+06              0.    -1.70956E+06
            4366     72.0637E+06     27.7253E+06              0.    -1.74458E+06
            4367     72.1438E+06     27.6254E+06              0.    -1.78159E+06
            4368     72.2257E+06     27.5262E+06              0.    -1.82058E+06
            4369     72.3095E+06     27.4276E+06              0.    -1.86153E+06
            4370     72.3952E+06     27.3295E+06              0.    -1.90444E+06
            4371     72.4829E+06     27.2318E+06              0.    -1.94930E+06
            4372     72.5728E+06     27.1344E+06              0.    -1.99611E+06
            4373     72.6650E+06     27.0372E+06              0.    -2.04485E+06
            4374     72.7594E+06     26.9401E+06              0.    -2.09554E+06
            4375     72.8563E+06     26.8430E+06              0.    -2.14817E+06
            4376     72.9557E+06     26.7459E+06              0.    -2.20274E+06
            4377     73.0576E+06     26.6486E+06              0.    -2.25925E+06
            4378     73.1623E+06     26.5511E+06              0.    -2.31772E+06
            4379     73.2697E+06     26.4533E+06              0.    -2.37815E+06
            4380     73.3800E+06     26.3551E+06              0.    -2.44056E+06
            4381     73.4932E+06     26.2564E+06              0.    -2.50494E+06
            4382     73.6095E+06     26.1572E+06              0.    -2.57132E+06
            4383     73.7289E+06     26.0573E+06              0.     -2.6397E+06
            4384     73.8515E+06     25.9567E+06              0.    -2.71011E+06
            4385     73.9775E+06     25.8554E+06              0.    -2.78256E+06
            4386     74.1069E+06     25.7532E+06              0.    -2.85707E+06
            4387     74.2398E+06     25.6500E+06              0.    -2.93367E+06
            4388     74.3763E+06     25.5459E+06              0.    -3.01237E+06
            4389     74.5165E+06     25.4407E+06              0.    -3.09320E+06
            4390     74.6606E+06     25.3344E+06              0.    -3.17618E+06
            4391     74.8085E+06     25.2269E+06              0.    -3.26134E+06
            4392     74.9605E+06     25.1182E+06              0.    -3.34872E+06
            4393     75.1166E+06     25.0081E+06              0.    -3.43833E+06
            4394     75.2770E+06     24.8966E+06              0.    -3.53021E+06
            4395     75.4416E+06     24.7837E+06              0.    -3.62440E+06
            4396     75.6107E+06     24.6692E+06              0.    -3.72092E+06
            4397     75.7844E+06     24.5532E+06              0.    -3.81982E+06
            4398     75.9628E+06     24.4355E+06              0.    -3.92112E+06
            4399     76.1459E+06     24.3162E+06              0.    -4.02488E+06
            4400     76.3339E+06     24.1951E+06              0.    -4.13113E+06
            4401     76.5269E+06     24.0722E+06              0.    -4.23990E+06
            4402     76.7251E+06     23.9474E+06              0.    -4.35126E+06
            4403     76.9285E+06     23.8207E+06              0.    -4.46523E+06
            4404     77.1373E+06     23.6921E+06              0.    -4.58186E+06
            4405     77.3517E+06     23.5614E+06              0.    -4.70121E+06
            4406     77.5717E+06     23.4286E+06              0.    -4.82332E+06
            4407     77.7974E+06     23.2937E+06              0.    -4.94825E+06
            4408     78.0291E+06     23.1566E+06              0.    -5.07603E+06
            4409     78.2668E+06     23.0172E+06              0.    -5.20674E+06
            4410     78.5107E+06     22.8756E+06              0.    -5.34041E+06
            4411     78.7609E+06     22.7316E+06              0.    -5.47712E+06
            4412     79.0176E+06     22.5853E+06              0.    -5.61691E+06
            4413     79.2809E+06     22.4365E+06              0.    -5.75984E+06
            4414     79.5511E+06     22.2852E+06              0.    -5.90599E+06
            4415     79.8281E+06     22.1314E+06              0.    -6.05540E+06
            4416     80.1122E+06     21.9750E+06              0.    -6.20815E+06
            4417     80.4036E+06     21.8160E+06              0.    -6.36430E+06
            4418     80.7024E+06     21.6544E+06              0.    -6.52391E+06
            4419     81.0088E+06     21.4900E+06              0.    -6.68706E+06
            4420     81.3229E+06     21.3229E+06              0.    -6.85382E+06
            4421     81.6450E+06     21.1530E+06              0.    -7.02425E+06
            4422     81.9752E+06     20.9804E+06              0.    -7.19844E+06
            4423     82.3136E+06     20.8048E+06              0.    -7.37646E+06
            4424     82.6606E+06     20.6264E+06              0.    -7.55838E+06
            4425     83.0162E+06     20.4450E+06              0.    -7.74428E+06
            4426     83.3807E+06     20.2607E+06              0.    -7.93426E+06
            4427     83.7542E+06     20.0734E+06              0.    -8.12838E+06
            4428     84.1370E+06     19.8830E+06              0.    -8.32673E+06
            4429     84.5293E+06     19.6897E+06              0.    -8.52941E+06
            4430     84.9312E+06     19.4932E+06              0.    -8.73649E+06
            4431     85.3431E+06     19.2937E+06              0.    -8.94807E+06
            4432     85.7651E+06     19.0910E+06              0.    -9.16424E+06
            4433     86.1974E+06     18.8852E+06              0.    -9.38509E+06
            4434     86.6403E+06     18.6763E+06              0.    -9.61072E+06
            4435     87.0940E+06     18.4641E+06              0.    -9.84124E+06
            4436     87.5587E+06     18.2488E+06              0.    -10.0767E+06
            4437     88.0347E+06     18.0303E+06              0.    -10.3173E+06
            4438     88.5223E+06     17.8086E+06              0.    -10.5631E+06
            4439     89.0217E+06     17.5837E+06              0.    -10.8141E+06
            4440     89.5331E+06     17.3556E+06              0.    -11.0706E+06
            4441     90.0569E+06     17.1243E+06              0.    -11.3326E+06
            4442     90.5932E+06     16.8898E+06              0.    -11.6002E+06
            4443     91.1424E+06     16.6521E+06              0.    -11.8735E+06
            4444     91.7048E+06     16.4112E+06              0.    -12.1527E+06
            4445     92.2806E+06     16.1672E+06              0.    -12.4379E+06
            4446     92.8702E+06     15.9200E+06              0.    -12.7292E+06
            4447     93.4738E+06     15.6698E+06              0.    -13.0268E+06
            4448     94.0917E+06     15.4164E+06              0.    -13.3307E+06
            4449     94.7243E+06     15.1600E+06              0.    -13.6411E+06
            4450     95.3719E+06     14.9006E+06              0.    -13.9582E+06
            4451     96.0348E+06     14.6383E+06              0.    -14.2820E+06
            4452     96.7133E+06     14.3730E+06              0.    -14.6128E+06
            4453     97.4079E+06     14.1049E+06              0.    -14.9506E+06
            4454     98.1187E+06     13.8341E+06              0.    -15.2956E+06
            4455     98.8462E+06     13.5605E+06              0.    -15.6480E+06
            4456     99.5908E+06     13.2843E+06              0.    -16.0079E+06
            4457     100.353E+06     13.0055E+06              0.    -16.3755E+06
            4458     101.133E+06     12.7243E+06              0.    -16.7509E+06
            4459     101.931E+06     12.4408E+06              0.    -17.1343E+06
            4460     102.747E+06     12.1550E+06              0.    -17.5260E+06
            4461     103.583E+06     11.8671E+06              0.    -17.9259E+06
            4462     104.438E+06     11.5772E+06              0.    -18.3344E+06
            4463     105.312E+06     11.2855E+06              0.    -18.7516E+06
            4464     106.207E+06     10.9921E+06              0.    -19.1777E+06
            4465     107.123E+06     10.6972E+06              0.    -19.6129E+06
            4466     108.059E+06     10.4009E+06              0.    -20.0574E+06
            4467     109.017E+06     10.1035E+06              0.    -20.5114E+06
            4468     109.997E+06     9.80513E+06              0.    -20.9751E+06
            4469     111.000E+06     9.50600E+06              0.    -21.4487E+06
            4470     112.026E+06     9.20635E+06              0.    -21.9324E+06
            4471     113.074E+06     8.90643E+06              0.    -22.4265E+06
            4472     114.147E+06     8.60650E+06              0.    -22.9312E+06
            4473     115.244E+06     8.30684E+06              0.    -23.4468E+06
            4474     116.366E+06     8.00775E+06              0.    -23.9734E+06
            4475     117.514E+06     7.70955E+06              0.    -24.5113E+06
            4476     118.687E+06     7.41256E+06              0.    -25.0608E+06
            4477     119.887E+06     7.11715E+06              0.    -25.6221E+06
            4478     121.114E+06     6.82369E+06              0.    -26.1956E+06
            4479     122.368E+06     6.53259E+06              0.    -26.7815E+06
            4480     123.651E+06     6.24428E+06              0.    -27.3801E+06
            4481     124.962E+06     5.95920E+06              0.    -27.9916E+06
            4482     126.302E+06     5.67785E+06              0.    -28.6165E+06
            4483     127.672E+06     5.40072E+06              0.    -29.2550E+06
            4484     129.073E+06     5.12836E+06              0.    -29.9074E+06
            4485     130.504E+06     4.86134E+06              0.    -30.5741E+06
            4486     131.967E+06     4.60027E+06              0.    -31.2555E+06
            4487     133.462E+06     4.34579E+06              0.    -31.9518E+06
            4488     134.990E+06     4.09858E+06              0.    -32.6635E+06
            4489     136.551E+06     3.85937E+06              0.    -33.3909E+06
            4490     138.146E+06     3.62891E+06              0.    -34.1345E+06
            4491     139.776E+06     3.40801E+06              0.    -34.8947E+06
            4492     141.441E+06     3.19753E+06              0.    -35.6718E+06
            4493     143.141E+06     2.99838E+06              0.    -36.4663E+06
            4494     144.878E+06     2.81151E+06              0.    -37.2787E+06
            4495     146.651E+06     2.63793E+06              0.    -38.1093E+06
            4496     148.462E+06     2.47873E+06              0.    -38.9588E+06
            4497     150.312E+06     2.33504E+06              0.    -39.8276E+06
            4498     152.199E+06     2.20806E+06              0.    -40.7162E+06
            4499     154.126E+06     2.09907E+06              0.    -41.6252E+06
            4500     156.093E+06     2.00943E+06              0.     -42.555E+06
            4501     158.099E+06     1.94055E+06              0.    -43.5063E+06
            4502     160.146E+06     1.89396E+06              0.    -44.4796E+06
            4503     162.234E+06     1.87126E+06              0.    -45.4755E+06
            4504     164.364E+06     1.87416E+06              0.    -46.4946E+06
            4505     166.535E+06     1.90445E+06              0.    -47.5376E+06
            4506     168.748E+06     1.96404E+06              0.    -48.6050E+06
            4507     171.003E+06     2.05496E+06              0.    -49.6976E+06
            4508     173.301E+06     2.17935E+06              0.    -50.8161E+06
            4509     175.641E+06     2.33949E+06              0.    -51.9610E+06
            4510     178.023E+06     2.53780E+06              0.    -53.1331E+06
            4511     180.447E+06     2.77682E+06              0.    -54.3330E+06
            4512     182.913E+06     3.05926E+06              0.    -55.5615E+06
            4513     185.420E+06     3.38802E+06              0.    -56.8193E+06
            4514     187.969E+06     3.76613E+06              0.    -58.1070E+06
            4515     190.557E+06     4.19683E+06              0.    -59.4253E+06
            4516     193.184E+06     4.68355E+06              0.    -60.7748E+06
            4517     195.849E+06     5.22992E+06              0.    -62.1561E+06
            4518     198.550E+06     5.83980E+06              0.    -63.5698E+06
            4519     201.286E+06     6.51725E+06              0.    -65.0163E+06
            4520     204.054E+06     7.26660E+06              0.    -66.4961E+06
            4521     206.852E+06     8.09241E+06              0.    -68.0094E+06
            4522     209.676E+06     8.99951E+06              0.    -69.5565E+06
            4523     212.524E+06     9.99297E+06              0.    -71.1372E+06
            4524     215.391E+06     11.0782E+06              0.    -72.7515E+06
            4525     218.272E+06     12.2607E+06              0.    -74.3987E+06
            4526     221.163E+06     13.5465E+06              0.    -76.0782E+06
            4527     224.057E+06     14.9418E+06              0.    -77.7889E+06
            4528     226.947E+06     16.4530E+06              0.    -79.5291E+06
            4529     229.825E+06     18.0867E+06              0.    -81.2968E+06
            4530     232.683E+06     19.8497E+06              0.    -83.0892E+06
            4531     235.510E+06     21.7492E+06              0.    -84.9028E+06
            4532     238.295E+06     23.7922E+06              0.    -86.7334E+06
            4533     241.025E+06     25.9858E+06              0.    -88.5754E+06
            4534     243.686E+06     28.3370E+06              0.    -90.4224E+06
            4535     246.262E+06     30.8524E+06              0.    -92.2662E+06
            4536     248.737E+06     33.5382E+06              0.    -94.0972E+06
            4537     251.090E+06     36.4000E+06              0.    -95.9040E+06
            4538     253.302E+06     39.4420E+06              0.    -97.6728E+06
            4539     255.351E+06     42.6675E+06              0.    -99.3876E+06
            4540     257.212E+06     46.0773E+06              0.    -101.030E+06
            4541     258.861E+06     49.6702E+06              0.    -102.578E+06
            4542     260.273E+06     53.4418E+06              0.    -104.007E+06
            4543     261.419E+06     57.3838E+06              0.    -105.290E+06
            4544     262.275E+06     61.4833E+06              0.    -106.396E+06
            4545     262.815E+06     65.7220E+06              0.    -107.290E+06
            4546     263.014E+06     70.0750E+06              0.    -107.936E+06
            4547     262.852E+06     74.5103E+06              0.    -108.297E+06
            4548     262.310E+06     78.9880E+06              0.    -108.331E+06
            4549     261.378E+06       83.46E+06              0.    -108.000E+06
            4550     260.046E+06     87.8696E+06              0.    -107.266E+06
            4551     258.315E+06     92.1521E+06              0.    -106.095E+06
            4552     256.192E+06     96.2363E+06              0.    -104.459E+06
            4553     253.691E+06     100.045E+06              0.    -102.337E+06
            4554     250.832E+06     103.500E+06              0.    -99.7180E+06
            4555     247.643E+06     106.522E+06              0.    -96.6019E+06
            4556     244.156E+06     109.038E+06              0.    -93.0005E+06
            4557     243.492E+06     110.230E+06              0.    -92.8257E+06
            4558     70.3805E+06     30.8326E+06              0.    -1.59042E+06
            4559     70.3634E+06     30.6388E+06              0.    -1.58765E+06
            4560     70.4293E+06     30.4851E+06              0.    -1.56647E+06
            4561     70.4945E+06     30.3356E+06              0.    -1.54846E+06
            4562     70.5591E+06     30.1901E+06              0.    -1.53353E+06
            4563     70.6231E+06     30.0485E+06              0.    -1.52161E+06
            4564     70.6867E+06     29.9105E+06              0.    -1.51261E+06
            4565     70.7501E+06     29.7759E+06              0.    -1.50646E+06
            4566     70.8134E+06     29.6446E+06              0.    -1.50309E+06
            4567     70.8766E+06     29.5163E+06              0.    -1.50244E+06
            4568     70.9399E+06     29.3910E+06              0.    -1.50444E+06
            4569     71.0034E+06     29.2685E+06              0.    -1.50904E+06
            4570     71.0671E+06     29.1485E+06              0.    -1.51618E+06
            4571     71.1313E+06     29.0310E+06              0.    -1.52581E+06
            4572     71.1961E+06     28.9157E+06              0.    -1.53788E+06
            4573     71.2614E+06     28.8027E+06              0.    -1.55235E+06
            4574     71.3275E+06     28.6916E+06              0.    -1.56917E+06
            4575     71.3943E+06     28.5824E+06              0.    -1.58830E+06
            4576     71.4621E+06     28.4749E+06              0.    -1.60971E+06
            4577     71.5309E+06     28.3691E+06              0.    -1.63336E+06
            4578     71.6009E+06     28.2647E+06              0.    -1.65922E+06
            4579     71.6720E+06     28.1617E+06              0.    -1.68727E+06
            4580     71.7444E+06     28.0599E+06              0.    -1.71747E+06
            4581     71.8182E+06     27.9592E+06              0.    -1.74981E+06
            4582     71.8935E+06     27.8596E+06              0.    -1.78426E+06
            4583     71.9703E+06     27.7609E+06              0.    -1.82080E+06
            4584     72.0488E+06     27.6629E+06              0.    -1.85942E+06
            4585     72.1291E+06     27.5657E+06              0.    -1.90011E+06
            4586     72.2112E+06     27.4690E+06              0.    -1.94284E+06
            4587     72.2952E+06     27.3728E+06              0.    -1.98762E+06
            4588     72.3812E+06     27.2770E+06              0.    -2.03444E+06
            4589     72.4694E+06     27.1815E+06              0.    -2.08328E+06
            4590     72.5597E+06     27.0863E+06              0.    -2.13415E+06
            4591     72.6523E+06     26.9911E+06              0.    -2.18704E+06
            4592     72.7472E+06     26.8960E+06              0.    -2.24196E+06
            4593     72.8446E+06     26.8008E+06              0.    -2.29891E+06
            4594     72.9446E+06     26.7054E+06              0.    -2.35788E+06
            4595     73.0472E+06     26.6099E+06              0.    -2.41890E+06
            4596     73.1524E+06     26.5140E+06              0.    -2.48196E+06
            4597     73.2605E+06     26.4178E+06              0.    -2.54708E+06
            4598     73.3715E+06     26.3210E+06              0.    -2.61426E+06
            4599     73.4855E+06     26.2238E+06              0.    -2.68352E+06
            4600     73.6025E+06     26.1259E+06              0.    -2.75488E+06
            4601     73.7227E+06     26.0273E+06              0.    -2.82835E+06
            4602     73.8462E+06     25.9280E+06              0.    -2.90395E+06
            4603     73.9730E+06     25.8278E+06              0.    -2.98170E+06
            4604     74.1032E+06     25.7268E+06              0.    -3.06163E+06
            4605     74.2370E+06     25.6248E+06              0.    -3.14375E+06
            4606     74.3745E+06     25.5217E+06              0.    -3.22809E+06
            4607     74.5156E+06     25.4175E+06              0.    -3.31467E+06
            4608     74.6607E+06     25.3122E+06              0.    -3.40353E+06
            4609     74.8096E+06     25.2056E+06              0.    -3.49470E+06
            4610     74.9626E+06     25.0978E+06              0.    -3.58820E+06
            4611     75.1197E+06     24.9885E+06              0.    -3.68407E+06
            4612     75.2811E+06     24.8779E+06              0.    -3.78234E+06
            4613     75.4468E+06     24.7658E+06              0.    -3.88304E+06
            4614     75.6170E+06     24.6521E+06              0.    -3.98623E+06
            4615     75.7918E+06     24.5369E+06              0.    -4.09192E+06
            4616     75.9712E+06     24.4200E+06              0.    -4.20017E+06
            4617     76.1554E+06     24.3013E+06              0.    -4.31102E+06
            4618     76.3446E+06     24.1810E+06              0.    -4.42450E+06
            4619     76.5388E+06     24.0588E+06              0.    -4.54068E+06
            4620     76.7381E+06     23.9347E+06              0.    -4.65958E+06
            4621     76.9427E+06     23.8087E+06              0.    -4.78125E+06
            4622     77.1528E+06     23.6807E+06              0.    -4.90576E+06
            4623     77.3683E+06     23.5506E+06              0.    -5.03315E+06
            4624     77.5895E+06     23.4185E+06              0.    -5.16346E+06
            4625     77.8164E+06     23.2842E+06              0.    -5.29677E+06
            4626     78.0494E+06     23.1478E+06              0.    -5.43311E+06
            4627     78.2883E+06     23.0091E+06              0.    -5.57255E+06
            4628     78.5335E+06     22.8682E+06              0.    -5.71514E+06
            4629     78.7849E+06     22.7249E+06              0.    -5.86095E+06
            4630     79.0429E+06     22.5792E+06              0.    -6.01005E+06
            4631     79.3075E+06     22.4311E+06              0.    -6.16248E+06
            4632     79.5789E+06     22.2805E+06              0.    -6.31832E+06
            4633     79.8572E+06     22.1275E+06              0.    -6.47763E+06
            4634     80.1427E+06     21.9719E+06              0.    -6.64048E+06
            4635     80.4353E+06     21.8136E+06              0.    -6.80695E+06
            4636     80.7354E+06     21.6528E+06              0.    -6.97710E+06
            4637     81.0431E+06     21.4893E+06              0.    -7.15100E+06
            4638     81.3586E+06     21.3231E+06              0.    -7.32874E+06
            4639     81.6819E+06     21.1541E+06              0.    -7.51038E+06
            4640     82.0134E+06     20.9823E+06              0.    -7.69601E+06
            4641     82.3532E+06     20.8078E+06              0.    -7.88571E+06
            4642     82.7014E+06     20.6303E+06              0.    -8.07956E+06
            4643     83.0584E+06     20.4500E+06              0.    -8.27764E+06
            4644     83.4241E+06     20.2668E+06              0.    -8.48003E+06
            4645     83.7990E+06     20.0807E+06              0.    -8.68684E+06
            4646     84.1831E+06     19.8916E+06              0.    -8.89814E+06
            4647     84.5766E+06     19.6995E+06              0.    -9.11403E+06
            4648     84.9798E+06     19.5044E+06              0.    -9.33459E+06
            4649     85.3929E+06     19.3063E+06              0.    -9.55993E+06
            4650     85.8161E+06     19.1051E+06              0.    -9.79015E+06
            4651     86.2497E+06     18.9008E+06              0.    -10.0253E+06
            4652     86.6938E+06     18.6935E+06              0.    -10.2656E+06
            4653     87.1487E+06     18.4831E+06              0.    -10.5110E+06
            4654     87.6146E+06     18.2696E+06              0.    -10.7618E+06
            4655     88.0918E+06     18.0530E+06              0.    -11.0179E+06
            4656     88.5805E+06     17.8333E+06              0.    -11.2795E+06
            4657     89.0809E+06     17.6105E+06              0.    -11.5468E+06
            4658     89.5934E+06     17.3847E+06              0.    -11.8197E+06
            4659     90.1182E+06     17.1557E+06              0.    -12.0985E+06
            4660     90.6555E+06     16.9236E+06              0.    -12.3833E+06
            4661     91.2057E+06     16.6885E+06              0.    -12.6742E+06
            4662     91.7690E+06     16.4503E+06              0.    -12.9713E+06
            4663     92.3456E+06     16.2091E+06              0.    -13.2748E+06
            4664     92.9360E+06     15.9650E+06              0.    -13.5847E+06
            4665     93.5403E+06     15.7178E+06              0.    -13.9012E+06
            4666     94.1590E+06     15.4678E+06              0.    -14.2245E+06
            4667     94.7922E+06     15.2149E+06              0.    -14.5547E+06
            4668     95.4403E+06     14.9591E+06              0.    -14.8919E+06
            4669     96.1037E+06     14.7006E+06              0.    -15.2362E+06
            4670     96.7826E+06     14.4393E+06              0.    -15.5879E+06
            4671     97.4774E+06     14.1755E+06              0.    -15.9471E+06
            4672     98.1885E+06     13.9090E+06              0.    -16.3139E+06
            4673     98.9161E+06     13.6401E+06              0.    -16.6885E+06
            4674     99.6607E+06     13.3687E+06              0.    -17.0710E+06
            4675     100.423E+06     13.0951E+06              0.    -17.4617E+06
            4676     101.202E+06     12.8193E+06              0.    -17.8607E+06
            4677     102.000E+06     12.5414E+06              0.    -18.2681E+06
            4678     102.816E+06     12.2615E+06              0.    -18.6841E+06
            4679     103.650E+06     11.9798E+06              0.    -19.1090E+06
            4680     104.504E+06     11.6964E+06              0.    -19.5429E+06
            4681     105.378E+06     11.4115E+06              0.    -19.9860E+06
            4682     106.271E+06     11.1253E+06              0.    -20.4385E+06
            4683     107.186E+06     10.8378E+06              0.    -20.9005E+06
            4684     108.120E+06     10.5494E+06              0.    -21.3724E+06
            4685     109.077E+06     10.2602E+06              0.    -21.8543E+06
            4686     110.054E+06     9.97047E+06              0.    -22.3465E+06
            4687     111.055E+06     9.68037E+06              0.    -22.8490E+06
            4688     112.077E+06     9.39019E+06              0.    -23.3623E+06
            4689     113.123E+06     9.10020E+06              0.    -23.8865E+06
            4690     114.192E+06     8.81067E+06              0.    -24.4218E+06
            4691     115.286E+06     8.52190E+06              0.    -24.9685E+06
            4692     116.403E+06     8.23422E+06              0.    -25.5268E+06
            4693     117.546E+06     7.94796E+06              0.    -26.0971E+06
            4694     118.714E+06     7.66349E+06              0.    -26.6795E+06
            4695     119.909E+06     7.38119E+06              0.    -27.2744E+06
            4696     121.129E+06     7.10146E+06              0.    -27.8820E+06
            4697     122.377E+06     6.82474E+06              0.    -28.5026E+06
            4698     123.652E+06     6.55148E+06              0.    -29.1365E+06
            4699     124.956E+06     6.28217E+06              0.    -29.7841E+06
            4700     126.287E+06     6.01732E+06              0.    -30.4455E+06
            4701     127.648E+06     5.75748E+06              0.    -31.1212E+06
            4702     129.039E+06     5.50322E+06              0.    -31.8115E+06
            4703     130.459E+06     5.25515E+06              0.    -32.5167E+06
            4704     131.910E+06     5.01392E+06              0.    -33.2372E+06
            4705     133.393E+06     4.78022E+06              0.    -33.9734E+06
            4706     134.907E+06     4.55476E+06              0.    -34.7255E+06
            4707     136.453E+06     4.33831E+06              0.    -35.4941E+06
            4708     138.032E+06     4.13169E+06              0.    -36.2794E+06
            4709     139.645E+06     3.93575E+06              0.    -37.0819E+06
            4710     141.291E+06     3.75140E+06              0.    -37.9021E+06
            4711     142.971E+06     3.57960E+06              0.    -38.7403E+06
            4712     144.686E+06     3.42137E+06              0.    -39.5970E+06
            4713     146.437E+06     3.27778E+06              0.    -40.4726E+06
            4714     148.223E+06     3.14996E+06              0.    -41.3676E+06
            4715     150.045E+06     3.03913E+06              0.    -42.2826E+06
            4716     151.904E+06     2.94656E+06              0.    -43.2179E+06
            4717     153.800E+06     2.87358E+06              0.    -44.1742E+06
            4718     155.733E+06     2.82164E+06              0.    -45.1518E+06
            4719     157.704E+06     2.79223E+06              0.    -46.1514E+06
            4720     159.712E+06     2.78695E+06              0.    -47.1735E+06
            4721     161.758E+06     2.80749E+06              0.    -48.2186E+06
            4722     163.843E+06     2.85564E+06              0.    -49.2873E+06
            4723     165.966E+06     2.93330E+06              0.    -50.3802E+06
            4724     168.127E+06     3.04245E+06              0.    -51.4979E+06
            4725     170.327E+06     3.18523E+06              0.    -52.6408E+06
            4726     172.564E+06     3.36389E+06              0.    -53.8097E+06
            4727     174.839E+06     3.58078E+06              0.    -55.0050E+06
            4728     177.152E+06     3.83844E+06              0.    -56.2274E+06
            4729     179.501E+06     4.13952E+06              0.    -57.4773E+06
            4730     181.887E+06     4.48684E+06              0.    -58.7555E+06
            4731     184.307E+06     4.88338E+06              0.    -60.0622E+06
            4732     186.762E+06     5.33228E+06              0.    -61.3982E+06
            4733     189.250E+06     5.83689E+06              0.    -62.7636E+06
            4734     191.769E+06     6.40073E+06              0.    -64.1591E+06
            4735     194.317E+06     7.02751E+06              0.    -65.5847E+06
            4736     196.893E+06     7.72116E+06              0.    -67.0409E+06
            4737     199.493E+06     8.48582E+06              0.    -68.5276E+06
            4738     202.115E+06     9.32585E+06              0.    -70.0448E+06
            4739     204.755E+06     10.2458E+06              0.    -71.5923E+06
            4740     207.410E+06     11.2506E+06              0.    -73.1698E+06
            4741     210.075E+06     12.3451E+06              0.    -74.7765E+06
            4742     212.745E+06     13.5347E+06              0.    -76.4116E+06
            4743     215.415E+06     14.8249E+06              0.    -78.0737E+06
            4744     218.077E+06     16.2213E+06              0.    -79.7612E+06
            4745     220.725E+06     17.7298E+06              0.    -81.4720E+06
            4746     223.351E+06     19.3564E+06              0.    -83.2032E+06
            4747     225.945E+06     21.1072E+06              0.    -84.9515E+06
            4748     228.497E+06     22.9884E+06              0.    -86.7126E+06
            4749     230.996E+06     25.0062E+06              0.    -88.4816E+06
            4750     233.430E+06     27.1664E+06              0.    -90.2522E+06
            4751     235.784E+06     29.4749E+06              0.    -92.0171E+06
            4752     238.043E+06     31.9369E+06              0.    -93.7676E+06
            4753     240.192E+06     34.5571E+06              0.    -95.4933E+06
            4754     242.211E+06     37.3392E+06              0.    -97.1822E+06
            4755     244.082E+06     40.2860E+06              0.    -98.8202E+06
            4756     245.785E+06     43.3984E+06              0.    -100.391E+06
            4757     247.297E+06     46.6754E+06              0.    -101.876E+06
            4758     248.598E+06     50.1137E+06              0.    -103.255E+06
            4759     249.663E+06     53.7067E+06              0.    -104.503E+06
            4760     250.471E+06     57.4444E+06              0.    -105.594E+06
            4761     250.998E+06     61.3122E+06              0.    -106.499E+06
            4762     251.224E+06     65.2906E+06              0.    -107.187E+06
            4763     251.129E+06     69.3543E+06              0.    -107.625E+06
            4764     250.698E+06     73.4717E+06              0.    -107.779E+06
            4765     249.915E+06     77.6046E+06              0.    -107.614E+06
            4766     248.774E+06     81.7078E+06              0.    -107.096E+06
            4767     247.271E+06     85.7291E+06              0.    -106.194E+06
            4768     245.406E+06     89.6102E+06              0.    -104.879E+06
            4769     243.190E+06     93.2875E+06              0.    -103.128E+06
            4770     240.636E+06     96.6938E+06              0.    -100.925E+06
            4771     237.763E+06     99.7603E+06              0.    -98.2632E+06
            4772     234.596E+06     102.419E+06              0.    -95.1427E+06
            4773     231.161E+06     104.605E+06              0.    -91.5756E+06
            4774     230.411E+06     105.542E+06              0.    -91.3082E+06
            4775     70.3163E+06     30.8056E+06              0.    -1.65570E+06
            4776     70.2995E+06     30.6158E+06              0.    -1.65282E+06
            4777     70.3641E+06     30.4653E+06              0.    -1.63077E+06
            4778     70.4280E+06     30.3189E+06              0.    -1.61202E+06
            4779     70.4912E+06     30.1765E+06              0.    -1.59648E+06
            4780     70.5539E+06     30.0378E+06              0.    -1.58406E+06
            4781     70.6162E+06     29.9026E+06              0.    -1.57469E+06
            4782     70.6783E+06     29.7708E+06              0.    -1.56828E+06
            4783     70.7402E+06     29.6423E+06              0.    -1.56477E+06
            4784     70.8021E+06     29.5167E+06              0.    -1.56409E+06
            4785     70.8640E+06     29.3940E+06              0.    -1.56617E+06
            4786     70.9262E+06     29.2740E+06              0.    -1.57096E+06
            4787     70.9887E+06     29.1565E+06              0.    -1.57839E+06
            4788     71.0515E+06     29.0415E+06              0.    -1.58841E+06
            4789     71.1149E+06     28.9286E+06              0.    -1.60097E+06
            4790     71.1789E+06     28.8179E+06              0.    -1.61603E+06
            4791     71.2436E+06     28.7092E+06              0.    -1.63354E+06
            4792     71.3090E+06     28.6022E+06              0.    -1.65345E+06
            4793     71.3754E+06     28.4970E+06              0.    -1.67573E+06
            4794     71.4428E+06     28.3934E+06              0.    -1.70035E+06
            4795     71.5112E+06     28.2912E+06              0.    -1.72727E+06
            4796     71.5809E+06     28.1903E+06              0.    -1.75646E+06
            4797     71.6518E+06     28.0906E+06              0.    -1.78790E+06
            4798     71.7240E+06     27.9921E+06              0.    -1.82156E+06
            4799     71.7977E+06     27.8945E+06              0.    -1.85742E+06
            4800     71.8730E+06     27.7979E+06              0.    -1.89545E+06
            4801     71.9498E+06     27.7020E+06              0.    -1.93565E+06
            4802     72.0284E+06     27.6068E+06              0.    -1.97800E+06
            4803     72.1088E+06     27.5121E+06              0.    -2.02249E+06
            4804     72.1910E+06     27.4180E+06              0.    -2.06909E+06
            4805     72.2753E+06     27.3242E+06              0.    -2.11782E+06
            4806     72.3616E+06     27.2307E+06              0.    -2.16866E+06
            4807     72.4500E+06     27.1375E+06              0.    -2.22161E+06
            4808     72.5406E+06     27.0443E+06              0.    -2.27666E+06
            4809     72.6336E+06     26.9512E+06              0.    -2.33382E+06
            4810     72.7289E+06     26.8580E+06              0.    -2.39309E+06
            4811     72.8268E+06     26.7647E+06              0.    -2.45448E+06
            4812     72.9272E+06     26.6711E+06              0.    -2.51798E+06
            4813     73.0302E+06     26.5773E+06              0.    -2.58362E+06
            4814     73.1360E+06     26.4831E+06              0.    -2.65139E+06
            4815     73.2447E+06     26.3884E+06              0.    -2.72132E+06
            4816     73.3562E+06     26.2932E+06              0.    -2.79341E+06
            4817     73.4708E+06     26.1974E+06              0.    -2.86768E+06
            4818     73.5885E+06     26.1009E+06              0.    -2.94414E+06
            4819     73.7093E+06     26.0037E+06              0.    -3.02283E+06
            4820     73.8334E+06     25.9057E+06              0.    -3.10375E+06
            4821     73.9609E+06     25.8068E+06              0.    -3.18693E+06
            4822     74.0919E+06     25.7069E+06              0.    -3.27239E+06
            4823     74.2264E+06     25.6061E+06              0.    -3.36017E+06
            4824     74.3646E+06     25.5041E+06              0.    -3.45028E+06
            4825     74.5065E+06     25.4011E+06              0.    -3.54276E+06
            4826     74.6523E+06     25.2968E+06              0.    -3.63763E+06
            4827     74.8021E+06     25.1912E+06              0.    -3.73494E+06
            4828     74.9559E+06     25.0844E+06              0.    -3.83471E+06
            4829     75.1138E+06     24.9761E+06              0.    -3.93697E+06
            4830      75.276E+06     24.8664E+06              0.    -4.04177E+06
            4831     75.4426E+06     24.7552E+06              0.    -4.14915E+06
            4832     75.6136E+06     24.6425E+06              0.    -4.25914E+06
            4833     75.7892E+06     24.5281E+06              0.    -4.37179E+06
            4834     75.9695E+06     24.4121E+06              0.    -4.48713E+06
            4835     76.1546E+06     24.2943E+06              0.    -4.60522E+06
            4836     76.3447E+06     24.1747E+06              0.    -4.72611E+06
            4837     76.5398E+06     24.0534E+06              0.    -4.84983E+06
            4838     76.7400E+06     23.9301E+06              0.    -4.97644E+06
            4839     76.9455E+06     23.8049E+06              0.    -5.10599E+06
            4840     77.1564E+06     23.6778E+06              0.    -5.23853E+06
            4841     77.3728E+06     23.5485E+06              0.    -5.37412E+06
            4842     77.5949E+06     23.4172E+06              0.    -5.51281E+06
            4843     77.8228E+06     23.2838E+06              0.    -5.65467E+06
            4844     78.0566E+06     23.1482E+06              0.    -5.79974E+06
            4845     78.2965E+06     23.0104E+06              0.    -5.94810E+06
            4846     78.5426E+06     22.8703E+06              0.    -6.09980E+06
            4847     78.7949E+06     22.7279E+06              0.    -6.25490E+06
            4848     79.0538E+06     22.5831E+06              0.    -6.41348E+06
            4849     79.3193E+06     22.4359E+06              0.    -6.57560E+06
            4850     79.5916E+06     22.2863E+06              0.    -6.74132E+06
            4851     79.8708E+06     22.1342E+06              0.    -6.91073E+06
            4852     80.1572E+06     21.9796E+06              0.    -7.08389E+06
            4853     80.4507E+06     21.8224E+06              0.    -7.26087E+06
            4854     80.7517E+06     21.6626E+06              0.    -7.44176E+06
            4855     81.0602E+06     21.5001E+06              0.    -7.62663E+06
            4856     81.3765E+06     21.3350E+06              0.    -7.81555E+06
            4857     81.7007E+06     21.1672E+06              0.    -8.00862E+06
            4858     82.0331E+06     20.9967E+06              0.    -8.20591E+06
            4859     82.3736E+06     20.8233E+06              0.    -8.40750E+06
            4860     82.7227E+06     20.6472E+06              0.    -8.61350E+06
            4861     83.0804E+06     20.4683E+06              0.    -8.82397E+06
            4862     83.4469E+06     20.2865E+06              0.    -9.03902E+06
            4863     83.8225E+06     20.1018E+06              0.    -9.25873E+06
            4864     84.2073E+06     19.9143E+06              0.    -9.48321E+06
            4865     84.6016E+06     19.7238E+06              0.    -9.71254E+06
            4866     85.0054E+06     19.5304E+06              0.    -9.94683E+06
            4867     85.4192E+06     19.3340E+06              0.    -10.1862E+06
            4868     85.8430E+06     19.1347E+06              0.    -10.4307E+06
            4869     86.2771E+06     18.9323E+06              0.    -10.6805E+06
            4870     86.7218E+06     18.7270E+06              0.    -10.9356E+06
            4871     87.1772E+06     18.5187E+06              0.    -11.1962E+06
            4872     87.6436E+06     18.3074E+06              0.    -11.4624E+06
            4873     88.1212E+06     18.0931E+06              0.    -11.7343E+06
            4874     88.6102E+06     17.8759E+06              0.    -12.0121E+06
            4875     89.1110E+06     17.6556E+06              0.    -12.2957E+06
            4876     89.6238E+06     17.4323E+06              0.    -12.5855E+06
            4877     90.1488E+06     17.2061E+06              0.    -12.8814E+06
            4878     90.6863E+06     16.9770E+06              0.    -13.1836E+06
            4879     91.2365E+06     16.7449E+06              0.    -13.4923E+06
            4880     91.7998E+06     16.5099E+06              0.    -13.8076E+06
            4881     92.3764E+06     16.2720E+06              0.    -14.1295E+06
            4882     92.9666E+06     16.0314E+06              0.    -14.4583E+06
            4883     93.5707E+06     15.7879E+06              0.    -14.7941E+06
            4884     94.1890E+06     15.5417E+06              0.    -15.1370E+06
            4885     94.8219E+06     15.2927E+06              0.    -15.4872E+06
            4886     95.4695E+06     15.0412E+06              0.    -15.8448E+06
            4887     96.1322E+06     14.7870E+06              0.    -16.2099E+06
            4888     96.8104E+06     14.5304E+06              0.    -16.5828E+06
            4889     97.5043E+06     14.2713E+06              0.    -16.9636E+06
            4890     98.2144E+06     14.0099E+06              0.    -17.3524E+06
            4891     98.9408E+06     13.7463E+06              0.    -17.7495E+06
            4892     99.6841E+06     13.4804E+06              0.    -18.1549E+06
            4893     100.444E+06     13.2126E+06              0.    -18.5689E+06
            4894     101.222E+06     12.9428E+06              0.    -18.9916E+06
            4895     102.018E+06     12.6712E+06              0.    -19.4232E+06
            4896     102.832E+06     12.3980E+06              0.    -19.8639E+06
            4897     103.665E+06     12.1232E+06              0.    -20.3139E+06
            4898     104.516E+06     11.8471E+06              0.    -20.7734E+06
            4899     105.387E+06     11.5698E+06              0.    -21.2426E+06
            4900     106.278E+06     11.2915E+06              0.    -21.7217E+06
            4901     107.188E+06     11.0124E+06              0.    -22.2108E+06
            4902     108.120E+06     10.7326E+06              0.    -22.7103E+06
            4903     109.072E+06     10.4525E+06              0.    -23.2202E+06
            4904     110.046E+06     10.1722E+06              0.    -23.7409E+06
            4905     111.042E+06     9.89209E+06              0.    -24.2726E+06
            4906     112.059E+06     9.61231E+06              0.    -24.8155E+06
            4907     113.100E+06     9.33319E+06              0.    -25.3698E+06
            4908     114.164E+06     9.05503E+06              0.    -25.9358E+06
            4909     115.251E+06     8.77816E+06              0.    -26.5138E+06
            4910     116.362E+06     8.50292E+06              0.    -27.1039E+06
            4911     117.498E+06     8.22967E+06              0.    -27.7065E+06
            4912     118.658E+06     7.95879E+06              0.    -28.3219E+06
            4913     119.844E+06     7.69071E+06              0.    -28.9502E+06
            4914     121.056E+06     7.42585E+06              0.    -29.5918E+06
            4915     122.294E+06     7.16468E+06              0.    -30.2471E+06
            4916     123.560E+06     6.90768E+06              0.    -30.9162E+06
            4917     124.852E+06     6.65536E+06              0.    -31.5995E+06
            4918     126.172E+06     6.40829E+06              0.    -32.2973E+06
            4919     127.520E+06     6.16702E+06              0.    -33.0099E+06
            4920     128.897E+06     5.93219E+06              0.    -33.7378E+06
            4921     130.303E+06     5.70443E+06              0.    -34.4811E+06
            4922     131.739E+06     5.48444E+06              0.    -35.2403E+06
            4923     133.205E+06     5.27293E+06              0.    -36.0157E+06
            4924     134.701E+06     5.07069E+06              0.    -36.8077E+06
            4925     136.228E+06     4.87851E+06              0.    -37.6167E+06
            4926     137.787E+06     4.69726E+06              0.    -38.4430E+06
            4927     139.378E+06     4.52784E+06              0.    -39.2871E+06
            4928     141.001E+06     4.37123E+06              0.    -40.1494E+06
            4929     142.656E+06     4.22842E+06              0.    -41.0302E+06
            4930     144.344E+06     4.10049E+06              0.    -41.9301E+06
            4931     146.066E+06     3.98859E+06              0.    -42.8494E+06
            4932     147.822E+06     3.89390E+06              0.    -43.7886E+06
            4933     149.611E+06     3.81769E+06              0.    -44.7481E+06
            4934     151.435E+06     3.76130E+06              0.    -45.7285E+06
            4935     153.293E+06     3.72616E+06              0.    -46.7301E+06
            4936     155.186E+06     3.71375E+06              0.    -47.7535E+06
            4937     157.113E+06     3.72566E+06              0.    -48.7992E+06
            4938     159.075E+06     3.76356E+06              0.    -49.8675E+06
            4939     161.072E+06     3.82922E+06              0.    -50.9591E+06
            4940     163.104E+06     3.92451E+06              0.    -52.0745E+06
            4941     165.170E+06     4.05140E+06              0.    -53.2140E+06
            4942     167.270E+06     4.21199E+06              0.    -54.3782E+06
            4943     169.405E+06     4.40847E+06              0.    -55.5676E+06
            4944     171.572E+06     4.64317E+06              0.    -56.7825E+06
            4945     173.772E+06     4.91857E+06              0.    -58.0236E+06
            4946     176.005E+06     5.23726E+06              0.    -59.2911E+06
            4947     178.268E+06     5.60198E+06              0.    -60.5855E+06
            4948     180.561E+06     6.01563E+06              0.    -61.9071E+06
            4949     182.882E+06     6.48128E+06              0.    -63.2562E+06
            4950     185.231E+06     7.00214E+06              0.    -64.6330E+06
            4951     187.604E+06     7.58160E+06              0.    -66.0377E+06
            4952     190.000E+06     8.22325E+06              0.    -67.4703E+06
            4953     192.417E+06     8.93082E+06              0.    -68.9308E+06
            4954     194.851E+06     9.70828E+06              0.    -70.4190E+06
            4955     197.300E+06     10.5598E+06              0.    -71.9345E+06
            4956     199.759E+06     11.4896E+06              0.    -73.4767E+06
            4957     202.225E+06     12.5022E+06              0.    -75.0450E+06
            4958     204.692E+06     13.6024E+06              0.    -76.6381E+06
            4959     207.156E+06     14.7951E+06              0.    -78.2548E+06
            4960     209.610E+06     16.0852E+06              0.    -79.8933E+06
            4961     212.048E+06     17.4780E+06              0.    -81.5513E+06
            4962     214.463E+06     18.9786E+06              0.    -83.2262E+06
            4963     216.845E+06     20.5926E+06              0.    -84.9147E+06
            4964     219.187E+06     22.3252E+06              0.    -86.6128E+06
            4965     221.477E+06     24.1817E+06              0.    -88.3155E+06
            4966     223.705E+06     26.1674E+06              0.    -90.0174E+06
            4967     225.858E+06     28.2872E+06              0.    -91.7116E+06
            4968     227.924E+06     30.5456E+06              0.    -93.3901E+06
            4969     229.886E+06     32.9467E+06              0.    -95.0437E+06
            4970     231.731E+06     35.4936E+06              0.    -96.6617E+06
            4971     233.442E+06     38.1887E+06              0.    -98.2315E+06
            4972     234.999E+06     41.0328E+06              0.    -99.7390E+06
            4973     236.386E+06     44.0254E+06              0.    -101.168E+06
            4974     237.583E+06     47.1638E+06              0.    -102.500E+06
            4975     238.570E+06     50.4427E+06              0.    -103.715E+06
            4976     239.327E+06     53.8542E+06              0.    -104.790E+06
            4977     239.835E+06     57.3866E+06              0.    -105.700E+06
            4978     240.074E+06     61.0244E+06              0.    -106.419E+06
            4979     240.028E+06     64.7473E+06              0.    -106.917E+06
            4980     239.681E+06     68.5302E+06              0.    -107.166E+06
            4981     239.019E+06     72.3423E+06              0.    -107.135E+06
            4982     238.035E+06     76.1473E+06              0.    -106.793E+06
            4983     236.721E+06     79.9029E+06              0.    -106.111E+06
            4984     235.077E+06     83.5614E+06              0.    -105.062E+06
            4985     233.108E+06     87.0700E+06              0.    -103.624E+06
            4986     230.821E+06     90.3723E+06              0.    -101.777E+06
            4987     228.231E+06     93.4088E+06              0.    -99.5093E+06
            4988     225.356E+06     96.1194E+06              0.    -96.8151E+06
            4989     222.220E+06     98.4455E+06              0.    -93.6971E+06
            4990     218.850E+06     100.332E+06              0.    -90.1661E+06
            4991     218.033E+06     101.037E+06              0.    -89.8196E+06
            4992     70.2496E+06     30.7774E+06              0.    -1.71958E+06
            4993     70.2332E+06     30.5918E+06              0.    -1.71658E+06
            4994     70.2963E+06     30.4447E+06              0.    -1.69368E+06
            4995     70.3588E+06     30.3015E+06              0.    -1.67420E+06
            4996     70.4206E+06     30.1622E+06              0.    -1.65806E+06
            4997     70.4819E+06     30.0266E+06              0.    -1.64516E+06
            4998     70.5428E+06     29.8944E+06              0.    -1.63542E+06
            4999     70.6035E+06     29.7656E+06              0.    -1.62877E+06
            5000     70.6641E+06     29.6398E+06              0.    -1.62512E+06
            5001     70.7246E+06     29.5171E+06              0.    -1.62441E+06
            5002     70.7852E+06     29.3971E+06              0.    -1.62657E+06
            5003     70.8460E+06     29.2797E+06              0.    -1.63154E+06
            5004     70.9071E+06     29.1649E+06              0.    -1.63925E+06
            5005     70.9686E+06     29.0523E+06              0.    -1.64965E+06
            5006     71.0305E+06     28.9420E+06              0.    -1.66270E+06
            5007     71.0931E+06     28.8338E+06              0.    -1.67833E+06
            5008     71.1563E+06     28.7274E+06              0.    -1.69651E+06
            5009     71.2204E+06     28.6229E+06              0.    -1.71718E+06
            5010     71.2853E+06     28.5200E+06              0.    -1.74032E+06
            5011     71.3511E+06     28.4186E+06              0.    -1.76589E+06
            5012     71.4181E+06     28.3187E+06              0.    -1.79384E+06
            5013     71.4862E+06     28.2201E+06              0.    -1.82415E+06
            5014     71.5555E+06     28.1226E+06              0.    -1.85680E+06
            5015     71.6261E+06     28.0263E+06              0.    -1.89175E+06
            5016     71.6982E+06     27.9309E+06              0.    -1.92898E+06
            5017     71.7718E+06     27.8364E+06              0.    -1.96848E+06
            5018     71.8469E+06     27.7426E+06              0.    -2.01022E+06
            5019     71.9237E+06     27.6495E+06              0.    -2.05420E+06
            5020     72.0023E+06     27.5570E+06              0.    -2.10039E+06
            5021     72.0827E+06     27.4649E+06              0.    -2.14879E+06
            5022     72.1651E+06     27.3732E+06              0.    -2.19938E+06
            5023     72.2494E+06     27.2819E+06              0.    -2.25217E+06
            5024     72.3359E+06     27.1907E+06              0.    -2.30715E+06
            5025     72.4245E+06     27.0996E+06              0.    -2.36432E+06
            5026     72.5154E+06     27.0086E+06              0.    -2.42367E+06
            5027     72.6086E+06     26.9175E+06              0.    -2.48522E+06
            5028     72.7043E+06     26.8262E+06              0.    -2.54896E+06
            5029     72.8024E+06     26.7348E+06              0.    -2.61490E+06
            5030     72.9032E+06     26.6430E+06              0.    -2.68305E+06
            5031     73.0066E+06     26.5509E+06              0.    -2.75342E+06
            5032     73.1128E+06     26.4584E+06              0.    -2.82602E+06
            5033     73.2219E+06     26.3653E+06              0.    -2.90087E+06
            5034     73.3339E+06     26.2717E+06              0.    -2.97799E+06
            5035     73.4489E+06     26.1774E+06              0.    -3.05739E+06
            5036     73.5670E+06     26.0824E+06              0.    -3.13908E+06
            5037     73.6884E+06     25.9866E+06              0.    -3.22310E+06
            5038     73.8130E+06     25.8899E+06              0.    -3.30947E+06
            5039     73.9410E+06     25.7923E+06              0.    -3.39820E+06
            5040     74.0725E+06     25.6938E+06              0.    -3.48933E+06
            5041     74.2076E+06     25.5942E+06              0.    -3.58289E+06
            5042     74.3463E+06     25.4934E+06              0.    -3.67890E+06
            5043     74.4888E+06     25.3915E+06              0.    -3.77741E+06
            5044     74.6352E+06     25.2884E+06              0.    -3.87843E+06
            5045     74.7855E+06     25.1840E+06              0.    -3.98201E+06
            5046     74.9399E+06     25.0782E+06              0.    -4.08818E+06
            5047     75.0984E+06     24.9710E+06              0.    -4.19698E+06
            5048     75.2612E+06     24.8624E+06              0.    -4.30845E+06
            5049     75.4284E+06     24.7522E+06              0.    -4.42263E+06
            5050     75.6000E+06     24.6405E+06              0.    -4.53958E+06
            5051     75.7763E+06     24.5271E+06              0.    -4.65932E+06
            5052     75.9572E+06     24.4121E+06              0.    -4.78190E+06
            5053     76.1429E+06     24.2953E+06              0.    -4.90739E+06
            5054     76.3336E+06     24.1767E+06              0.    -5.03582E+06
            5055     76.5292E+06     24.0564E+06              0.    -5.16725E+06
            5056     76.7301E+06     23.9341E+06              0.    -5.30172E+06
            5057     76.9362E+06     23.8099E+06              0.    -5.43930E+06
            5058     77.1477E+06     23.6837E+06              0.    -5.58004E+06
            5059     77.3647E+06     23.5555E+06              0.    -5.72400E+06
            5060     77.5874E+06     23.4252E+06              0.    -5.87123E+06
            5061     77.8158E+06     23.2928E+06              0.    -6.02181E+06
            5062     78.0502E+06     23.1582E+06              0.    -6.17578E+06
            5063     78.2906E+06     23.0214E+06              0.    -6.33322E+06
            5064     78.5372E+06     22.8824E+06              0.    -6.49420E+06
            5065     78.7902E+06     22.7410E+06              0.    -6.65877E+06
            5066     79.0496E+06     22.5973E+06              0.    -6.82702E+06
            5067     79.3156E+06     22.4513E+06              0.    -6.99900E+06
            5068     79.5884E+06     22.3028E+06              0.     -7.1748E+06
            5069     79.8681E+06     22.1519E+06              0.    -7.35449E+06
            5070     80.1549E+06     21.9985E+06              0.    -7.53814E+06
            5071     80.4489E+06     21.8426E+06              0.    -7.72584E+06
            5072     80.7503E+06     21.6841E+06              0.    -7.91766E+06
            5073     81.0592E+06     21.5230E+06              0.    -8.11368E+06
            5074     81.3759E+06     21.3593E+06              0.    -8.31400E+06
            5075     81.7004E+06     21.1929E+06              0.    -8.51868E+06
            5076     82.0331E+06     21.0238E+06              0.    -8.72783E+06
            5077     82.3740E+06     20.8521E+06              0.    -8.94154E+06
            5078     82.7233E+06     20.6775E+06              0.    -9.15988E+06
            5079     83.0812E+06     20.5003E+06              0.    -9.38297E+06
            5080     83.4480E+06     20.3202E+06              0.    -9.61088E+06
            5081     83.8237E+06     20.1373E+06              0.    -9.84372E+06
            5082     84.2086E+06     19.9516E+06              0.    -10.0816E+06
            5083     84.6030E+06     19.7631E+06              0.    -10.3246E+06
            5084     85.0069E+06     19.5717E+06              0.    -10.5728E+06
            5085     85.4207E+06     19.3774E+06              0.    -10.8264E+06
            5086     85.8444E+06     19.1803E+06              0.    -11.0854E+06
            5087     86.2784E+06     18.9803E+06              0.    -11.3500E+06
            5088     86.7229E+06     18.7774E+06              0.    -11.6202E+06
            5089     87.1781E+06     18.5715E+06              0.    -11.8962E+06
            5090     87.6442E+06     18.3628E+06              0.    -12.1782E+06
            5091     88.1215E+06     18.1513E+06              0.    -12.4661E+06
            5092     88.6101E+06     17.9368E+06              0.    -12.7602E+06
            5093     89.1104E+06     17.7195E+06              0.    -13.0605E+06
            5094     89.6226E+06     17.4993E+06              0.    -13.3673E+06
            5095     90.1470E+06     17.2763E+06              0.    -13.6806E+06
            5096     90.6838E+06     17.0506E+06              0.    -14.0005E+06
            5097     91.2332E+06     16.8220E+06              0.    -14.3272E+06
            5098     91.7956E+06     16.5907E+06              0.    -14.6608E+06
            5099     92.3712E+06     16.3566E+06              0.    -15.0015E+06
            5100     92.9602E+06     16.1200E+06              0.    -15.3494E+06
            5101     93.5631E+06     15.8807E+06              0.    -15.7046E+06
            5102     94.1801E+06     15.6388E+06              0.    -16.0674E+06
            5103     94.8114E+06     15.3944E+06              0.    -16.4378E+06
            5104     95.4574E+06     15.1476E+06              0.    -16.8160E+06
            5105     96.1183E+06     14.8985E+06              0.    -17.2022E+06
            5106     96.7946E+06     14.6470E+06              0.    -17.5965E+06
            5107     97.4864E+06     14.3934E+06              0.    -17.9991E+06
            5108     98.1942E+06     14.1376E+06              0.    -18.4101E+06
            5109     98.9182E+06     13.8799E+06              0.    -18.8298E+06
            5110     99.6588E+06     13.6202E+06              0.    -19.2583E+06
            5111     100.416E+06     13.3588E+06              0.    -19.6958E+06
            5112     101.191E+06     13.0958E+06              0.    -20.1425E+06
            5113     101.984E+06     12.8313E+06              0.    -20.5985E+06
            5114     102.794E+06     12.5654E+06              0.    -21.0641E+06
            5115     103.623E+06     12.2983E+06              0.    -21.5394E+06
            5116     104.470E+06     12.0302E+06              0.    -22.0246E+06
            5117     105.337E+06     11.7612E+06              0.    -22.5200E+06
            5118     106.223E+06     11.4917E+06              0.    -23.0258E+06
            5119     107.128E+06     11.2217E+06              0.    -23.5421E+06
            5120     108.055E+06     10.9515E+06              0.    -24.0692E+06
            5121     109.001E+06     10.6813E+06              0.    -24.6073E+06
            5122     109.969E+06     10.4114E+06              0.    -25.1567E+06
            5123     110.958E+06     10.1421E+06              0.    -25.7175E+06
            5124     111.969E+06     9.87366E+06              0.    -26.2900E+06
            5125     113.002E+06     9.60637E+06              0.    -26.8745E+06
            5126     114.057E+06     9.34056E+06              0.    -27.4712E+06
            5127     115.136E+06     9.07658E+06              0.    -28.0803E+06
            5128     116.238E+06     8.81480E+06              0.    -28.7022E+06
            5129     117.364E+06     8.55561E+06              0.    -29.3370E+06
            5130     118.515E+06     8.29941E+06              0.    -29.9851E+06
            5131     119.690E+06     8.04665E+06              0.    -30.6468E+06
            5132     120.890E+06     7.79779E+06              0.    -31.3222E+06
            5133     122.116E+06     7.55333E+06              0.    -32.0118E+06
            5134     123.368E+06     7.31376E+06              0.    -32.7158E+06
            5135     124.646E+06     7.07966E+06              0.    -33.4346E+06
            5136     125.951E+06     6.85160E+06              0.    -34.1683E+06
            5137     127.283E+06     6.63018E+06              0.    -34.9175E+06
            5138     128.643E+06     6.41608E+06              0.    -35.6823E+06
            5139     130.031E+06     6.20996E+06              0.    -36.4632E+06
            5140     131.447E+06     6.01255E+06              0.    -37.2604E+06
            5141     132.893E+06     5.82464E+06              0.    -38.0744E+06
            5142     134.367E+06     5.64702E+06              0.    -38.9054E+06
            5143     135.871E+06     5.48055E+06              0.    -39.7539E+06
            5144     137.405E+06     5.32614E+06              0.    -40.6203E+06
            5145     138.969E+06     5.18475E+06              0.    -41.5048E+06
            5146     140.563E+06     5.05739E+06              0.    -42.4080E+06
            5147     142.189E+06     4.94512E+06              0.    -43.3301E+06
            5148     143.845E+06     4.84907E+06              0.    -44.2717E+06
            5149     145.533E+06     4.77044E+06              0.    -45.2330E+06
            5150     147.252E+06     4.71048E+06              0.    -46.2146E+06
            5151     149.002E+06     4.67052E+06              0.    -47.2168E+06
            5152     150.784E+06     4.65197E+06              0.    -48.2401E+06
            5153     152.598E+06     4.65630E+06              0.    -49.2848E+06
            5154     154.443E+06     4.68507E+06              0.    -50.3514E+06
            5155     156.320E+06     4.73995E+06              0.    -51.4404E+06
            5156     158.229E+06     4.82267E+06              0.    -52.5521E+06
            5157     160.168E+06     4.93507E+06              0.    -53.6869E+06
            5158     162.139E+06     5.07908E+06              0.    -54.8452E+06
            5159     164.139E+06     5.25677E+06              0.    -56.0275E+06
            5160     166.170E+06     5.47028E+06              0.    -57.2340E+06
            5161     168.229E+06     5.72189E+06              0.    -58.4652E+06
            5162     170.317E+06     6.01401E+06              0.    -59.7213E+06
            5163     172.431E+06     6.34916E+06              0.    -61.0026E+06
            5164     174.572E+06     6.73001E+06              0.    -62.3093E+06
            5165     176.738E+06     7.15936E+06              0.    -63.6416E+06
            5166     178.927E+06     7.64015E+06              0.    -64.9996E+06
            5167     181.137E+06     8.17550E+06              0.    -66.3834E+06
            5168     183.365E+06     8.76864E+06              0.    -67.7928E+06
            5169     185.611E+06     9.42299E+06              0.    -69.2276E+06
            5170     187.871E+06     10.1421E+06              0.    -70.6876E+06
            5171     190.142E+06     10.9298E+06              0.    -72.1722E+06
            5172     192.420E+06     11.7898E+06              0.    -73.6808E+06
            5173     194.701E+06     12.7263E+06              0.    -75.2125E+06
            5174     196.982E+06     13.7435E+06              0.    -76.7661E+06
            5175     199.256E+06     14.8457E+06              0.    -78.3402E+06
            5176     201.519E+06     16.0373E+06              0.    -79.9330E+06
            5177     203.765E+06     17.3230E+06              0.    -81.5422E+06
            5178     205.987E+06     18.7074E+06              0.    -83.1653E+06
            5179     208.176E+06     20.1952E+06              0.    -84.7990E+06
            5180     210.326E+06     21.7911E+06              0.    -86.4394E+06
            5181     212.426E+06     23.4998E+06              0.    -88.0822E+06
            5182     214.467E+06     25.3257E+06              0.    -89.7219E+06
            5183     216.438E+06     27.2731E+06              0.    -91.3525E+06
            5184     218.327E+06     29.3460E+06              0.    -92.9665E+06
            5185     220.122E+06     31.5477E+06              0.    -94.5557E+06
            5186     221.809E+06     33.8811E+06              0.    -96.1103E+06
            5187     223.372E+06     36.3481E+06              0.    -97.6194E+06
            5188     224.797E+06     38.9497E+06              0.    -99.0704E+06
            5189     226.068E+06     41.6853E+06              0.    -100.449E+06
            5190     227.168E+06     44.5528E+06              0.    -101.739E+06
            5191     228.079E+06     47.5482E+06              0.    -102.924E+06
            5192     228.784E+06     50.6647E+06              0.    -103.982E+06
            5193     229.267E+06     53.8932E+06              0.    -104.893E+06
            5194     229.509E+06      57.221E+06              0.    -105.634E+06
            5195     229.496E+06     60.6319E+06              0.    -106.180E+06
            5196     229.214E+06     64.1054E+06              0.    -106.504E+06
            5197     228.649E+06     67.6167E+06              0.    -106.581E+06
            5198     227.793E+06     71.1364E+06              0.    -106.383E+06
            5199     226.638E+06     74.6299E+06              0.    -105.884E+06
            5200     225.181E+06     78.0580E+06              0.    -105.058E+06
            5201     223.425E+06     81.3772E+06              0.    -103.883E+06
            5202     221.372E+06     84.5397E+06              0.    -102.340E+06
            5203     219.033E+06     87.4951E+06              0.    -100.412E+06
            5204     216.421E+06     90.1908E+06              0.    -98.0919E+06
            5205     213.554E+06     92.5742E+06              0.    -95.3748E+06
            5206     210.451E+06     94.5936E+06              0.    -92.2647E+06
            5207     207.132E+06     96.1998E+06              0.    -88.7714E+06
            5208     206.243E+06     96.6801E+06              0.    -88.3544E+06
            5209     70.1803E+06     30.7482E+06              0.    -1.78198E+06
            5210     70.1643E+06     30.5670E+06              0.    -1.77888E+06
            5211      70.226E+06     30.4233E+06              0.    -1.75514E+06
            5212     70.2870E+06     30.2835E+06              0.    -1.73496E+06
            5213     70.3473E+06     30.1475E+06              0.    -1.71822E+06
            5214     70.4072E+06     30.0150E+06              0.    -1.70485E+06
            5215     70.4668E+06     29.8860E+06              0.    -1.69476E+06
            5216     70.5260E+06     29.7601E+06              0.    -1.68786E+06
            5217     70.5852E+06     29.6373E+06              0.    -1.68408E+06
            5218     70.6443E+06     29.5174E+06              0.    -1.68334E+06
            5219     70.7034E+06     29.4003E+06              0.    -1.68557E+06
            5220     70.7628E+06     29.2857E+06              0.    -1.69072E+06
            5221     70.8225E+06     29.1735E+06              0.    -1.69871E+06
            5222     70.8825E+06     29.0636E+06              0.    -1.70949E+06
            5223     70.9430E+06     28.9559E+06              0.    -1.72300E+06
            5224     71.0041E+06     28.8502E+06              0.    -1.73919E+06
            5225     71.0658E+06     28.7463E+06              0.    -1.75803E+06
            5226     71.1284E+06     28.6442E+06              0.    -1.77945E+06
            5227     71.1917E+06     28.5438E+06              0.    -1.80342E+06
            5228     71.2561E+06     28.4448E+06              0.    -1.82991E+06
            5229     71.3214E+06     28.3472E+06              0.    -1.85887E+06
            5230     71.3879E+06     28.2509E+06              0.    -1.89028E+06
            5231     71.4556E+06     28.1558E+06              0.    -1.92410E+06
            5232     71.5246E+06     28.0617E+06              0.    -1.96031E+06
            5233     71.5949E+06     27.9686E+06              0.    -1.99889E+06
            5234     71.6668E+06     27.8763E+06              0.    -2.03981E+06
            5235     71.7402E+06     27.7847E+06              0.    -2.08306E+06
            5236     71.8152E+06     27.6938E+06              0.    -2.12862E+06
            5237     71.8919E+06     27.6035E+06              0.    -2.17648E+06
            5238     71.9704E+06     27.5136E+06              0.    -2.22663E+06
            5239     72.0508E+06     27.4241E+06              0.    -2.27905E+06
            5240     72.1332E+06     27.3349E+06              0.    -2.33375E+06
            5241     72.2176E+06     27.2459E+06              0.    -2.39071E+06
            5242     72.3041E+06     27.1569E+06              0.    -2.44994E+06
            5243     72.3928E+06     27.0681E+06              0.    -2.51143E+06
            5244     72.4838E+06     26.9791E+06              0.    -2.57520E+06
            5245     72.5772E+06     26.8901E+06              0.    -2.64123E+06
            5246     72.6730E+06     26.8008E+06              0.    -2.70955E+06
            5247     72.7714E+06     26.7112E+06              0.    -2.78016E+06
            5248     72.8724E+06     26.6213E+06              0.    -2.85307E+06
            5249     72.9761E+06     26.5310E+06              0.    -2.92829E+06
            5250     73.0825E+06     26.4402E+06              0.    -3.00584E+06
            5251     73.1919E+06     26.3488E+06              0.    -3.08573E+06
            5252     73.3041E+06     26.2567E+06              0.    -3.16798E+06
            5253     73.4195E+06     26.1640E+06              0.    -3.25262E+06
            5254     73.5379E+06     26.0705E+06              0.    -3.33966E+06
            5255     73.6596E+06     25.9762E+06              0.    -3.42913E+06
            5256     73.7846E+06     25.8809E+06              0.    -3.52106E+06
            5257     73.9129E+06     25.7847E+06              0.    -3.61547E+06
            5258     74.0448E+06     25.6875E+06              0.    -3.71239E+06
            5259     74.1802E+06     25.5892E+06              0.    -3.81185E+06
            5260     74.3193E+06     25.4898E+06              0.    -3.91389E+06
            5261     74.4622E+06     25.3892E+06              0.    -4.01854E+06
            5262     74.6089E+06     25.2873E+06              0.    -4.12584E+06
            5263     74.7596E+06     25.1841E+06              0.    -4.23581E+06
            5264     74.9143E+06     25.0795E+06              0.    -4.34852E+06
            5265     75.0732E+06     24.9735E+06              0.    -4.46399E+06
            5266     75.2364E+06     24.8660E+06              0.    -4.58226E+06
            5267     75.4039E+06     24.7570E+06              0.    -4.70339E+06
            5268     75.5759E+06     24.6464E+06              0.    -4.82742E+06
            5269     75.7524E+06     24.5342E+06              0.    -4.95440E+06
            5270     75.9337E+06     24.4203E+06              0.    -5.08437E+06
            5271     76.1197E+06     24.3047E+06              0.    -5.21739E+06
            5272     76.3107E+06     24.1872E+06              0.    -5.35351E+06
            5273     76.5067E+06     24.0680E+06              0.    -5.49279E+06
            5274     76.7078E+06     23.9469E+06              0.    -5.63528E+06
            5275     76.9142E+06     23.8238E+06              0.    -5.78104E+06
            5276     77.1260E+06     23.6988E+06              0.    -5.93013E+06
            5277     77.3433E+06     23.5717E+06              0.    -6.08261E+06
            5278     77.5662E+06     23.4426E+06              0.    -6.23854E+06
            5279     77.7949E+06     23.3114E+06              0.    -6.39800E+06
            5280     78.0295E+06     23.1781E+06              0.    -6.56104E+06
            5281     78.2701E+06     23.0425E+06              0.    -6.72773E+06
            5282     78.5168E+06     22.9047E+06              0.    -6.89815E+06
            5283     78.7699E+06     22.7647E+06              0.    -7.07236E+06
            5284     79.0294E+06     22.6224E+06              0.    -7.25044E+06
            5285     79.2956E+06     22.4777E+06              0.    -7.43247E+06
            5286     79.5684E+06     22.3306E+06              0.    -7.61851E+06
            5287     79.8482E+06     22.1811E+06              0.    -7.80866E+06
            5288     80.1350E+06     22.0292E+06              0.    -8.00299E+06
            5289     80.4289E+06     21.8747E+06              0.    -8.20158E+06
            5290     80.7303E+06     21.7178E+06              0.    -8.40451E+06
            5291     81.0391E+06     21.5583E+06              0.    -8.61188E+06
            5292     81.3557E+06     21.3963E+06              0.    -8.82377E+06
            5293     81.6801E+06     21.2316E+06              0.    -9.04027E+06
            5294     82.0125E+06     21.0643E+06              0.    -9.26148E+06
            5295     82.3532E+06     20.8944E+06              0.    -9.48748E+06
            5296     82.7022E+06     20.7218E+06              0.    -9.71838E+06
            5297     83.0598E+06     20.5465E+06              0.    -9.95426E+06
            5298     83.4262E+06     20.3685E+06              0.    -10.1952E+06
            5299     83.8015E+06     20.1877E+06              0.    -10.4414E+06
            5300     84.1859E+06     20.0042E+06              0.    -10.6929E+06
            5301     84.5797E+06     19.8180E+06              0.    -10.9497E+06
            5302     84.9830E+06     19.6289E+06              0.    -11.2121E+06
            5303     85.3961E+06     19.4372E+06              0.    -11.4801E+06
            5304     85.8191E+06     19.2426E+06              0.    -11.7539E+06
            5305     86.2523E+06     19.0452E+06              0.    -12.0335E+06
            5306     86.6959E+06     18.8451E+06              0.    -12.3190E+06
            5307     87.1501E+06     18.6422E+06              0.    -12.6106E+06
            5308     87.6152E+06     18.4365E+06              0.    -12.9085E+06
            5309     88.0913E+06     18.2280E+06              0.    -13.2127E+06
            5310     88.5787E+06     18.0169E+06              0.    -13.5233E+06
            5311     89.0777E+06     17.8029E+06              0.    -13.8405E+06
            5312     89.5885E+06     17.5863E+06              0.    -14.1645E+06
            5313     90.1113E+06     17.3670E+06              0.    -14.4953E+06
            5314     90.6464E+06     17.1451E+06              0.    -14.8331E+06
            5315     91.1941E+06     16.9205E+06              0.    -15.1780E+06
            5316     91.7546E+06     16.6933E+06              0.    -15.5302E+06
            5317     92.3281E+06     16.4637E+06              0.    -15.8899E+06
            5318     92.9151E+06     16.2315E+06              0.    -16.2571E+06
            5319     93.5156E+06     15.9969E+06              0.    -16.6320E+06
            5320     94.1301E+06     15.7600E+06              0.    -17.0148E+06
            5321     94.7588E+06     15.5207E+06              0.    -17.4056E+06
            5322      95.402E+06     15.2792E+06              0.    -17.8046E+06
            5323     96.0600E+06     15.0356E+06              0.    -18.2120E+06
            5324     96.7330E+06     14.7900E+06              0.    -18.6279E+06
            5325     97.4215E+06     14.5424E+06              0.    -19.0525E+06
            5326     98.1257E+06     14.2929E+06              0.    -19.4860E+06
            5327     98.8459E+06     14.0418E+06              0.    -19.9285E+06
            5328     99.5825E+06     13.7890E+06              0.    -20.3802E+06
            5329     100.336E+06     13.5347E+06              0.    -20.8413E+06
            5330     101.106E+06     13.2791E+06              0.    -21.3121E+06
            5331     101.894E+06     13.0223E+06              0.    -21.7926E+06
            5332     102.699E+06     12.7645E+06              0.    -22.2831E+06
            5333     103.522E+06     12.5058E+06              0.    -22.7838E+06
            5334     104.364E+06     12.2465E+06              0.    -23.2949E+06
            5335     105.224E+06     11.9867E+06              0.    -23.8166E+06
            5336     106.104E+06     11.7267E+06              0.    -24.3491E+06
            5337     107.003E+06     11.4666E+06              0.    -24.8927E+06
            5338     107.921E+06     11.2068E+06              0.    -25.4475E+06
            5339     108.860E+06     10.9475E+06              0.    -26.0137E+06
            5340     109.820E+06     10.6889E+06              0.    -26.5917E+06
            5341     110.800E+06     10.4313E+06              0.    -27.1816E+06
            5342     111.802E+06     10.1751E+06              0.    -27.7837E+06
            5343     112.825E+06     9.92061E+06              0.    -28.3983E+06
            5344     113.871E+06     9.66812E+06              0.    -29.0255E+06
            5345     114.938E+06     9.41803E+06              0.    -29.6657E+06
            5346     116.029E+06     9.17073E+06              0.    -30.3191E+06
            5347     117.143E+06     8.92663E+06              0.    -30.9859E+06
            5348     118.280E+06     8.68618E+06              0.    -31.6665E+06
            5349     119.441E+06     8.44983E+06              0.    -32.3611E+06
            5350     120.627E+06     8.21808E+06              0.    -33.0701E+06
            5351     121.837E+06     7.99145E+06              0.    -33.7936E+06
            5352     123.073E+06     7.77050E+06              0.    -34.5321E+06
            5353     124.334E+06     7.55579E+06              0.    -35.2857E+06
            5354     125.620E+06     7.34794E+06              0.    -36.0548E+06
            5355     126.933E+06     7.14762E+06              0.    -36.8398E+06
            5356     128.272E+06     6.95549E+06              0.    -37.6410E+06
            5357     129.638E+06     6.77229E+06              0.    -38.4586E+06
            5358     131.031E+06     6.59879E+06              0.    -39.2930E+06
            5359     132.451E+06     6.43579E+06              0.    -40.1445E+06
            5360     133.899E+06     6.28414E+06              0.    -41.0136E+06
            5361     135.376E+06     6.14475E+06              0.    -41.9005E+06
            5362     136.880E+06     6.01857E+06              0.    -42.8056E+06
            5363     138.412E+06     5.90661E+06              0.    -43.7292E+06
            5364     139.973E+06     5.80992E+06              0.    -44.6717E+06
            5365     141.563E+06     5.72962E+06              0.    -45.6335E+06
            5366     143.182E+06      5.6669E+06              0.    -46.6150E+06
            5367     144.829E+06     5.62300E+06              0.    -47.6164E+06
            5368     146.506E+06     5.59922E+06              0.    -48.6382E+06
            5369     148.211E+06     5.59697E+06              0.    -49.6808E+06
            5370     149.945E+06     5.61769E+06              0.    -50.7444E+06
            5371     151.708E+06     5.66293E+06              0.    -51.8295E+06
            5372     153.499E+06     5.73431E+06              0.    -52.9363E+06
            5373     155.318E+06     5.83354E+06              0.    -54.0653E+06
            5374     157.165E+06     5.96243E+06              0.    -55.2168E+06
            5375     159.039E+06     6.12287E+06              0.    -56.3910E+06
            5376     160.939E+06     6.31686E+06              0.    -57.5882E+06
            5377     162.865E+06     6.54651E+06              0.    -58.8087E+06
            5378     164.817E+06     6.81403E+06              0.    -60.0527E+06
            5379     166.792E+06     7.12175E+06              0.    -61.3203E+06
            5380     168.790E+06     7.47212E+06              0.    -62.6118E+06
            5381     170.809E+06     7.86771E+06              0.    -63.9271E+06
            5382     172.848E+06     8.31122E+06              0.    -65.2663E+06
            5383     174.904E+06     8.80547E+06              0.    -66.6292E+06
            5384     176.977E+06     9.35344E+06              0.    -68.0157E+06
            5385     179.063E+06     9.95822E+06              0.    -69.4255E+06
            5386     181.161E+06     10.6230E+06              0.    -70.8582E+06
            5387     183.266E+06     11.3513E+06              0.    -72.3131E+06
            5388     185.376E+06     12.1464E+06              0.    -73.7896E+06
            5389     187.487E+06     13.0122E+06              0.    -75.2866E+06
            5390     189.594E+06     13.9522E+06              0.    -76.8029E+06
            5391     191.694E+06     14.9705E+06              0.     -78.337E+06
            5392     193.782E+06     16.0709E+06              0.    -79.8871E+06
            5393     195.851E+06     17.2576E+06              0.    -81.4511E+06
            5394     197.895E+06     18.5346E+06              0.    -83.0263E+06
            5395     199.908E+06     19.9061E+06              0.    -84.6097E+06
            5396     201.881E+06     21.3762E+06              0.    -86.1975E+06
            5397     203.808E+06     22.9490E+06              0.    -87.7857E+06
            5398     205.679E+06     24.6284E+06              0.    -89.3691E+06
            5399     207.484E+06     26.4181E+06              0.    -90.9422E+06
            5400     209.212E+06     28.3214E+06              0.    -92.4982E+06
            5401     210.854E+06     30.3414E+06              0.    -94.0296E+06
            5402     212.395E+06     32.4806E+06              0.    -95.5276E+06
            5403     213.824E+06     34.7405E+06              0.    -96.9824E+06
            5404     215.128E+06     37.1219E+06              0.    -98.3828E+06
            5405     216.291E+06     39.6247E+06              0.    -99.7164E+06
            5406     217.299E+06     42.2469E+06              0.    -100.969E+06
            5407     218.138E+06     44.9854E+06              0.    -102.125E+06
            5408     218.791E+06     47.8347E+06              0.    -103.167E+06
            5409     219.244E+06     50.7872E+06              0.    -104.077E+06
            5410     219.482E+06     53.8327E+06              0.    -104.834E+06
            5411     219.490E+06     56.9578E+06              0.    -105.417E+06
            5412     219.256E+06     60.1460E+06              0.    -105.802E+06
            5413     218.768E+06     63.3770E+06              0.    -105.968E+06
            5414     218.017E+06     66.6266E+06              0.    -105.889E+06
            5415     216.994E+06     69.8665E+06              0.    -105.541E+06
            5416     215.697E+06     73.0644E+06              0.    -104.902E+06
            5417     214.123E+06     76.1841E+06              0.    -103.950E+06
            5418     212.275E+06     79.1855E+06              0.    -102.666E+06
            5419     210.158E+06     82.0256E+06              0.    -101.032E+06
            5420     207.782E+06     84.6592E+06              0.    -99.0382E+06
            5421     205.160E+06     87.0399E+06              0.    -96.6758E+06
            5422     202.307E+06     89.1210E+06              0.    -93.9429E+06
            5423     199.242E+06     90.8575E+06              0.    -90.8434E+06
            5424     195.983E+06     92.2076E+06              0.    -87.3870E+06
            5425     195.033E+06     92.4782E+06              0.    -86.9024E+06
            5426     70.1087E+06     30.7180E+06              0.    -1.84287E+06
            5427     70.0930E+06     30.5413E+06              0.    -1.83965E+06
            5428     70.1532E+06     30.4011E+06              0.    -1.81511E+06
            5429     70.2127E+06     30.2648E+06              0.    -1.79423E+06
            5430     70.2715E+06     30.1322E+06              0.    -1.77692E+06
            5431     70.3299E+06     30.0030E+06              0.    -1.76309E+06
            5432     70.3880E+06     29.8772E+06              0.    -1.75265E+06
            5433     70.4458E+06     29.7545E+06              0.    -1.74551E+06
            5434     70.5035E+06     29.6347E+06              0.    -1.74160E+06
            5435     70.5611E+06     29.5178E+06              0.    -1.74083E+06
            5436     70.6188E+06     29.4036E+06              0.    -1.74314E+06
            5437     70.6767E+06     29.2918E+06              0.    -1.74845E+06
            5438     70.7348E+06     29.1825E+06              0.    -1.75671E+06
            5439     70.7934E+06     29.0753E+06              0.    -1.76785E+06
            5440     70.8524E+06     28.9703E+06              0.    -1.78182E+06
            5441     70.9120E+06     28.8672E+06              0.    -1.79857E+06
            5442     70.9722E+06     28.7659E+06              0.    -1.81804E+06
            5443     71.0331E+06     28.6664E+06              0.    -1.84019E+06
            5444     71.0949E+06     28.5684E+06              0.    -1.86498E+06
            5445     71.1576E+06     28.4719E+06              0.    -1.89236E+06
            5446     71.2214E+06     28.3768E+06              0.    -1.92231E+06
            5447     71.2862E+06     28.2829E+06              0.    -1.95478E+06
            5448     71.3522E+06     28.1901E+06              0.    -1.98975E+06
            5449     71.4195E+06     28.0984E+06              0.    -2.02719E+06
            5450     71.4881E+06     28.0076E+06              0.    -2.06708E+06
            5451     71.5581E+06     27.9176E+06              0.    -2.10940E+06
            5452     71.6296E+06     27.8283E+06              0.    -2.15412E+06
            5453     71.7028E+06     27.7397E+06              0.    -2.20122E+06
            5454     71.7776E+06     27.6516E+06              0.    -2.25071E+06
            5455     71.8541E+06     27.5640E+06              0.    -2.30256E+06
            5456     71.9325E+06     27.4768E+06              0.    -2.35676E+06
            5457     72.0128E+06     27.3898E+06              0.    -2.41331E+06
            5458     72.0951E+06     27.3030E+06              0.    -2.47221E+06
            5459     72.1794E+06     27.2163E+06              0.    -2.53345E+06
            5460     72.2659E+06     27.1297E+06              0.    -2.59703E+06
            5461     72.3546E+06     27.0430E+06              0.    -2.66295E+06
            5462     72.4457E+06     26.9561E+06              0.    -2.73123E+06
            5463     72.5391E+06     26.8691E+06              0.    -2.80187E+06
            5464      72.635E+06     26.7818E+06              0.    -2.87487E+06
            5465     72.7334E+06     26.6942E+06              0.    -2.95025E+06
            5466     72.8345E+06     26.6062E+06              0.    -3.02802E+06
            5467     72.9383E+06     26.5176E+06              0.    -3.10820E+06
            5468     73.0449E+06     26.4286E+06              0.    -3.19080E+06
            5469     73.1543E+06     26.3389E+06              0.    -3.27584E+06
            5470     73.2667E+06     26.2485E+06              0.    -3.36334E+06
            5471     73.3822E+06     26.1573E+06              0.    -3.45333E+06
            5472     73.5008E+06     26.0654E+06              0.    -3.54583E+06
            5473     73.6226E+06     25.9726E+06              0.    -3.64086E+06
            5474     73.7477E+06     25.8789E+06              0.    -3.73847E+06
            5475     73.8762E+06     25.7841E+06              0.    -3.83866E+06
            5476     74.0082E+06     25.6884E+06              0.    -3.94149E+06
            5477     74.1438E+06     25.5915E+06              0.    -4.04697E+06
            5478     74.2831E+06     25.4934E+06              0.    -4.15516E+06
            5479     74.4261E+06     25.3941E+06              0.    -4.26607E+06
            5480     74.5729E+06     25.2936E+06              0.    -4.37976E+06
            5481     74.7237E+06     25.1917E+06              0.    -4.49627E+06
            5482     74.8786E+06     25.0885E+06              0.    -4.61563E+06
            5483     75.0376E+06     24.9838E+06              0.    -4.73789E+06
            5484     75.2009E+06     24.8776E+06              0.    -4.86310E+06
            5485     75.3685E+06     24.7699E+06              0.    -4.99130E+06
            5486     75.5406E+06     24.6606E+06              0.    -5.12255E+06
            5487     75.7172E+06     24.5497E+06              0.    -5.25689E+06
            5488     75.8985E+06     24.4370E+06              0.    -5.39438E+06
            5489     76.0846E+06     24.3227E+06              0.    -5.53508E+06
            5490     76.2756E+06     24.2066E+06              0.    -5.67903E+06
            5491     76.4715E+06     24.0886E+06              0.    -5.82630E+06
            5492     76.6727E+06     23.9688E+06              0.    -5.97695E+06
            5493      76.879E+06     23.8470E+06              0.    -6.13103E+06
            5494     77.0907E+06     23.7234E+06              0.    -6.28862E+06
            5495     77.3079E+06     23.5977E+06              0.    -6.44977E+06
            5496     77.5307E+06     23.4699E+06              0.    -6.61455E+06
            5497     77.7593E+06     23.3401E+06              0.    -6.78304E+06
            5498     77.9937E+06     23.2082E+06              0.    -6.95530E+06
            5499     78.2341E+06     23.0741E+06              0.    -7.13140E+06
            5500     78.4806E+06     22.9378E+06              0.    -7.31142E+06
            5501     78.7334E+06     22.7993E+06              0.    -7.49543E+06
            5502     78.9927E+06     22.6585E+06              0.    -7.68351E+06
            5503     79.2584E+06     22.5154E+06              0.    -7.87574E+06
            5504     79.5309E+06     22.3700E+06              0.    -8.07220E+06
            5505     79.8102E+06     22.2221E+06              0.    -8.27297E+06
            5506     80.0966E+06     22.0719E+06              0.    -8.47814E+06
            5507     80.3900E+06     21.9193E+06              0.    -8.68779E+06
            5508     80.6908E+06     21.7642E+06              0.    -8.90202E+06
            5509     80.9991E+06     21.6066E+06              0.    -9.12091E+06
            5510     81.3150E+06     21.4465E+06              0.    -9.34455E+06
            5511     81.6387E+06     21.2838E+06              0.    -9.57305E+06
            5512     81.9704E+06     21.1186E+06              0.    -9.80648E+06
            5513     82.3102E+06     20.9508E+06              0.    -10.0450E+06
            5514     82.6584E+06     20.7804E+06              0.    -10.2886E+06
            5515     83.0151E+06     20.6074E+06              0.    -10.5375E+06
            5516     83.3804E+06     20.4318E+06              0.    -10.7917E+06
            5517     83.7547E+06     20.2535E+06              0.    -11.0514E+06
            5518     84.1380E+06     20.0725E+06              0.    -11.3166E+06
            5519     84.5305E+06     19.8889E+06              0.    -11.5875E+06
            5520     84.9325E+06     19.7027E+06              0.    -11.8643E+06
            5521     85.3442E+06     19.5137E+06              0.    -12.1469E+06
            5522     85.7658E+06     19.3221E+06              0.    -12.4355E+06
            5523     86.1975E+06     19.1278E+06              0.    -12.7303E+06
            5524     86.6394E+06     18.9308E+06              0.    -13.0314E+06
            5525     87.0918E+06     18.7312E+06              0.    -13.3388E+06
            5526     87.5550E+06     18.5290E+06              0.    -13.6528E+06
            5527     88.0292E+06     18.3241E+06              0.    -13.9734E+06
            5528     88.5145E+06     18.1166E+06              0.    -14.3008E+06
            5529     89.0113E+06     17.9065E+06              0.    -14.6351E+06
            5530     89.5198E+06     17.6939E+06              0.    -14.9764E+06
            5531     90.0401E+06     17.4788E+06              0.    -15.3249E+06
            5532     90.5726E+06     17.2611E+06              0.    -15.6808E+06
            5533     91.1175E+06     17.0411E+06              0.    -16.0441E+06
            5534     91.6751E+06     16.8186E+06              0.    -16.4151E+06
            5535     92.2456E+06     16.5938E+06              0.    -16.7939E+06
            5536     92.8293E+06     16.3667E+06              0.    -17.1805E+06
            5537     93.4264E+06     16.1373E+06              0.    -17.5753E+06
            5538     94.0373E+06     15.9059E+06              0.    -17.9783E+06
            5539     94.6622E+06     15.6723E+06              0.    -18.3897E+06
            5540     95.3014E+06     15.4368E+06              0.    -18.8096E+06
            5541     95.9551E+06     15.1993E+06              0.    -19.2384E+06
            5542     96.6238E+06     14.9601E+06              0.    -19.6760E+06
            5543     97.3075E+06     14.7191E+06              0.    -20.1227E+06
            5544     98.0068E+06     14.4766E+06              0.    -20.5787E+06
            5545     98.7218E+06     14.2327E+06              0.    -21.0441E+06
            5546     99.4528E+06     13.9874E+06              0.    -21.5192E+06
            5547     100.200E+06     13.7409E+06              0.    -22.0040E+06
            5548     100.964E+06     13.4935E+06              0.    -22.4989E+06
            5549     101.746E+06     13.2452E+06              0.    -23.0040E+06
            5550     102.544E+06     12.9962E+06              0.    -23.5196E+06
            5551     103.360E+06     12.7467E+06              0.    -24.0457E+06
            5552     104.194E+06     12.4969E+06              0.    -24.5826E+06
            5553     105.047E+06     12.2471E+06              0.    -25.1306E+06
            5554     105.918E+06     11.9974E+06              0.    -25.6899E+06
            5555     106.808E+06     11.7481E+06              0.    -26.2606E+06
            5556     107.718E+06     11.4995E+06              0.    -26.8430E+06
            5557     108.647E+06     11.2518E+06              0.    -27.4373E+06
            5558     109.596E+06     11.0054E+06              0.    -28.0438E+06
            5559     110.565E+06     10.7605E+06              0.    -28.6627E+06
            5560     111.555E+06     10.5175E+06              0.    -29.2942E+06
            5561     112.567E+06     10.2767E+06              0.    -29.9386E+06
            5562     113.599E+06     10.0385E+06              0.    -30.5962E+06
            5563     114.654E+06     9.80325E+06              0.    -31.2671E+06
            5564     115.730E+06     9.57143E+06              0.    -31.9517E+06
            5565     116.829E+06     9.34345E+06              0.    -32.6502E+06
            5566     117.950E+06     9.11978E+06              0.    -33.3629E+06
            5567     119.095E+06     8.90091E+06              0.    -34.0901E+06
            5568     120.263E+06     8.68736E+06              0.    -34.8320E+06
            5569     121.454E+06     8.47968E+06              0.    -35.5889E+06
            5570     122.670E+06     8.27844E+06              0.    -36.3612E+06
            5571     123.910E+06     8.08427E+06              0.    -37.1490E+06
            5572     125.175E+06     7.89782E+06              0.    -37.9528E+06
            5573     126.464E+06     7.71975E+06              0.    -38.7728E+06
            5574     127.779E+06     7.55081E+06              0.    -39.6093E+06
            5575     129.119E+06     7.39175E+06              0.    -40.4627E+06
            5576     130.484E+06     7.24338E+06              0.    -41.3332E+06
            5577     131.876E+06     7.10654E+06              0.    -42.2211E+06
            5578     133.293E+06     6.98213E+06              0.    -43.1269E+06
            5579     134.737E+06     6.87109E+06              0.    -44.0507E+06
            5580     136.206E+06     6.77443E+06              0.    -44.9930E+06
            5581     137.702E+06     6.69318E+06              0.    -45.9540E+06
            5582     139.225E+06     6.62846E+06              0.    -46.9341E+06
            5583     140.774E+06     6.58143E+06              0.    -47.9336E+06
            5584     142.349E+06     6.55332E+06              0.    -48.9528E+06
            5585     143.951E+06     6.54542E+06              0.    -49.9920E+06
            5586     145.579E+06     6.55911E+06              0.    -51.0515E+06
            5587     147.232E+06     6.59580E+06              0.    -52.1316E+06
            5588     148.912E+06     6.65702E+06              0.    -53.2327E+06
            5589     150.616E+06     6.74435E+06              0.    -54.3549E+06
            5590     152.346E+06     6.85947E+06              0.    -55.4985E+06
            5591     154.100E+06     7.00415E+06              0.    -56.6638E+06
            5592     155.877E+06     7.18022E+06              0.    -57.8510E+06
            5593     157.677E+06     7.38963E+06              0.    -59.0602E+06
            5594     159.500E+06     7.63443E+06              0.    -60.2915E+06
            5595     161.343E+06     7.91677E+06              0.    -61.5451E+06
            5596     163.206E+06     8.23889E+06              0.    -62.8210E+06
            5597     165.087E+06     8.60314E+06              0.    -64.1192E+06
            5598     166.985E+06     9.01201E+06              0.    -65.4395E+06
            5599     168.898E+06     9.46807E+06              0.    -66.7818E+06
            5600     170.825E+06     9.97402E+06              0.    -68.1459E+06
            5601     172.762E+06     10.5327E+06              0.    -69.5313E+06
            5602     174.707E+06     11.1470E+06              0.    -70.9376E+06
            5603     176.659E+06     11.8200E+06              0.    -72.3640E+06
            5604     178.612E+06     12.5548E+06              0.    -73.8097E+06
            5605     180.565E+06     13.3548E+06              0.    -75.2737E+06
            5606     182.512E+06     14.2233E+06              0.    -76.7548E+06
            5607     184.451E+06     15.1637E+06              0.    -78.2514E+06
            5608     186.375E+06     16.1797E+06              0.    -79.7617E+06
            5609     188.281E+06     17.2747E+06              0.    -81.2836E+06
            5610     190.162E+06     18.4526E+06              0.    -82.8146E+06
            5611     192.012E+06     19.7168E+06              0.    -84.3516E+06
            5612     193.825E+06     21.0711E+06              0.    -85.8912E+06
            5613     195.593E+06     22.5189E+06              0.    -87.4295E+06
            5614     197.307E+06     24.0638E+06              0.    -88.9618E+06
            5615     198.960E+06     25.7089E+06              0.    -90.4829E+06
            5616     200.541E+06     27.4572E+06              0.    -91.9865E+06
            5617     202.042E+06     29.3113E+06              0.    -93.4659E+06
            5618     203.450E+06     31.2732E+06              0.    -94.9131E+06
            5619     204.756E+06     33.3445E+06              0.    -96.3192E+06
            5620     205.947E+06     35.5258E+06              0.    -97.6743E+06
            5621     207.009E+06     37.8170E+06              0.    -98.9672E+06
            5622     207.932E+06     40.2166E+06              0.    -100.186E+06
            5623     208.701E+06     42.7218E+06              0.    -101.315E+06
            5624     209.302E+06     45.3283E+06              0.    -102.342E+06
            5625     209.723E+06     48.0298E+06              0.    -103.248E+06
            5626     209.950E+06     50.8177E+06              0.    -104.017E+06
            5627     209.970E+06     53.6813E+06              0.    -104.630E+06
            5628     209.772E+06     56.6067E+06              0.    -105.066E+06
            5629     209.344E+06     59.5773E+06              0.    -105.305E+06
            5630     208.678E+06     62.5732E+06              0.    -105.325E+06
            5631     207.766E+06     65.5710E+06              0.    -105.104E+06
            5632     206.603E+06     68.5438E+06              0.    -104.623E+06
            5633     205.185E+06     71.4614E+06              0.    -103.860E+06
            5634     203.515E+06     74.2901E+06              0.    -102.797E+06
            5635     201.593E+06     76.9936E+06              0.    -101.418E+06
            5636     199.428E+06     79.5328E+06              0.    -99.7080E+06
            5637     197.028E+06     81.8672E+06              0.    -97.6584E+06
            5638     194.405E+06     83.9555E+06              0.    -95.2629E+06
            5639     191.574E+06     85.7565E+06              0.    -92.5205E+06
            5640     188.551E+06     87.2306E+06              0.    -89.4350E+06
            5641     185.356E+06     88.3406E+06              0.    -86.0156E+06
            5642     184.356E+06     88.4197E+06              0.    -85.4741E+06
            5643     70.0346E+06     30.6867E+06              0.    -1.90218E+06
            5644     70.0194E+06     30.5147E+06              0.    -1.89886E+06
            5645      70.078E+06     30.3782E+06              0.    -1.87352E+06
            5646     70.1359E+06     30.2455E+06              0.    -1.85197E+06
            5647     70.1932E+06     30.1164E+06              0.    -1.83410E+06
            5648     70.2501E+06     29.9906E+06              0.    -1.81982E+06
            5649     70.3066E+06     29.8681E+06              0.    -1.80904E+06
            5650     70.3629E+06     29.7486E+06              0.    -1.80167E+06
            5651     70.4190E+06     29.6320E+06              0.    -1.79763E+06
            5652     70.4752E+06     29.5182E+06              0.    -1.79683E+06
            5653     70.5314E+06     29.4070E+06              0.    -1.79921E+06
            5654     70.5877E+06     29.2982E+06              0.    -1.80469E+06
            5655     70.6443E+06     29.1917E+06              0.    -1.81321E+06
            5656     70.7013E+06     29.0874E+06              0.    -1.82471E+06
            5657     70.7588E+06     28.9851E+06              0.    -1.83913E+06
            5658     70.8168E+06     28.8847E+06              0.    -1.85640E+06
            5659     70.8754E+06     28.7862E+06              0.    -1.87650E+06
            5660     70.9348E+06     28.6892E+06              0.    -1.89935E+06
            5661     70.9949E+06     28.5939E+06              0.    -1.92493E+06
            5662     71.0560E+06     28.4999E+06              0.    -1.95319E+06
            5663     71.1180E+06     28.4073E+06              0.    -1.98409E+06
            5664     71.1811E+06     28.3159E+06              0.    -2.01761E+06
            5665     71.2454E+06     28.2256E+06              0.    -2.05370E+06
            5666     71.3109E+06     28.1363E+06              0.    -2.09234E+06
            5667     71.3776E+06     28.0479E+06              0.    -2.13350E+06
            5668     71.4458E+06     27.9603E+06              0.    -2.17717E+06
            5669     71.5155E+06     27.8734E+06              0.    -2.22332E+06
            5670     71.5867E+06     27.7871E+06              0.    -2.27193E+06
            5671     71.6595E+06     27.7014E+06              0.    -2.32300E+06
            5672     71.7340E+06     27.6161E+06              0.    -2.37650E+06
            5673     71.8103E+06     27.5311E+06              0.    -2.43244E+06
            5674     71.8885E+06     27.4465E+06              0.    -2.49080E+06
            5675     71.9686E+06     27.3620E+06              0.    -2.55158E+06
            5676     72.0507E+06     27.2776E+06              0.    -2.61477E+06
            5677     72.1349E+06     27.1933E+06              0.    -2.68039E+06
            5678     72.2212E+06     27.1089E+06              0.    -2.74842E+06
            5679     72.3098E+06     27.0244E+06              0.    -2.81888E+06
            5680     72.4008E+06     26.9397E+06              0.    -2.89177E+06
            5681     72.4941E+06     26.8548E+06              0.    -2.96710E+06
            5682     72.5899E+06     26.7695E+06              0.    -3.04489E+06
            5683     72.6883E+06     26.6838E+06              0.    -3.12514E+06
            5684     72.7893E+06     26.5976E+06              0.    -3.20787E+06
            5685     72.8930E+06     26.5109E+06              0.    -3.29311E+06
            5686     72.9996E+06     26.4237E+06              0.    -3.38086E+06
            5687     73.1090E+06     26.3357E+06              0.    -3.47115E+06
            5688     73.2214E+06     26.2470E+06              0.    -3.56401E+06
            5689     73.3368E+06     26.1576E+06              0.    -3.65945E+06
            5690     73.4553E+06     26.0673E+06              0.    -3.75751E+06
            5691     73.5771E+06     25.9761E+06              0.    -3.85822E+06
            5692     73.7022E+06     25.8839E+06              0.    -3.96161E+06
            5693     73.8306E+06     25.7907E+06              0.    -4.06770E+06
            5694     73.9626E+06     25.6965E+06              0.    -4.17654E+06
            5695     74.0981E+06     25.6011E+06              0.    -4.28816E+06
            5696     74.2373E+06     25.5045E+06              0.    -4.40260E+06
            5697     74.3802E+06     25.4067E+06              0.    -4.51990E+06
            5698     74.5269E+06     25.3076E+06              0.     -4.6401E+06
            5699     74.6776E+06     25.2072E+06              0.    -4.76325E+06
            5700     74.8324E+06     25.1054E+06              0.    -4.88938E+06
            5701     74.9912E+06     25.0021E+06              0.    -5.01856E+06
            5702     75.1543E+06     24.8974E+06              0.    -5.15082E+06
            5703     75.3217E+06     24.7911E+06              0.    -5.28622E+06
            5704     75.4936E+06     24.6832E+06              0.    -5.42482E+06
            5705       75.67E+06     24.5737E+06              0.    -5.56665E+06
            5706     75.8511E+06     24.4625E+06              0.    -5.71179E+06
            5707     76.0369E+06     24.3496E+06              0.    -5.86029E+06
            5708     76.2275E+06     24.2350E+06              0.    -6.01220E+06
            5709     76.4232E+06     24.1185E+06              0.    -6.16760E+06
            5710     76.6240E+06     24.0001E+06              0.    -6.32654E+06
            5711     76.8299E+06     23.8799E+06              0.    -6.48908E+06
            5712     77.0412E+06     23.7577E+06              0.    -6.65530E+06
            5713     77.2580E+06     23.6336E+06              0.    -6.82527E+06
            5714     77.4803E+06     23.5075E+06              0.    -6.99904E+06
            5715     77.7083E+06     23.3792E+06              0.    -7.17671E+06
            5716     77.9421E+06     23.2490E+06              0.    -7.35833E+06
            5717     78.1819E+06     23.1165E+06              0.    -7.54398E+06
            5718     78.4278E+06     22.9820E+06              0.    -7.73375E+06
            5719     78.6799E+06     22.8452E+06              0.    -7.92771E+06
            5720     78.9384E+06     22.7062E+06              0.    -8.12594E+06
            5721     79.2034E+06     22.5649E+06              0.    -8.32853E+06
            5722     79.4750E+06     22.4213E+06              0.    -8.53556E+06
            5723     79.7535E+06     22.2755E+06              0.    -8.74711E+06
            5724     80.0388E+06     22.1272E+06              0.    -8.96328E+06
            5725     80.3313E+06     21.9766E+06              0.    -9.18416E+06
            5726     80.6311E+06     21.8236E+06              0.    -9.40984E+06
            5727     80.9382E+06     21.6682E+06              0.    -9.64041E+06
            5728     81.2529E+06     21.5103E+06              0.    -9.87597E+06
            5729     81.5754E+06     21.3500E+06              0.    -10.1166E+06
            5730     81.9057E+06     21.1871E+06              0.    -10.3625E+06
            5731     82.2441E+06     21.0218E+06              0.    -10.6136E+06
            5732     82.5908E+06     20.8540E+06              0.    -10.8701E+06
            5733     82.9459E+06     20.6836E+06              0.    -11.1321E+06
            5734     83.3096E+06     20.5106E+06              0.    -11.3998E+06
            5735     83.6821E+06     20.3352E+06              0.    -11.6731E+06
            5736     84.0636E+06     20.1571E+06              0.    -11.9523E+06
            5737     84.4543E+06     19.9765E+06              0.    -12.2375E+06
            5738     84.8543E+06     19.7934E+06              0.    -12.5287E+06
            5739     85.2639E+06     19.6076E+06              0.    -12.8261E+06
            5740     85.6832E+06     19.4194E+06              0.    -13.1298E+06
            5741     86.1125E+06     19.2285E+06              0.    -13.4400E+06
            5742     86.5520E+06     19.0352E+06              0.    -13.7567E+06
            5743     87.0019E+06     18.8393E+06              0.    -14.0801E+06
            5744     87.4624E+06     18.6409E+06              0.    -14.4104E+06
            5745     87.9337E+06     18.4400E+06              0.    -14.7476E+06
            5746     88.4160E+06     18.2367E+06              0.    -15.0918E+06
            5747     88.9097E+06     18.0309E+06              0.    -15.4434E+06
            5748     89.4149E+06     17.8228E+06              0.    -15.8023E+06
            5749     89.9318E+06     17.6123E+06              0.    -16.1687E+06
            5750     90.4607E+06     17.3994E+06              0.    -16.5428E+06
            5751     91.0018E+06     17.1844E+06              0.    -16.9247E+06
            5752     91.5554E+06     16.9671E+06              0.    -17.3145E+06
            5753     92.1218E+06     16.7477E+06              0.    -17.7125E+06
            5754     92.7011E+06     16.5261E+06              0.    -18.1188E+06
            5755     93.2937E+06     16.3026E+06              0.    -18.5335E+06
            5756     93.8997E+06     16.0772E+06              0.    -18.9568E+06
            5757     94.5196E+06     15.8499E+06              0.    -19.3889E+06
            5758     95.1535E+06     15.6209E+06              0.    -19.8299E+06
            5759     95.8017E+06     15.3902E+06              0.    -20.2801E+06
            5760     96.4646E+06     15.1580E+06              0.    -20.7395E+06
            5761     97.1423E+06     14.9243E+06              0.    -21.2084E+06
            5762     97.8351E+06     14.6894E+06              0.    -21.6870E+06
            5763     98.5434E+06     14.4533E+06              0.    -22.1754E+06
            5764     99.2675E+06     14.2162E+06              0.    -22.6738E+06
            5765     100.008E+06     13.9783E+06              0.    -23.1824E+06
            5766     100.764E+06     13.7397E+06              0.    -23.7015E+06
            5767     101.537E+06     13.5005E+06              0.    -24.2312E+06
            5768     102.327E+06     13.2611E+06              0.    -24.7717E+06
            5769     103.134E+06     13.0215E+06              0.    -25.3232E+06
            5770     103.959E+06     12.7821E+06              0.    -25.8860E+06
            5771     104.802E+06     12.5430E+06              0.    -26.4602E+06
            5772     105.663E+06     12.3045E+06              0.    -27.0460E+06
            5773     106.542E+06     12.0668E+06              0.    -27.6438E+06
            5774     107.440E+06     11.8302E+06              0.    -28.2537E+06
            5775     108.357E+06     11.5951E+06              0.    -28.8759E+06
            5776     109.294E+06     11.3617E+06              0.    -29.5107E+06
            5777     110.250E+06     11.1303E+06              0.    -30.1583E+06
            5778     111.226E+06     10.9014E+06              0.    -30.8189E+06
            5779     112.223E+06     10.6752E+06              0.    -31.4929E+06
            5780     113.240E+06     10.4522E+06              0.    -32.1804E+06
            5781     114.278E+06     10.2328E+06              0.    -32.8817E+06
            5782     115.338E+06     10.0175E+06              0.    -33.5970E+06
            5783     116.419E+06     9.80661E+06              0.    -34.3267E+06
            5784     117.521E+06     9.60073E+06              0.    -35.0710E+06
            5785     118.646E+06     9.40036E+06              0.    -35.8301E+06
            5786     119.793E+06     9.20605E+06              0.    -36.6043E+06
            5787     120.963E+06     9.01837E+06              0.    -37.3939E+06
            5788     122.156E+06     8.83794E+06              0.    -38.1992E+06
            5789     123.371E+06     8.66540E+06              0.    -39.0204E+06
            5790     124.610E+06     8.50143E+06              0.    -39.8579E+06
            5791     125.873E+06     8.34676E+06              0.    -40.7119E+06
            5792     127.159E+06     8.20213E+06              0.    -41.5826E+06
            5793     128.469E+06     8.06834E+06              0.    -42.4705E+06
            5794     129.803E+06     7.94624E+06              0.    -43.3758E+06
            5795     131.161E+06     7.83672E+06              0.    -44.2987E+06
            5796     132.543E+06     7.74070E+06              0.    -45.2396E+06
            5797     133.949E+06     7.65917E+06              0.    -46.1987E+06
            5798     135.380E+06     7.59317E+06              0.    -47.1763E+06
            5799     136.834E+06     7.54379E+06              0.    -48.1727E+06
            5800     138.313E+06     7.51217E+06              0.    -49.1882E+06
            5801     139.815E+06     7.49953E+06              0.    -50.2231E+06
            5802     141.342E+06     7.50713E+06              0.    -51.2775E+06
            5803     142.891E+06     7.53632E+06              0.    -52.3517E+06
            5804     144.464E+06     7.58849E+06              0.    -53.4461E+06
            5805     146.060E+06     7.66514E+06              0.    -54.5606E+06
            5806     147.678E+06     7.76780E+06              0.    -55.6957E+06
            5807     149.318E+06     7.89812E+06              0.    -56.8514E+06
            5808     150.978E+06     8.05779E+06              0.    -58.0278E+06
            5809     152.659E+06     8.24863E+06              0.    -59.2252E+06
            5810     154.360E+06     8.47251E+06              0.    -60.4434E+06
            5811     156.078E+06     8.73141E+06              0.    -61.6826E+06
            5812     157.814E+06     9.02739E+06              0.    -62.9428E+06
            5813     159.565E+06     9.36262E+06              0.    -64.2237E+06
            5814     161.331E+06     9.73936E+06              0.    -65.5253E+06
            5815     163.110E+06     10.1600E+06              0.    -66.8473E+06
            5816     164.899E+06     10.6269E+06              0.    -68.1894E+06
            5817     166.696E+06     11.1427E+06              0.    -69.5511E+06
            5818     168.500E+06     11.7101E+06              0.    -70.9318E+06
            5819     170.307E+06     12.3318E+06              0.    -72.3308E+06
            5820     172.115E+06     13.0106E+06              0.    -73.7472E+06
            5821     173.920E+06     13.7496E+06              0.    -75.1799E+06
            5822     175.719E+06     14.5516E+06              0.    -76.6277E+06
            5823     177.507E+06     15.4200E+06              0.    -78.0890E+06
            5824     179.281E+06     16.3577E+06              0.    -79.5621E+06
            5825     181.036E+06     17.3680E+06              0.    -81.0448E+06
            5826     182.766E+06     18.4542E+06              0.    -82.5347E+06
            5827     184.467E+06     19.6194E+06              0.    -84.0289E+06
            5828     186.130E+06     20.8669E+06              0.    -85.5243E+06
            5829     187.751E+06     22.1998E+06              0.    -87.0170E+06
            5830     189.322E+06     23.6211E+06              0.    -88.5026E+06
            5831     190.835E+06     25.1335E+06              0.    -89.9764E+06
            5832     192.281E+06     26.7398E+06              0.    -91.4326E+06
            5833     193.652E+06     28.4420E+06              0.    -92.8650E+06
            5834     194.938E+06     30.2421E+06              0.    -94.2664E+06
            5835     196.129E+06     32.1413E+06              0.    -95.6288E+06
            5836     197.215E+06     34.1403E+06              0.    -96.9432E+06
            5837     198.184E+06     36.2388E+06              0.    -98.1996E+06
            5838     199.026E+06     38.4357E+06              0.    -99.3869E+06
            5839     199.728E+06     40.7287E+06              0.    -100.493E+06
            5840     200.278E+06     43.1142E+06              0.    -101.505E+06
            5841     200.665E+06     45.5868E+06              0.    -102.407E+06
            5842     200.876E+06     48.1397E+06              0.    -103.185E+06
            5843     200.900E+06     50.7635E+06              0.    -103.821E+06
            5844     200.727E+06     53.4471E+06              0.    -104.298E+06
            5845     200.347E+06     56.1766E+06              0.    -104.598E+06
            5846     199.750E+06     58.9353E+06              0.    -104.701E+06
            5847     198.929E+06     61.7038E+06              0.    -104.589E+06
            5848     197.879E+06     64.4597E+06              0.    -104.241E+06
            5849     196.596E+06     67.1777E+06              0.    -103.640E+06
            5850     195.079E+06     69.8293E+06              0.    -102.768E+06
            5851     193.329E+06     72.3837E+06              0.    -101.607E+06
            5852     191.350E+06     74.8074E+06              0.    -100.146E+06
            5853     189.148E+06     77.0652E+06              0.    -98.3712E+06
            5854     186.733E+06     79.1206E+06              0.    -96.2757E+06
            5855     184.117E+06     80.9367E+06              0.    -93.8548E+06
            5856     181.312E+06     82.4770E+06              0.    -91.1084E+06
            5857     178.335E+06     83.7064E+06              0.    -88.0403E+06
            5858     175.202E+06     84.5917E+06              0.    -84.6594E+06
            5859     174.157E+06     84.4907E+06              0.    -84.0689E+06
            5860     69.9583E+06     30.6545E+06              0.    -1.95988E+06
            5861     69.9435E+06     30.4872E+06              0.    -1.95645E+06
            5862     70.0004E+06     30.3546E+06              0.    -1.93034E+06
            5863     70.0567E+06     30.2256E+06              0.    -1.90813E+06
            5864     70.1125E+06     30.1001E+06              0.    -1.88971E+06
            5865     70.1678E+06     29.9778E+06              0.    -1.87500E+06
            5866     70.2227E+06     29.8587E+06              0.    -1.86389E+06
            5867     70.2774E+06     29.7426E+06              0.    -1.85629E+06
            5868     70.3320E+06     29.6293E+06              0.    -1.85212E+06
            5869     70.3866E+06     29.5186E+06              0.    -1.85130E+06
            5870     70.4412E+06     29.4105E+06              0.    -1.85375E+06
            5871     70.4960E+06     29.3047E+06              0.    -1.85939E+06
            5872     70.5510E+06     29.2012E+06              0.    -1.86817E+06
            5873     70.6064E+06     29.0998E+06              0.    -1.88001E+06
            5874     70.6623E+06     29.0004E+06              0.    -1.89485E+06
            5875     70.7186E+06     28.9028E+06              0.    -1.91265E+06
            5876     70.7756E+06     28.8070E+06              0.    -1.93335E+06
            5877     70.8333E+06     28.7128E+06              0.    -1.95689E+06
            5878     70.8918E+06     28.6201E+06              0.    -1.98324E+06
            5879     70.9511E+06     28.5288E+06              0.    -2.01235E+06
            5880     71.0115E+06     28.4388E+06              0.    -2.04418E+06
            5881     71.0728E+06     28.3499E+06              0.    -2.07871E+06
            5882     71.1352E+06     28.2621E+06              0.    -2.11588E+06
            5883     71.1989E+06     28.1753E+06              0.    -2.15569E+06
            5884     71.2638E+06     28.0894E+06              0.    -2.19809E+06
            5885     71.3301E+06     28.0043E+06              0.    -2.24307E+06
            5886     71.3977E+06     27.9198E+06              0.    -2.29061E+06
            5887     71.4669E+06     27.8360E+06              0.    -2.34069E+06
            5888     71.5377E+06     27.7526E+06              0.    -2.39330E+06
            5889     71.6101E+06     27.6697E+06              0.    -2.44841E+06
            5890     71.6843E+06     27.5872E+06              0.    -2.50603E+06
            5891     71.7602E+06     27.5049E+06              0.    -2.56615E+06
            5892     71.8381E+06     27.4228E+06              0.    -2.62876E+06
            5893     71.9179E+06     27.3408E+06              0.    -2.69385E+06
            5894     71.9997E+06     27.2589E+06              0.    -2.76144E+06
            5895     72.0836E+06     27.1769E+06              0.    -2.83152E+06
            5896     72.1698E+06     27.0948E+06              0.    -2.90410E+06
            5897     72.2581E+06     27.0125E+06              0.    -2.97918E+06
            5898     72.3488E+06     26.9299E+06              0.    -3.05678E+06
            5899     72.4419E+06     26.8471E+06              0.     -3.1369E+06
            5900     72.5375E+06     26.7638E+06              0.    -3.21956E+06
            5901     72.6357E+06     26.6801E+06              0.    -3.30478E+06
            5902     72.7365E+06     26.5959E+06              0.    -3.39257E+06
            5903     72.8400E+06     26.5111E+06              0.    -3.48296E+06
            5904     72.9463E+06     26.4257E+06              0.    -3.57596E+06
            5905     73.0555E+06     26.3395E+06              0.    -3.67160E+06
            5906     73.1677E+06     26.2526E+06              0.    -3.76991E+06
            5907     73.2829E+06     26.1649E+06              0.    -3.87091E+06
            5908     73.4012E+06     26.0763E+06              0.    -3.97463E+06
            5909     73.5227E+06     25.9868E+06              0.    -4.08111E+06
            5910     73.6476E+06     25.8963E+06              0.    -4.19038E+06
            5911     73.7757E+06     25.8048E+06              0.    -4.30248E+06
            5912     73.9074E+06     25.7121E+06              0.    -4.41744E+06
            5913     74.0426E+06     25.6183E+06              0.    -4.53530E+06
            5914     74.1815E+06     25.5234E+06              0.    -4.65610E+06
            5915     74.3240E+06     25.4271E+06              0.    -4.77989E+06
            5916     74.4704E+06     25.3296E+06              0.    -4.90672E+06
            5917     74.6208E+06     25.2308E+06              0.    -5.03661E+06
            5918     74.7751E+06     25.1305E+06              0.    -5.16964E+06
            5919     74.9335E+06     25.0288E+06              0.    -5.30585E+06
            5920     75.0962E+06     24.9256E+06              0.    -5.44528E+06
            5921     75.2631E+06     24.8209E+06              0.    -5.58799E+06
            5922     75.4345E+06     24.7146E+06              0.    -5.73405E+06
            5923     75.6104E+06     24.6067E+06              0.    -5.88350E+06
            5924     75.7909E+06     24.4971E+06              0.    -6.03640E+06
            5925     75.9761E+06     24.3858E+06              0.    -6.19283E+06
            5926     76.1661E+06     24.2727E+06              0.    -6.35283E+06
            5927     76.3611E+06     24.1579E+06              0.    -6.51648E+06
            5928     76.5611E+06     24.0412E+06              0.    -6.68384E+06
            5929     76.7663E+06     23.9227E+06              0.    -6.85497E+06
            5930     76.9768E+06     23.8023E+06              0.    -7.02996E+06
            5931     77.1927E+06     23.6799E+06              0.    -7.20886E+06
            5932     77.4142E+06     23.5555E+06              0.    -7.39177E+06
            5933     77.6412E+06     23.4291E+06              0.    -7.57874E+06
            5934     77.8741E+06     23.3007E+06              0.    -7.76986E+06
            5935     78.1129E+06     23.1702E+06              0.    -7.96521E+06
            5936     78.3577E+06     23.0375E+06              0.    -8.16486E+06
            5937     78.6086E+06     22.9027E+06              0.    -8.36891E+06
            5938     78.8659E+06     22.7657E+06              0.    -8.57744E+06
            5939     79.1296E+06     22.6266E+06              0.    -8.79052E+06
            5940     79.4000E+06     22.4851E+06              0.    -9.00826E+06
            5941      79.677E+06     22.3415E+06              0.    -9.23075E+06
            5942     79.9609E+06     22.1955E+06              0.    -9.45807E+06
            5943     80.2519E+06     22.0472E+06              0.    -9.69031E+06
            5944     80.5500E+06     21.8966E+06              0.    -9.92759E+06
            5945     80.8555E+06     21.7436E+06              0.    -10.1700E+06
            5946     81.1684E+06     21.5883E+06              0.    -10.4176E+06
            5947      81.489E+06     21.4306E+06              0.    -10.6706E+06
            5948     81.8174E+06     21.2704E+06              0.    -10.9290E+06
            5949     82.1538E+06     21.1079E+06              0.    -11.1929E+06
            5950     82.4984E+06     20.9429E+06              0.    -11.4625E+06
            5951     82.8513E+06     20.7755E+06              0.    -11.7378E+06
            5952     83.2127E+06     20.6056E+06              0.    -12.0190E+06
            5953     83.5828E+06     20.4333E+06              0.    -12.3062E+06
            5954     83.9617E+06     20.2585E+06              0.    -12.5995E+06
            5955     84.3497E+06     20.0813E+06              0.    -12.8990E+06
            5956      84.747E+06     19.9016E+06              0.    -13.2049E+06
            5957     85.1537E+06     19.7195E+06              0.    -13.5172E+06
            5958     85.5700E+06     19.5350E+06              0.    -13.8362E+06
            5959     85.9962E+06     19.3480E+06              0.    -14.1619E+06
            5960     86.4324E+06     19.1587E+06              0.    -14.4944E+06
            5961     86.8788E+06     18.9669E+06              0.    -14.8339E+06
            5962     87.3357E+06     18.7728E+06              0.    -15.1806E+06
            5963     87.8033E+06     18.5764E+06              0.    -15.5345E+06
            5964     88.2818E+06     18.3777E+06              0.    -15.8958E+06
            5965     88.7713E+06     18.1767E+06              0.    -16.2647E+06
            5966     89.2722E+06     17.9735E+06              0.    -16.6412E+06
            5967     89.7847E+06     17.7681E+06              0.    -17.0256E+06
            5968     90.3089E+06     17.5606E+06              0.    -17.4180E+06
            5969     90.8452E+06     17.3510E+06              0.    -17.8186E+06
            5970     91.3938E+06     17.1395E+06              0.    -18.2275E+06
            5971     91.9548E+06     16.9260E+06              0.    -18.6448E+06
            5972     92.5286E+06     16.7106E+06              0.    -19.0708E+06
            5973     93.1154E+06     16.4934E+06              0.    -19.5055E+06
            5974     93.7155E+06     16.2746E+06              0.    -19.9492E+06
            5975     94.3290E+06     16.0542E+06              0.    -20.4021E+06
            5976     94.9564E+06     15.8322E+06              0.    -20.8642E+06
            5977     95.5977E+06     15.6089E+06              0.    -21.3358E+06
            5978     96.2534E+06     15.3844E+06              0.    -21.8171E+06
            5979     96.9235E+06     15.1587E+06              0.    -22.3082E+06
            5980     97.6086E+06     14.9320E+06              0.    -22.8094E+06
            5981     98.3087E+06     14.7044E+06              0.    -23.3208E+06
            5982     99.0241E+06     14.4762E+06              0.    -23.8425E+06
            5983     99.7553E+06     14.2475E+06              0.    -24.3749E+06
            5984     100.502E+06     14.0184E+06              0.    -24.9181E+06
            5985     101.266E+06     13.7892E+06              0.    -25.4723E+06
            5986     102.045E+06     13.5600E+06              0.    -26.0377E+06
            5987     102.842E+06     13.3311E+06              0.    -26.6145E+06
            5988     103.655E+06     13.1028E+06              0.    -27.2029E+06
            5989     104.486E+06     12.8751E+06              0.    -27.8032E+06
            5990     105.335E+06     12.6486E+06              0.    -28.4155E+06
            5991     106.201E+06     12.4233E+06              0.    -29.0401E+06
            5992     107.086E+06     12.1996E+06              0.    -29.6772E+06
            5993     107.989E+06     11.9778E+06              0.    -30.3270E+06
            5994     108.910E+06     11.7583E+06              0.    -30.9898E+06
            5995     109.851E+06     11.5414E+06              0.    -31.6658E+06
            5996     110.811E+06     11.3274E+06              0.    -32.3552E+06
            5997     111.790E+06     11.1168E+06              0.    -33.0582E+06
            5998     112.790E+06     10.9099E+06              0.    -33.7752E+06
            5999     113.809E+06     10.7073E+06              0.    -34.5064E+06
            6000     114.849E+06     10.5093E+06              0.    -35.2519E+06
            6001     115.909E+06     10.3165E+06              0.    -36.0121E+06
            6002     116.990E+06     10.1294E+06              0.    -36.7872E+06
            6003     118.092E+06     9.94851E+06              0.    -37.5775E+06
            6004     119.215E+06     9.77443E+06              0.    -38.3832E+06
            6005     120.360E+06     9.60776E+06              0.    -39.2046E+06
            6006     121.526E+06     9.44915E+06              0.    -40.0420E+06
            6007     122.713E+06     9.29926E+06              0.    -40.8955E+06
            6008     123.923E+06     9.15881E+06              0.    -41.7655E+06
            6009     125.155E+06     9.02856E+06              0.    -42.6522E+06
            6010     126.408E+06     8.90927E+06              0.    -43.5559E+06
            6011     127.684E+06     8.80180E+06              0.    -44.4768E+06
            6012     128.982E+06     8.70702E+06              0.    -45.4153E+06
            6013     130.302E+06     8.62584E+06              0.    -46.3714E+06
            6014     131.644E+06     8.55924E+06              0.    -47.3456E+06
            6015     133.008E+06     8.50824E+06              0.    -48.3380E+06
            6016     134.395E+06     8.47390E+06              0.    -49.3489E+06
            6017     135.802E+06     8.45736E+06              0.    -50.3784E+06
            6018     137.232E+06      8.4598E+06              0.    -51.4268E+06
            6019     138.683E+06     8.48246E+06              0.    -52.4943E+06
            6020     140.154E+06     8.52667E+06              0.    -53.5811E+06
            6021     141.646E+06     8.59377E+06              0.    -54.6873E+06
            6022     143.158E+06     8.68521E+06              0.    -55.8131E+06
            6023     144.689E+06     8.80252E+06              0.    -56.9586E+06
            6024     146.239E+06     8.94726E+06              0.    -58.1238E+06
            6025     147.807E+06      9.1211E+06              0.    -59.3088E+06
            6026     149.392E+06     9.32577E+06              0.    -60.5137E+06
            6027     150.993E+06     9.56310E+06              0.    -61.7382E+06
            6028     152.608E+06     9.83497E+06              0.    -62.9825E+06
            6029     154.237E+06     10.1434E+06              0.    -64.2462E+06
            6030     155.878E+06     10.4904E+06              0.    -65.5293E+06
            6031     157.530E+06     10.8781E+06              0.    -66.8313E+06
            6032     159.190E+06     11.3089E+06              0.    -68.1518E+06
            6033     160.856E+06     11.7850E+06              0.    -69.4904E+06
            6034     162.527E+06     12.3088E+06              0.    -70.8463E+06
            6035     164.200E+06     12.8829E+06              0.    -72.2190E+06
            6036     165.871E+06     13.5097E+06              0.    -73.6073E+06
            6037     167.539E+06     14.1921E+06              0.    -75.0103E+06
            6038     169.199E+06     14.9326E+06              0.    -76.4265E+06
            6039     170.848E+06     15.7342E+06              0.    -77.8546E+06
            6040     172.482E+06     16.5995E+06              0.    -79.2928E+06
            6041     174.097E+06     17.5314E+06              0.    -80.7389E+06
            6042     175.687E+06     18.5329E+06              0.    -82.1907E+06
            6043     177.248E+06     19.6068E+06              0.    -83.6454E+06
            6044     178.775E+06     20.7559E+06              0.    -85.0999E+06
            6045     180.260E+06     21.9829E+06              0.    -86.5507E+06
            6046     181.698E+06     23.2905E+06              0.    -87.9937E+06
            6047     183.081E+06     24.6811E+06              0.    -89.4244E+06
            6048     184.402E+06     26.1571E+06              0.    -90.8376E+06
            6049     185.653E+06     27.7203E+06              0.    -92.2274E+06
            6050     186.826E+06     29.3722E+06              0.    -93.5874E+06
            6051     187.911E+06     31.1142E+06              0.    -94.9104E+06
            6052     188.900E+06     32.9466E+06              0.    -96.1880E+06
            6053     189.781E+06     34.8694E+06              0.    -97.4115E+06
            6054     190.546E+06     36.8815E+06              0.    -98.5709E+06
            6055     191.184E+06     38.9810E+06              0.    -99.6552E+06
            6056     191.683E+06     41.1649E+06              0.    -100.653E+06
            6057     192.035E+06     43.4287E+06              0.    -101.551E+06
            6058     192.227E+06     45.7665E+06              0.    -102.335E+06
            6059     192.250E+06     48.1707E+06              0.    -102.991E+06
            6060     192.093E+06     50.6318E+06              0.    -103.502E+06
            6061     191.748E+06     53.1382E+06              0.    -103.854E+06
            6062     191.207E+06     55.6759E+06              0.    -104.027E+06
            6063     190.462E+06     58.2288E+06              0.    -104.007E+06
            6064     189.507E+06     60.7778E+06              0.    -103.773E+06
            6065     188.338E+06     63.3018E+06              0.    -103.311E+06
            6066     186.954E+06     65.7766E+06              0.    -102.603E+06
            6067     185.354E+06     68.1760E+06              0.    -101.633E+06
            6068     183.539E+06     70.4712E+06              0.    -100.387E+06
            6069     181.515E+06     72.6319E+06              0.    -98.8548E+06
            6070     179.288E+06     74.6259E+06              0.    -97.0252E+06
            6071     176.867E+06     76.4205E+06              0.    -94.8923E+06
            6072     174.263E+06     77.9825E+06              0.    -92.4526E+06
            6073     171.488E+06     79.2794E+06              0.    -89.7066E+06
            6074     168.556E+06       80.28E+06              0.    -86.6586E+06
            6075     165.482E+06     80.9553E+06              0.    -83.3162E+06
            6076     164.392E+06     80.6800E+06              0.    -82.6813E+06
            6077     69.8797E+06     30.6213E+06              0.    -2.01590E+06
            6078     69.8653E+06     30.4590E+06              0.    -2.01237E+06
            6079     69.9206E+06     30.3303E+06              0.    -1.98551E+06
            6080     69.9753E+06     30.2051E+06              0.    -1.96266E+06
            6081     70.0293E+06     30.0833E+06              0.    -1.94372E+06
            6082      70.083E+06     29.9646E+06              0.    -1.92858E+06
            6083     70.1363E+06     29.8491E+06              0.    -1.91715E+06
            6084     70.1894E+06     29.7364E+06              0.    -1.90933E+06
            6085     70.2424E+06     29.6264E+06              0.    -1.90504E+06
            6086     70.2954E+06     29.5190E+06              0.    -1.90419E+06
            6087     70.3484E+06     29.4141E+06              0.    -1.90670E+06
            6088     70.4015E+06     29.3115E+06              0.    -1.91250E+06
            6089     70.4550E+06     29.2110E+06              0.    -1.92152E+06
            6090     70.5087E+06     29.1126E+06              0.    -1.93370E+06
            6091     70.5629E+06     29.0161E+06              0.    -1.94896E+06
            6092     70.6176E+06     28.9215E+06              0.    -1.96726E+06
            6093     70.6729E+06     28.8285E+06              0.    -1.98855E+06
            6094     70.7289E+06     28.7371E+06              0.    -2.01276E+06
            6095     70.7856E+06     28.6471E+06              0.    -2.03985E+06
            6096     70.8432E+06     28.5585E+06              0.    -2.06979E+06
            6097     70.9017E+06     28.4711E+06              0.    -2.10252E+06
            6098     70.9613E+06     28.3849E+06              0.    -2.13802E+06
            6099     71.0219E+06     28.2997E+06              0.    -2.17626E+06
            6100     71.0836E+06     28.2155E+06              0.    -2.21719E+06
            6101     71.1466E+06     28.1321E+06              0.    -2.26080E+06
            6102     71.2109E+06     28.0495E+06              0.    -2.30705E+06
            6103     71.2766E+06     27.9676E+06              0.    -2.35594E+06
            6104     71.3437E+06     27.8863E+06              0.    -2.40744E+06
            6105     71.4124E+06     27.8054E+06              0.    -2.46154E+06
            6106     71.4826E+06     27.7250E+06              0.    -2.51822E+06
            6107     71.5546E+06     27.6449E+06              0.    -2.57747E+06
            6108     71.6283E+06     27.5651E+06              0.    -2.63929E+06
            6109     71.7038E+06     27.4854E+06              0.    -2.70367E+06
            6110     71.7812E+06     27.4059E+06              0.    -2.77062E+06
            6111     71.8606E+06     27.3264E+06              0.    -2.84012E+06
            6112     71.9420E+06     27.2468E+06              0.    -2.91218E+06
            6113     72.0256E+06     27.1672E+06              0.    -2.98682E+06
            6114     72.1113E+06     27.0874E+06              0.    -3.06402E+06
            6115     72.1993E+06     27.0073E+06              0.    -3.14382E+06
            6116     72.2896E+06     26.9269E+06              0.    -3.22621E+06
            6117     72.3824E+06     26.8462E+06              0.    -3.31121E+06
            6118     72.4776E+06     26.7650E+06              0.    -3.39884E+06
            6119     72.5754E+06     26.6833E+06              0.    -3.48911E+06
            6120     72.6758E+06     26.6011E+06              0.    -3.58205E+06
            6121     72.7790E+06     26.5182E+06              0.    -3.67768E+06
            6122     72.8849E+06     26.4347E+06              0.    -3.77602E+06
            6123     72.9937E+06     26.3504E+06              0.    -3.87710E+06
            6124     73.1054E+06     26.2654E+06              0.    -3.98095E+06
            6125     73.2202E+06     26.1795E+06              0.    -4.08760E+06
            6126     73.3381E+06     26.0927E+06              0.    -4.19709E+06
            6127     73.4591E+06     26.0049E+06              0.    -4.30944E+06
            6128     73.5835E+06     25.9162E+06              0.    -4.42469E+06
            6129     73.7112E+06     25.8263E+06              0.    -4.54288E+06
            6130     73.8423E+06     25.7354E+06              0.    -4.66406E+06
            6131     73.9770E+06     25.6434E+06              0.    -4.78826E+06
            6132     74.1153E+06     25.5501E+06              0.    -4.91553E+06
            6133     74.2572E+06     25.4556E+06              0.    -5.04591E+06
            6134     74.4030E+06     25.3597E+06              0.    -5.17946E+06
            6135     74.5527E+06     25.2626E+06              0.    -5.31622E+06
            6136     74.7064E+06     25.1640E+06              0.    -5.45624E+06
            6137     74.8641E+06     25.0640E+06              0.    -5.59958E+06
            6138     75.0260E+06     24.9625E+06              0.    -5.74629E+06
            6139     75.1922E+06     24.8595E+06              0.    -5.89643E+06
            6140     75.3627E+06     24.7550E+06              0.    -6.05006E+06
            6141     75.5377E+06     24.6488E+06              0.    -6.20723E+06
            6142     75.7173E+06     24.5410E+06              0.    -6.36802E+06
            6143     75.9016E+06     24.4315E+06              0.    -6.53249E+06
            6144     76.0906E+06     24.3202E+06              0.    -6.70069E+06
            6145     76.2846E+06     24.2072E+06              0.    -6.87271E+06
            6146     76.4835E+06     24.0924E+06              0.    -7.04861E+06
            6147     76.6876E+06     23.9758E+06              0.    -7.22845E+06
            6148     76.8969E+06     23.8573E+06              0.    -7.41233E+06
            6149     77.1116E+06     23.7368E+06              0.    -7.60030E+06
            6150     77.3317E+06     23.6144E+06              0.    -7.79245E+06
            6151     77.5575E+06     23.4901E+06              0.    -7.98886E+06
            6152     77.7889E+06     23.3637E+06              0.    -8.18960E+06
            6153     78.0262E+06     23.2353E+06              0.    -8.39477E+06
            6154     78.2694E+06     23.1049E+06              0.    -8.60445E+06
            6155     78.5188E+06     22.9723E+06              0.    -8.81871E+06
            6156     78.7744E+06     22.8376E+06              0.    -9.03766E+06
            6157     79.0364E+06     22.7008E+06              0.    -9.26138E+06
            6158     79.3048E+06     22.5618E+06              0.    -9.48996E+06
            6159     79.5800E+06     22.4206E+06              0.    -9.72350E+06
            6160     79.8619E+06     22.2771E+06              0.    -9.96210E+06
            6161     80.1507E+06     22.1315E+06              0.    -10.2059E+06
            6162     80.4467E+06     21.9835E+06              0.    -10.4549E+06
            6163     80.7499E+06     21.8333E+06              0.    -10.7092E+06
            6164     81.0605E+06     21.6808E+06              0.    -10.9690E+06
            6165     81.3787E+06     21.5260E+06              0.    -11.2344E+06
            6166     81.7045E+06     21.3689E+06              0.    -11.5055E+06
            6167     82.0383E+06     21.2094E+06              0.    -11.7824E+06
            6168     82.3800E+06     21.0477E+06              0.    -12.0651E+06
            6169     82.7300E+06     20.8836E+06              0.    -12.3539E+06
            6170     83.0884E+06     20.7171E+06              0.    -12.6488E+06
            6171     83.4554E+06     20.5483E+06              0.    -12.9500E+06
            6172     83.8311E+06     20.3772E+06              0.    -13.2575E+06
            6173     84.2157E+06     20.2037E+06              0.    -13.5715E+06
            6174     84.6094E+06     20.0279E+06              0.    -13.8922E+06
            6175     85.0124E+06     19.8498E+06              0.    -14.2196E+06
            6176     85.4249E+06     19.6694E+06              0.    -14.5539E+06
            6177     85.8471E+06     19.4868E+06              0.    -14.8952E+06
            6178     86.2792E+06     19.3019E+06              0.    -15.2436E+06
            6179     86.7213E+06     19.1147E+06              0.    -15.5994E+06
            6180     87.1737E+06     18.9253E+06              0.    -15.9625E+06
            6181     87.6366E+06     18.7338E+06              0.    -16.3333E+06
            6182     88.1102E+06     18.5402E+06              0.    -16.7117E+06
            6183     88.5947E+06     18.3444E+06              0.    -17.0981E+06
            6184     89.0903E+06     18.1466E+06              0.    -17.4924E+06
            6185     89.5972E+06     17.9469E+06              0.    -17.8949E+06
            6186     90.1158E+06     17.7452E+06              0.    -18.3057E+06
            6187     90.6461E+06     17.5417E+06              0.    -18.7250E+06
            6188     91.1884E+06     17.3363E+06              0.    -19.1529E+06
            6189     91.7430E+06     17.1293E+06              0.    -19.5897E+06
            6190     92.3101E+06     16.9206E+06              0.    -20.0354E+06
            6191     92.8899E+06     16.7104E+06              0.    -20.4902E+06
            6192     93.4826E+06     16.4987E+06              0.    -20.9543E+06
            6193     94.0886E+06     16.2857E+06              0.    -21.4280E+06
            6194     94.7080E+06     16.0715E+06              0.    -21.9112E+06
            6195     95.3410E+06     15.8562E+06              0.    -22.4043E+06
            6196     95.9880E+06     15.6398E+06              0.    -22.9075E+06
            6197     96.6492E+06     15.4227E+06              0.    -23.4208E+06
            6198     97.3249E+06     15.2049E+06              0.    -23.9445E+06
            6199     98.0152E+06     14.9866E+06              0.    -24.4788E+06
            6200     98.7205E+06     14.7679E+06              0.    -25.0238E+06
            6201     99.4410E+06     14.5490E+06              0.    -25.5798E+06
            6202     100.177E+06     14.3302E+06              0.    -26.1470E+06
            6203     100.929E+06     14.1116E+06              0.    -26.7255E+06
            6204     101.696E+06     13.8934E+06              0.    -27.3156E+06
            6205     102.480E+06     13.6760E+06              0.    -27.9175E+06
            6206     103.280E+06     13.4594E+06              0.    -28.5314E+06
            6207     104.097E+06     13.2441E+06              0.    -29.1575E+06
            6208     104.932E+06     13.0302E+06              0.    -29.7960E+06
            6209     105.783E+06     12.8181E+06              0.    -30.4471E+06
            6210     106.652E+06     12.6081E+06              0.    -31.1111E+06
            6211     107.538E+06     12.4005E+06              0.    -31.7881E+06
            6212     108.443E+06     12.1957E+06              0.    -32.4785E+06
            6213     109.365E+06     11.9940E+06              0.    -33.1824E+06
            6214     110.307E+06     11.7959E+06              0.    -33.9000E+06
            6215     111.266E+06     11.6017E+06              0.    -34.6317E+06
            6216     112.245E+06     11.4118E+06              0.    -35.3775E+06
            6217     113.243E+06     11.2268E+06              0.    -36.1378E+06
            6218     114.260E+06     11.0472E+06              0.    -36.9129E+06
            6219     115.296E+06     10.8733E+06              0.    -37.7028E+06
            6220     116.352E+06     10.7059E+06              0.    -38.5080E+06
            6221     117.428E+06     10.5454E+06              0.    -39.3285E+06
            6222     118.524E+06     10.3925E+06              0.    -40.1647E+06
            6223     119.640E+06     10.2478E+06              0.    -41.0168E+06
            6224     120.776E+06     10.1119E+06              0.     -41.885E+06
            6225     121.932E+06     9.98563E+06              0.    -42.7696E+06
            6226     123.109E+06     9.86964E+06              0.    -43.6707E+06
            6227     124.305E+06     9.76474E+06              0.    -44.5887E+06
            6228     125.523E+06     9.67173E+06              0.    -45.5238E+06
            6229     126.760E+06      9.5915E+06              0.    -46.4761E+06
            6230     128.018E+06     9.52494E+06              0.    -47.4459E+06
            6231     129.295E+06     9.47300E+06              0.    -48.4333E+06
            6232     130.593E+06     9.43669E+06              0.    -49.4387E+06
            6233     131.910E+06     9.41706E+06              0.    -50.4621E+06
            6234     133.247E+06     9.41520E+06              0.    -51.5037E+06
            6235     134.603E+06     9.43229E+06              0.    -52.5638E+06
            6236     135.978E+06     9.46952E+06              0.    -53.6423E+06
            6237     137.371E+06     9.52818E+06              0.    -54.7395E+06
            6238     138.782E+06     9.60960E+06              0.    -55.8554E+06
            6239     140.210E+06     9.71517E+06              0.    -56.9901E+06
            6240     141.655E+06     9.84637E+06              0.    -58.1437E+06
            6241     143.116E+06     10.0047E+06              0.    -59.3160E+06
            6242     144.591E+06     10.1918E+06              0.    -60.5071E+06
            6243     146.080E+06     10.4093E+06              0.    -61.7169E+06
            6244     147.582E+06     10.6590E+06              0.    -62.9452E+06
            6245     149.096E+06     10.9427E+06              0.    -64.1918E+06
            6246     150.619E+06     11.2622E+06              0.    -65.4564E+06
            6247     152.151E+06     11.6196E+06              0.    -66.7386E+06
            6248     153.690E+06     12.0169E+06              0.    -68.0381E+06
            6249     155.233E+06     12.4562E+06              0.    -69.3542E+06
            6250     156.779E+06     12.9397E+06              0.    -70.6863E+06
            6251     158.325E+06     13.4696E+06              0.    -72.0335E+06
            6252     159.869E+06     14.0484E+06              0.    -73.3950E+06
            6253     161.408E+06     14.6783E+06              0.    -74.7696E+06
            6254     162.939E+06     15.3618E+06              0.    -76.1560E+06
            6255     164.458E+06     16.1015E+06              0.    -77.5528E+06
            6256     165.961E+06     16.8998E+06              0.    -78.9581E+06
            6257     167.446E+06     17.7593E+06              0.    -80.3701E+06
            6258     168.906E+06     18.6825E+06              0.    -81.7864E+06
            6259     170.338E+06     19.6721E+06              0.    -83.2044E+06
            6260     171.737E+06     20.7304E+06              0.    -84.6211E+06
            6261     173.097E+06     21.8599E+06              0.    -86.0334E+06
            6262     174.411E+06     23.0629E+06              0.    -87.4372E+06
            6263     175.674E+06     24.3416E+06              0.    -88.8286E+06
            6264     176.880E+06     25.6979E+06              0.    -90.2025E+06
            6265     178.020E+06     27.1335E+06              0.    -91.5536E+06
            6266     179.087E+06     28.6499E+06              0.    -92.8762E+06
            6267     180.073E+06     30.2479E+06              0.    -94.1633E+06
            6268     180.970E+06     31.9280E+06              0.    -95.4079E+06
            6269     181.770E+06     33.6901E+06              0.    -96.6016E+06
            6270     182.462E+06     35.5335E+06              0.    -97.7356E+06
            6271     183.038E+06     37.4563E+06              0.    -98.8001E+06
            6272     183.488E+06     39.4560E+06              0.    -99.7846E+06
            6273     183.803E+06     41.5289E+06              0.    -100.677E+06
            6274     183.973E+06     43.6699E+06              0.    -101.466E+06
            6275     183.989E+06     45.8727E+06              0.    -102.138E+06
            6276     183.842E+06     48.1291E+06              0.    -102.679E+06
            6277     183.524E+06     50.4293E+06              0.    -103.074E+06
            6278     183.027E+06     52.7617E+06              0.    -103.308E+06
            6279     182.344E+06     55.1124E+06              0.    -103.366E+06
            6280     181.469E+06     57.4656E+06              0.    -103.231E+06
            6281     180.398E+06     59.8032E+06              0.    -102.889E+06
            6282     179.128E+06     62.1048E+06              0.    -102.323E+06
            6283     177.658E+06     64.3478E+06              0.    -101.518E+06
            6284     175.989E+06     66.5077E+06              0.    -100.462E+06
            6285     174.123E+06     68.5581E+06              0.    -99.1427E+06
            6286     172.065E+06     70.4710E+06              0.    -97.5489E+06
            6287     169.821E+06     72.2173E+06              0.    -95.6731E+06
            6288     167.400E+06     73.7674E+06              0.    -93.5100E+06
            6289     164.813E+06     75.0916E+06              0.    -91.0570E+06
            6290     162.070E+06     76.1607E+06              0.    -88.3150E+06
            6291     159.183E+06     76.9469E+06              0.    -85.2880E+06
            6292     156.166E+06     77.4243E+06              0.    -81.9835E+06
            6293     155.032E+06     76.9809E+06              0.    -81.3057E+06
            6294     69.7989E+06     30.5872E+06              0.    -2.07020E+06
            6295     69.7850E+06     30.4300E+06              0.    -2.06658E+06
            6296     69.8386E+06     30.3053E+06              0.    -2.03899E+06
            6297     69.8915E+06     30.1840E+06              0.    -2.01552E+06
            6298     69.9439E+06     30.0660E+06              0.    -1.99606E+06
            6299     69.9959E+06     29.9511E+06              0.    -1.98052E+06
            6300     70.0476E+06     29.8391E+06              0.    -1.96877E+06
            6301     70.0990E+06     29.7299E+06              0.    -1.96074E+06
            6302     70.1503E+06     29.6234E+06              0.    -1.95633E+06
            6303     70.2016E+06     29.5194E+06              0.    -1.95545E+06
            6304     70.2530E+06     29.4178E+06              0.    -1.95802E+06
            6305     70.3045E+06     29.3183E+06              0.    -1.96398E+06
            6306     70.3562E+06     29.2211E+06              0.    -1.97324E+06
            6307     70.4083E+06     29.1257E+06              0.    -1.98573E+06
            6308     70.4608E+06     29.0323E+06              0.    -2.00141E+06
            6309     70.5138E+06     28.9406E+06              0.    -2.02019E+06
            6310     70.5674E+06     28.8505E+06              0.    -2.04204E+06
            6311     70.6216E+06     28.7620E+06              0.    -2.06690E+06
            6312     70.6766E+06     28.6748E+06              0.    -2.09472E+06
            6313     70.7323E+06     28.5890E+06              0.    -2.12545E+06
            6314     70.7890E+06     28.5044E+06              0.    -2.15906E+06
            6315     70.8467E+06     28.4209E+06              0.    -2.19551E+06
            6316     70.9054E+06     28.3384E+06              0.    -2.23476E+06
            6317     70.9652E+06     28.2568E+06              0.    -2.27679E+06
            6318     71.0262E+06     28.1761E+06              0.    -2.32156E+06
            6319     71.0884E+06     28.0961E+06              0.    -2.36906E+06
            6320     71.1521E+06     28.0167E+06              0.    -2.41925E+06
            6321     71.2171E+06     27.9379E+06              0.    -2.47213E+06
            6322     71.2836E+06     27.8596E+06              0.    -2.52767E+06
            6323     71.3516E+06     27.7817E+06              0.    -2.58586E+06
            6324     71.4213E+06     27.7042E+06              0.    -2.64670E+06
            6325     71.4927E+06     27.6269E+06              0.    -2.71017E+06
            6326     71.5658E+06     27.5497E+06              0.    -2.77627E+06
            6327     71.6408E+06     27.4727E+06              0.    -2.84500E+06
            6328     71.7177E+06     27.3957E+06              0.    -2.91635E+06
            6329     71.7965E+06     27.3187E+06              0.    -2.99034E+06
            6330     71.8774E+06     27.2416E+06              0.    -3.06696E+06
            6331     71.9605E+06     27.1643E+06              0.    -3.14623E+06
            6332     72.0457E+06     27.0868E+06              0.    -3.22815E+06
            6333     72.1332E+06     27.0090E+06              0.    -3.31274E+06
            6334     72.2230E+06     26.9308E+06              0.        -3.4E+06
            6335     72.3152E+06     26.8522E+06              0.    -3.48996E+06
            6336     72.4098E+06     26.7731E+06              0.    -3.58264E+06
            6337     72.5071E+06     26.6935E+06              0.    -3.67805E+06
            6338     72.6070E+06     26.6133E+06              0.    -3.77622E+06
            6339     72.7095E+06     26.5324E+06              0.    -3.87718E+06
            6340     72.8149E+06     26.4509E+06              0.    -3.98095E+06
            6341     72.9231E+06     26.3686E+06              0.    -4.08756E+06
            6342     73.0342E+06     26.2854E+06              0.    -4.19704E+06
            6343     73.1483E+06     26.2014E+06              0.    -4.30942E+06
            6344     73.2655E+06     26.1165E+06              0.    -4.42475E+06
            6345     73.3859E+06     26.0306E+06              0.    -4.54306E+06
            6346     73.5096E+06     25.9437E+06              0.    -4.66439E+06
            6347     73.6365E+06     25.8557E+06              0.    -4.78877E+06
            6348     73.7669E+06     25.7666E+06              0.    -4.91626E+06
            6349     73.9008E+06     25.6764E+06              0.    -5.04689E+06
            6350     74.0382E+06     25.5849E+06              0.    -5.18072E+06
            6351     74.1794E+06     25.4922E+06              0.    -5.31780E+06
            6352     74.3243E+06     25.3982E+06              0.    -5.45816E+06
            6353      74.473E+06     25.3029E+06              0.    -5.60188E+06
            6354     74.6257E+06     25.2062E+06              0.    -5.74899E+06
            6355     74.7824E+06     25.1080E+06              0.    -5.89957E+06
            6356     74.9432E+06     25.0084E+06              0.    -6.05366E+06
            6357     75.1083E+06     24.9073E+06              0.    -6.21133E+06
            6358     75.2777E+06     24.8046E+06              0.    -6.37263E+06
            6359     75.4515E+06     24.7004E+06              0.    -6.53764E+06
            6360     75.6299E+06     24.5945E+06              0.    -6.70642E+06
            6361     75.8128E+06     24.4869E+06              0.    -6.87903E+06
            6362     76.0005E+06     24.3777E+06              0.    -7.05555E+06
            6363     76.1931E+06     24.2667E+06              0.    -7.23604E+06
            6364     76.3906E+06     24.1540E+06              0.    -7.42059E+06
            6365     76.5931E+06     24.0394E+06              0.    -7.60925E+06
            6366     76.8008E+06     23.9230E+06              0.    -7.80213E+06
            6367     77.0139E+06     23.8048E+06              0.    -7.99928E+06
            6368     77.2323E+06     23.6846E+06              0.    -8.20079E+06
            6369     77.4562E+06     23.5625E+06              0.    -8.40675E+06
            6370     77.6858E+06     23.4385E+06              0.    -8.61724E+06
            6371     77.9211E+06     23.3124E+06              0.    -8.83234E+06
            6372     78.1624E+06     23.1844E+06              0.    -9.05215E+06
            6373     78.4096E+06     23.0543E+06              0.    -9.27675E+06
            6374     78.6630E+06     22.9222E+06              0.    -9.50624E+06
            6375     78.9227E+06     22.7879E+06              0.    -9.74071E+06
            6376     79.1888E+06     22.6516E+06              0.    -9.98025E+06
            6377     79.4615E+06     22.5131E+06              0.    -10.2250E+06
            6378     79.7409E+06     22.3725E+06              0.    -10.4750E+06
            6379     80.0271E+06     22.2298E+06              0.    -10.7303E+06
            6380     80.3203E+06     22.0848E+06              0.    -10.9912E+06
            6381     80.6206E+06     21.9377E+06              0.    -11.2576E+06
            6382     80.9282E+06     21.7883E+06              0.    -11.5298E+06
            6383     81.2433E+06     21.6368E+06              0.    -11.8077E+06
            6384     81.5659E+06     21.4830E+06              0.    -12.0916E+06
            6385     81.8964E+06     21.3270E+06              0.    -12.3815E+06
            6386     82.2347E+06     21.1688E+06              0.    -12.6776E+06
            6387     82.5811E+06     21.0083E+06              0.    -12.9799E+06
            6388     82.9358E+06     20.8457E+06              0.    -13.2886E+06
            6389     83.2988E+06     20.6808E+06              0.    -13.6038E+06
            6390     83.6705E+06     20.5136E+06              0.    -13.9257E+06
            6391     84.0509E+06     20.3443E+06              0.    -14.2544E+06
            6392     84.4403E+06     20.1728E+06              0.    -14.5899E+06
            6393     84.8388E+06     19.9991E+06              0.    -14.9325E+06
            6394     85.2466E+06     19.8233E+06              0.    -15.2822E+06
            6395     85.6639E+06     19.6453E+06              0.    -15.6392E+06
            6396     86.0910E+06     19.4653E+06              0.    -16.0037E+06
            6397     86.5278E+06     19.2831E+06              0.    -16.3757E+06
            6398     86.9748E+06     19.0990E+06              0.    -16.7555E+06
            6399     87.4320E+06     18.9128E+06              0.    -17.1432E+06
            6400     87.8998E+06     18.7247E+06              0.    -17.5388E+06
            6401     88.3782E+06     18.5347E+06              0.    -17.9427E+06
            6402     88.8674E+06     18.3428E+06              0.    -18.3548E+06
            6403     89.3678E+06     18.1492E+06              0.    -18.7754E+06
            6404     89.8795E+06     17.9538E+06              0.    -19.2047E+06
            6405     90.4027E+06     17.7568E+06              0.    -19.6428E+06
            6406     90.9377E+06     17.5582E+06              0.    -20.0898E+06
            6407     91.4846E+06     17.3582E+06              0.    -20.5460E+06
            6408     92.0437E+06     17.1568E+06              0.    -21.0114E+06
            6409     92.6152E+06     16.9540E+06              0.    -21.4863E+06
            6410     93.1993E+06     16.7501E+06              0.    -21.9709E+06
            6411     93.7962E+06     16.5451E+06              0.    -22.4652E+06
            6412     94.4063E+06     16.3392E+06              0.    -22.9696E+06
            6413     95.0296E+06     16.1324E+06              0.    -23.4841E+06
            6414     95.6666E+06     15.9250E+06              0.    -24.0090E+06
            6415     96.3172E+06     15.7171E+06              0.    -24.5444E+06
            6416     96.9819E+06     15.5088E+06              0.    -25.0905E+06
            6417     97.6609E+06     15.3003E+06              0.    -25.6476E+06
            6418     98.3543E+06     15.0918E+06              0.    -26.2158E+06
            6419     99.0624E+06     14.8835E+06              0.    -26.7952E+06
            6420     99.7854E+06     14.6756E+06              0.    -27.3862E+06
            6421     100.524E+06     14.4683E+06              0.    -27.9889E+06
            6422     101.277E+06     14.2619E+06              0.    -28.6035E+06
            6423     102.047E+06     14.0566E+06              0.    -29.2302E+06
            6424     102.832E+06     13.8526E+06              0.    -29.8692E+06
            6425     103.633E+06     13.6503E+06              0.    -30.5208E+06
            6426     104.450E+06     13.4499E+06              0.    -31.1851E+06
            6427     105.285E+06     13.2518E+06              0.    -31.8623E+06
            6428     106.135E+06     13.0562E+06              0.    -32.5528E+06
            6429     107.003E+06     12.8636E+06              0.    -33.2565E+06
            6430     107.888E+06     12.6743E+06              0.    -33.9739E+06
            6431     108.790E+06     12.4886E+06              0.    -34.7052E+06
            6432     109.710E+06     12.3071E+06              0.    -35.4504E+06
            6433     110.647E+06     12.1301E+06              0.    -36.2099E+06
            6434     111.603E+06     11.9581E+06              0.    -36.9839E+06
            6435     112.576E+06     11.7916E+06              0.    -37.7726E+06
            6436     113.567E+06     11.6311E+06              0.    -38.5763E+06
            6437     114.577E+06     11.4771E+06              0.    -39.3950E+06
            6438     115.605E+06     11.3302E+06              0.    -40.2292E+06
            6439     116.652E+06     11.1910E+06              0.    -41.0789E+06
            6440     117.717E+06     11.0601E+06              0.    -41.9444E+06
            6441     118.801E+06     10.9382E+06              0.    -42.8259E+06
            6442     119.903E+06     10.8259E+06              0.    -43.7236E+06
            6443     121.024E+06     10.7240E+06              0.    -44.6378E+06
            6444     122.163E+06     10.6333E+06              0.    -45.5686E+06
            6445     123.322E+06     10.5546E+06              0.    -46.5162E+06
            6446     124.498E+06     10.4887E+06              0.    -47.4807E+06
            6447     125.693E+06     10.4365E+06              0.    -48.4624E+06
            6448     126.906E+06     10.3989E+06              0.    -49.4615E+06
            6449     128.137E+06     10.3769E+06              0.    -50.4780E+06
            6450     129.385E+06     10.3716E+06              0.    -51.5122E+06
            6451     130.651E+06     10.3840E+06              0.    -52.5640E+06
            6452     131.933E+06     10.4152E+06              0.    -53.6337E+06
            6453     133.232E+06     10.4665E+06              0.    -54.7213E+06
            6454     134.547E+06     10.5390E+06              0.    -55.8268E+06
            6455     135.877E+06     10.6341E+06              0.    -56.9503E+06
            6456     137.222E+06     10.7531E+06              0.    -58.0917E+06
            6457     138.581E+06     10.8974E+06              0.    -59.2511E+06
            6458     139.952E+06     11.0684E+06              0.    -60.4282E+06
            6459     141.336E+06     11.2679E+06              0.    -61.6231E+06
            6460     142.730E+06     11.4972E+06              0.    -62.8354E+06
            6461     144.134E+06     11.7581E+06              0.    -64.0649E+06
            6462     145.546E+06     12.0524E+06              0.    -65.3112E+06
            6463     146.966E+06     12.3817E+06              0.    -66.5741E+06
            6464     148.390E+06     12.7481E+06              0.    -67.8530E+06
            6465     149.817E+06     13.1534E+06              0.    -69.1472E+06
            6466     151.246E+06     13.5995E+06              0.    -70.4562E+06
            6467     152.674E+06     14.0887E+06              0.    -71.7790E+06
            6468     154.098E+06     14.6228E+06              0.    -73.1147E+06
            6469     155.517E+06     15.2042E+06              0.    -74.4623E+06
            6470     156.926E+06     15.8350E+06              0.    -75.8204E+06
            6471     158.323E+06     16.5175E+06              0.    -77.1875E+06
            6472     159.705E+06     17.2538E+06              0.    -78.5619E+06
            6473     161.068E+06     18.0463E+06              0.    -79.9418E+06
            6474     162.407E+06     18.8973E+06              0.    -81.3249E+06
            6475     163.719E+06     19.8090E+06              0.    -82.7088E+06
            6476     164.999E+06     20.7836E+06              0.    -84.0906E+06
            6477     166.241E+06     21.8233E+06              0.    -85.4672E+06
            6478     167.441E+06     22.9300E+06              0.    -86.8351E+06
            6479     168.593E+06     24.1057E+06              0.    -88.1902E+06
            6480     169.690E+06     25.3522E+06              0.    -89.5283E+06
            6481     170.727E+06     26.6707E+06              0.    -90.8442E+06
            6482     171.696E+06     28.0626E+06              0.    -92.1326E+06
            6483     172.590E+06     29.5288E+06              0.    -93.3873E+06
            6484     173.401E+06     31.0694E+06              0.    -94.6017E+06
            6485     174.123E+06     32.6846E+06              0.    -95.7685E+06
            6486     174.746E+06     34.3735E+06              0.    -96.8795E+06
            6487     175.263E+06     36.1348E+06              0.    -97.9259E+06
            6488     175.664E+06     37.9661E+06              0.    -98.8983E+06
            6489     175.942E+06     39.8642E+06              0.    -99.7863E+06
            6490     176.088E+06     41.8249E+06              0.    -100.579E+06
            6491     176.094E+06     43.8427E+06              0.    -101.264E+06
            6492     175.951E+06     45.9107E+06              0.    -101.830E+06
            6493     175.652E+06     48.0206E+06              0.    -102.262E+06
            6494     175.189E+06     50.1624E+06              0.    -102.549E+06
            6495     174.557E+06     52.3244E+06              0.    -102.674E+06
            6496     173.748E+06     54.4932E+06              0.    -102.625E+06
            6497     172.760E+06     56.6532E+06              0.    -102.386E+06
            6498     171.589E+06     58.7872E+06              0.    -101.944E+06
            6499     170.232E+06     60.8756E+06              0.    -101.284E+06
            6500     168.691E+06     62.8976E+06              0.    -100.395E+06
            6501     166.965E+06     64.8301E+06              0.    -99.2626E+06
            6502     165.058E+06     66.6487E+06              0.    -97.8779E+06
            6503     162.974E+06     68.3279E+06              0.    -96.2316E+06
            6504     160.721E+06     69.8412E+06              0.    -94.3171E+06
            6505     158.307E+06     71.1617E+06              0.    -92.1300E+06
            6506     155.740E+06     72.2627E+06              0.    -89.6685E+06
            6507     153.032E+06     73.1180E+06              0.    -86.9336E+06
            6508     150.194E+06     73.7028E+06              0.    -83.9289E+06
            6509     147.240E+06     73.9947E+06              0.    -80.6615E+06
            6510     146.073E+06     73.3967E+06              0.    -79.9462E+06
            6511     69.7160E+06     30.5521E+06              0.    -2.12274E+06
            6512     69.7026E+06     30.4001E+06              0.    -2.11902E+06
            6513     69.7544E+06     30.2796E+06              0.    -2.09073E+06
            6514     69.8056E+06     30.1624E+06              0.    -2.06666E+06
            6515     69.8563E+06     30.0483E+06              0.    -2.04671E+06
            6516     69.9065E+06     29.9372E+06              0.    -2.03076E+06
            6517     69.9565E+06     29.8289E+06              0.    -2.01872E+06
            6518     70.0062E+06     29.7234E+06              0.    -2.01047E+06
            6519     70.0559E+06     29.6204E+06              0.    -2.00595E+06
            6520     70.1055E+06     29.5198E+06              0.    -2.00504E+06
            6521     70.1551E+06     29.4215E+06              0.    -2.00768E+06
            6522     70.2049E+06     29.3254E+06              0.    -2.01378E+06
            6523     70.2549E+06     29.2314E+06              0.    -2.02327E+06
            6524     70.3053E+06     29.1392E+06              0.    -2.03607E+06
            6525     70.3560E+06     29.0489E+06              0.    -2.05214E+06
            6526     70.4073E+06     28.9602E+06              0.    -2.07140E+06
            6527     70.4591E+06     28.8731E+06              0.    -2.09380E+06
            6528     70.5115E+06     28.7875E+06              0.    -2.11928E+06
            6529     70.5646E+06     28.7033E+06              0.    -2.14779E+06
            6530     70.6186E+06     28.6203E+06              0.     -2.1793E+06
            6531     70.6734E+06     28.5385E+06              0.    -2.21375E+06
            6532     70.7291E+06     28.4578E+06              0.    -2.25112E+06
            6533     70.7858E+06     28.3780E+06              0.    -2.29136E+06
            6534     70.8436E+06     28.2992E+06              0.    -2.33444E+06
            6535     70.9026E+06     28.2211E+06              0.    -2.38034E+06
            6536     70.9628E+06     28.1438E+06              0.    -2.42903E+06
            6537     71.0243E+06     28.0671E+06              0.    -2.48049E+06
            6538     71.0872E+06     27.9909E+06              0.    -2.53469E+06
            6539     71.1514E+06     27.9152E+06              0.    -2.59163E+06
            6540     71.2172E+06     27.8400E+06              0.    -2.65128E+06
            6541     71.2846E+06     27.7650E+06              0.    -2.71365E+06
            6542     71.3536E+06     27.6903E+06              0.    -2.77872E+06
            6543     71.4243E+06     27.6157E+06              0.    -2.84648E+06
            6544     71.4967E+06     27.5413E+06              0.    -2.91693E+06
            6545     71.5710E+06     27.4669E+06              0.    -2.99008E+06
            6546     71.6473E+06     27.3925E+06              0.    -3.06593E+06
            6547     71.7255E+06     27.3179E+06              0.    -3.14447E+06
            6548     71.8057E+06     27.2432E+06              0.    -3.22573E+06
            6549     71.8880E+06     27.1683E+06              0.    -3.30970E+06
            6550     71.9726E+06     27.0931E+06              0.    -3.39641E+06
            6551     72.0594E+06     27.0176E+06              0.    -3.48586E+06
            6552     72.1485E+06     26.9417E+06              0.    -3.57808E+06
            6553     72.2400E+06     26.8653E+06              0.    -3.67308E+06
            6554     72.3340E+06     26.7883E+06              0.    -3.77088E+06
            6555     72.4305E+06     26.7109E+06              0.    -3.87151E+06
            6556     72.5296E+06     26.6327E+06              0.    -3.97499E+06
            6557     72.6314E+06     26.5539E+06              0.    -4.08135E+06
            6558     72.7360E+06     26.4744E+06              0.    -4.19062E+06
            6559     72.8434E+06     26.3941E+06              0.    -4.30284E+06
            6560     72.9537E+06     26.3130E+06              0.    -4.41803E+06
            6561     73.0669E+06     26.2310E+06              0.    -4.53624E+06
            6562     73.1833E+06     26.1480E+06              0.    -4.65750E+06
            6563     73.3027E+06     26.0641E+06              0.    -4.78185E+06
            6564     73.4254E+06     25.9791E+06              0.    -4.90933E+06
            6565     73.5514E+06     25.8931E+06              0.    -5.03999E+06
            6566     73.6808E+06     25.8060E+06              0.    -5.17387E+06
            6567     73.8136E+06     25.7177E+06              0.    -5.31103E+06
            6568     73.9499E+06     25.6282E+06              0.    -5.45151E+06
            6569     74.0899E+06     25.5374E+06              0.    -5.59536E+06
            6570     74.2336E+06     25.4454E+06              0.    -5.74264E+06
            6571     74.3811E+06     25.3520E+06              0.     -5.8934E+06
            6572     74.5326E+06     25.2572E+06              0.    -6.04770E+06
            6573     74.6879E+06     25.1611E+06              0.    -6.20560E+06
            6574     74.8474E+06     25.0635E+06              0.    -6.36717E+06
            6575     75.0110E+06     24.9644E+06              0.    -6.53246E+06
            6576     75.1790E+06     24.8638E+06              0.    -6.70154E+06
            6577     75.3512E+06     24.7616E+06              0.    -6.87447E+06
            6578     75.5280E+06     24.6579E+06              0.    -7.05133E+06
            6579     75.7093E+06     24.5525E+06              0.    -7.23219E+06
            6580     75.8952E+06     24.4454E+06              0.    -7.41712E+06
            6581     76.0860E+06     24.3367E+06              0.    -7.60619E+06
            6582     76.2816E+06     24.2262E+06              0.    -7.79949E+06
            6583     76.4822E+06     24.1139E+06              0.    -7.99708E+06
            6584     76.6879E+06     23.9999E+06              0.    -8.19905E+06
            6585     76.8988E+06     23.8840E+06              0.    -8.40549E+06
            6586     77.1151E+06     23.7663E+06              0.    -8.61646E+06
            6587     77.3367E+06     23.6467E+06              0.    -8.83208E+06
            6588     77.5640E+06     23.5252E+06              0.    -9.05241E+06
            6589     77.7969E+06     23.4018E+06              0.    -9.27755E+06
            6590     78.0356E+06     23.2764E+06              0.    -9.50760E+06
            6591     78.2803E+06     23.1491E+06              0.    -9.74264E+06
            6592     78.5310E+06     23.0198E+06              0.    -9.98277E+06
            6593     78.7878E+06     22.8884E+06              0.    -10.2281E+06
            6594     79.0510E+06     22.7550E+06              0.    -10.4787E+06
            6595     79.3207E+06     22.6196E+06              0.    -10.7347E+06
            6596     79.5969E+06     22.4821E+06              0.    -10.9962E+06
            6597     79.8799E+06     22.3425E+06              0.    -11.2633E+06
            6598     80.1697E+06     22.2009E+06              0.    -11.5361E+06
            6599     80.4666E+06     22.0571E+06              0.    -11.8148E+06
            6600     80.7706E+06     21.9113E+06              0.    -12.0993E+06
            6601     81.0819E+06     21.7633E+06              0.    -12.3899E+06
            6602     81.4007E+06     21.6132E+06              0.    -12.6867E+06
            6603     81.7271E+06     21.4610E+06              0.    -12.9897E+06
            6604     82.0612E+06     21.3067E+06              0.    -13.2992E+06
            6605     82.4033E+06     21.1502E+06              0.    -13.6152E+06
            6606     82.7535E+06     20.9917E+06              0.    -13.9378E+06
            6607     83.1119E+06     20.8311E+06              0.    -14.2672E+06
            6608     83.4788E+06     20.6684E+06              0.    -14.6035E+06
            6609     83.8542E+06     20.5036E+06              0.    -14.9468E+06
            6610     84.2384E+06     20.3367E+06              0.    -15.2973E+06
            6611     84.6316E+06     20.1679E+06              0.    -15.6551E+06
            6612     85.0338E+06     19.9970E+06              0.    -16.0203E+06
            6613     85.4454E+06     19.8242E+06              0.    -16.3931E+06
            6614     85.8664E+06     19.6494E+06              0.    -16.7737E+06
            6615     86.2971E+06     19.4727E+06              0.    -17.1621E+06
            6616     86.7376E+06     19.2942E+06              0.    -17.5585E+06
            6617     87.1882E+06     19.1139E+06              0.    -17.9631E+06
            6618     87.6491E+06     18.9318E+06              0.    -18.3760E+06
            6619     88.1203E+06     18.7480E+06              0.    -18.7974E+06
            6620     88.6021E+06     18.5625E+06              0.    -19.2274E+06
            6621     89.0948E+06     18.3755E+06              0.    -19.6662E+06
            6622     89.5985E+06     18.1870E+06              0.    -20.1139E+06
            6623     90.1134E+06     17.9970E+06              0.    -20.5708E+06
            6624     90.6398E+06     17.8058E+06              0.    -21.0369E+06
            6625     91.1778E+06     17.6132E+06              0.    -21.5124E+06
            6626     91.7276E+06     17.4196E+06              0.    -21.9976E+06
            6627     92.2894E+06     17.2249E+06              0.    -22.4925E+06
            6628     92.8636E+06     17.0293E+06              0.    -22.9974E+06
            6629     93.4502E+06     16.8329E+06              0.    -23.5124E+06
            6630     94.0494E+06     16.6359E+06              0.    -24.0378E+06
            6631     94.6616E+06     16.4383E+06              0.    -24.5736E+06
            6632     95.2869E+06     16.2404E+06              0.    -25.1201E+06
            6633     95.9254E+06     16.0423E+06              0.    -25.6775E+06
            6634     96.5776E+06     15.8441E+06              0.    -26.2459E+06
            6635     97.2434E+06     15.6461E+06              0.    -26.8255E+06
            6636     97.9233E+06     15.4485E+06              0.    -27.4166E+06
            6637     98.6172E+06     15.2514E+06              0.    -28.0193E+06
            6638     99.3256E+06     15.0551E+06              0.    -28.6338E+06
            6639     100.049E+06     14.8598E+06              0.    -29.2603E+06
            6640     100.786E+06     14.6658E+06              0.    -29.8991E+06
            6641     101.539E+06     14.4733E+06              0.    -30.5503E+06
            6642     102.307E+06     14.2826E+06              0.    -31.2140E+06
            6643     103.090E+06     14.0940E+06              0.    -31.8906E+06
            6644     103.889E+06     13.9079E+06              0.    -32.5803E+06
            6645     104.703E+06     13.7244E+06              0.    -33.2831E+06
            6646     105.534E+06     13.5441E+06              0.    -33.9994E+06
            6647     106.380E+06     13.3672E+06              0.    -34.7294E+06
            6648     107.243E+06     13.1941E+06              0.    -35.4731E+06
            6649     108.122E+06     13.0253E+06              0.    -36.2310E+06
            6650     109.018E+06     12.8612E+06              0.    -37.0031E+06
            6651     109.930E+06     12.7022E+06              0.    -37.7897E+06
            6652     110.860E+06     12.5489E+06              0.    -38.5909E+06
            6653     111.805E+06     12.4016E+06              0.    -39.4071E+06
            6654     112.768E+06     12.2610E+06              0.    -40.2383E+06
            6655     113.748E+06     12.1276E+06              0.    -41.0848E+06
            6656     114.745E+06     12.0020E+06              0.    -41.9467E+06
            6657     115.759E+06     11.8849E+06              0.    -42.8243E+06
            6658     116.790E+06     11.7767E+06              0.    -43.7178E+06
            6659     117.838E+06     11.6783E+06              0.    -44.6273E+06
            6660     118.903E+06     11.5904E+06              0.    -45.5530E+06
            6661     119.985E+06     11.5137E+06              0.    -46.4950E+06
            6662     121.084E+06     11.4490E+06              0.    -47.4536E+06
            6663     122.200E+06     11.3971E+06              0.    -48.4289E+06
            6664     123.331E+06     11.3589E+06              0.    -49.4209E+06
            6665     124.479E+06     11.3354E+06              0.    -50.4299E+06
            6666     125.643E+06     11.3274E+06              0.    -51.4559E+06
            6667     126.822E+06     11.3359E+06              0.    -52.4989E+06
            6668     128.017E+06     11.3621E+06              0.    -53.5592E+06
            6669     129.226E+06     11.4069E+06              0.    -54.6366E+06
            6670     130.449E+06     11.4716E+06              0.    -55.7313E+06
            6671     131.686E+06     11.5574E+06              0.    -56.8432E+06
            6672     132.936E+06     11.6654E+06              0.    -57.9722E+06
            6673     134.198E+06     11.7970E+06              0.    -59.1183E+06
            6674     135.471E+06     11.9535E+06              0.    -60.2813E+06
            6675     136.754E+06     12.1365E+06              0.    -61.4611E+06
            6676     138.046E+06     12.3472E+06              0.    -62.6573E+06
            6677     139.347E+06     12.5873E+06              0.    -63.8698E+06
            6678     140.654E+06     12.8583E+06              0.    -65.0982E+06
            6679     141.967E+06     13.1619E+06              0.    -66.3420E+06
            6680     143.283E+06     13.4997E+06              0.    -67.6007E+06
            6681     144.601E+06     13.8736E+06              0.    -68.8736E+06
            6682     145.920E+06     14.2853E+06              0.    -70.1602E+06
            6683     147.236E+06     14.7367E+06              0.    -71.4594E+06
            6684     148.548E+06     15.2297E+06              0.    -72.7705E+06
            6685     149.853E+06     15.7662E+06              0.    -74.0922E+06
            6686     151.149E+06     16.3483E+06              0.    -75.4233E+06
            6687     152.432E+06     16.9778E+06              0.    -76.7623E+06
            6688     153.700E+06     17.6569E+06              0.    -78.1076E+06
            6689     154.949E+06     18.3876E+06              0.    -79.4573E+06
            6690     156.175E+06     19.1719E+06              0.    -80.8094E+06
            6691     157.374E+06     20.0117E+06              0.    -82.1614E+06
            6692     158.543E+06     20.9092E+06              0.    -83.5107E+06
            6693     159.677E+06     21.8660E+06              0.    -84.8543E+06
            6694     160.770E+06     22.8841E+06              0.    -86.1890E+06
            6695     161.817E+06     23.9651E+06              0.    -87.5109E+06
            6696     162.814E+06     25.1105E+06              0.    -88.8160E+06
            6697     163.753E+06     26.3215E+06              0.    -90.0996E+06
            6698     164.630E+06     27.5993E+06              0.    -91.3569E+06
            6699     165.438E+06     28.9444E+06              0.    -92.5821E+06
            6700     166.169E+06     30.3573E+06              0.    -93.7691E+06
            6701     166.817E+06     31.8378E+06              0.    -94.9114E+06
            6702     167.374E+06     33.3853E+06              0.    -96.0014E+06
            6703     167.834E+06     34.9985E+06              0.    -97.0314E+06
            6704     168.188E+06     36.6756E+06              0.    -97.9926E+06
            6705     168.429E+06     38.4136E+06              0.    -98.8758E+06
            6706     168.549E+06     40.2089E+06              0.    -99.6710E+06
            6707     168.541E+06     42.0568E+06              0.    -100.368E+06
            6708     168.398E+06     43.9514E+06              0.    -100.954E+06
            6709     168.111E+06     45.8856E+06              0.    -101.420E+06
            6710     167.675E+06     47.8508E+06              0.    -101.751E+06
            6711     167.083E+06     49.8371E+06              0.    -101.936E+06
            6712     166.330E+06     51.8328E+06              0.    -101.961E+06
            6713     165.412E+06     53.8247E+06              0.    -101.813E+06
            6714     164.325E+06     55.7980E+06              0.    -101.479E+06
            6715     163.067E+06     57.7360E+06              0.    -100.947E+06
            6716     161.637E+06     59.6204E+06              0.    -100.203E+06
            6717     160.035E+06     61.4315E+06              0.    -99.2373E+06
            6718     158.263E+06     63.1478E+06              0.    -98.0382E+06
            6719     156.324E+06     64.7470E+06              0.    -96.5968E+06
            6720     154.223E+06     66.2054E+06              0.    -94.9057E+06
            6721     151.967E+06     67.4990E+06              0.    -92.9591E+06
            6722     149.563E+06     68.6034E+06              0.    -90.7535E+06
            6723     147.020E+06     69.4944E+06              0.    -88.2876E+06
            6724     144.349E+06     70.1483E+06              0.    -85.5626E+06
            6725     141.559E+06     70.5430E+06              0.    -82.5822E+06
            6726     138.663E+06     70.6571E+06              0.    -79.3527E+06
            6727     137.465E+06     69.9118E+06              0.    -78.6061E+06
            6728     69.6311E+06     30.5162E+06              0.    -2.17347E+06
            6729     69.6182E+06     30.3696E+06              0.    -2.16966E+06
            6730     69.6682E+06     30.2533E+06              0.    -2.14068E+06
            6731     69.7176E+06     30.1402E+06              0.    -2.11604E+06
            6732     69.7665E+06     30.0301E+06              0.    -2.09561E+06
            6733     69.8150E+06     29.9229E+06              0.    -2.07927E+06
            6734     69.8632E+06     29.8184E+06              0.    -2.06694E+06
            6735     69.9112E+06     29.7166E+06              0.    -2.05850E+06
            6736     69.9591E+06     29.6172E+06              0.    -2.05385E+06
            6737     70.0069E+06     29.5202E+06              0.    -2.05292E+06
            6738     70.0548E+06     29.4254E+06              0.    -2.05562E+06
            6739     70.1029E+06     29.3327E+06              0.    -2.06186E+06
            6740     70.1511E+06     29.2419E+06              0.    -2.07157E+06
            6741     70.1997E+06     29.1530E+06              0.    -2.08468E+06
            6742     70.2487E+06     29.0658E+06              0.    -2.10112E+06
            6743     70.2981E+06     28.9803E+06              0.    -2.12083E+06
            6744     70.3481E+06     28.8963E+06              0.    -2.14376E+06
            6745     70.3987E+06     28.8137E+06              0.    -2.16984E+06
            6746     70.4499E+06     28.7324E+06              0.    -2.19903E+06
            6747     70.5020E+06     28.6524E+06              0.    -2.23128E+06
            6748     70.5548E+06     28.5735E+06              0.    -2.26655E+06
            6749     70.6086E+06     28.4956E+06              0.    -2.30480E+06
            6750     70.6634E+06     28.4186E+06              0.    -2.34599E+06
            6751     70.7191E+06     28.3426E+06              0.    -2.39010E+06
            6752     70.7760E+06     28.2673E+06              0.    -2.43708E+06
            6753     70.8341E+06     28.1927E+06              0.    -2.48692E+06
            6754     70.8934E+06     28.1187E+06              0.    -2.53960E+06
            6755     70.9540E+06     28.0452E+06              0.    -2.59508E+06
            6756     71.0161E+06     27.9722E+06              0.    -2.65337E+06
            6757     71.0795E+06     27.8996E+06              0.    -2.71444E+06
            6758     71.1445E+06     27.8273E+06              0.    -2.77828E+06
            6759     71.2110E+06     27.7552E+06              0.    -2.84488E+06
            6760     71.2792E+06     27.6833E+06              0.    -2.91424E+06
            6761     71.3491E+06     27.6115E+06              0.    -2.98637E+06
            6762     71.4208E+06     27.5398E+06              0.    -3.06124E+06
            6763     71.4943E+06     27.4680E+06              0.    -3.13888E+06
            6764     71.5698E+06     27.3961E+06              0.    -3.21928E+06
            6765     71.6472E+06     27.3241E+06              0.    -3.30246E+06
            6766     71.7266E+06     27.2519E+06              0.    -3.38841E+06
            6767     71.8081E+06     27.1794E+06              0.    -3.47716E+06
            6768     71.8918E+06     27.1065E+06              0.    -3.56872E+06
            6769     71.9778E+06     27.0333E+06              0.    -3.66311E+06
            6770     72.0661E+06     26.9596E+06              0.    -3.76035E+06
            6771     72.1567E+06     26.8855E+06              0.    -3.86046E+06
            6772     72.2498E+06     26.8108E+06              0.    -3.96345E+06
            6773     72.3454E+06     26.7355E+06              0.    -4.06937E+06
            6774     72.4435E+06     26.6595E+06              0.    -4.17823E+06
            6775     72.5444E+06     26.5829E+06              0.    -4.29007E+06
            6776     72.6479E+06     26.5055E+06              0.    -4.40493E+06
            6777     72.7543E+06     26.4272E+06              0.    -4.52283E+06
            6778     72.8635E+06     26.3482E+06              0.    -4.64380E+06
            6779     72.9757E+06     26.2682E+06              0.    -4.76791E+06
            6780     73.0909E+06     26.1874E+06              0.    -4.89517E+06
            6781     73.2092E+06     26.1055E+06              0.    -5.02564E+06
            6782     73.3307E+06     26.0226E+06              0.    -5.15935E+06
            6783     73.4554E+06     25.9386E+06              0.    -5.29637E+06
            6784     73.5835E+06     25.8536E+06              0.    -5.43673E+06
            6785     73.7150E+06     25.7673E+06              0.    -5.58049E+06
            6786     73.8499E+06     25.6799E+06              0.    -5.72769E+06
            6787     73.9885E+06     25.5912E+06              0.    -5.87840E+06
            6788     74.1307E+06     25.5013E+06              0.    -6.03268E+06
            6789     74.2767E+06     25.4101E+06              0.    -6.19057E+06
            6790     74.4265E+06     25.3175E+06              0.    -6.35214E+06
            6791     74.5802E+06     25.2235E+06              0.    -6.51746E+06
            6792     74.7380E+06     25.1280E+06              0.    -6.68658E+06
            6793     74.8998E+06     25.0312E+06              0.    -6.85957E+06
            6794     75.0659E+06     24.9328E+06              0.    -7.03651E+06
            6795     75.2362E+06     24.8329E+06              0.    -7.21746E+06
            6796     75.4110E+06     24.7314E+06              0.    -7.40250E+06
            6797     75.5902E+06     24.6284E+06              0.    -7.59169E+06
            6798     75.7741E+06     24.5237E+06              0.    -7.78512E+06
            6799     75.9626E+06     24.4174E+06              0.    -7.98286E+06
            6800     76.1560E+06     24.3094E+06              0.    -8.18500E+06
            6801     76.3542E+06     24.1996E+06              0.    -8.39160E+06
            6802     76.5574E+06     24.0882E+06              0.    -8.60277E+06
            6803     76.7658E+06     23.9749E+06              0.    -8.81858E+06
            6804     76.9794E+06     23.8599E+06              0.    -9.03911E+06
            6805     77.1984E+06     23.7430E+06              0.    -9.26447E+06
            6806     77.4228E+06     23.6243E+06              0.    -9.49474E+06
            6807     77.6528E+06     23.5038E+06              0.    -9.73002E+06
            6808     77.8885E+06     23.3814E+06              0.    -9.97039E+06
            6809     78.1300E+06     23.2570E+06              0.    -10.2160E+06
            6810     78.3774E+06     23.1308E+06              0.    -10.4668E+06
            6811     78.6309E+06     23.0026E+06              0.    -10.7231E+06
            6812     78.8907E+06     22.8724E+06              0.    -10.9849E+06
            6813     79.1567E+06     22.7403E+06              0.    -11.2522E+06
            6814     79.4292E+06     22.6063E+06              0.    -11.5253E+06
            6815     79.7083E+06     22.4702E+06              0.    -11.8043E+06
            6816     79.9942E+06     22.3321E+06              0.    -12.0891E+06
            6817     80.2869E+06     22.1921E+06              0.      -12.38E+06
            6818     80.5866E+06     22.0500E+06              0.    -12.6771E+06
            6819     80.8935E+06     21.9060E+06              0.    -12.9804E+06
            6820     81.2077E+06     21.7599E+06              0.    -13.2901E+06
            6821     81.5293E+06     21.6118E+06              0.    -13.6064E+06
            6822     81.8586E+06     21.4618E+06              0.    -13.9293E+06
            6823     82.1956E+06     21.3097E+06              0.    -14.2590E+06
            6824     82.5405E+06     21.1557E+06              0.    -14.5956E+06
            6825     82.8935E+06     20.9997E+06              0.    -14.9392E+06
            6826     83.2547E+06     20.8418E+06              0.    -15.2900E+06
            6827     83.6243E+06     20.6819E+06              0.    -15.6481E+06
            6828     84.0025E+06     20.5202E+06              0.    -16.0136E+06
            6829     84.3894E+06     20.3566E+06              0.    -16.3867E+06
            6830     84.7852E+06     20.1911E+06              0.    -16.7675E+06
            6831     85.1900E+06     20.0238E+06              0.    -17.1561E+06
            6832     85.6042E+06     19.8548E+06              0.    -17.5528E+06
            6833     86.0277E+06     19.6840E+06              0.    -17.9576E+06
            6834     86.4608E+06     19.5116E+06              0.    -18.3707E+06
            6835     86.9037E+06     19.3375E+06              0.    -18.7922E+06
            6836     87.3565E+06     19.1619E+06              0.    -19.2224E+06
            6837     87.8195E+06     18.9848E+06              0.    -19.6613E+06
            6838     88.2928E+06     18.8062E+06              0.    -20.1091E+06
            6839     88.7766E+06     18.6263E+06              0.    -20.5660E+06
            6840     89.2712E+06     18.4452E+06              0.    -21.0322E+06
            6841     89.7766E+06     18.2628E+06              0.    -21.5077E+06
            6842     90.2930E+06     18.0793E+06              0.    -21.9929E+06
            6843     90.8208E+06     17.8949E+06              0.    -22.4877E+06
            6844     91.3600E+06     17.7096E+06              0.    -22.9925E+06
            6845     91.9109E+06     17.5235E+06              0.    -23.5074E+06
            6846     92.4736E+06     17.3368E+06              0.    -24.0325E+06
            6847     93.0484E+06     17.1495E+06              0.    -24.5680E+06
            6848     93.6354E+06     16.9620E+06              0.    -25.1142E+06
            6849     94.2349E+06     16.7742E+06              0.    -25.6711E+06
            6850     94.8469E+06     16.5864E+06              0.    -26.2391E+06
            6851     95.4718E+06     16.3987E+06              0.    -26.8182E+06
            6852     96.1097E+06     16.2113E+06              0.    -27.4086E+06
            6853     96.7608E+06     16.0244E+06              0.    -28.0106E+06
            6854     97.4253E+06     15.8383E+06              0.    -28.6243E+06
            6855     98.1033E+06     15.6531E+06              0.    -29.2499E+06
            6856     98.7951E+06     15.4690E+06              0.    -29.8876E+06
            6857     99.5008E+06     15.2864E+06              0.    -30.5376E+06
            6858     100.221E+06     15.1055E+06              0.    -31.2001E+06
            6859     100.955E+06     14.9265E+06              0.    -31.8752E+06
            6860     101.703E+06     14.7498E+06              0.    -32.5633E+06
            6861     102.466E+06     14.5756E+06              0.    -33.2644E+06
            6862     103.244E+06     14.4043E+06              0.    -33.9788E+06
            6863     104.037E+06     14.2363E+06              0.    -34.7066E+06
            6864     104.845E+06     14.0719E+06              0.    -35.4482E+06
            6865     105.668E+06     13.9114E+06              0.    -36.2035E+06
            6866     106.506E+06     13.7553E+06              0.    -36.9729E+06
            6867     107.359E+06     13.6041E+06              0.    -37.7566E+06
            6868     108.228E+06     13.4581E+06              0.    -38.5546E+06
            6869     109.113E+06     13.3178E+06              0.    -39.3673E+06
            6870     110.013E+06     13.1838E+06              0.    -40.1948E+06
            6871     110.929E+06     13.0565E+06              0.    -41.0373E+06
            6872     111.860E+06     12.9365E+06              0.    -41.8949E+06
            6873     112.807E+06     12.8244E+06              0.    -42.7678E+06
            6874     113.769E+06     12.7208E+06              0.    -43.6562E+06
            6875     114.747E+06     12.6263E+06              0.    -44.5603E+06
            6876     115.741E+06     12.5417E+06              0.    -45.4802E+06
            6877     116.750E+06     12.4675E+06              0.    -46.4160E+06
            6878     117.774E+06     12.4045E+06              0.    -47.3679E+06
            6879     118.813E+06     12.3535E+06              0.    -48.3360E+06
            6880     119.868E+06     12.3154E+06              0.    -49.3204E+06
            6881     120.936E+06     12.2909E+06              0.    -50.3211E+06
            6882     122.019E+06     12.2809E+06              0.    -51.3384E+06
            6883     123.116E+06     12.2864E+06              0.    -52.3721E+06
            6884     124.227E+06     12.3084E+06              0.    -53.4224E+06
            6885     125.350E+06     12.3478E+06              0.    -54.4893E+06
            6886     126.486E+06     12.4057E+06              0.    -55.5727E+06
            6887     127.634E+06     12.4832E+06              0.    -56.6726E+06
            6888     128.793E+06     12.5815E+06              0.    -57.7889E+06
            6889     129.963E+06     12.7017E+06              0.    -58.9215E+06
            6890     131.142E+06     12.8451E+06              0.    -60.0702E+06
            6891     132.330E+06     13.0131E+06              0.    -61.2348E+06
            6892     133.526E+06     13.2069E+06              0.    -62.4151E+06
            6893     134.728E+06     13.4279E+06              0.    -63.6107E+06
            6894     135.936E+06     13.6776E+06              0.    -64.8212E+06
            6895     137.148E+06     13.9575E+06              0.    -66.0462E+06
            6896     138.362E+06     14.2692E+06              0.    -67.2851E+06
            6897     139.577E+06     14.6142E+06              0.    -68.5374E+06
            6898     140.791E+06     14.9941E+06              0.    -69.8022E+06
            6899     142.003E+06     15.4108E+06              0.    -71.0787E+06
            6900     143.209E+06     15.8657E+06              0.     -72.366E+06
            6901     144.407E+06     16.3608E+06              0.    -73.6629E+06
            6902     145.596E+06     16.8978E+06              0.    -74.9683E+06
            6903     146.773E+06     17.4786E+06              0.    -76.2806E+06
            6904     147.933E+06     18.1048E+06              0.    -77.5983E+06
            6905     149.076E+06     18.7784E+06              0.    -78.9197E+06
            6906     150.196E+06     19.5011E+06              0.    -80.2425E+06
            6907     151.290E+06     20.2747E+06              0.    -81.5647E+06
            6908     152.355E+06      21.101E+06              0.    -82.8837E+06
            6909     153.386E+06     21.9816E+06              0.    -84.1967E+06
            6910     154.379E+06     22.9181E+06              0.    -85.5005E+06
            6911     155.329E+06     23.9119E+06              0.    -86.7917E+06
            6912     156.231E+06     24.9643E+06              0.    -88.0665E+06
            6913     157.080E+06     26.0765E+06              0.    -89.3205E+06
            6914     157.871E+06     27.2494E+06              0.    -90.5492E+06
            6915     158.597E+06     28.4835E+06              0.    -91.7474E+06
            6916     159.252E+06     29.7791E+06              0.    -92.9095E+06
            6917     159.830E+06     31.1362E+06              0.    -94.0294E+06
            6918     160.325E+06     32.5541E+06              0.    -95.1004E+06
            6919     160.730E+06     34.0317E+06              0.    -96.1152E+06
            6920     161.038E+06     35.5672E+06              0.    -97.0662E+06
            6921     161.242E+06     37.1584E+06              0.    -97.9447E+06
            6922     161.335E+06     38.8019E+06              0.    -98.7420E+06
            6923     161.311E+06     40.4937E+06              0.    -99.4483E+06
            6924     161.162E+06     42.2287E+06              0.    -100.054E+06
            6925     160.882E+06     44.0007E+06              0.    -100.547E+06
            6926     160.466E+06     45.8024E+06              0.    -100.918E+06
            6927     159.907E+06     47.6252E+06              0.    -101.154E+06
            6928     159.200E+06     49.4590E+06              0.    -101.245E+06
            6929     158.341E+06     51.2926E+06              0.    -101.177E+06
            6930     157.326E+06     53.1130E+06              0.    -100.938E+06
            6931     156.153E+06     54.9059E+06              0.    -100.518E+06
            6932     154.820E+06     56.6555E+06              0.    -99.9041E+06
            6933     153.328E+06     58.3445E+06              0.    -99.0852E+06
            6934     151.675E+06     59.9543E+06              0.    -98.0513E+06
            6935     149.866E+06     61.4650E+06              0.    -96.7932E+06
            6936     147.903E+06     62.8560E+06              0.    -95.3027E+06
            6937     145.791E+06     64.1056E+06              0.    -93.5734E+06
            6938     143.537E+06     65.1917E+06              0.    -91.6005E+06
            6939     141.147E+06     66.0921E+06              0.    -89.3811E+06
            6940     138.631E+06     66.7850E+06              0.    -86.9144E+06
            6941     135.997E+06     67.2490E+06              0.    -84.2019E+06
            6942     133.255E+06     67.4640E+06              0.    -81.2472E+06
            6943     130.417E+06     67.4111E+06              0.    -78.0557E+06
            6944     129.189E+06     66.5227E+06              0.    -77.2807E+06
            6945     69.5443E+06     30.4795E+06              0.    -2.22235E+06
            6946     69.5318E+06     30.3383E+06              0.    -2.21845E+06
            6947     69.5799E+06     30.2263E+06              0.    -2.18882E+06
            6948     69.6275E+06     30.1174E+06              0.    -2.16362E+06
            6949     69.6746E+06     30.0115E+06              0.    -2.14272E+06
            6950     69.7213E+06     29.9083E+06              0.    -2.12602E+06
            6951     69.7677E+06     29.8077E+06              0.    -2.11340E+06
            6952     69.8139E+06     29.7097E+06              0.    -2.10476E+06
            6953     69.8600E+06     29.6140E+06              0.    -2.10001E+06
            6954     69.9061E+06     29.5206E+06              0.    -2.09905E+06
            6955     69.9522E+06     29.4293E+06              0.    -2.10180E+06
            6956     69.9985E+06     29.3400E+06              0.    -2.10818E+06
            6957     70.0450E+06     29.2527E+06              0.    -2.11810E+06
            6958     70.0917E+06     29.1671E+06              0.    -2.13150E+06
            6959     70.1389E+06     29.0832E+06              0.    -2.14831E+06
            6960     70.1865E+06     29.0008E+06              0.    -2.16846E+06
            6961     70.2346E+06     28.9200E+06              0.    -2.19189E+06
            6962     70.2833E+06     28.8404E+06              0.    -2.21855E+06
            6963     70.3326E+06     28.7622E+06              0.    -2.24839E+06
            6964     70.3827E+06     28.6852E+06              0.    -2.28136E+06
            6965     70.4336E+06     28.6092E+06              0.    -2.31741E+06
            6966     70.4854E+06     28.5342E+06              0.    -2.35651E+06
            6967     70.5380E+06     28.4602E+06              0.    -2.39862E+06
            6968     70.5917E+06     28.3870E+06              0.    -2.44371E+06
            6969     70.6465E+06     28.3145E+06              0.    -2.49174E+06
            6970     70.7024E+06     28.2427E+06              0.    -2.54269E+06
            6971     70.7595E+06     28.1715E+06              0.    -2.59653E+06
            6972     70.8179E+06     28.1007E+06              0.    -2.65325E+06
            6973     70.8776E+06     28.0305E+06              0.    -2.71284E+06
            6974     70.9386E+06     27.9606E+06              0.    -2.77526E+06
            6975     71.0012E+06     27.8910E+06              0.    -2.84052E+06
            6976     71.0652E+06     27.8217E+06              0.    -2.90861E+06
            6977     71.1309E+06     27.7525E+06              0.    -2.97951E+06
            6978     71.1981E+06     27.6834E+06              0.    -3.05323E+06
            6979     71.2671E+06     27.6143E+06              0.    -3.12977E+06
            6980     71.3379E+06     27.5453E+06              0.    -3.20914E+06
            6981     71.4105E+06     27.4761E+06              0.    -3.29132E+06
            6982     71.4850E+06     27.4068E+06              0.    -3.37634E+06
            6983     71.5614E+06     27.3373E+06              0.    -3.46421E+06
            6984     71.6399E+06     27.2675E+06              0.    -3.55493E+06
            6985     71.7204E+06     27.1975E+06              0.    -3.64852E+06
            6986     71.8032E+06     27.1270E+06              0.    -3.74500E+06
            6987     71.8881E+06     27.0562E+06              0.    -3.84439E+06
            6988     71.9753E+06     26.9848E+06              0.    -3.94671E+06
            6989     72.0649E+06     26.9130E+06              0.    -4.05198E+06
            6990     72.1569E+06     26.8405E+06              0.    -4.16024E+06
            6991     72.2514E+06     26.7675E+06              0.    -4.27151E+06
            6992     72.3484E+06     26.6938E+06              0.    -4.38582E+06
            6993     72.4480E+06     26.6193E+06              0.    -4.50321E+06
            6994     72.5504E+06     26.5441E+06              0.    -4.62371E+06
            6995     72.6555E+06     26.4681E+06              0.    -4.74735E+06
            6996     72.7634E+06     26.3912E+06              0.    -4.87419E+06
            6997     72.8742E+06     26.3135E+06              0.    -5.00425E+06
            6998     72.9881E+06     26.2347E+06              0.    -5.13759E+06
            6999     73.1050E+06     26.1551E+06              0.    -5.27425E+06
            7000     73.2250E+06     26.0743E+06              0.    -5.41427E+06
            7001     73.3482E+06     25.9926E+06              0.    -5.55771E+06
            7002     73.4746E+06     25.9097E+06              0.    -5.70462E+06
            7003     73.6045E+06     25.8256E+06              0.    -5.85505E+06
            7004     73.7378E+06     25.7404E+06              0.    -6.00906E+06
            7005     73.8746E+06     25.6540E+06              0.    -6.16671E+06
            7006     74.0150E+06     25.5663E+06              0.    -6.32805E+06
            7007     74.1591E+06     25.4773E+06              0.    -6.49314E+06
            7008     74.3070E+06     25.3870E+06              0.    -6.66206E+06
            7009     74.4587E+06     25.2954E+06              0.    -6.83487E+06
            7010     74.6144E+06     25.2023E+06              0.    -7.01163E+06
            7011     74.7741E+06     25.1078E+06              0.    -7.19241E+06
            7012     74.9380E+06     25.0119E+06              0.    -7.37728E+06
            7013     75.1060E+06     24.9144E+06              0.    -7.56633E+06
            7014     75.2784E+06     24.8155E+06              0.    -7.75962E+06
            7015     75.4552E+06     24.7150E+06              0.    -7.95723E+06
            7016     75.6365E+06     24.6129E+06              0.    -8.15923E+06
            7017     75.8224E+06     24.5092E+06              0.    -8.36572E+06
            7018      76.013E+06     24.4038E+06              0.    -8.57677E+06
            7019     76.2084E+06     24.2968E+06              0.    -8.79247E+06
            7020     76.4088E+06     24.1882E+06              0.    -9.01291E+06
            7021     76.6141E+06     24.0778E+06              0.    -9.23817E+06
            7022     76.8246E+06     23.9657E+06              0.    -9.46835E+06
            7023     77.0403E+06     23.8518E+06              0.    -9.70353E+06
            7024     77.2614E+06     23.7362E+06              0.    -9.94382E+06
            7025     77.4880E+06     23.6187E+06              0.    -10.1893E+06
            7026     77.7201E+06     23.4995E+06              0.    -10.4401E+06
            7027     77.9579E+06     23.3784E+06              0.    -10.6963E+06
            7028     78.2016E+06     23.2555E+06              0.    -10.9579E+06
            7029     78.4512E+06     23.1308E+06              0.    -11.2252E+06
            7030     78.7068E+06     23.0042E+06              0.    -11.4982E+06
            7031     78.9687E+06     22.8757E+06              0.    -11.7771E+06
            7032     79.2368E+06     22.7453E+06              0.    -12.0618E+06
            7033     79.5114E+06     22.6131E+06              0.    -12.3526E+06
            7034     79.7926E+06     22.4790E+06              0.    -12.6496E+06
            7035     80.0805E+06     22.3429E+06              0.    -12.9528E+06
            7036     80.3753E+06     22.2050E+06              0.    -13.2624E+06
            7037     80.6770E+06     22.0652E+06              0.    -13.5786E+06
            7038     80.9859E+06     21.9235E+06              0.    -13.9013E+06
            7039     81.3021E+06     21.7799E+06              0.    -14.2309E+06
            7040     81.6257E+06     21.6345E+06              0.    -14.5673E+06
            7041     81.9568E+06     21.4872E+06              0.    -14.9108E+06
            7042     82.2957E+06     21.3381E+06              0.    -15.2614E+06
            7043     82.6424E+06     21.1871E+06              0.    -15.6192E+06
            7044     82.9971E+06     21.0344E+06              0.    -15.9845E+06
            7045     83.3600E+06     20.8798E+06              0.    -16.3574E+06
            7046     83.7313E+06     20.7236E+06              0.    -16.7379E+06
            7047     84.1110E+06     20.5656E+06              0.    -17.1263E+06
            7048     84.4994E+06     20.4060E+06              0.    -17.5227E+06
            7049     84.8966E+06     20.2447E+06              0.    -17.9272E+06
            7050     85.3028E+06     20.0818E+06              0.    -18.3399E+06
            7051     85.7182E+06     19.9174E+06              0.    -18.7611E+06
            7052     86.1428E+06     19.7515E+06              0.    -19.1909E+06
            7053     86.5769E+06     19.5842E+06              0.    -19.6294E+06
            7054     87.0207E+06     19.4155E+06              0.    -20.0767E+06
            7055     87.4743E+06     19.2456E+06              0.    -20.5331E+06
            7056     87.9379E+06     19.0744E+06              0.    -20.9987E+06
            7057     88.4117E+06     18.9021E+06              0.    -21.4737E+06
            7058     88.8958E+06     18.7288E+06              0.    -21.9582E+06
            7059     89.3905E+06     18.5545E+06              0.    -22.4524E+06
            7060     89.8958E+06     18.3794E+06              0.    -22.9564E+06
            7061     90.4120E+06     18.2036E+06              0.    -23.4704E+06
            7062     90.9393E+06     18.0271E+06              0.    -23.9947E+06
            7063     91.4778E+06     17.8502E+06              0.    -24.5293E+06
            7064     92.0277E+06     17.6729E+06              0.    -25.0745E+06
            7065     92.5892E+06     17.4954E+06              0.    -25.6304E+06
            7066     93.1624E+06     17.3179E+06              0.    -26.1971E+06
            7067     93.7475E+06     17.1405E+06              0.    -26.7750E+06
            7068     94.3448E+06     16.9633E+06              0.    -27.3641E+06
            7069     94.9543E+06     16.7867E+06              0.    -27.9646E+06
            7070     95.5763E+06     16.6107E+06              0.    -28.5768E+06
            7071     96.2109E+06     16.4355E+06              0.    -29.2008E+06
            7072     96.8582E+06     16.2615E+06              0.    -29.8367E+06
            7073     97.5184E+06     16.0888E+06              0.    -30.4848E+06
            7074     98.1918E+06     15.9176E+06              0.    -31.1453E+06
            7075     98.8783E+06     15.7483E+06              0.    -31.8183E+06
            7076     99.5782E+06     15.5811E+06              0.    -32.5040E+06
            7077     100.292E+06     15.4163E+06              0.    -33.2026E+06
            7078     101.019E+06     15.2542E+06              0.    -33.9144E+06
            7079     101.759E+06     15.0951E+06              0.    -34.6394E+06
            7080     102.514E+06     14.9394E+06              0.    -35.3778E+06
            7081     103.283E+06     14.7874E+06              0.    -36.1300E+06
            7082     104.065E+06     14.6395E+06              0.    -36.8959E+06
            7083     104.862E+06     14.4962E+06              0.    -37.6758E+06
            7084     105.673E+06     14.3577E+06              0.    -38.4700E+06
            7085     106.499E+06     14.2247E+06              0.    -39.2785E+06
            7086     107.338E+06     14.0974E+06              0.    -40.1015E+06
            7087     108.192E+06     13.9765E+06              0.    -40.9391E+06
            7088     109.060E+06     13.8625E+06              0.    -41.7917E+06
            7089     109.943E+06     13.7558E+06              0.    -42.6592E+06
            7090     110.839E+06     13.6570E+06              0.    -43.5419E+06
            7091     111.750E+06     13.5668E+06              0.    -44.4398E+06
            7092     112.675E+06     13.4858E+06              0.    -45.3532E+06
            7093     113.614E+06     13.4146E+06              0.    -46.2821E+06
            7094     114.567E+06     13.3539E+06              0.    -47.2267E+06
            7095     115.533E+06     13.3044E+06              0.    -48.1870E+06
            7096     116.513E+06     13.2668E+06              0.    -49.1631E+06
            7097     117.505E+06     13.2420E+06              0.    -50.1551E+06
            7098     118.511E+06     13.2308E+06              0.    -51.1630E+06
            7099     119.529E+06     13.2341E+06              0.    -52.1870E+06
            7100     120.559E+06     13.2526E+06              0.    -53.2268E+06
            7101     121.601E+06     13.2875E+06              0.    -54.2827E+06
            7102     122.654E+06     13.3396E+06              0.    -55.3545E+06
            7103     123.717E+06     13.4099E+06              0.    -56.4420E+06
            7104     124.790E+06     13.4996E+06              0.    -57.5454E+06
            7105     125.872E+06     13.6097E+06              0.    -58.6643E+06
            7106     126.962E+06     13.7413E+06              0.    -59.7985E+06
            7107     128.060E+06     13.8957E+06              0.    -60.9480E+06
            7108     129.164E+06     14.0742E+06              0.    -62.1123E+06
            7109     130.273E+06     14.2779E+06              0.    -63.2911E+06
            7110     131.387E+06     14.5082E+06              0.    -64.4840E+06
            7111     132.503E+06     14.7664E+06              0.    -65.6905E+06
            7112     133.621E+06     15.0541E+06              0.    -66.9101E+06
            7113     134.738E+06     15.3725E+06              0.    -68.1421E+06
            7114     135.854E+06     15.7233E+06              0.    -69.3858E+06
            7115     136.966E+06     16.1078E+06              0.    -70.6403E+06
            7116     138.072E+06     16.5278E+06              0.    -71.9047E+06
            7117     139.170E+06     16.9847E+06              0.    -73.1778E+06
            7118     140.259E+06     17.4802E+06              0.    -74.4586E+06
            7119     141.334E+06     18.0159E+06              0.    -75.7455E+06
            7120     142.395E+06     18.5934E+06              0.    -77.0371E+06
            7121     143.436E+06     19.2143E+06              0.    -78.3315E+06
            7122     144.457E+06     19.8803E+06              0.    -79.6269E+06
            7123     145.453E+06     20.5928E+06              0.    -80.9211E+06
            7124     146.420E+06     21.3535E+06              0.    -82.2118E+06
            7125     147.355E+06     22.1638E+06              0.    -83.4961E+06
            7126     148.255E+06     23.0252E+06              0.    -84.7713E+06
            7127     149.113E+06     23.9387E+06              0.    -86.0341E+06
            7128     149.927E+06     24.9057E+06              0.    -87.2808E+06
            7129     150.691E+06     25.9271E+06              0.    -88.5075E+06
            7130     151.400E+06     27.0036E+06              0.    -89.7100E+06
            7131     152.049E+06     28.1358E+06              0.    -90.8834E+06
            7132     152.632E+06     29.3238E+06              0.    -92.0226E+06
            7133     153.144E+06     30.5675E+06              0.    -93.1221E+06
            7134     153.579E+06     31.8665E+06              0.    -94.1756E+06
            7135     153.931E+06     33.2196E+06              0.    -95.1766E+06
            7136     154.194E+06     34.6254E+06              0.    -96.1181E+06
            7137     154.361E+06     36.0818E+06              0.    -96.9922E+06
            7138     154.426E+06     37.5859E+06              0.    -97.7910E+06
            7139     154.383E+06     39.1342E+06              0.    -98.5057E+06
            7140     154.226E+06     40.7222E+06              0.    -99.1272E+06
            7141     153.949E+06     42.3445E+06              0.    -99.6457E+06
            7142     153.547E+06     43.9949E+06              0.    -100.051E+06
            7143     153.013E+06     45.6658E+06              0.    -100.333E+06
            7144     152.344E+06     47.3486E+06              0.    -100.481E+06
            7145     151.534E+06     49.0334E+06              0.    -100.484E+06
            7146     150.581E+06     50.7092E+06              0.    -100.330E+06
            7147     149.482E+06     52.3634E+06              0.    -100.009E+06
            7148     148.234E+06     53.9822E+06              0.    -99.5096E+06
            7149     146.837E+06     55.5507E+06              0.    -98.8217E+06
            7150     145.291E+06     57.0524E+06              0.    -97.9353E+06
            7151     143.598E+06     58.4701E+06              0.    -96.8411E+06
            7152     141.759E+06     59.7852E+06              0.    -95.5310E+06
            7153     139.778E+06     60.9785E+06              0.    -93.9981E+06
            7154     137.661E+06     62.0301E+06              0.    -92.2366E+06
            7155     135.413E+06     62.9199E+06              0.    -90.2425E+06
            7156     133.041E+06     63.6276E+06              0.    -88.0135E+06
            7157     130.553E+06     64.1333E+06              0.    -85.5491E+06
            7158     127.957E+06     64.4176E+06              0.    -82.8507E+06
            7159     125.261E+06     64.4621E+06              0.    -79.9220E+06
            7160     122.475E+06     64.2501E+06              0.    -76.7679E+06
            7161     121.213E+06     63.2197E+06              0.    -75.9656E+06
            7162     69.4555E+06     30.4419E+06              0.    -2.26933E+06
            7163     69.4436E+06     30.3064E+06              0.    -2.26534E+06
            7164     69.4898E+06     30.1988E+06              0.    -2.23509E+06
            7165     69.5355E+06     30.0942E+06              0.    -2.20935E+06
            7166     69.5807E+06     29.9924E+06              0.    -2.18801E+06
            7167     69.6256E+06     29.8933E+06              0.    -2.17095E+06
            7168     69.6702E+06     29.7967E+06              0.    -2.15806E+06
            7169     69.7146E+06     29.7026E+06              0.    -2.14923E+06
            7170     69.7588E+06     29.6107E+06              0.    -2.14438E+06
            7171     69.8031E+06     29.5210E+06              0.    -2.14339E+06
            7172     69.8474E+06     29.4333E+06              0.    -2.14620E+06
            7173     69.8918E+06     29.3476E+06              0.    -2.15270E+06
            7174     69.9365E+06     29.2637E+06              0.    -2.16283E+06
            7175     69.9814E+06     29.1815E+06              0.    -2.17650E+06
            7176     70.0267E+06     29.1009E+06              0.    -2.19366E+06
            7177     70.0724E+06     29.0218E+06              0.    -2.21423E+06
            7178     70.1186E+06     28.9441E+06              0.    -2.23815E+06
            7179     70.1654E+06     28.8678E+06              0.    -2.26537E+06
            7180     70.2128E+06     28.7927E+06              0.    -2.29583E+06
            7181     70.2609E+06     28.7187E+06              0.    -2.32949E+06
            7182     70.3097E+06     28.6457E+06              0.    -2.36629E+06
            7183     70.3594E+06     28.5737E+06              0.    -2.40621E+06
            7184     70.4100E+06     28.5026E+06              0.    -2.44920E+06
            7185     70.4616E+06     28.4323E+06              0.    -2.49523E+06
            7186     70.5142E+06     28.3627E+06              0.    -2.54426E+06
            7187     70.5679E+06     28.2937E+06              0.    -2.59627E+06
            7188     70.6227E+06     28.2254E+06              0.    -2.65125E+06
            7189     70.6787E+06     28.1575E+06              0.    -2.70915E+06
            7190     70.7361E+06     28.0900E+06              0.    -2.76998E+06
            7191     70.7947E+06     28.0229E+06              0.    -2.83371E+06
            7192     70.8548E+06     27.9561E+06              0.    -2.90033E+06
            7193     70.9163E+06     27.8895E+06              0.    -2.96984E+06
            7194     70.9793E+06     27.8231E+06              0.    -3.04222E+06
            7195     71.0439E+06     27.7568E+06              0.    -3.11748E+06
            7196     71.1101E+06     27.6905E+06              0.    -3.19562E+06
            7197     71.1780E+06     27.6242E+06              0.    -3.27664E+06
            7198     71.2478E+06     27.5578E+06              0.    -3.36054E+06
            7199     71.3193E+06     27.4913E+06              0.    -3.44733E+06
            7200     71.3927E+06     27.4246E+06              0.    -3.53702E+06
            7201     71.4680E+06     27.3576E+06              0.    -3.62963E+06
            7202     71.5454E+06     27.2904E+06              0.    -3.72517E+06
            7203     71.6248E+06     27.2228E+06              0.    -3.82366E+06
            7204     71.7063E+06     27.1548E+06              0.    -3.92511E+06
            7205     71.7900E+06     27.0863E+06              0.    -4.02956E+06
            7206     71.8760E+06     27.0174E+06              0.    -4.13702E+06
            7207     71.9643E+06     26.9479E+06              0.    -4.24753E+06
            7208     72.0550E+06     26.8778E+06              0.    -4.36111E+06
            7209     72.1482E+06     26.8070E+06              0.    -4.47779E+06
            7210     72.2438E+06     26.7356E+06              0.    -4.59761E+06
            7211     72.3421E+06     26.6635E+06              0.    -4.72060E+06
            7212     72.4430E+06     26.5906E+06              0.    -4.84680E+06
            7213     72.5466E+06     26.5168E+06              0.    -4.97626E+06
            7214     72.6530E+06     26.4422E+06              0.    -5.10901E+06
            7215     72.7622E+06     26.3668E+06              0.    -5.24510E+06
            7216     72.8744E+06     26.2903E+06              0.    -5.38457E+06
            7217     72.9896E+06     26.2129E+06              0.    -5.52748E+06
            7218     73.1078E+06     26.1345E+06              0.    -5.67388E+06
            7219     73.2292E+06     26.0550E+06              0.    -5.82381E+06
            7220     73.3538E+06     25.9745E+06              0.    -5.97733E+06
            7221     73.4817E+06     25.8928E+06              0.    -6.13450E+06
            7222     73.6130E+06     25.8099E+06              0.    -6.29538E+06
            7223     73.7478E+06     25.7259E+06              0.    -6.46002E+06
            7224     73.8860E+06     25.6406E+06              0.    -6.62850E+06
            7225     74.0279E+06     25.5541E+06              0.    -6.80087E+06
            7226     74.1735E+06     25.4662E+06              0.    -6.97720E+06
            7227     74.3229E+06     25.3770E+06              0.    -7.15756E+06
            7228     74.4762E+06     25.2865E+06              0.    -7.34203E+06
            7229     74.6333E+06     25.1946E+06              0.    -7.53066E+06
            7230     74.7946E+06     25.1013E+06              0.    -7.72355E+06
            7231     74.9600E+06     25.0065E+06              0.    -7.92075E+06
            7232     75.1296E+06     24.9102E+06              0.    -8.12236E+06
            7233     75.3035E+06     24.8124E+06              0.    -8.32845E+06
            7234     75.4818E+06     24.7131E+06              0.    -8.53911E+06
            7235     75.6646E+06     24.6123E+06              0.    -8.75442E+06
            7236     75.8521E+06     24.5099E+06              0.    -8.97446E+06
            7237     76.0442E+06     24.4058E+06              0.    -9.19932E+06
            7238     76.2412E+06     24.3002E+06              0.    -9.42909E+06
            7239     76.4431E+06     24.1929E+06              0.    -9.66388E+06
            7240     76.6499E+06     24.0840E+06              0.    -9.90376E+06
            7241     76.8619E+06     23.9733E+06              0.    -10.1488E+06
            7242     77.0792E+06     23.8610E+06              0.    -10.3992E+06
            7243     77.3017E+06     23.7470E+06              0.    -10.6550E+06
            7244     77.5297E+06     23.6312E+06              0.    -10.9162E+06
            7245     77.7633E+06     23.5137E+06              0.    -11.1831E+06
            7246     78.0026E+06     23.3944E+06              0.    -11.4556E+06
            7247     78.2476E+06     23.2734E+06              0.    -11.7340E+06
            7248     78.4986E+06     23.1507E+06              0.    -12.0183E+06
            7249     78.7556E+06     23.0261E+06              0.    -12.3086E+06
            7250     79.0188E+06     22.8998E+06              0.    -12.6051E+06
            7251     79.2882E+06     22.7717E+06              0.    -12.9078E+06
            7252     79.5641E+06     22.6418E+06              0.    -13.2169E+06
            7253     79.8465E+06     22.5101E+06              0.    -13.5325E+06
            7254     80.1356E+06     22.3766E+06              0.    -13.8548E+06
            7255     80.4315E+06     22.2414E+06              0.    -14.1837E+06
            7256     80.7343E+06     22.1044E+06              0.    -14.5196E+06
            7257     81.0442E+06     21.9657E+06              0.    -14.8624E+06
            7258     81.3614E+06     21.8253E+06              0.    -15.2124E+06
            7259     81.6858E+06     21.6831E+06              0.    -15.5696E+06
            7260     82.0178E+06     21.5392E+06              0.    -15.9343E+06
            7261     82.3574E+06     21.3937E+06              0.    -16.3064E+06
            7262     82.7048E+06     21.2465E+06              0.    -16.6863E+06
            7263     83.0602E+06     21.0977E+06              0.    -17.0739E+06
            7264     83.4236E+06     20.9474E+06              0.    -17.4695E+06
            7265     83.7952E+06     20.7954E+06              0.    -17.8732E+06
            7266     84.1753E+06     20.6420E+06              0.    -18.2851E+06
            7267     84.5638E+06     20.4872E+06              0.    -18.7054E+06
            7268     84.9611E+06     20.3309E+06              0.    -19.1342E+06
            7269     85.3672E+06     20.1733E+06              0.    -19.5717E+06
            7270     85.7823E+06     20.0144E+06              0.    -20.0181E+06
            7271     86.2066E+06     19.8543E+06              0.    -20.4734E+06
            7272     86.6402E+06     19.6931E+06              0.    -20.9379E+06
            7273     87.0832E+06     19.5308E+06              0.    -21.4117E+06
            7274     87.5360E+06     19.3675E+06              0.    -21.8950E+06
            7275     87.9985E+06     19.2033E+06              0.    -22.3879E+06
            7276     88.4709E+06     19.0383E+06              0.    -22.8906E+06
            7277     88.9535E+06     18.8727E+06              0.    -23.4032E+06
            7278     89.4464E+06     18.7064E+06              0.    -23.9260E+06
            7279     89.9497E+06     18.5397E+06              0.    -24.4591E+06
            7280     90.4636E+06     18.3727E+06              0.    -25.0026E+06
            7281     90.9883E+06     18.2054E+06              0.    -25.5568E+06
            7282     91.5239E+06     18.0381E+06              0.    -26.1218E+06
            7283     92.0706E+06     17.8709E+06              0.    -26.6978E+06
            7284     92.6285E+06     17.7040E+06              0.    -27.2849E+06
            7285     93.1978E+06     17.5375E+06              0.    -27.8833E+06
            7286     93.7786E+06     17.3716E+06              0.    -28.4933E+06
            7287     94.3711E+06     17.2065E+06              0.    -29.1149E+06
            7288     94.9754E+06     17.0425E+06              0.    -29.7484E+06
            7289     95.5916E+06     16.8796E+06              0.    -30.3939E+06
            7290     96.2200E+06     16.7183E+06              0.    -31.0517E+06
            7291     96.8606E+06     16.5587E+06              0.    -31.7218E+06
            7292     97.5135E+06     16.4010E+06              0.    -32.4045E+06
            7293     98.1789E+06     16.2456E+06              0.    -33.0999E+06
            7294     98.8568E+06     16.0927E+06              0.    -33.8083E+06
            7295     99.5474E+06     15.9427E+06              0.    -34.5297E+06
            7296     100.251E+06     15.7958E+06              0.    -35.2645E+06
            7297     100.967E+06     15.6524E+06              0.    -36.0126E+06
            7298     101.696E+06     15.5129E+06              0.    -36.7744E+06
            7299     102.438E+06     15.3775E+06              0.    -37.5500E+06
            7300     103.193E+06     15.2468E+06              0.    -38.3394E+06
            7301     103.962E+06     15.1212E+06              0.     -39.143E+06
            7302     104.743E+06     15.0009E+06              0.    -39.9608E+06
            7303     105.537E+06     14.8867E+06              0.    -40.7930E+06
            7304     106.345E+06     14.7788E+06              0.    -41.6398E+06
            7305     107.165E+06     14.6778E+06              0.    -42.5013E+06
            7306     107.999E+06     14.5842E+06              0.    -43.3775E+06
            7307     108.845E+06     14.4987E+06              0.    -44.2687E+06
            7308     109.704E+06     14.4217E+06              0.    -45.1749E+06
            7309     110.576E+06     14.3539E+06              0.    -46.0963E+06
            7310     111.460E+06     14.2959E+06              0.    -47.0329E+06
            7311     112.356E+06     14.2483E+06              0.    -47.9849E+06
            7312     113.264E+06     14.2120E+06              0.    -48.9522E+06
            7313     114.185E+06     14.1875E+06              0.    -49.9349E+06
            7314     115.116E+06     14.1758E+06              0.    -50.9331E+06
            7315     116.059E+06     14.1774E+06              0.    -51.9467E+06
            7316     117.012E+06     14.1934E+06              0.    -52.9757E+06
            7317     117.976E+06     14.2245E+06              0.    -54.0202E+06
            7318     118.949E+06     14.2717E+06              0.    -55.0800E+06
            7319     119.931E+06     14.3359E+06              0.    -56.1550E+06
            7320     120.922E+06     14.4180E+06              0.    -57.2451E+06
            7321     121.921E+06     14.5192E+06              0.    -58.3501E+06
            7322     122.926E+06     14.6403E+06              0.    -59.4699E+06
            7323     123.938E+06     14.7826E+06              0.    -60.6040E+06
            7324     124.955E+06     14.9472E+06              0.    -61.7524E+06
            7325     125.976E+06     15.1352E+06              0.    -62.9145E+06
            7326     127.000E+06     15.3478E+06              0.    -64.0899E+06
            7327     128.026E+06     15.5863E+06              0.    -65.2782E+06
            7328     129.052E+06     15.8520E+06              0.    -66.4789E+06
            7329     130.077E+06     16.1461E+06              0.    -67.6911E+06
            7330     131.100E+06     16.4701E+06              0.    -68.9142E+06
            7331     132.118E+06     16.8252E+06              0.    -70.1474E+06
            7332     133.130E+06     17.2130E+06              0.    -71.3897E+06
            7333     134.134E+06     17.6348E+06              0.    -72.6400E+06
            7334     135.127E+06     18.0921E+06              0.    -73.8972E+06
            7335     136.108E+06     18.5863E+06              0.    -75.1598E+06
            7336     137.073E+06     19.1188E+06              0.    -76.4265E+06
            7337     138.021E+06     19.6912E+06              0.    -77.6955E+06
            7338     138.948E+06     20.3049E+06              0.    -78.9649E+06
            7339     139.850E+06     20.9612E+06              0.    -80.2328E+06
            7340     140.726E+06     21.6615E+06              0.    -81.4968E+06
            7341     141.571E+06     22.4071E+06              0.    -82.7544E+06
            7342     142.382E+06     23.1992E+06              0.    -84.0028E+06
            7343     143.155E+06     24.0390E+06              0.    -85.2391E+06
            7344     143.885E+06     24.9274E+06              0.    -86.4598E+06
            7345     144.569E+06     25.8652E+06              0.    -87.6613E+06
            7346     145.201E+06     26.8532E+06              0.    -88.8395E+06
            7347     145.777E+06     27.8917E+06              0.    -89.9901E+06
            7348     146.292E+06     28.9808E+06              0.    -91.1084E+06
            7349     146.742E+06     30.1206E+06              0.    -92.1890E+06
            7350     147.119E+06     31.3103E+06              0.    -93.2265E+06
            7351     147.420E+06     32.5493E+06              0.    -94.2149E+06
            7352     147.638E+06     33.8360E+06              0.    -95.1475E+06
            7353     147.769E+06     35.1686E+06              0.    -96.0175E+06
            7354     147.805E+06     36.5446E+06              0.    -96.8174E+06
            7355     147.743E+06     37.9608E+06              0.    -97.5394E+06
            7356     147.575E+06     39.4134E+06              0.    -98.1751E+06
            7357     147.297E+06     40.8977E+06              0.    -98.7157E+06
            7358     146.903E+06     42.4081E+06              0.     -99.152E+06
            7359     146.389E+06     43.9382E+06              0.    -99.4745E+06
            7360     145.749E+06     45.4803E+06              0.    -99.6734E+06
            7361     144.981E+06     47.0259E+06              0.    -99.7387E+06
            7362     144.080E+06     48.5653E+06              0.    -99.6600E+06
            7363     143.044E+06     50.0876E+06              0.    -99.4273E+06
            7364     141.870E+06     51.5808E+06              0.    -99.0304E+06
            7365     140.557E+06     53.0317E+06              0.    -98.4594E+06
            7366     139.106E+06     54.4261E+06              0.    -97.7048E+06
            7367     137.515E+06     55.7485E+06              0.    -96.7579E+06
            7368     135.788E+06     56.9826E+06              0.    -95.6103E+06
            7369     133.927E+06     58.1113E+06              0.    -94.2548E+06
            7370     131.934E+06     59.1167E+06              0.    -92.6854E+06
            7371     129.817E+06     59.9805E+06              0.    -90.8970E+06
            7372     127.578E+06     60.6842E+06              0.    -88.8863E+06
            7373     125.227E+06     61.2093E+06              0.    -86.6514E+06
            7374     122.769E+06     61.5376E+06              0.    -84.1919E+06
            7375     120.212E+06     61.6517E+06              0.    -81.5092E+06
            7376     117.564E+06     61.5347E+06              0.    -78.6064E+06
            7377     114.834E+06     61.1712E+06              0.    -75.4885E+06
            7378     113.545E+06     60.0087E+06              0.    -74.6588E+06
            7379     69.3650E+06     30.4036E+06              0.    -2.31439E+06
            7380     69.3535E+06     30.2737E+06              0.    -2.31032E+06
            7381     69.3978E+06     30.1707E+06              0.    -2.27945E+06
            7382     69.4416E+06     30.0705E+06              0.    -2.25320E+06
            7383     69.4849E+06     29.9730E+06              0.    -2.23143E+06
            7384     69.5279E+06     29.8780E+06              0.    -2.21403E+06
            7385     69.5706E+06     29.7855E+06              0.    -2.20088E+06
            7386     69.6132E+06     29.6953E+06              0.    -2.19187E+06
            7387     69.6556E+06     29.6073E+06              0.    -2.18691E+06
            7388      69.698E+06     29.5214E+06              0.    -2.18591E+06
            7389     69.7404E+06     29.4374E+06              0.    -2.18876E+06
            7390     69.7830E+06     29.3553E+06              0.    -2.19539E+06
            7391     69.8258E+06     29.2749E+06              0.    -2.20571E+06
            7392     69.8688E+06     29.1961E+06              0.    -2.21965E+06
            7393     69.9122E+06     29.1189E+06              0.    -2.23714E+06
            7394     69.9560E+06     29.0432E+06              0.    -2.25811E+06
            7395     70.0002E+06     28.9688E+06              0.    -2.28250E+06
            7396     70.0450E+06     28.8957E+06              0.    -2.31025E+06
            7397     70.0904E+06     28.8237E+06              0.    -2.34131E+06
            7398     70.1365E+06     28.7528E+06              0.    -2.37562E+06
            7399     70.1833E+06     28.6830E+06              0.    -2.41315E+06
            7400     70.2309E+06     28.6140E+06              0.    -2.45385E+06
            7401     70.2794E+06     28.5459E+06              0.    -2.49768E+06
            7402     70.3288E+06     28.4785E+06              0.    -2.54461E+06
            7403     70.3792E+06     28.4119E+06              0.    -2.59461E+06
            7404     70.4306E+06     28.3459E+06              0.    -2.64764E+06
            7405     70.4831E+06     28.2804E+06              0.    -2.70369E+06
            7406     70.5368E+06     28.2154E+06              0.    -2.76273E+06
            7407     70.5917E+06     28.1508E+06              0.    -2.82475E+06
            7408     70.6479E+06     28.0865E+06              0.    -2.88973E+06
            7409     70.7054E+06     28.0225E+06              0.    -2.95766E+06
            7410     70.7643E+06     27.9588E+06              0.    -3.02852E+06
            7411     70.8246E+06     27.8952E+06              0.    -3.10233E+06
            7412     70.8865E+06     27.8317E+06              0.    -3.17906E+06
            7413     70.9499E+06     27.7682E+06              0.    -3.25873E+06
            7414     71.0150E+06     27.7047E+06              0.    -3.34133E+06
            7415     71.0817E+06     27.6412E+06              0.    -3.42687E+06
            7416     71.1502E+06     27.5775E+06              0.    -3.51536E+06
            7417     71.2205E+06     27.5136E+06              0.    -3.60680E+06
            7418     71.2926E+06     27.4495E+06              0.    -3.70122E+06
            7419     71.3667E+06     27.3852E+06              0.    -3.79862E+06
            7420     71.4428E+06     27.3204E+06              0.    -3.89903E+06
            7421     71.5208E+06     27.2554E+06              0.    -4.00247E+06
            7422     71.6010E+06     27.1899E+06              0.    -4.10895E+06
            7423     71.6834E+06     27.1239E+06              0.    -4.21850E+06
            7424     71.7679E+06     27.0574E+06              0.    -4.33116E+06
            7425     71.8547E+06     26.9903E+06              0.    -4.44694E+06
            7426     71.9439E+06     26.9226E+06              0.    -4.56589E+06
            7427     72.0355E+06     26.8543E+06              0.    -4.68804E+06
            7428     72.1296E+06     26.7852E+06              0.    -4.81342E+06
            7429     72.2262E+06     26.7155E+06              0.    -4.94207E+06
            7430     72.3254E+06     26.6450E+06              0.    -5.07404E+06
            7431     72.4272E+06     26.5736E+06              0.    -5.20935E+06
            7432     72.5318E+06     26.5014E+06              0.    -5.34808E+06
            7433     72.6392E+06     26.4283E+06              0.    -5.49025E+06
            7434     72.7494E+06     26.3543E+06              0.    -5.63591E+06
            7435     72.8626E+06     26.2793E+06              0.    -5.78513E+06
            7436     72.9788E+06     26.2033E+06              0.    -5.93795E+06
            7437     73.0981E+06     26.1263E+06              0.    -6.09443E+06
            7438     73.2206E+06     26.0482E+06              0.    -6.25462E+06
            7439     73.3462E+06     25.9690E+06              0.    -6.41859E+06
            7440     73.4752E+06     25.8886E+06              0.    -6.58639E+06
            7441     73.6075E+06     25.8071E+06              0.    -6.75809E+06
            7442     73.7434E+06     25.7244E+06              0.    -6.93376E+06
            7443     73.8827E+06     25.6405E+06              0.    -7.11346E+06
            7444     74.0256E+06     25.5552E+06              0.    -7.29727E+06
            7445     74.1723E+06     25.4687E+06              0.    -7.48525E+06
            7446     74.3227E+06     25.3809E+06              0.    -7.67747E+06
            7447     74.4770E+06     25.2918E+06              0.    -7.87402E+06
            7448     74.6352E+06     25.2012E+06              0.    -8.07497E+06
            7449     74.7975E+06     25.1093E+06              0.    -8.28040E+06
            7450     74.9639E+06     25.0159E+06              0.    -8.49038E+06
            7451     75.1345E+06     24.9211E+06              0.    -8.70502E+06
            7452     75.3094E+06     24.8248E+06              0.    -8.92438E+06
            7453     75.4888E+06     24.7271E+06              0.    -9.14856E+06
            7454     75.6726E+06     24.6278E+06              0.    -9.37764E+06
            7455     75.8610E+06     24.5269E+06              0.    -9.61172E+06
            7456     76.0540E+06     24.4246E+06              0.    -9.85090E+06
            7457     76.2519E+06     24.3206E+06              0.    -10.0953E+06
            7458     76.4546E+06     24.2151E+06              0.    -10.3449E+06
            7459     76.6624E+06     24.1080E+06              0.    -10.5999E+06
            7460     76.8752E+06     23.9992E+06              0.    -10.8604E+06
            7461     77.0932E+06     23.8888E+06              0.    -11.1265E+06
            7462     77.3166E+06     23.7768E+06              0.    -11.3983E+06
            7463     77.5453E+06     23.6631E+06              0.    -11.6758E+06
            7464     77.7796E+06     23.5478E+06              0.    -11.9593E+06
            7465     78.0195E+06     23.4308E+06              0.    -12.2488E+06
            7466     78.2652E+06     23.3122E+06              0.    -12.5444E+06
            7467     78.5167E+06     23.1918E+06              0.    -12.8463E+06
            7468     78.7742E+06     23.0698E+06              0.    -13.1545E+06
            7469     79.0379E+06     22.9462E+06              0.    -13.4692E+06
            7470     79.3077E+06     22.8209E+06              0.    -13.7905E+06
            7471     79.5839E+06     22.6939E+06              0.    -14.1185E+06
            7472     79.8666E+06     22.5652E+06              0.    -14.4534E+06
            7473     80.1559E+06     22.4350E+06              0.    -14.7952E+06
            7474     80.4519E+06     22.3031E+06              0.    -15.1441E+06
            7475     80.7548E+06     22.1696E+06              0.    -15.5003E+06
            7476     81.0646E+06     22.0345E+06              0.    -15.8638E+06
            7477     81.3816E+06     21.8978E+06              0.    -16.2348E+06
            7478     81.7059E+06     21.7596E+06              0.    -16.6135E+06
            7479     82.0375E+06     21.6198E+06              0.    -16.9999E+06
            7480     82.3767E+06     21.4786E+06              0.    -17.3943E+06
            7481     82.7235E+06     21.3360E+06              0.    -17.7966E+06
            7482     83.0782E+06     21.1919E+06              0.    -18.2072E+06
            7483     83.4408E+06     21.0465E+06              0.    -18.6261E+06
            7484     83.8114E+06     20.8997E+06              0.    -19.0535E+06
            7485     84.1903E+06     20.7517E+06              0.    -19.4896E+06
            7486     84.5776E+06     20.6025E+06              0.    -19.9344E+06
            7487     84.9734E+06     20.4521E+06              0.    -20.3882E+06
            7488     85.3779E+06     20.3007E+06              0.    -20.8510E+06
            7489     85.7912E+06     20.1483E+06              0.    -21.3232E+06
            7490     86.2135E+06     19.9949E+06              0.    -21.8047E+06
            7491     86.6448E+06     19.8407E+06              0.    -22.2957E+06
            7492     87.0854E+06     19.6858E+06              0.    -22.7965E+06
            7493     87.5354E+06     19.5302E+06              0.    -23.3072E+06
            7494     87.9949E+06     19.3741E+06              0.    -23.8280E+06
            7495     88.4642E+06     19.2175E+06              0.    -24.3589E+06
            7496     88.9432E+06     19.0606E+06              0.    -24.9002E+06
            7497     89.4323E+06     18.9035E+06              0.    -25.4521E+06
            7498     89.9314E+06     18.7464E+06              0.    -26.0147E+06
            7499     90.4408E+06     18.5894E+06              0.    -26.5881E+06
            7500     90.9606E+06     18.4326E+06              0.    -27.1726E+06
            7501     91.4909E+06     18.2762E+06              0.    -27.7684E+06
            7502     92.0319E+06     18.1204E+06              0.    -28.3755E+06
            7503     92.5837E+06     17.9654E+06              0.    -28.9941E+06
            7504     93.1464E+06     17.8113E+06              0.    -29.6245E+06
            7505     93.7201E+06     17.6584E+06              0.    -30.2668E+06
            7506     94.3050E+06     17.5068E+06              0.    -30.9212E+06
            7507     94.9011E+06     17.3569E+06              0.    -31.5878E+06
            7508     95.5087E+06     17.2088E+06              0.    -32.2668E+06
            7509     96.1276E+06     17.0628E+06              0.    -32.9584E+06
            7510     96.7582E+06     16.9192E+06              0.    -33.6627E+06
            7511     97.4004E+06     16.7783E+06              0.    -34.3800E+06
            7512     98.0543E+06     16.6403E+06              0.    -35.1103E+06
            7513     98.7200E+06     16.5056E+06              0.    -35.8538E+06
            7514     99.3976E+06     16.3745E+06              0.    -36.6107E+06
            7515     100.087E+06     16.2474E+06              0.    -37.3812E+06
            7516     100.788E+06     16.1245E+06              0.    -38.1654E+06
            7517     101.502E+06     16.0064E+06              0.    -38.9634E+06
            7518     102.227E+06     15.8934E+06              0.    -39.7754E+06
            7519     102.964E+06     15.7860E+06              0.    -40.6015E+06
            7520     103.713E+06     15.6845E+06              0.    -41.4419E+06
            7521     104.474E+06     15.5895E+06              0.    -42.2966E+06
            7522     105.246E+06     15.5014E+06              0.    -43.1658E+06
            7523     106.030E+06     15.4208E+06              0.    -44.0496E+06
            7524     106.826E+06     15.3483E+06              0.    -44.9481E+06
            7525     107.633E+06     15.2843E+06              0.    -45.8614E+06
            7526     108.452E+06     15.2294E+06              0.    -46.7895E+06
            7527     109.281E+06     15.1843E+06              0.    -47.7326E+06
            7528     110.121E+06     15.1497E+06              0.    -48.6906E+06
            7529     110.972E+06     15.1261E+06              0.    -49.6635E+06
            7530     111.832E+06     15.1144E+06              0.    -50.6514E+06
            7531     112.703E+06     15.1152E+06              0.    -51.6544E+06
            7532     113.583E+06     15.1293E+06              0.    -52.6722E+06
            7533     114.472E+06     15.1576E+06              0.    -53.7049E+06
            7534     115.369E+06     15.2007E+06              0.    -54.7524E+06
            7535     116.274E+06     15.2597E+06              0.    -55.8146E+06
            7536     117.187E+06     15.3353E+06              0.    -56.8913E+06
            7537     118.106E+06     15.4286E+06              0.    -57.9823E+06
            7538     119.031E+06     15.5405E+06              0.    -59.0873E+06
            7539     119.961E+06     15.6720E+06              0.    -60.2063E+06
            7540     120.895E+06     15.8241E+06              0.    -61.3387E+06
            7541     121.832E+06     15.9979E+06              0.    -62.4842E+06
            7542     122.771E+06     16.1945E+06              0.    -63.6424E+06
            7543     123.711E+06     16.4151E+06              0.    -64.8127E+06
            7544     124.650E+06     16.6607E+06              0.    -65.9947E+06
            7545     125.588E+06     16.9326E+06              0.    -67.1876E+06
            7546     126.522E+06     17.2321E+06              0.    -68.3907E+06
            7547     127.452E+06     17.5603E+06              0.    -69.6032E+06
            7548     128.375E+06     17.9185E+06              0.    -70.8240E+06
            7549     129.289E+06     18.3080E+06              0.    -72.0523E+06
            7550     130.193E+06     18.7302E+06              0.    -73.2868E+06
            7551     131.084E+06     19.1862E+06              0.    -74.5263E+06
            7552     131.960E+06     19.6774E+06              0.    -75.7692E+06
            7553     132.818E+06     20.2052E+06              0.    -77.0139E+06
            7554     133.657E+06     20.7707E+06              0.    -78.2587E+06
            7555     134.472E+06     21.3752E+06              0.    -79.5017E+06
            7556     135.262E+06     22.0199E+06              0.    -80.7406E+06
            7557     136.022E+06     22.7060E+06              0.    -81.9731E+06
            7558     136.749E+06     23.4345E+06              0.    -83.1965E+06
            7559     137.441E+06     24.2064E+06              0.    -84.4080E+06
            7560     138.092E+06     25.0225E+06              0.    -85.6045E+06
            7561     138.700E+06     25.8835E+06              0.    -86.7825E+06
            7562     139.260E+06     26.7901E+06              0.    -87.9383E+06
            7563     139.767E+06     27.7425E+06              0.    -89.0678E+06
            7564     140.218E+06     28.7409E+06              0.    -90.1666E+06
            7565     140.607E+06     29.7851E+06              0.    -91.2300E+06
            7566     140.929E+06     30.8746E+06              0.    -92.2527E+06
            7567     141.181E+06     32.0087E+06              0.    -93.2293E+06
            7568     141.356E+06     33.1860E+06              0.    -94.1538E+06
            7569     141.450E+06     34.4048E+06              0.    -95.0199E+06
            7570     141.458E+06     35.6631E+06              0.    -95.8207E+06
            7571     141.373E+06     36.9579E+06              0.    -96.5490E+06
            7572     141.192E+06     38.2858E+06              0.    -97.1973E+06
            7573     140.910E+06     39.6427E+06              0.    -97.7575E+06
            7574     140.521E+06     41.0238E+06              0.    -98.2213E+06
            7575     140.021E+06     42.4232E+06              0.    -98.5799E+06
            7576     139.405E+06     43.8345E+06              0.    -98.8244E+06
            7577     138.671E+06     45.2500E+06              0.    -98.9455E+06
            7578     137.814E+06     46.6614E+06              0.    -98.9339E+06
            7579     136.832E+06     48.0590E+06              0.    -98.7801E+06
            7580     135.722E+06     49.4323E+06              0.    -98.4747E+06
            7581     134.483E+06     50.7698E+06              0.    -98.0085E+06
            7582     133.114E+06     52.0588E+06              0.    -97.3724E+06
            7583     131.616E+06     53.2858E+06              0.    -96.5578E+06
            7584     129.989E+06     54.4363E+06              0.    -95.5568E+06
            7585     128.234E+06     55.4950E+06              0.    -94.3620E+06
            7586     126.356E+06     56.4458E+06              0.    -92.9670E+06
            7587     124.357E+06     57.2724E+06              0.    -91.3664E+06
            7588     122.242E+06     57.9577E+06              0.    -89.5559E+06
            7589     120.017E+06     58.4847E+06              0.    -87.5327E+06
            7590     117.688E+06     58.8365E+06              0.    -85.2951E+06
            7591     115.262E+06     58.9966E+06              0.    -82.8430E+06
            7592     112.745E+06     58.9489E+06              0.    -80.1778E+06
            7593     110.148E+06     58.6786E+06              0.    -77.3025E+06
            7594     107.481E+06     58.1720E+06              0.    -74.2215E+06
            7595     106.179E+06     56.8908E+06              0.    -73.3739E+06
            7596     69.2727E+06     30.3645E+06              0.    -2.35747E+06
            7597     69.2617E+06     30.2405E+06              0.    -2.35332E+06
            7598     69.3041E+06     30.1420E+06              0.    -2.32188E+06
            7599     69.3459E+06     30.0463E+06              0.    -2.29513E+06
            7600     69.3873E+06     29.9532E+06              0.    -2.27295E+06
            7601     69.4284E+06     29.8625E+06              0.    -2.25522E+06
            7602     69.4692E+06     29.7741E+06              0.    -2.24182E+06
            7603     69.5098E+06     29.6879E+06              0.    -2.23264E+06
            7604     69.5504E+06     29.6038E+06              0.    -2.22759E+06
            7605     69.5909E+06     29.5218E+06              0.    -2.22656E+06
            7606     69.6314E+06     29.4415E+06              0.    -2.22946E+06
            7607     69.6721E+06     29.3631E+06              0.    -2.23620E+06
            7608     69.7130E+06     29.2863E+06              0.    -2.24671E+06
            7609     69.7541E+06     29.2111E+06              0.    -2.26090E+06
            7610     69.7955E+06     29.1373E+06              0.    -2.27871E+06
            7611     69.8373E+06     29.0650E+06              0.    -2.30006E+06
            7612     69.8796E+06     28.9939E+06              0.    -2.32490E+06
            7613     69.9224E+06     28.9241E+06              0.    -2.35316E+06
            7614     69.9658E+06     28.8553E+06              0.    -2.38479E+06
            7615     70.0098E+06     28.7876E+06              0.    -2.41973E+06
            7616     70.0545E+06     28.7209E+06              0.    -2.45795E+06
            7617     70.1000E+06     28.6550E+06              0.    -2.49940E+06
            7618     70.1463E+06     28.5900E+06              0.    -2.54403E+06
            7619     70.1935E+06     28.5257E+06              0.    -2.59182E+06
            7620     70.2416E+06     28.4620E+06              0.    -2.64274E+06
            7621     70.2907E+06     28.3989E+06              0.    -2.69674E+06
            7622     70.3409E+06     28.3364E+06              0.    -2.75382E+06
            7623     70.3921E+06     28.2743E+06              0.    -2.81395E+06
            7624     70.4446E+06     28.2126E+06              0.    -2.87710E+06
            7625     70.4982E+06     28.1513E+06              0.    -2.94328E+06
            7626     70.5531E+06     28.0902E+06              0.    -3.01245E+06
            7627     70.6094E+06     28.0293E+06              0.    -3.08462E+06
            7628     70.6670E+06     27.9686E+06              0.    -3.15977E+06
            7629     70.7261E+06     27.9080E+06              0.    -3.23792E+06
            7630     70.7867E+06     27.8474E+06              0.    -3.31904E+06
            7631     70.8488E+06     27.7868E+06              0.    -3.40316E+06
            7632     70.9125E+06     27.7261E+06              0.    -3.49026E+06
            7633     70.9780E+06     27.6653E+06              0.    -3.58037E+06
            7634     71.0451E+06     27.6043E+06              0.    -3.67349E+06
            7635     71.1140E+06     27.5432E+06              0.    -3.76963E+06
            7636     71.1847E+06     27.4817E+06              0.    -3.86881E+06
            7637     71.2573E+06     27.4200E+06              0.    -3.97106E+06
            7638     71.3319E+06     27.3579E+06              0.    -4.07638E+06
            7639     71.4084E+06     27.2953E+06              0.    -4.18480E+06
            7640     71.4870E+06     27.2324E+06              0.    -4.29635E+06
            7641     71.5678E+06     27.1689E+06              0.    -4.41106E+06
            7642     71.6507E+06     27.1049E+06              0.    -4.52896E+06
            7643     71.7358E+06     27.0403E+06              0.    -4.65007E+06
            7644     71.8233E+06     26.9751E+06              0.    -4.77443E+06
            7645     71.9131E+06     26.9093E+06              0.    -4.90209E+06
            7646     72.0053E+06     26.8428E+06              0.    -5.03308E+06
            7647     72.1000E+06     26.7755E+06              0.    -5.16743E+06
            7648     72.1972E+06     26.7074E+06              0.    -5.30520E+06
            7649     72.2971E+06     26.6386E+06              0.    -5.44644E+06
            7650     72.3996E+06     26.5689E+06              0.    -5.59117E+06
            7651     72.5048E+06     26.4983E+06              0.    -5.73947E+06
            7652     72.6129E+06     26.4268E+06              0.    -5.89138E+06
            7653     72.7238E+06     26.3543E+06              0.    -6.04695E+06
            7654     72.8376E+06     26.2809E+06              0.    -6.20625E+06
            7655     72.9545E+06     26.2065E+06              0.    -6.36932E+06
            7656     73.0744E+06     26.1310E+06              0.    -6.53623E+06
            7657     73.1975E+06     26.0544E+06              0.    -6.70704E+06
            7658     73.3239E+06     25.9767E+06              0.    -6.88182E+06
            7659     73.4534E+06     25.8979E+06              0.    -7.06063E+06
            7660     73.5864E+06     25.8179E+06              0.    -7.24354E+06
            7661     73.7228E+06     25.7367E+06              0.    -7.43062E+06
            7662     73.8628E+06     25.6543E+06              0.    -7.62195E+06
            7663     74.0063E+06     25.5707E+06              0.    -7.81759E+06
            7664     74.1535E+06     25.4858E+06              0.    -8.01763E+06
            7665     74.3045E+06     25.3996E+06              0.    -8.22214E+06
            7666     74.4593E+06     25.3120E+06              0.     -8.4312E+06
            7667     74.6181E+06     25.2231E+06              0.    -8.64490E+06
            7668     74.7808E+06     25.1329E+06              0.    -8.86331E+06
            7669     74.9477E+06     25.0412E+06              0.    -9.08653E+06
            7670     75.1188E+06     24.9482E+06              0.    -9.31465E+06
            7671     75.2941E+06     24.8537E+06              0.    -9.54774E+06
            7672     75.4738E+06     24.7578E+06              0.    -9.78592E+06
            7673     75.6579E+06     24.6604E+06              0.    -10.0293E+06
            7674     75.8466E+06     24.5616E+06              0.    -10.2779E+06
            7675     76.0400E+06     24.4612E+06              0.    -10.5318E+06
            7676     76.2380E+06     24.3593E+06              0.    -10.7913E+06
            7677     76.4410E+06     24.2560E+06              0.    -11.0563E+06
            7678     76.6489E+06     24.1510E+06              0.    -11.3269E+06
            7679     76.8618E+06     24.0446E+06              0.    -11.6034E+06
            7680     77.0799E+06     23.9366E+06              0.    -11.8857E+06
            7681     77.3032E+06     23.8271E+06              0.    -12.1740E+06
            7682     77.5318E+06     23.7160E+06              0.    -12.4684E+06
            7683     77.7660E+06     23.6033E+06              0.    -12.7691E+06
            7684     78.0057E+06     23.4891E+06              0.    -13.0760E+06
            7685     78.2511E+06     23.3733E+06              0.    -13.3895E+06
            7686     78.5023E+06     23.2560E+06              0.    -13.7094E+06
            7687     78.7594E+06     23.1371E+06              0.    -14.0361E+06
            7688     79.0225E+06     23.0166E+06              0.    -14.3696E+06
            7689     79.2918E+06     22.8947E+06              0.    -14.7100E+06
            7690     79.5673E+06     22.7712E+06              0.    -15.0575E+06
            7691     79.8492E+06     22.6462E+06              0.    -15.4122E+06
            7692     80.1376E+06     22.5197E+06              0.    -15.7742E+06
            7693     80.4326E+06     22.3918E+06              0.    -16.1437E+06
            7694     80.7344E+06     22.2624E+06              0.    -16.5207E+06
            7695     81.0431E+06     22.1316E+06              0.    -16.9055E+06
            7696     81.3587E+06     21.9994E+06              0.    -17.2981E+06
            7697     81.6815E+06     21.8659E+06              0.    -17.6988E+06
            7698     82.0115E+06     21.7310E+06              0.    -18.1076E+06
            7699     82.3489E+06     21.5949E+06              0.    -18.5247E+06
            7700     82.6938E+06     21.4575E+06              0.    -18.9502E+06
            7701     83.0463E+06     21.3190E+06              0.    -19.3843E+06
            7702     83.4066E+06     21.1794E+06              0.    -19.8271E+06
            7703     83.7749E+06     21.0386E+06              0.    -20.2788E+06
            7704     84.1511E+06     20.8969E+06              0.    -20.7395E+06
            7705     84.5355E+06     20.7542E+06              0.    -21.2094E+06
            7706     84.9283E+06     20.6107E+06              0.    -21.6886E+06
            7707     85.3294E+06     20.4664E+06              0.    -22.1773E+06
            7708     85.7391E+06     20.3214E+06              0.    -22.6757E+06
            7709     86.1576E+06     20.1758E+06              0.    -23.1839E+06
            7710     86.5848E+06     20.0296E+06              0.    -23.7020E+06
            7711     87.0210E+06     19.8831E+06              0.    -24.2303E+06
            7712     87.4663E+06     19.7363E+06              0.    -24.7688E+06
            7713     87.9208E+06     19.5893E+06              0.    -25.3178E+06
            7714     88.3847E+06     19.4423E+06              0.    -25.8774E+06
            7715     88.8580E+06     19.2954E+06              0.    -26.4478E+06
            7716     89.3410E+06     19.1487E+06              0.    -27.0291E+06
            7717     89.8336E+06     19.0024E+06              0.    -27.6215E+06
            7718     90.3361E+06     18.8566E+06              0.    -28.2252E+06
            7719     90.8485E+06     18.7115E+06              0.    -28.8403E+06
            7720     91.3710E+06     18.5674E+06              0.    -29.4670E+06
            7721     91.9036E+06     18.4244E+06              0.    -30.1054E+06
            7722     92.4465E+06     18.2826E+06              0.    -30.7558E+06
            7723     92.9997E+06     18.1424E+06              0.    -31.4183E+06
            7724     93.5634E+06     18.0039E+06              0.    -32.0930E+06
            7725     94.1376E+06     17.8673E+06              0.    -32.7801E+06
            7726     94.7224E+06     17.7330E+06              0.    -33.4798E+06
            7727     95.3178E+06     17.6012E+06              0.    -34.1921E+06
            7728     95.9240E+06     17.4722E+06              0.    -34.9174E+06
            7729     96.5410E+06     17.3463E+06              0.    -35.6557E+06
            7730     97.1688E+06     17.2237E+06              0.    -36.4072E+06
            7731     97.8074E+06     17.1048E+06              0.    -37.1719E+06
            7732     98.4569E+06     16.9900E+06              0.    -37.9502E+06
            7733     99.1173E+06     16.8796E+06              0.    -38.7420E+06
            7734     99.7884E+06     16.7740E+06              0.    -39.5476E+06
            7735     100.470E+06     16.6736E+06              0.    -40.3670E+06
            7736     101.163E+06     16.5787E+06              0.    -41.2003E+06
            7737     101.867E+06     16.4900E+06              0.    -42.0478E+06
            7738     102.581E+06     16.4077E+06              0.    -42.9094E+06
            7739     103.305E+06     16.3323E+06              0.    -43.7852E+06
            7740     104.040E+06     16.2645E+06              0.    -44.6755E+06
            7741     104.786E+06     16.2047E+06              0.    -45.5801E+06
            7742     105.541E+06     16.1534E+06              0.    -46.4992E+06
            7743     106.306E+06     16.1112E+06              0.    -47.4329E+06
            7744     107.081E+06     16.0788E+06              0.    -48.3811E+06
            7745     107.864E+06     16.0567E+06              0.    -49.3438E+06
            7746     108.657E+06     16.0456E+06              0.    -50.3211E+06
            7747     109.459E+06     16.0462E+06              0.    -51.3129E+06
            7748     110.269E+06     16.0591E+06              0.    -52.3192E+06
            7749     111.086E+06     16.0852E+06              0.    -53.3398E+06
            7750     111.911E+06     16.1252E+06              0.    -54.3748E+06
            7751     112.743E+06     16.1798E+06              0.    -55.4238E+06
            7752     113.580E+06     16.2500E+06              0.    -56.4869E+06
            7753     114.424E+06     16.3365E+06              0.    -57.5637E+06
            7754     115.272E+06     16.4402E+06              0.    -58.6541E+06
            7755     116.124E+06     16.5622E+06              0.    -59.7577E+06
            7756     116.979E+06     16.7032E+06              0.    -60.8742E+06
            7757     117.836E+06     16.8643E+06              0.    -62.0032E+06
            7758     118.694E+06     17.0464E+06              0.    -63.1443E+06
            7759     119.553E+06     17.2507E+06              0.    -64.2969E+06
            7760     120.410E+06     17.4782E+06              0.    -65.4605E+06
            7761     121.265E+06     17.7299E+06              0.    -66.6345E+06
            7762     122.115E+06     18.0069E+06              0.    -67.8180E+06
            7763     122.961E+06     18.3105E+06              0.    -69.0103E+06
            7764     123.799E+06     18.6417E+06              0.    -70.2105E+06
            7765     124.629E+06     19.0016E+06              0.    -71.4175E+06
            7766     125.448E+06     19.3915E+06              0.    -72.6302E+06
            7767     126.254E+06     19.8125E+06              0.    -73.8473E+06
            7768     127.046E+06     20.2658E+06              0.    -75.0674E+06
            7769     127.820E+06     20.7525E+06              0.    -76.2890E+06
            7770     128.575E+06     21.2738E+06              0.    -77.5105E+06
            7771     129.308E+06     21.8307E+06              0.    -78.7298E+06
            7772     130.016E+06     22.4243E+06              0.    -79.9450E+06
            7773     130.696E+06     23.0556E+06              0.    -81.1537E+06
            7774     131.345E+06     23.7255E+06              0.    -82.3536E+06
            7775     131.959E+06     24.4350E+06              0.    -83.5420E+06
            7776     132.537E+06     25.1847E+06              0.    -84.7158E+06
            7777     133.072E+06     25.9752E+06              0.    -85.8719E+06
            7778     133.563E+06     26.8069E+06              0.    -87.0068E+06
            7779     134.005E+06     27.6803E+06              0.    -88.1167E+06
            7780     134.394E+06     28.5953E+06              0.    -89.1975E+06
            7781     134.726E+06     29.5517E+06              0.    -90.2448E+06
            7782     134.996E+06     30.5492E+06              0.    -91.2539E+06
            7783     135.200E+06     31.5869E+06              0.    -92.2197E+06
            7784     135.333E+06     32.6637E+06              0.    -93.1366E+06
            7785     135.391E+06     33.7781E+06              0.    -93.9989E+06
            7786     135.369E+06      34.928E+06              0.    -94.8003E+06
            7787     135.262E+06     36.1110E+06              0.    -95.5342E+06
            7788     135.066E+06     37.3241E+06              0.    -96.1937E+06
            7789     134.776E+06     38.5636E+06              0.    -96.7714E+06
            7790     134.388E+06     39.8251E+06              0.    -97.2598E+06
            7791     133.898E+06     41.1036E+06              0.    -97.6507E+06
            7792     133.301E+06     42.3934E+06              0.    -97.9361E+06
            7793     132.594E+06     43.6877E+06              0.    -98.1073E+06
            7794     131.774E+06     44.9791E+06              0.    -98.1558E+06
            7795     130.838E+06     46.2592E+06              0.    -98.0729E+06
            7796     129.783E+06     47.5188E+06              0.    -97.8497E+06
            7797     128.608E+06     48.7475E+06              0.    -97.4776E+06
            7798     127.313E+06     49.9344E+06              0.    -96.9481E+06
            7799     125.896E+06     51.0673E+06              0.    -96.2529E+06
            7800     124.358E+06     52.1335E+06              0.    -95.3844E+06
            7801     122.700E+06     53.1191E+06              0.    -94.3352E+06
            7802     120.924E+06     54.0100E+06              0.    -93.0989E+06
            7803     119.034E+06     54.7911E+06              0.    -91.6697E+06
            7804     117.033E+06     55.4472E+06              0.    -90.0428E+06
            7805     114.925E+06     55.9627E+06              0.    -88.2145E+06
            7806     112.715E+06     56.3217E+06              0.    -86.1823E+06
            7807     110.410E+06     56.5088E+06              0.    -83.9450E+06
            7808     108.016E+06     56.5088E+06              0.    -81.5026E+06
            7809     105.540E+06     56.3070E+06              0.    -78.8566E+06
            7810     102.989E+06     55.8894E+06              0.    -76.0100E+06
            7811     100.368E+06     55.2420E+06              0.    -72.9671E+06
            7812     99.0361E+06     53.8364E+06              0.    -72.1020E+06
            7813     69.1787E+06     30.3247E+06              0.    -2.39855E+06
            7814     69.1683E+06     30.2066E+06              0.    -2.39432E+06
            7815     69.2086E+06     30.1129E+06              0.    -2.36233E+06
            7816     69.2485E+06     30.0217E+06              0.    -2.33511E+06
            7817     69.2879E+06     29.9330E+06              0.    -2.31254E+06
            7818     69.3271E+06     29.8466E+06              0.    -2.29450E+06
            7819     69.3659E+06     29.7624E+06              0.    -2.28086E+06
            7820     69.4046E+06     29.6804E+06              0.    -2.27152E+06
            7821     69.4433E+06     29.6003E+06              0.    -2.26637E+06
            7822     69.4818E+06     29.5221E+06              0.    -2.26531E+06
            7823     69.5205E+06     29.4457E+06              0.    -2.26826E+06
            7824     69.5592E+06     29.3710E+06              0.    -2.27511E+06
            7825     69.5981E+06     29.2979E+06              0.    -2.28580E+06
            7826     69.6373E+06     29.2263E+06              0.    -2.30023E+06
            7827     69.6768E+06     29.1561E+06              0.    -2.31834E+06
            7828     69.7166E+06     29.0872E+06              0.    -2.34006E+06
            7829     69.7568E+06     29.0195E+06              0.    -2.36532E+06
            7830     69.7976E+06     28.9530E+06              0.    -2.39406E+06
            7831     69.8389E+06     28.8875E+06              0.    -2.42623E+06
            7832     69.8808E+06     28.8231E+06              0.    -2.46178E+06
            7833     69.9234E+06     28.7595E+06              0.    -2.50065E+06
            7834     69.9667E+06     28.6968E+06              0.    -2.54281E+06
            7835     70.0108E+06     28.6349E+06              0.    -2.58821E+06
            7836     70.0557E+06     28.5736E+06              0.    -2.63682E+06
            7837     70.1015E+06     28.5130E+06              0.    -2.68861E+06
            7838     70.1483E+06     28.4530E+06              0.    -2.74354E+06
            7839     70.1961E+06     28.3934E+06              0.     -2.8016E+06
            7840     70.2449E+06     28.3343E+06              0.    -2.86276E+06
            7841     70.2948E+06     28.2756E+06              0.    -2.92700E+06
            7842     70.3459E+06     28.2172E+06              0.    -2.99430E+06
            7843     70.3982E+06     28.1591E+06              0.    -3.06466E+06
            7844     70.4517E+06     28.1011E+06              0.    -3.13807E+06
            7845     70.5066E+06     28.0433E+06              0.    -3.21452E+06
            7846     70.5629E+06     27.9856E+06              0.    -3.29400E+06
            7847     70.6205E+06     27.9279E+06              0.    -3.37651E+06
            7848     70.6797E+06     27.8703E+06              0.    -3.46207E+06
            7849     70.7404E+06     27.8125E+06              0.    -3.55066E+06
            7850     70.8026E+06     27.7547E+06              0.    -3.64231E+06
            7851     70.8665E+06     27.6967E+06              0.    -3.73702E+06
            7852     70.9321E+06     27.6385E+06              0.    -3.83481E+06
            7853     70.9994E+06       27.58E+06              0.    -3.93569E+06
            7854     71.0686E+06     27.5212E+06              0.    -4.03967E+06
            7855     71.1395E+06     27.4622E+06              0.    -4.14679E+06
            7856     71.2124E+06     27.4027E+06              0.    -4.25706E+06
            7857     71.2872E+06     27.3428E+06              0.    -4.37051E+06
            7858     71.3641E+06     27.2824E+06              0.    -4.48717E+06
            7859     71.4430E+06     27.2216E+06              0.    -4.60707E+06
            7860     71.5240E+06     27.1601E+06              0.    -4.73024E+06
            7861     71.6073E+06     27.0982E+06              0.    -4.85672E+06
            7862     71.6927E+06     27.0355E+06              0.    -4.98654E+06
            7863     71.7805E+06     26.9723E+06              0.    -5.11975E+06
            7864     71.8706E+06     26.9083E+06              0.    -5.25638E+06
            7865     71.9632E+06     26.8436E+06              0.    -5.39648E+06
            7866     72.0582E+06     26.7781E+06              0.    -5.54010E+06
            7867     72.1557E+06     26.7119E+06              0.    -5.68728E+06
            7868     72.2559E+06     26.6448E+06              0.    -5.83808E+06
            7869     72.3587E+06     26.5768E+06              0.    -5.99254E+06
            7870     72.4643E+06     26.5080E+06              0.    -6.15073E+06
            7871     72.5726E+06     26.4382E+06              0.    -6.31270E+06
            7872     72.6838E+06     26.3675E+06              0.    -6.47851E+06
            7873     72.7979E+06     26.2958E+06              0.    -6.64822E+06
            7874     72.9150E+06     26.2230E+06              0.    -6.82189E+06
            7875     73.0352E+06     26.1493E+06              0.    -6.99958E+06
            7876     73.1585E+06     26.0744E+06              0.    -7.18138E+06
            7877     73.2850E+06     25.9984E+06              0.    -7.36733E+06
            7878     73.4148E+06     25.9214E+06              0.    -7.55753E+06
            7879     73.5479E+06     25.8431E+06              0.    -7.75203E+06
            7880     73.6844E+06     25.7637E+06              0.    -7.95091E+06
            7881     73.8245E+06     25.6831E+06              0.    -8.15426E+06
            7882     73.9681E+06     25.6013E+06              0.    -8.36215E+06
            7883     74.1153E+06     25.5182E+06              0.    -8.57465E+06
            7884     74.2663E+06     25.4339E+06              0.    -8.79186E+06
            7885     74.4211E+06     25.3483E+06              0.    -9.01386E+06
            7886     74.5798E+06     25.2614E+06              0.    -9.24074E+06
            7887     74.7424E+06     25.1731E+06              0.    -9.47258E+06
            7888     74.9091E+06     25.0835E+06              0.    -9.70948E+06
            7889     75.0800E+06     24.9926E+06              0.    -9.95153E+06
            7890     75.2550E+06     24.9003E+06              0.    -10.1988E+06
            7891     75.4344E+06     24.8066E+06              0.    -10.4515E+06
            7892     75.6182E+06     24.7115E+06              0.    -10.7095E+06
            7893     75.8065E+06     24.6149E+06              0.    -10.9731E+06
            7894     75.9994E+06     24.5170E+06              0.    -11.2424E+06
            7895     76.1970E+06     24.4177E+06              0.    -11.5174E+06
            7896     76.3993E+06     24.3169E+06              0.    -11.7983E+06
            7897     76.6066E+06     24.2146E+06              0.    -12.0851E+06
            7898     76.8187E+06     24.1109E+06              0.    -12.3780E+06
            7899     77.0360E+06     24.0058E+06              0.    -12.6770E+06
            7900     77.2584E+06     23.8992E+06              0.    -12.9824E+06
            7901     77.4862E+06     23.7912E+06              0.    -13.2942E+06
            7902     77.7193E+06     23.6817E+06              0.    -13.6125E+06
            7903     77.9578E+06     23.5708E+06              0.    -13.9375E+06
            7904      78.202E+06     23.4584E+06              0.    -14.2692E+06
            7905     78.4519E+06     23.3446E+06              0.    -14.6079E+06
            7906     78.7075E+06     23.2294E+06              0.    -14.9535E+06
            7907     78.9691E+06     23.1128E+06              0.    -15.3064E+06
            7908     79.2367E+06     22.9948E+06              0.    -15.6665E+06
            7909     79.5104E+06     22.8755E+06              0.    -16.0340E+06
            7910     79.7904E+06     22.7548E+06              0.    -16.4090E+06
            7911     80.0768E+06     22.6328E+06              0.    -16.7917E+06
            7912     80.3696E+06     22.5095E+06              0.    -17.1822E+06
            7913     80.6690E+06     22.3849E+06              0.    -17.5807E+06
            7914     80.9752E+06     22.2592E+06              0.    -17.9873E+06
            7915     81.2882E+06     22.1322E+06              0.    -18.4021E+06
            7916     81.6081E+06     22.0041E+06              0.    -18.8252E+06
            7917     81.9351E+06     21.8749E+06              0.    -19.2569E+06
            7918     82.2693E+06     21.7447E+06              0.    -19.6973E+06
            7919     82.6108E+06     21.6134E+06              0.    -20.1464E+06
            7920     82.9597E+06     21.4813E+06              0.    -20.6045E+06
            7921     83.3161E+06     21.3482E+06              0.    -21.0717E+06
            7922     83.6803E+06     21.2144E+06              0.    -21.5482E+06
            7923     84.0522E+06     21.0799E+06              0.    -22.0341E+06
            7924      84.432E+06     20.9447E+06              0.    -22.5295E+06
            7925     84.8199E+06     20.8089E+06              0.    -23.0346E+06
            7926     85.2159E+06     20.6727E+06              0.    -23.5497E+06
            7927     85.6201E+06     20.5361E+06              0.    -24.0747E+06
            7928     86.0328E+06     20.3993E+06              0.    -24.6100E+06
            7929     86.4539E+06     20.2623E+06              0.    -25.1555E+06
            7930     86.8836E+06     20.1253E+06              0.    -25.7116E+06
            7931     87.3221E+06     19.9884E+06              0.    -26.2784E+06
            7932     87.7694E+06     19.8517E+06              0.    -26.8559E+06
            7933     88.2255E+06     19.7154E+06              0.    -27.4445E+06
            7934     88.6908E+06     19.5796E+06              0.    -28.0441E+06
            7935     89.1651E+06     19.4445E+06              0.    -28.6551E+06
            7936     89.6487E+06     19.3102E+06              0.    -29.2775E+06
            7937     90.1417E+06     19.1770E+06              0.    -29.9116E+06
            7938     90.6440E+06      19.045E+06              0.    -30.5574E+06
            7939     91.1558E+06     18.9144E+06              0.    -31.2151E+06
            7940     91.6771E+06     18.7855E+06              0.    -31.8849E+06
            7941     92.2081E+06     18.6584E+06              0.    -32.5669E+06
            7942     92.7488E+06     18.5335E+06              0.    -33.2614E+06
            7943     93.2991E+06     18.4108E+06              0.    -33.9683E+06
            7944     93.8593E+06     18.2908E+06              0.    -34.6879E+06
            7945     94.4293E+06     18.1737E+06              0.    -35.4204E+06
            7946     95.0092E+06     18.0597E+06              0.    -36.1658E+06
            7947     95.5989E+06     17.9492E+06              0.    -36.9243E+06
            7948     96.1984E+06     17.8425E+06              0.    -37.6960E+06
            7949     96.8078E+06     17.7399E+06              0.    -38.4811E+06
            7950     97.4271E+06     17.6419E+06              0.    -39.2796E+06
            7951     98.0561E+06     17.5486E+06              0.    -40.0917E+06
            7952     98.6948E+06     17.4606E+06              0.    -40.9175E+06
            7953     99.3431E+06     17.3783E+06              0.    -41.7571E+06
            7954     100.001E+06     17.3020E+06              0.    -42.6106E+06
            7955     100.668E+06     17.2322E+06              0.    -43.4780E+06
            7956     101.345E+06     17.1695E+06              0.    -44.3595E+06
            7957     102.031E+06     17.1141E+06              0.    -45.2550E+06
            7958     102.726E+06     17.0668E+06              0.    -46.1646E+06
            7959     103.429E+06     17.0280E+06              0.    -47.0884E+06
            7960     104.141E+06     16.9982E+06              0.    -48.0264E+06
            7961     104.861E+06     16.9781E+06              0.    -48.9785E+06
            7962     105.589E+06     16.9681E+06              0.    -49.9447E+06
            7963     106.324E+06     16.9691E+06              0.    -50.9251E+06
            7964     107.067E+06     16.9816E+06              0.    -51.9194E+06
            7965     107.816E+06     17.0062E+06              0.    -52.9278E+06
            7966     108.572E+06     17.0438E+06              0.    -53.9499E+06
            7967     109.333E+06     17.0950E+06              0.    -54.9856E+06
            7968     110.100E+06     17.1606E+06              0.    -56.0349E+06
            7969     110.871E+06     17.2413E+06              0.    -57.0975E+06
            7970     111.645E+06      17.338E+06              0.    -58.1730E+06
            7971     112.423E+06     17.4515E+06              0.    -59.2613E+06
            7972     113.203E+06     17.5827E+06              0.    -60.3619E+06
            7973     113.984E+06     17.7325E+06              0.    -61.4745E+06
            7974     114.766E+06     17.9017E+06              0.    -62.5986E+06
            7975     115.546E+06     18.0913E+06              0.    -63.7337E+06
            7976     116.325E+06     18.3023E+06              0.    -64.8793E+06
            7977     117.101E+06     18.5357E+06              0.    -66.0346E+06
            7978     117.873E+06     18.7924E+06              0.    -67.1990E+06
            7979     118.639E+06     19.0735E+06              0.    -68.3717E+06
            7980     119.397E+06     19.3800E+06              0.    -69.5517E+06
            7981     120.146E+06     19.7129E+06              0.    -70.7380E+06
            7982     120.885E+06     20.0733E+06              0.    -71.9296E+06
            7983     121.611E+06     20.4622E+06              0.    -73.1252E+06
            7984     122.323E+06     20.8807E+06              0.    -74.3236E+06
            7985     123.018E+06     21.3297E+06              0.    -75.5230E+06
            7986     123.694E+06     21.8103E+06              0.    -76.7221E+06
            7987     124.348E+06     22.3235E+06              0.    -77.9189E+06
            7988     124.979E+06     22.8701E+06              0.    -79.1116E+06
            7989     125.583E+06     23.4512E+06              0.    -80.2980E+06
            7990     126.157E+06     24.0673E+06              0.    -81.4756E+06
            7991     126.700E+06     24.7194E+06              0.    -82.6421E+06
            7992     127.206E+06     25.4080E+06              0.    -83.7947E+06
            7993     127.674E+06     26.1337E+06              0.    -84.9302E+06
            7994     128.100E+06     26.8968E+06              0.    -86.0456E+06
            7995     128.479E+06     27.6975E+06              0.    -87.1372E+06
            7996     128.809E+06     28.5359E+06              0.    -88.2012E+06
            7997     129.086E+06     29.4118E+06              0.    -89.2336E+06
            7998     129.305E+06     30.3246E+06              0.    -90.2300E+06
            7999     129.463E+06     31.2739E+06              0.    -91.1857E+06
            8000     129.555E+06     32.2583E+06              0.    -92.0955E+06
            8001     129.577E+06     33.2767E+06              0.    -92.9542E+06
            8002     129.525E+06     34.3271E+06              0.    -93.7560E+06
            8003     129.395E+06     35.4073E+06              0.    -94.4948E+06
            8004     129.183E+06     36.5146E+06              0.    -95.1643E+06
            8005     128.883E+06     37.6457E+06              0.    -95.7578E+06
            8006     128.493E+06     38.7969E+06              0.    -96.2682E+06
            8007     128.009E+06     39.9635E+06              0.    -96.6882E+06
            8008     127.426E+06     41.1405E+06              0.    -97.0103E+06
            8009     126.741E+06     42.3220E+06              0.    -97.2267E+06
            8010     125.951E+06     43.5013E+06              0.    -97.3293E+06
            8011     125.054E+06     44.6711E+06              0.    -97.3102E+06
            8012     124.047E+06     45.8232E+06              0.    -97.1611E+06
            8013     122.928E+06     46.9484E+06              0.    -96.8739E+06
            8014     121.696E+06     48.0370E+06              0.    -96.4406E+06
            8015     120.351E+06     49.0783E+06              0.    -95.8535E+06
            8016     118.893E+06     50.0607E+06              0.    -95.1050E+06
            8017     117.321E+06     50.9722E+06              0.    -94.1880E+06
            8018     115.639E+06     51.7998E+06              0.    -93.0961E+06
            8019     113.847E+06     52.5300E+06              0.    -91.8234E+06
            8020     111.950E+06     53.1490E+06              0.    -90.3647E+06
            8021     109.949E+06     53.6425E+06              0.    -88.7159E+06
            8022     107.851E+06     53.9961E+06              0.    -86.8736E+06
            8023     105.659E+06     54.1952E+06              0.    -84.8358E+06
            8024     103.380E+06     54.2255E+06              0.    -82.6014E+06
            8025     101.019E+06     54.0731E+06              0.    -80.1707E+06
            8026     98.5836E+06     53.7245E+06              0.     -77.545E+06
            8027     96.0791E+06     53.1671E+06              0.    -74.7270E+06
            8028     93.5154E+06     52.3908E+06              0.    -71.7206E+06
            8029     92.1666E+06     50.8685E+06              0.    -70.8373E+06
            8030     69.0832E+06     30.2842E+06              0.    -2.43759E+06
            8031     69.0733E+06     30.1721E+06              0.    -2.43329E+06
            8032     69.1116E+06     30.0832E+06              0.    -2.40077E+06
            8033     69.1494E+06     29.9966E+06              0.    -2.37310E+06
            8034     69.1869E+06     29.9124E+06              0.    -2.35016E+06
            8035     69.2240E+06     29.8305E+06              0.    -2.33182E+06
            8036     69.2609E+06     29.7506E+06              0.    -2.31795E+06
            8037     69.2977E+06     29.6727E+06              0.    -2.30845E+06
            8038     69.3344E+06     29.5967E+06              0.    -2.30322E+06
            8039     69.3710E+06     29.5225E+06              0.    -2.30214E+06
            8040     69.4076E+06     29.4500E+06              0.    -2.30512E+06
            8041     69.4444E+06     29.3791E+06              0.    -2.31209E+06
            8042     69.4814E+06     29.3097E+06              0.    -2.32294E+06
            8043     69.5185E+06     29.2417E+06              0.    -2.33760E+06
            8044     69.5560E+06     29.1751E+06              0.    -2.35600E+06
            8045     69.5938E+06     29.1097E+06              0.    -2.37806E+06
            8046     69.6320E+06     29.0455E+06              0.    -2.40372E+06
            8047     69.6707E+06     28.9823E+06              0.    -2.43292E+06
            8048     69.7099E+06     28.9202E+06              0.    -2.46560E+06
            8049     69.7497E+06     28.8591E+06              0.    -2.50172E+06
            8050     69.7901E+06     28.7988E+06              0.    -2.54121E+06
            8051     69.8312E+06     28.7393E+06              0.    -2.58405E+06
            8052     69.8730E+06     28.6805E+06              0.    -2.63017E+06
            8053     69.9157E+06     28.6224E+06              0.    -2.67957E+06
            8054     69.9592E+06     28.5649E+06              0.    -2.73218E+06
            8055     70.0035E+06     28.5079E+06              0.    -2.78800E+06
            8056     70.0488E+06     28.4514E+06              0.    -2.84698E+06
            8057     70.0952E+06     28.3953E+06              0.    -2.90912E+06
            8058     70.1425E+06     28.3396E+06              0.    -2.97439E+06
            8059     70.1910E+06     28.2842E+06              0.    -3.04277E+06
            8060     70.2406E+06     28.2291E+06              0.    -3.11426E+06
            8061     70.2914E+06     28.1741E+06              0.    -3.18884E+06
            8062     70.3435E+06     28.1193E+06              0.    -3.26651E+06
            8063     70.3969E+06     28.0645E+06              0.    -3.34726E+06
            8064     70.4516E+06     28.0098E+06              0.    -3.43109E+06
            8065     70.5077E+06     27.9551E+06              0.    -3.51801E+06
            8066     70.5653E+06     27.9004E+06              0.    -3.60802E+06
            8067     70.6244E+06     27.8455E+06              0.    -3.70113E+06
            8068     70.6850E+06     27.7905E+06              0.    -3.79735E+06
            8069     70.7472E+06     27.7353E+06              0.    -3.89670E+06
            8070     70.8111E+06     27.6799E+06              0.    -3.99918E+06
            8071     70.8767E+06     27.6242E+06              0.    -4.10482E+06
            8072      70.944E+06     27.5682E+06              0.    -4.21364E+06
            8073     71.0131E+06     27.5118E+06              0.    -4.32567E+06
            8074     71.0841E+06     27.4550E+06              0.    -4.44092E+06
            8075     71.1570E+06     27.3978E+06              0.    -4.55943E+06
            8076     71.2319E+06     27.3401E+06              0.    -4.68123E+06
            8077     71.3088E+06     27.2819E+06              0.    -4.80635E+06
            8078     71.3877E+06     27.2232E+06              0.    -4.93483E+06
            8079     71.4688E+06     27.1638E+06              0.    -5.06670E+06
            8080     71.5520E+06     27.1039E+06              0.    -5.20201E+06
            8081     71.6375E+06     27.0433E+06              0.    -5.34080E+06
            8082     71.7253E+06     26.9820E+06              0.    -5.48310E+06
            8083     71.8154E+06     26.9200E+06              0.    -5.62898E+06
            8084     71.9079E+06     26.8572E+06              0.    -5.77848E+06
            8085     72.0029E+06     26.7937E+06              0.    -5.93164E+06
            8086     72.1004E+06     26.7294E+06              0.    -6.08853E+06
            8087     72.2005E+06     26.6642E+06              0.    -6.24920E+06
            8088     72.3032E+06     26.5981E+06              0.    -6.41370E+06
            8089     72.4087E+06     26.5311E+06              0.    -6.58210E+06
            8090     72.5169E+06     26.4633E+06              0.    -6.75445E+06
            8091     72.6279E+06     26.3944E+06              0.    -6.93082E+06
            8092     72.7419E+06     26.3246E+06              0.    -7.11128E+06
            8093     72.8588E+06     26.2538E+06              0.    -7.29590E+06
            8094     72.9787E+06     26.1819E+06              0.    -7.48474E+06
            8095     73.1017E+06     26.1090E+06              0.    -7.67787E+06
            8096     73.2279E+06     26.0350E+06              0.    -7.87538E+06
            8097     73.3574E+06     25.9599E+06              0.    -8.07733E+06
            8098     73.4901E+06     25.8836E+06              0.    -8.28380E+06
            8099     73.6262E+06     25.8063E+06              0.    -8.49488E+06
            8100     73.7658E+06     25.7277E+06              0.    -8.71064E+06
            8101     73.9089E+06     25.6480E+06              0.    -8.93117E+06
            8102     74.0556E+06     25.5671E+06              0.    -9.15656E+06
            8103     74.2060E+06     25.4850E+06              0.    -9.38689E+06
            8104     74.3601E+06     25.4016E+06              0.    -9.62225E+06
            8105     74.5180E+06     25.3169E+06              0.    -9.86274E+06
            8106     74.6799E+06     25.2311E+06              0.    -10.1084E+06
            8107     74.8458E+06     25.1439E+06              0.    -10.3595E+06
            8108     75.0157E+06     25.0554E+06              0.    -10.6159E+06
            8109     75.1898E+06     24.9656E+06              0.    -10.8778E+06
            8110     75.3682E+06     24.8745E+06              0.    -11.1454E+06
            8111     75.5509E+06     24.7821E+06              0.    -11.4186E+06
            8112     75.7380E+06     24.6884E+06              0.    -11.6977E+06
            8113     75.9296E+06     24.5933E+06              0.    -11.9827E+06
            8114     76.1259E+06     24.4969E+06              0.    -12.2738E+06
            8115     76.3268E+06     24.3992E+06              0.    -12.5710E+06
            8116     76.5325E+06     24.3001E+06              0.    -12.8744E+06
            8117     76.7431E+06     24.1996E+06              0.    -13.1843E+06
            8118     76.9586E+06     24.0979E+06              0.    -13.5006E+06
            8119     77.1792E+06     23.9947E+06              0.    -13.8235E+06
            8120     77.4050E+06     23.8903E+06              0.    -14.1532E+06
            8121     77.6361E+06     23.7846E+06              0.    -14.4897E+06
            8122     77.8725E+06     23.6775E+06              0.    -14.8331E+06
            8123     78.1144E+06     23.5691E+06              0.    -15.1837E+06
            8124     78.3618E+06     23.4595E+06              0.    -15.5415E+06
            8125     78.6150E+06     23.3486E+06              0.    -15.9067E+06
            8126     78.8738E+06     23.2365E+06              0.    -16.2793E+06
            8127     79.1386E+06     23.1231E+06              0.    -16.6596E+06
            8128     79.4094E+06     23.0085E+06              0.    -17.0476E+06
            8129     79.6862E+06     22.8928E+06              0.    -17.4435E+06
            8130     79.9692E+06     22.7760E+06              0.    -17.8474E+06
            8131     80.2585E+06     22.6580E+06              0.    -18.2595E+06
            8132     80.5543E+06     22.5391E+06              0.    -18.6799E+06
            8133     80.8565E+06     22.4191E+06              0.    -19.1088E+06
            8134     81.1654E+06     22.2981E+06              0.    -19.5462E+06
            8135     81.4810E+06     22.1762E+06              0.    -19.9923E+06
            8136     81.8035E+06     22.0535E+06              0.    -20.4474E+06
            8137     82.1328E+06     21.9300E+06              0.    -20.9114E+06
            8138     82.4693E+06     21.8057E+06              0.    -21.3847E+06
            8139     82.8129E+06     21.6808E+06              0.    -21.8672E+06
            8140     83.1638E+06     21.5553E+06              0.    -22.3592E+06
            8141     83.5221E+06     21.4293E+06              0.    -22.8609E+06
            8142     83.8879E+06     21.3029E+06              0.    -23.3723E+06
            8143     84.2612E+06     21.1761E+06              0.    -23.8937E+06
            8144     84.6423E+06     21.0492E+06              0.    -24.4251E+06
            8145     85.0311E+06     20.9221E+06              0.    -24.9667E+06
            8146     85.4279E+06     20.7950E+06              0.    -25.5188E+06
            8147     85.8326E+06     20.6680E+06              0.    -26.0814E+06
            8148     86.2454E+06     20.5412E+06              0.    -26.6547E+06
            8149     86.6664E+06     20.4148E+06              0.    -27.2388E+06
            8150     87.0957E+06     20.2889E+06              0.    -27.8339E+06
            8151     87.5333E+06     20.1636E+06              0.    -28.4402E+06
            8152     87.9793E+06     20.0392E+06              0.    -29.0578E+06
            8153     88.4339E+06     19.9158E+06              0.    -29.6869E+06
            8154     88.8971E+06     19.7935E+06              0.    -30.3276E+06
            8155     89.3689E+06     19.6726E+06              0.    -30.9801E+06
            8156     89.8494E+06     19.5532E+06              0.    -31.6444E+06
            8157     90.3386E+06     19.4355E+06              0.    -32.3208E+06
            8158     90.8367E+06     19.3199E+06              0.    -33.0095E+06
            8159     91.3437E+06     19.2064E+06              0.    -33.7104E+06
            8160     91.8595E+06     19.0954E+06              0.    -34.4239E+06
            8161     92.3842E+06     18.9872E+06              0.    -35.1499E+06
            8162     92.9179E+06     18.8819E+06              0.    -35.8887E+06
            8163     93.4605E+06     18.7798E+06              0.    -36.6404E+06
            8164     94.0120E+06     18.6813E+06              0.    -37.4051E+06
            8165     94.5723E+06     18.5867E+06              0.    -38.1828E+06
            8166     95.1416E+06     18.4963E+06              0.    -38.9738E+06
            8167     95.7196E+06     18.4104E+06              0.    -39.7781E+06
            8168     96.3063E+06     18.3294E+06              0.    -40.5959E+06
            8169     96.9017E+06     18.2537E+06              0.    -41.4271E+06
            8170     97.5056E+06     18.1836E+06              0.    -42.2719E+06
            8171     98.1180E+06     18.1197E+06              0.    -43.1304E+06
            8172     98.7386E+06     18.0623E+06              0.    -44.0026E+06
            8173     99.3674E+06     18.0118E+06              0.    -44.8885E+06
            8174     100.004E+06     17.9687E+06              0.    -45.7882E+06
            8175     100.648E+06     17.9336E+06              0.    -46.7017E+06
            8176     101.300E+06     17.9069E+06              0.    -47.6290E+06
            8177     101.959E+06     17.8892E+06              0.    -48.5701E+06
            8178     102.625E+06     17.8810E+06              0.    -49.5250E+06
            8179     103.297E+06     17.8830E+06              0.    -50.4935E+06
            8180     103.976E+06     17.8956E+06              0.    -51.4757E+06
            8181     104.660E+06     17.9195E+06              0.    -52.4714E+06
            8182     105.349E+06     17.9554E+06              0.    -53.4804E+06
            8183     106.043E+06     18.0039E+06              0.    -54.5027E+06
            8184     106.742E+06     18.0658E+06              0.    -55.5380E+06
            8185     107.443E+06     18.1417E+06              0.    -56.5862E+06
            8186     108.148E+06     18.2324E+06              0.    -57.6468E+06
            8187     108.855E+06     18.3386E+06              0.    -58.7197E+06
            8188     109.563E+06     18.4612E+06              0.    -59.8045E+06
            8189     110.272E+06     18.6009E+06              0.    -60.9007E+06
            8190     110.981E+06     18.7586E+06              0.    -62.0080E+06
            8191     111.688E+06     18.9351E+06              0.    -63.1258E+06
            8192     112.392E+06     19.1313E+06              0.    -64.2535E+06
            8193     113.093E+06     19.3481E+06              0.    -65.3906E+06
            8194     113.789E+06     19.5864E+06              0.    -66.5362E+06
            8195     114.479E+06     19.8471E+06              0.    -67.6896E+06
            8196     115.162E+06     20.1311E+06              0.    -68.8500E+06
            8197     115.835E+06     20.4393E+06              0.    -70.0163E+06
            8198     116.498E+06     20.7728E+06              0.    -71.1875E+06
            8199     117.148E+06     21.1323E+06              0.    -72.3624E+06
            8200     117.783E+06     21.5189E+06              0.    -73.5396E+06
            8201     118.403E+06     21.9334E+06              0.    -74.7179E+06
            8202     119.004E+06     22.3768E+06              0.    -75.8955E+06
            8203     119.584E+06     22.8499E+06              0.    -77.0709E+06
            8204     120.142E+06     23.3534E+06              0.    -78.2421E+06
            8205     120.674E+06     23.8883E+06              0.    -79.4071E+06
            8206     121.178E+06     24.4551E+06              0.    -80.5638E+06
            8207     121.651E+06     25.0545E+06              0.    -81.7096E+06
            8208     122.091E+06     25.6871E+06              0.    -82.8421E+06
            8209     122.494E+06     26.3532E+06              0.    -83.9583E+06
            8210     122.857E+06     27.0532E+06              0.    -85.0553E+06
            8211     123.178E+06     27.7873E+06              0.    -86.1297E+06
            8212     123.452E+06     28.5554E+06              0.    -87.1781E+06
            8213     123.675E+06     29.3572E+06              0.    -88.1965E+06
            8214     123.846E+06     30.1925E+06              0.    -89.1810E+06
            8215     123.959E+06     31.0604E+06              0.    -90.1272E+06
            8216     124.011E+06     31.9600E+06              0.    -91.0303E+06
            8217     123.998E+06     32.8901E+06              0.    -91.8855E+06
            8218     123.917E+06     33.8490E+06              0.    -92.6875E+06
            8219     123.762E+06     34.8346E+06              0.    -93.4306E+06
            8220     123.532E+06     35.8446E+06              0.    -94.1091E+06
            8221     123.221E+06     36.8759E+06              0.    -94.7168E+06
            8222     122.826E+06     37.9251E+06              0.    -95.2471E+06
            8223     122.344E+06     38.9883E+06              0.    -95.6934E+06
            8224     121.770E+06     40.0608E+06              0.    -96.0487E+06
            8225     121.103E+06     41.1375E+06              0.    -96.3057E+06
            8226     120.338E+06     42.2123E+06              0.    -96.4573E+06
            8227     119.474E+06     43.2788E+06              0.    -96.4958E+06
            8228     118.507E+06     44.3297E+06              0.    -96.4136E+06
            8229     117.437E+06     45.3569E+06              0.    -96.2033E+06
            8230     116.261E+06     46.3516E+06              0.    -95.8572E+06
            8231     114.979E+06     47.3043E+06              0.    -95.3680E+06
            8232     113.591E+06     48.2048E+06              0.    -94.7284E+06
            8233     112.098E+06     49.0422E+06              0.    -93.9318E+06
            8234     110.499E+06     49.8049E+06              0.    -92.9716E+06
            8235     108.796E+06     50.4808E+06              0.    -91.8419E+06
            8236     106.993E+06     51.0572E+06              0.    -90.5374E+06
            8237     105.092E+06     51.5212E+06              0.    -89.0537E+06
            8238     103.096E+06     51.8594E+06              0.    -87.3868E+06
            8239     101.009E+06     52.0585E+06              0.    -85.5341E+06
            8240     98.8372E+06     52.1051E+06              0.    -83.4936E+06
            8241     96.5849E+06     51.9860E+06              0.    -81.2645E+06
            8242     94.2581E+06     51.6882E+06              0.    -78.8471E+06
            8243     91.8627E+06     51.1996E+06              0.    -76.2428E+06
            8244     89.4049E+06     50.5084E+06              0.    -73.4539E+06
            8245     86.8886E+06     49.6026E+06              0.    -70.4840E+06
            8246     85.5165E+06     47.9668E+06              0.    -69.5855E+06
            8247     68.9862E+06     30.2431E+06              0.    -2.47455E+06
            8248     68.9769E+06     30.1371E+06              0.    -2.47018E+06
            8249     69.0131E+06     30.0530E+06              0.    -2.43717E+06
            8250     69.0488E+06     29.9712E+06              0.    -2.40908E+06
            8251     69.0843E+06     29.8916E+06              0.    -2.38578E+06
            8252     69.1194E+06     29.8140E+06              0.    -2.36715E+06
            8253     69.1543E+06     29.7385E+06              0.    -2.35307E+06
            8254     69.1891E+06     29.6649E+06              0.    -2.34343E+06
            8255     69.2237E+06     29.5930E+06              0.    -2.33810E+06
            8256     69.2584E+06     29.5229E+06              0.    -2.33700E+06
            8257     69.2931E+06     29.4543E+06              0.    -2.34003E+06
            8258     69.3278E+06     29.3873E+06              0.    -2.34709E+06
            8259     69.3628E+06     29.3216E+06              0.    -2.35810E+06
            8260     69.3979E+06     29.2574E+06              0.    -2.37297E+06
            8261     69.4334E+06     29.1944E+06              0.    -2.39164E+06
            8262     69.4691E+06     29.1325E+06              0.    -2.41403E+06
            8263     69.5052E+06     29.0718E+06              0.    -2.44007E+06
            8264     69.5418E+06     29.0122E+06              0.    -2.46971E+06
            8265     69.5789E+06     28.9534E+06              0.    -2.50288E+06
            8266     69.6165E+06     28.8956E+06              0.    -2.53953E+06
            8267     69.6547E+06     28.8386E+06              0.    -2.57961E+06
            8268     69.6936E+06     28.7824E+06              0.    -2.62308E+06
            8269     69.7331E+06     28.7268E+06              0.    -2.66990E+06
            8270     69.7734E+06     28.6719E+06              0.    -2.72002E+06
            8271     69.8145E+06     28.6175E+06              0.    -2.77342E+06
            8272     69.8565E+06     28.5637E+06              0.    -2.83007E+06
            8273     69.8993E+06     28.5103E+06              0.    -2.88994E+06
            8274     69.9431E+06     28.4573E+06              0.      -2.953E+06
            8275     69.9879E+06     28.4046E+06              0.    -3.01924E+06
            8276     70.0337E+06     28.3523E+06              0.    -3.08864E+06
            8277     70.0806E+06     28.3001E+06              0.    -3.16119E+06
            8278     70.1287E+06     28.2482E+06              0.    -3.23688E+06
            8279     70.1779E+06     28.1964E+06              0.    -3.31571E+06
            8280     70.2284E+06     28.1447E+06              0.    -3.39766E+06
            8281     70.2801E+06     28.0930E+06              0.    -3.48274E+06
            8282     70.3331E+06     28.0413E+06              0.    -3.57095E+06
            8283     70.3876E+06     27.9896E+06              0.    -3.66229E+06
            8284     70.4434E+06     27.9378E+06              0.    -3.75679E+06
            8285     70.5007E+06     27.8858E+06              0.    -3.85443E+06
            8286     70.5595E+06     27.8337E+06              0.    -3.95525E+06
            8287     70.6199E+06     27.7813E+06              0.    -4.05925E+06
            8288     70.6818E+06     27.7287E+06              0.    -4.16645E+06
            8289     70.7455E+06     27.6758E+06              0.    -4.27688E+06
            8290     70.8108E+06     27.6226E+06              0.    -4.39056E+06
            8291     70.8779E+06     27.5690E+06              0.    -4.50752E+06
            8292     70.9468E+06     27.5150E+06              0.    -4.62777E+06
            8293     71.0175E+06     27.4605E+06              0.    -4.75137E+06
            8294     71.0902E+06     27.4056E+06              0.    -4.87833E+06
            8295     71.1648E+06     27.3501E+06              0.    -5.00870E+06
            8296     71.2414E+06     27.2941E+06              0.    -5.14251E+06
            8297     71.3200E+06     27.2375E+06              0.    -5.27980E+06
            8298     71.4008E+06     27.1803E+06              0.    -5.42062E+06
            8299     71.4837E+06     27.1225E+06              0.    -5.56501E+06
            8300     71.5689E+06     27.0640E+06              0.    -5.71302E+06
            8301     71.6563E+06     27.0048E+06              0.    -5.86470E+06
            8302     71.7460E+06     26.9449E+06              0.    -6.02010E+06
            8303     71.8382E+06     26.8842E+06              0.    -6.17927E+06
            8304     71.9327E+06     26.8227E+06              0.    -6.34227E+06
            8305     72.0298E+06     26.7604E+06              0.    -6.50916E+06
            8306     72.1294E+06     26.6973E+06              0.    -6.68000E+06
            8307     72.2316E+06     26.6333E+06              0.    -6.85485E+06
            8308     72.3365E+06     26.5684E+06              0.    -7.03377E+06
            8309     72.4441E+06     26.5025E+06              0.    -7.21684E+06
            8310     72.5545E+06     26.4358E+06              0.    -7.40411E+06
            8311     72.6678E+06     26.3681E+06              0.    -7.59566E+06
            8312     72.7840E+06     26.2994E+06              0.    -7.79157E+06
            8313     72.9032E+06     26.2297E+06              0.    -7.99190E+06
            8314     73.0254E+06     26.1589E+06              0.    -8.19673E+06
            8315     73.1507E+06     26.0871E+06              0.    -8.40615E+06
            8316     73.2793E+06     26.0143E+06              0.    -8.62023E+06
            8317     73.4110E+06     25.9403E+06              0.    -8.83906E+06
            8318     73.5461E+06     25.8653E+06              0.    -9.06271E+06
            8319     73.6846E+06     25.7891E+06              0.    -9.29128E+06
            8320     73.8266E+06     25.7118E+06              0.    -9.52486E+06
            8321     73.9721E+06     25.6334E+06              0.    -9.76353E+06
            8322     74.1212E+06     25.5538E+06              0.    -10.0074E+06
            8323     74.2740E+06     25.4730E+06              0.    -10.2565E+06
            8324     74.4305E+06     25.3910E+06              0.    -10.5110E+06
            8325     74.5909E+06     25.3079E+06              0.    -10.7710E+06
            8326     74.7552E+06     25.2235E+06              0.    -11.0366E+06
            8327     74.9235E+06     25.1379E+06              0.    -11.3078E+06
            8328     75.0959E+06     25.0511E+06              0.    -11.5849E+06
            8329     75.2724E+06     24.9630E+06              0.    -11.8678E+06
            8330     75.4532E+06     24.8737E+06              0.    -12.1567E+06
            8331     75.6382E+06     24.7832E+06              0.    -12.4517E+06
            8332     75.8277E+06     24.6915E+06              0.    -12.7529E+06
            8333     76.0217E+06     24.5985E+06              0.    -13.0605E+06
            8334     76.2203E+06     24.5043E+06              0.    -13.3745E+06
            8335     76.4236E+06     24.4088E+06              0.    -13.6950E+06
            8336     76.6316E+06     24.3122E+06              0.    -14.0223E+06
            8337     76.8444E+06     24.2143E+06              0.    -14.3563E+06
            8338     77.0622E+06     24.1152E+06              0.    -14.6972E+06
            8339     77.2850E+06     24.0150E+06              0.    -15.0452E+06
            8340     77.5129E+06     23.9135E+06              0.    -15.4004E+06
            8341     77.7461E+06     23.8109E+06              0.    -15.7628E+06
            8342     77.9846E+06     23.7072E+06              0.    -16.1327E+06
            8343     78.2284E+06     23.6023E+06              0.    -16.5102E+06
            8344     78.4778E+06     23.4963E+06              0.    -16.8953E+06
            8345     78.7328E+06     23.3893E+06              0.    -17.2882E+06
            8346     78.9934E+06     23.2813E+06              0.    -17.6891E+06
            8347     79.2598E+06     23.1722E+06              0.    -18.0981E+06
            8348     79.5322E+06     23.0622E+06              0.    -18.5153E+06
            8349     79.8105E+06     22.9512E+06              0.    -18.9409E+06
            8350     80.0949E+06     22.8394E+06              0.    -19.3750E+06
            8351     80.3854E+06     22.7267E+06              0.    -19.8178E+06
            8352     80.6823E+06     22.6133E+06              0.    -20.2693E+06
            8353     80.9855E+06     22.4991E+06              0.    -20.7298E+06
            8354     81.2952E+06     22.3843E+06              0.    -21.1993E+06
            8355     81.6115E+06     22.2689E+06              0.    -21.6781E+06
            8356     81.9344E+06     22.1530E+06              0.    -22.1663E+06
            8357     82.2641E+06     22.0366E+06              0.    -22.6640E+06
            8358     82.6006E+06     21.9198E+06              0.    -23.1713E+06
            8359     82.9441E+06     21.8028E+06              0.    -23.6885E+06
            8360     83.2946E+06     21.6855E+06              0.    -24.2156E+06
            8361     83.6523E+06     21.5682E+06              0.    -24.7529E+06
            8362     84.0171E+06     21.4509E+06              0.    -25.3004E+06
            8363     84.3893E+06     21.3337E+06              0.    -25.8584E+06
            8364     84.7688E+06     21.2167E+06              0.    -26.4269E+06
            8365     85.1558E+06     21.1002E+06              0.    -27.0061E+06
            8366     85.5503E+06     20.9841E+06              0.    -27.5962E+06
            8367     85.9525E+06     20.8686E+06              0.    -28.1974E+06
            8368     86.3623E+06     20.7539E+06              0.    -28.8096E+06
            8369     86.7799E+06     20.6402E+06              0.    -29.4332E+06
            8370     87.2052E+06     20.5276E+06              0.    -30.0683E+06
            8371     87.6384E+06     20.4162E+06              0.    -30.7150E+06
            8372     88.0796E+06     20.3063E+06              0.    -31.3734E+06
            8373     88.5286E+06     20.1981E+06              0.    -32.0436E+06
            8374     88.9857E+06     20.0918E+06              0.    -32.7259E+06
            8375     89.4508E+06     19.9875E+06              0.    -33.4204E+06
            8376     89.9238E+06     19.8856E+06              0.    -34.1271E+06
            8377     90.4050E+06     19.7861E+06              0.    -34.8463E+06
            8378     90.8942E+06     19.6895E+06              0.    -35.5779E+06
            8379     91.3914E+06     19.5960E+06              0.    -36.3223E+06
            8380     91.8966E+06     19.5058E+06              0.    -37.0794E+06
            8381     92.4098E+06     19.4192E+06              0.    -37.8493E+06
            8382     92.9309E+06     19.3365E+06              0.    -38.6323E+06
            8383     93.4599E+06     19.2581E+06              0.    -39.4283E+06
            8384     93.9967E+06     19.1843E+06              0.    -40.2375E+06
            8385     94.5412E+06     19.1154E+06              0.    -41.0599E+06
            8386     95.0932E+06     19.0518E+06              0.    -41.8956E+06
            8387     95.6528E+06     18.9939E+06              0.    -42.7446E+06
            8388     96.2196E+06     18.9421E+06              0.    -43.6071E+06
            8389     96.7936E+06     18.8967E+06              0.    -44.4830E+06
            8390     97.3746E+06     18.8583E+06              0.    -45.3724E+06
            8391     97.9622E+06     18.8273E+06              0.    -46.2752E+06
            8392     98.5564E+06     18.8041E+06              0.    -47.1915E+06
            8393     99.1567E+06     18.7893E+06              0.    -48.1213E+06
            8394     99.7630E+06     18.7833E+06              0.    -49.0644E+06
            8395     100.375E+06     18.7867E+06              0.    -50.0208E+06
            8396     100.992E+06     18.8000E+06              0.    -50.9905E+06
            8397     101.614E+06     18.8238E+06              0.    -51.9733E+06
            8398     102.240E+06     18.8587E+06              0.    -52.9691E+06
            8399     102.870E+06     18.9054E+06              0.    -53.9777E+06
            8400     103.503E+06     18.9643E+06              0.    -54.9989E+06
            8401     104.139E+06     19.0363E+06              0.    -56.0324E+06
            8402     104.777E+06     19.1220E+06              0.    -57.0781E+06
            8403     105.416E+06     19.2220E+06              0.    -58.1356E+06
            8404     106.056E+06     19.3371E+06              0.    -59.2045E+06
            8405     106.696E+06     19.4680E+06              0.    -60.2845E+06
            8406     107.335E+06     19.6155E+06              0.    -61.3751E+06
            8407     107.971E+06     19.7803E+06              0.    -62.4757E+06
            8408     108.605E+06     19.9633E+06              0.    -63.5858E+06
            8409     109.235E+06     20.1652E+06              0.    -64.7049E+06
            8410     109.859E+06     20.3868E+06              0.    -65.8321E+06
            8411     110.477E+06     20.6290E+06              0.    -66.9667E+06
            8412     111.088E+06     20.8926E+06              0.    -68.1079E+06
            8413     111.689E+06     21.1784E+06              0.    -69.2547E+06
            8414     112.279E+06     21.4873E+06              0.    -70.4060E+06
            8415     112.857E+06     21.8201E+06              0.    -71.5608E+06
            8416     113.421E+06     22.1776E+06              0.    -72.7177E+06
            8417     113.968E+06     22.5606E+06              0.    -73.8755E+06
            8418     114.498E+06     22.9699E+06              0.    -75.0326E+06
            8419     115.009E+06     23.4062E+06              0.    -76.1874E+06
            8420     115.497E+06     23.8703E+06              0.    -77.3381E+06
            8421     115.961E+06     24.3628E+06              0.    -78.4828E+06
            8422     116.398E+06     24.8844E+06              0.    -79.6193E+06
            8423     116.806E+06     25.4355E+06              0.    -80.7456E+06
            8424     117.182E+06     26.0167E+06              0.    -81.8590E+06
            8425     117.523E+06     26.6282E+06              0.    -82.9570E+06
            8426     117.827E+06     27.2704E+06              0.    -84.0366E+06
            8427     118.091E+06     27.9432E+06              0.    -85.0949E+06
            8428     118.311E+06     28.6467E+06              0.    -86.1284E+06
            8429     118.484E+06     29.3807E+06              0.    -87.1337E+06
            8430     118.607E+06     30.1447E+06              0.    -88.1070E+06
            8431     118.677E+06     30.9380E+06              0.    -89.0442E+06
            8432     118.690E+06     31.7597E+06              0.    -89.9410E+06
            8433     118.642E+06     32.6087E+06              0.    -90.7928E+06
            8434     118.531E+06     33.4835E+06              0.    -91.5948E+06
            8435     118.353E+06     34.3822E+06              0.    -92.3417E+06
            8436     118.103E+06     35.3025E+06              0.    -93.0282E+06
            8437     117.779E+06     36.2418E+06              0.    -93.6486E+06
            8438     117.377E+06     37.1971E+06              0.    -94.1969E+06
            8439     116.894E+06     38.1647E+06              0.    -94.6669E+06
            8440     116.327E+06     39.1405E+06              0.    -95.0523E+06
            8441     115.672E+06     40.1198E+06              0.    -95.3463E+06
            8442     114.927E+06     41.0974E+06              0.    -95.5421E+06
            8443     114.090E+06     42.0675E+06              0.    -95.6329E+06
            8444     113.158E+06     43.0234E+06              0.    -95.6115E+06
            8445     112.129E+06     43.9580E+06              0.    -95.4708E+06
            8446     111.002E+06     44.8636E+06              0.    -95.2039E+06
            8447     109.776E+06     45.7315E+06              0.    -94.8037E+06
            8448     108.451E+06     46.5526E+06              0.    -94.2634E+06
            8449     107.026E+06     47.3171E+06              0.    -93.5764E+06
            8450     105.502E+06     48.0146E+06              0.    -92.7364E+06
            8451     103.881E+06     48.6342E+06              0.    -91.7376E+06
            8452     102.163E+06     49.1645E+06              0.    -90.5747E+06
            8453     100.352E+06     49.5934E+06              0.    -89.2428E+06
            8454     98.4499E+06     49.9090E+06              0.    -87.7379E+06
            8455     96.4608E+06     50.0988E+06              0.    -86.0567E+06
            8456     94.3886E+06     50.1504E+06              0.    -84.1966E+06
            8457     92.2378E+06     50.0513E+06              0.    -82.1560E+06
            8458     90.0135E+06     49.7894E+06              0.    -79.9344E+06
            8459     87.7209E+06     49.3529E+06              0.    -77.5319E+06
            8460     85.3659E+06     48.7303E+06              0.    -74.9500E+06
            8461      82.955E+06     47.9113E+06              0.    -72.1910E+06
            8462     80.4983E+06     46.8871E+06              0.    -69.2579E+06
            8463     79.1182E+06     45.1469E+06              0.    -68.3489E+06
            8464     68.8878E+06     30.2013E+06              0.    -2.50941E+06
            8465     68.8790E+06     30.1016E+06              0.    -2.50498E+06
            8466     68.9131E+06     30.0224E+06              0.    -2.47149E+06
            8467     68.9468E+06     29.9453E+06              0.    -2.44300E+06
            8468     68.9802E+06     29.8704E+06              0.    -2.41937E+06
            8469     69.0133E+06     29.7974E+06              0.    -2.40048E+06
            8470     69.0461E+06     29.7263E+06              0.    -2.38619E+06
            8471     69.0789E+06     29.6569E+06              0.    -2.37640E+06
            8472     69.1115E+06     29.5893E+06              0.    -2.37100E+06
            8473     69.1441E+06     29.5232E+06              0.    -2.36988E+06
            8474     69.1768E+06     29.4587E+06              0.    -2.37294E+06
            8475     69.2096E+06     29.3955E+06              0.    -2.38009E+06
            8476     69.2425E+06     29.3338E+06              0.    -2.39125E+06
            8477     69.2756E+06     29.2733E+06              0.    -2.40633E+06
            8478     69.3089E+06     29.2139E+06              0.    -2.42525E+06
            8479     69.3426E+06     29.1557E+06              0.    -2.44795E+06
            8480     69.3766E+06     29.0986E+06              0.    -2.47435E+06
            8481     69.4111E+06     29.0424E+06              0.    -2.50439E+06
            8482     69.4460E+06     28.9871E+06              0.    -2.53802E+06
            8483     69.4814E+06     28.9327E+06              0.    -2.57517E+06
            8484     69.5174E+06     28.8790E+06              0.    -2.61581E+06
            8485     69.5539E+06     28.8261E+06              0.    -2.65988E+06
            8486     69.5912E+06     28.7738E+06              0.    -2.70734E+06
            8487     69.6291E+06     28.7221E+06              0.    -2.75816E+06
            8488     69.6678E+06     28.6709E+06              0.    -2.81230E+06
            8489     69.7073E+06     28.6202E+06              0.    -2.86973E+06
            8490     69.7477E+06     28.5700E+06              0.    -2.93042E+06
            8491     69.7889E+06     28.5201E+06              0.    -2.99436E+06
            8492     69.8310E+06     28.4706E+06              0.    -3.06151E+06
            8493     69.8742E+06     28.4213E+06              0.    -3.13187E+06
            8494     69.9183E+06     28.3722E+06              0.    -3.20543E+06
            8495     69.9636E+06     28.3234E+06              0.    -3.28216E+06
            8496     70.0099E+06     28.2746E+06              0.    -3.36207E+06
            8497     70.0574E+06     28.2260E+06              0.    -3.44515E+06
            8498     70.1061E+06     28.1773E+06              0.    -3.53140E+06
            8499     70.1560E+06     28.1287E+06              0.    -3.62083E+06
            8500     70.2072E+06     28.0801E+06              0.    -3.71343E+06
            8501     70.2598E+06     28.0313E+06              0.    -3.80922E+06
            8502     70.3137E+06     27.9825E+06              0.    -3.90821E+06
            8503     70.3691E+06     27.9334E+06              0.    -4.01041E+06
            8504     70.4259E+06     27.8842E+06              0.    -4.11584E+06
            8505     70.4842E+06     27.8347E+06              0.    -4.22452E+06
            8506     70.5441E+06      27.785E+06              0.    -4.33646E+06
            8507     70.6056E+06     27.7349E+06              0.    -4.45169E+06
            8508     70.6687E+06     27.6846E+06              0.    -4.57025E+06
            8509     70.7335E+06     27.6338E+06              0.    -4.69215E+06
            8510     70.8001E+06     27.5826E+06              0.    -4.81743E+06
            8511     70.8685E+06     27.5309E+06              0.    -4.94612E+06
            8512     70.9387E+06     27.4788E+06              0.    -5.07826E+06
            8513     71.0107E+06     27.4262E+06              0.    -5.21389E+06
            8514     71.0848E+06     27.3731E+06              0.    -5.35305E+06
            8515     71.1608E+06     27.3193E+06              0.    -5.49578E+06
            8516     71.2388E+06     27.2650E+06              0.    -5.64213E+06
            8517     71.3189E+06     27.2101E+06              0.    -5.79215E+06
            8518     71.4011E+06     27.1545E+06              0.    -5.94588E+06
            8519     71.4856E+06     27.0982E+06              0.    -6.10337E+06
            8520     71.5722E+06     27.0412E+06              0.    -6.26469E+06
            8521     71.6612E+06     26.9835E+06              0.    -6.42988E+06
            8522     71.7525E+06     26.9250E+06              0.    -6.59902E+06
            8523     71.8462E+06     26.8657E+06              0.    -6.77214E+06
            8524     71.9423E+06     26.8056E+06              0.    -6.94933E+06
            8525     72.0410E+06     26.7447E+06              0.    -7.13065E+06
            8526     72.1422E+06     26.6830E+06              0.    -7.31615E+06
            8527     72.2460E+06     26.6204E+06              0.    -7.50592E+06
            8528     72.3525E+06     26.5568E+06              0.    -7.70002E+06
            8529     72.4618E+06     26.4924E+06              0.    -7.89852E+06
            8530     72.5739E+06     26.4270E+06              0.     -8.1015E+06
            8531     72.6888E+06     26.3607E+06              0.    -8.30904E+06
            8532     72.8067E+06     26.2934E+06              0.    -8.52121E+06
            8533     72.9275E+06     26.2251E+06              0.    -8.73811E+06
            8534     73.0514E+06     26.1559E+06              0.     -8.9598E+06
            8535     73.1784E+06     26.0855E+06              0.    -9.18638E+06
            8536     73.3086E+06     26.0142E+06              0.    -9.41793E+06
            8537     73.4420E+06     25.9418E+06              0.    -9.65454E+06
            8538     73.5788E+06     25.8684E+06              0.    -9.89630E+06
            8539     73.7189E+06     25.7938E+06              0.    -10.1433E+06
            8540     73.8625E+06     25.7182E+06              0.    -10.3957E+06
            8541     74.0096E+06     25.6415E+06              0.    -10.6534E+06
            8542     74.1603E+06     25.5637E+06              0.    -10.9168E+06
            8543     74.3147E+06     25.4848E+06              0.    -11.1857E+06
            8544     74.4728E+06     25.4047E+06              0.    -11.4604E+06
            8545     74.6347E+06     25.3236E+06              0.    -11.7410E+06
            8546     74.8005E+06     25.2413E+06              0.    -12.0274E+06
            8547     74.9703E+06     25.1578E+06              0.    -12.3200E+06
            8548     75.1441E+06     25.0733E+06              0.    -12.6187E+06
            8549     75.3221E+06     24.9876E+06              0.    -12.9237E+06
            8550     75.5042E+06     24.9008E+06              0.    -13.2350E+06
            8551     75.6907E+06     24.8129E+06              0.    -13.5529E+06
            8552     75.8815E+06     24.7239E+06              0.    -13.8774E+06
            8553     76.0767E+06     24.6337E+06              0.    -14.2086E+06
            8554     76.2765E+06     24.5425E+06              0.    -14.5467E+06
            8555     76.4808E+06     24.4501E+06              0.    -14.8918E+06
            8556     76.6899E+06     24.3567E+06              0.    -15.2440E+06
            8557     76.9037E+06     24.2622E+06              0.    -15.6034E+06
            8558     77.1224E+06     24.1667E+06              0.    -15.9702E+06
            8559     77.3461E+06     24.0702E+06              0.    -16.3444E+06
            8560     77.5748E+06     23.9727E+06              0.    -16.7263E+06
            8561     77.8086E+06     23.8742E+06              0.    -17.1159E+06
            8562     78.0476E+06     23.7747E+06              0.    -17.5134E+06
            8563     78.2919E+06     23.6744E+06              0.    -17.9189E+06
            8564     78.5416E+06     23.5732E+06              0.    -18.3326E+06
            8565     78.7968E+06     23.4711E+06              0.    -18.7545E+06
            8566     79.0575E+06     23.3683E+06              0.    -19.1849E+06
            8567     79.3239E+06     23.2647E+06              0.    -19.6238E+06
            8568     79.5960E+06     23.1604E+06              0.    -20.0715E+06
            8569     79.8739E+06     23.0554E+06              0.    -20.5280E+06
            8570     80.1577E+06     22.9499E+06              0.    -20.9934E+06
            8571     80.4476E+06     22.8438E+06              0.    -21.4680E+06
            8572     80.7435E+06     22.7373E+06              0.    -21.9519E+06
            8573     81.0455E+06     22.6304E+06              0.    -22.4452E+06
            8574     81.3538E+06     22.5232E+06              0.    -22.9480E+06
            8575     81.6684E+06     22.4157E+06              0.    -23.4606E+06
            8576     81.9895E+06     22.3081E+06              0.    -23.9830E+06
            8577     82.3170E+06     22.2004E+06              0.    -24.5154E+06
            8578     82.6510E+06     22.0927E+06              0.    -25.0580E+06
            8579     82.9917E+06     21.9852E+06              0.    -25.6108E+06
            8580     83.3392E+06     21.8780E+06              0.    -26.1741E+06
            8581     83.6933E+06     21.7711E+06              0.    -26.7480E+06
            8582     84.0543E+06     21.6647E+06              0.    -27.3326E+06
            8583     84.4222E+06     21.5589E+06              0.    -27.9281E+06
            8584     84.7971E+06     21.4539E+06              0.    -28.5346E+06
            8585     85.1790E+06     21.3498E+06              0.    -29.1522E+06
            8586     85.5679E+06     21.2468E+06              0.    -29.7811E+06
            8587     85.9639E+06     21.1450E+06              0.    -30.4215E+06
            8588     86.3671E+06     21.0446E+06              0.    -31.0735E+06
            8589     86.7774E+06     20.9457E+06              0.    -31.7371E+06
            8590     87.1949E+06     20.8486E+06              0.    -32.4126E+06
            8591     87.6196E+06     20.7535E+06              0.    -33.1001E+06
            8592     88.0516E+06     20.6606E+06              0.    -33.7996E+06
            8593     88.4907E+06     20.5701E+06              0.    -34.5113E+06
            8594     88.9370E+06     20.4822E+06              0.    -35.2354E+06
            8595     89.3906E+06     20.3972E+06              0.    -35.9719E+06
            8596     89.8513E+06     20.3153E+06              0.    -36.7210E+06
            8597     90.3191E+06     20.2368E+06              0.    -37.4827E+06
            8598     90.7940E+06     20.1620E+06              0.    -38.2571E+06
            8599     91.2758E+06     20.0912E+06              0.    -39.0443E+06
            8600     91.7646E+06     20.0247E+06              0.    -39.8445E+06
            8601     92.2602E+06     19.9627E+06              0.    -40.6576E+06
            8602     92.7624E+06     19.9058E+06              0.    -41.4838E+06
            8603     93.2713E+06     19.8541E+06              0.    -42.3230E+06
            8604     93.7865E+06     19.8081E+06              0.    -43.1753E+06
            8605     94.3080E+06     19.7682E+06              0.    -44.0408E+06
            8606     94.8355E+06     19.7347E+06              0.    -44.9195E+06
            8607     95.3688E+06     19.7081E+06              0.    -45.8113E+06
            8608     95.9077E+06     19.6888E+06              0.    -46.7162E+06
            8609     96.4519E+06     19.6772E+06              0.    -47.6342E+06
            8610     97.0011E+06     19.6739E+06              0.    -48.5653E+06
            8611      97.555E+06     19.6793E+06              0.    -49.5093E+06
            8612     98.1132E+06     19.6939E+06              0.    -50.4663E+06
            8613     98.6753E+06     19.7182E+06              0.    -51.4359E+06
            8614     99.2408E+06     19.7528E+06              0.    -52.4182E+06
            8615     99.8094E+06     19.7982E+06              0.    -53.4129E+06
            8616     100.380E+06     19.8551E+06              0.    -54.4199E+06
            8617     100.953E+06     19.9240E+06              0.    -55.4388E+06
            8618     101.528E+06     20.0055E+06              0.    -56.4695E+06
            8619     102.103E+06     20.1003E+06              0.    -57.5115E+06
            8620     102.677E+06     20.2090E+06              0.    -58.5646E+06
            8621     103.251E+06     20.3323E+06              0.    -59.6283E+06
            8622     103.824E+06     20.4708E+06              0.    -60.7022E+06
            8623     104.394E+06     20.6253E+06              0.    -61.7858E+06
            8624     104.960E+06     20.7965E+06              0.    -62.8786E+06
            8625     105.522E+06     20.9851E+06              0.    -63.9798E+06
            8626     106.078E+06     21.1918E+06              0.    -65.0889E+06
            8627     106.628E+06     21.4173E+06              0.    -66.2051E+06
            8628     107.169E+06     21.6625E+06              0.    -67.3275E+06
            8629     107.702E+06     21.9280E+06              0.    -68.4552E+06
            8630     108.223E+06     22.2146E+06              0.    -69.5873E+06
            8631     108.732E+06     22.5230E+06              0.    -70.7225E+06
            8632     109.228E+06     22.8539E+06              0.    -71.8598E+06
            8633     109.708E+06     23.2082E+06              0.    -72.9977E+06
            8634     110.170E+06     23.5863E+06              0.    -74.1350E+06
            8635     110.614E+06     23.9891E+06              0.    -75.2700E+06
            8636     111.036E+06     24.4171E+06              0.    -76.4010E+06
            8637     111.435E+06     24.8709E+06              0.    -77.5262E+06
            8638     111.808E+06     25.3511E+06              0.    -78.6436E+06
            8639     112.154E+06     25.8580E+06              0.    -79.7511E+06
            8640     112.469E+06     26.3920E+06              0.    -80.8465E+06
            8641     112.752E+06     26.9535E+06              0.    -81.9270E+06
            8642     112.999E+06     27.5426E+06              0.    -82.9902E+06
            8643     113.209E+06     28.1593E+06              0.    -84.0332E+06
            8644     113.377E+06     28.8037E+06              0.    -85.0527E+06
            8645     113.502E+06     29.4753E+06              0.    -86.0456E+06
            8646     113.579E+06     30.1739E+06              0.    -87.0082E+06
            8647     113.607E+06     30.8987E+06              0.    -87.9369E+06
            8648     113.582E+06     31.6490E+06              0.    -88.8276E+06
            8649     113.500E+06     32.4236E+06              0.    -89.6761E+06
            8650     113.360E+06     33.2211E+06              0.    -90.4778E+06
            8651     113.156E+06     34.0398E+06              0.    -91.2280E+06
            8652     112.887E+06     34.8776E+06              0.    -91.9216E+06
            8653     112.548E+06     35.7323E+06              0.    -92.5535E+06
            8654     112.137E+06     36.6009E+06              0.    -93.1181E+06
            8655     111.651E+06     37.4803E+06              0.    -93.6097E+06
            8656     111.087E+06     38.3667E+06              0.    -94.0224E+06
            8657     110.441E+06     39.2559E+06              0.    -94.3499E+06
            8658     109.712E+06     40.1432E+06              0.    -94.5860E+06
            8659     108.897E+06     41.0233E+06              0.    -94.7243E+06
            8660     107.994E+06     41.8904E+06              0.    -94.7581E+06
            8661     107.000E+06     42.7380E+06              0.    -94.6809E+06
            8662     105.916E+06     43.5592E+06              0.    -94.4860E+06
            8663     104.739E+06     44.3463E+06              0.    -94.1669E+06
            8664     103.468E+06     45.0911E+06              0.    -93.7170E+06
            8665     102.105E+06     45.7847E+06              0.    -93.1302E+06
            8666     100.648E+06     46.4178E+06              0.    -92.4002E+06
            8667     99.0993E+06     46.9805E+06              0.    -91.5214E+06
            8668     97.4594E+06     47.4624E+06              0.    -90.4884E+06
            8669     95.7304E+06     47.8527E+06              0.    -89.2964E+06
            8670     93.9147E+06     48.1403E+06              0.    -87.9410E+06
            8671     92.0152E+06     48.3137E+06              0.    -86.4186E+06
            8672     90.0355E+06     48.3615E+06              0.    -84.7262E+06
            8673     87.9792E+06     48.2719E+06              0.    -82.8616E+06
            8674     85.8509E+06     48.0337E+06              0.    -80.8234E+06
            8675     83.6552E+06     47.6353E+06              0.    -78.6111E+06
            8676     81.3972E+06     47.0659E+06              0.    -76.2249E+06
            8677     79.0820E+06     46.3150E+06              0.    -73.6663E+06
            8678     76.7144E+06     45.3722E+06              0.    -70.9375E+06
            8679     74.2951E+06     44.2271E+06              0.    -68.0415E+06
            8680     72.8859E+06     42.3750E+06              0.    -67.1202E+06
            8681     68.7880E+06     30.1590E+06              0.    -2.54214E+06
            8682     68.7798E+06     30.0655E+06              0.    -2.53764E+06
            8683     68.8118E+06     29.9913E+06              0.    -2.50372E+06
            8684     68.8434E+06     29.9191E+06              0.    -2.47485E+06
            8685     68.8747E+06     29.8489E+06              0.    -2.45091E+06
            8686     68.9057E+06     29.7805E+06              0.    -2.43176E+06
            8687     68.9365E+06     29.7138E+06              0.    -2.41728E+06
            8688     68.9672E+06     29.6488E+06              0.    -2.40736E+06
            8689     68.9978E+06     29.5854E+06              0.    -2.40188E+06
            8690     69.0284E+06     29.5235E+06              0.    -2.40074E+06
            8691      69.059E+06     29.4631E+06              0.    -2.40383E+06
            8692     69.0897E+06     29.4039E+06              0.    -2.41107E+06
            8693     69.1205E+06     29.3460E+06              0.    -2.42237E+06
            8694     69.1516E+06     29.2893E+06              0.    -2.43763E+06
            8695     69.1828E+06     29.2338E+06              0.    -2.45680E+06
            8696     69.2144E+06     29.1792E+06              0.    -2.47978E+06
            8697     69.2463E+06     29.1257E+06              0.    -2.50651E+06
            8698     69.2785E+06     29.0730E+06              0.    -2.53694E+06
            8699     69.3113E+06     29.0212E+06              0.    -2.57099E+06
            8700     69.3445E+06     28.9702E+06              0.    -2.60862E+06
            8701     69.3782E+06     28.9200E+06              0.    -2.64978E+06
            8702     69.4124E+06     28.8704E+06              0.    -2.69441E+06
            8703     69.4474E+06     28.8214E+06              0.    -2.74248E+06
            8704     69.4829E+06     28.7729E+06              0.    -2.79395E+06
            8705     69.5192E+06     28.7250E+06              0.    -2.84878E+06
            8706     69.5562E+06     28.6776E+06              0.    -2.90694E+06
            8707     69.5940E+06     28.6305E+06              0.    -2.96841E+06
            8708     69.6326E+06     28.5838E+06              0.    -3.03316E+06
            8709     69.6721E+06     28.5374E+06              0.    -3.10117E+06
            8710     69.7125E+06     28.4912E+06              0.    -3.17243E+06
            8711     69.7539E+06     28.4453E+06              0.    -3.24692E+06
            8712     69.7962E+06     28.3995E+06              0.    -3.32463E+06
            8713     69.8396E+06     28.3539E+06              0.    -3.40556E+06
            8714     69.8841E+06     28.3083E+06              0.    -3.48970E+06
            8715     69.9297E+06     28.2628E+06              0.    -3.57705E+06
            8716     69.9765E+06     28.2173E+06              0.    -3.66761E+06
            8717     70.0245E+06     28.1718E+06              0.    -3.76140E+06
            8718     70.0737E+06     28.1261E+06              0.    -3.85841E+06
            8719     70.1242E+06     28.0804E+06              0.    -3.95865E+06
            8720     70.1761E+06     28.0345E+06              0.    -4.06215E+06
            8721     70.2293E+06     27.9885E+06              0.    -4.16891E+06
            8722     70.2839E+06     27.9422E+06              0.    -4.27896E+06
            8723     70.3400E+06     27.8956E+06              0.    -4.39232E+06
            8724     70.3976E+06     27.8488E+06              0.    -4.50901E+06
            8725     70.4568E+06     27.8016E+06              0.    -4.62906E+06
            8726     70.5175E+06     27.7542E+06              0.    -4.75250E+06
            8727     70.5798E+06     27.7063E+06              0.    -4.87936E+06
            8728     70.6438E+06     27.6580E+06              0.    -5.00967E+06
            8729     70.7096E+06     27.6093E+06              0.    -5.14348E+06
            8730     70.7771E+06     27.5601E+06              0.    -5.28081E+06
            8731     70.8464E+06     27.5104E+06              0.    -5.42171E+06
            8732     70.9175E+06     27.4601E+06              0.    -5.56623E+06
            8733     70.9906E+06     27.4094E+06              0.    -5.71441E+06
            8734     71.0656E+06     27.3580E+06              0.    -5.86629E+06
            8735     71.1426E+06     27.3060E+06              0.    -6.02194E+06
            8736     71.2217E+06     27.2535E+06              0.    -6.18139E+06
            8737     71.3028E+06     27.2002E+06              0.    -6.34472E+06
            8738     71.3861E+06     27.1463E+06              0.    -6.51196E+06
            8739     71.4715E+06     27.0917E+06              0.    -6.68318E+06
            8740     71.5592E+06     27.0363E+06              0.    -6.85845E+06
            8741     71.6492E+06     26.9802E+06              0.    -7.03783E+06
            8742     71.7416E+06     26.9234E+06              0.    -7.22137E+06
            8743     71.8363E+06     26.8658E+06              0.    -7.40916E+06
            8744     71.9335E+06     26.8073E+06              0.    -7.60125E+06
            8745     72.0332E+06     26.7480E+06              0.    -7.79772E+06
            8746     72.1355E+06     26.6879E+06              0.    -7.99864E+06
            8747     72.2404E+06     26.6269E+06              0.    -8.20410E+06
            8748     72.3479E+06     26.5651E+06              0.    -8.41416E+06
            8749     72.4582E+06     26.5023E+06              0.    -8.62890E+06
            8750     72.5712E+06     26.4387E+06              0.    -8.84842E+06
            8751     72.6872E+06     26.3741E+06              0.    -9.07278E+06
            8752     72.8060E+06     26.3086E+06              0.    -9.30208E+06
            8753     72.9278E+06     26.2421E+06              0.    -9.53640E+06
            8754     73.0526E+06     26.1747E+06              0.    -9.77584E+06
            8755     73.1805E+06     26.1063E+06              0.    -10.0205E+06
            8756     73.3115E+06     26.0369E+06              0.    -10.2704E+06
            8757     73.4458E+06     25.9665E+06              0.    -10.5258E+06
            8758     73.5834E+06     25.8951E+06              0.    -10.7866E+06
            8759     73.7243E+06     25.8227E+06              0.    -11.0530E+06
            8760     73.8686E+06     25.7493E+06              0.    -11.3251E+06
            8761     74.0164E+06     25.6748E+06              0.    -11.6030E+06
            8762     74.1678E+06     25.5994E+06              0.    -11.8868E+06
            8763     74.3228E+06     25.5229E+06              0.    -12.1766E+06
            8764     74.4815E+06     25.4454E+06              0.    -12.4725E+06
            8765     74.6439E+06     25.3669E+06              0.    -12.7746E+06
            8766     74.8102E+06     25.2873E+06              0.    -13.0831E+06
            8767     74.9804E+06     25.2068E+06              0.    -13.3980E+06
            8768     75.1546E+06     25.1252E+06              0.    -13.7194E+06
            8769     75.3328E+06     25.0426E+06              0.    -14.0476E+06
            8770     75.5151E+06     24.9590E+06              0.    -14.3825E+06
            8771     75.7017E+06     24.8744E+06              0.    -14.7243E+06
            8772     75.8925E+06     24.7889E+06              0.    -15.0732E+06
            8773     76.0877E+06     24.7024E+06              0.    -15.4293E+06
            8774     76.2873E+06     24.6150E+06              0.    -15.7926E+06
            8775     76.4914E+06     24.5266E+06              0.    -16.1634E+06
            8776     76.7002E+06     24.4374E+06              0.    -16.5416E+06
            8777     76.9135E+06     24.3472E+06              0.    -16.9276E+06
            8778     77.1316E+06     24.2563E+06              0.    -17.3213E+06
            8779     77.3546E+06     24.1645E+06              0.    -17.7230E+06
            8780     77.5824E+06     24.0719E+06              0.    -18.1328E+06
            8781     77.8152E+06     23.9786E+06              0.    -18.5507E+06
            8782     78.0531E+06     23.8846E+06              0.    -18.9770E+06
            8783     78.2961E+06     23.7899E+06              0.    -19.4117E+06
            8784     78.5443E+06     23.6945E+06              0.    -19.8551E+06
            8785     78.7977E+06     23.5987E+06              0.    -20.3072E+06
            8786     79.0566E+06     23.5022E+06              0.    -20.7682E+06
            8787     79.3209E+06     23.4054E+06              0.    -21.2382E+06
            8788     79.5907E+06     23.3081E+06              0.    -21.7174E+06
            8789     79.8660E+06     23.2105E+06              0.    -22.2059E+06
            8790     80.1471E+06     23.1127E+06              0.    -22.7038E+06
            8791     80.4338E+06     23.0146E+06              0.    -23.2113E+06
            8792     80.7264E+06     22.9165E+06              0.    -23.7286E+06
            8793     81.0248E+06     22.8183E+06              0.    -24.2557E+06
            8794     81.3292E+06     22.7202E+06              0.    -24.7929E+06
            8795     81.6396E+06     22.6222E+06              0.    -25.3402E+06
            8796     81.9560E+06     22.5246E+06              0.    -25.8978E+06
            8797     82.2785E+06     22.4273E+06              0.    -26.4659E+06
            8798     82.6072E+06     22.3305E+06              0.    -27.0445E+06
            8799     82.9421E+06     22.2343E+06              0.    -27.6339E+06
            8800     83.2832E+06     22.1389E+06              0.    -28.2341E+06
            8801     83.6307E+06     22.0443E+06              0.    -28.8454E+06
            8802     83.9845E+06     21.9508E+06              0.    -29.4678E+06
            8803     84.3447E+06     21.8584E+06              0.    -30.1014E+06
            8804     84.7112E+06     21.7674E+06              0.    -30.7464E+06
            8805     85.0842E+06     21.6778E+06              0.    -31.4030E+06
            8806     85.4636E+06     21.5900E+06              0.    -32.0712E+06
            8807     85.8495E+06      21.504E+06              0.    -32.7512E+06
            8808     86.2418E+06     21.4201E+06              0.    -33.4431E+06
            8809     86.6405E+06     21.3384E+06              0.    -34.1470E+06
            8810     87.0457E+06     21.2593E+06              0.    -34.8630E+06
            8811     87.4572E+06     21.1828E+06              0.    -35.5912E+06
            8812     87.8751E+06     21.1093E+06              0.    -36.3318E+06
            8813     88.2993E+06     21.0390E+06              0.    -37.0848E+06
            8814     88.7297E+06     20.9721E+06              0.    -37.8502E+06
            8815     89.1662E+06     20.9090E+06              0.    -38.6283E+06
            8816     89.6089E+06     20.8499E+06              0.    -39.4190E+06
            8817     90.0574E+06     20.7951E+06              0.    -40.2224E+06
            8818     90.5119E+06     20.7449E+06              0.    -41.0386E+06
            8819     90.9720E+06     20.6997E+06              0.    -41.8676E+06
            8820     91.4377E+06     20.6597E+06              0.    -42.7094E+06
            8821     91.9088E+06     20.6254E+06              0.    -43.5641E+06
            8822     92.3851E+06     20.5972E+06              0.    -44.4316E+06
            8823     92.8663E+06     20.5753E+06              0.    -45.3121E+06
            8824     93.3522E+06     20.5602E+06              0.    -46.2053E+06
            8825     93.8426E+06     20.5523E+06              0.    -47.1113E+06
            8826     94.3372E+06     20.5520E+06              0.    -48.0300E+06
            8827     94.8356E+06     20.5598E+06              0.    -48.9614E+06
            8828     95.3375E+06     20.5762E+06              0.    -49.9053E+06
            8829     95.8425E+06     20.6016E+06              0.    -50.8617E+06
            8830     96.3501E+06     20.6365E+06              0.    -51.8303E+06
            8831     96.8600E+06     20.6815E+06              0.    -52.8109E+06
            8832     97.3716E+06     20.7370E+06              0.    -53.8035E+06
            8833     97.8844E+06     20.8036E+06              0.    -54.8076E+06
            8834     98.3978E+06     20.8818E+06              0.    -55.8232E+06
            8835     98.9112E+06     20.9723E+06              0.    -56.8497E+06
            8836     99.4239E+06     21.0756E+06              0.    -57.8870E+06
            8837     99.9352E+06     21.1923E+06              0.    -58.9345E+06
            8838     100.444E+06     21.3231E+06              0.    -59.9919E+06
            8839     100.950E+06     21.4686E+06              0.    -61.0586E+06
            8840     101.452E+06     21.6293E+06              0.    -62.1341E+06
            8841     101.950E+06     21.8061E+06              0.    -63.2178E+06
            8842     102.441E+06     21.9994E+06              0.    -64.3090E+06
            8843     102.925E+06     22.2100E+06              0.    -65.4070E+06
            8844     103.402E+06     22.4386E+06              0.    -66.5110E+06
            8845     103.868E+06     22.6857E+06              0.    -67.6200E+06
            8846     104.324E+06     22.9521E+06              0.    -68.7332E+06
            8847     104.768E+06     23.2385E+06              0.    -69.8495E+06
            8848     105.199E+06     23.5453E+06              0.    -70.9676E+06
            8849     105.614E+06     23.8734E+06              0.    -72.0864E+06
            8850     106.012E+06     24.2232E+06              0.    -73.2044E+06
            8851     106.392E+06     24.5954E+06              0.    -74.3203E+06
            8852     106.752E+06     24.9904E+06              0.    -75.4323E+06
            8853     107.089E+06     25.4089E+06              0.    -76.5388E+06
            8854     107.402E+06     25.8511E+06              0.    -77.6378E+06
            8855     107.688E+06     26.3176E+06              0.    -78.7275E+06
            8856     107.946E+06     26.8085E+06              0.    -79.8054E+06
            8857     108.172E+06     27.3242E+06              0.    -80.8694E+06
            8858     108.366E+06     27.8647E+06              0.    -81.9169E+06
            8859     108.523E+06     28.4300E+06              0.    -82.9452E+06
            8860     108.642E+06     29.0201E+06              0.    -83.9514E+06
            8861     108.719E+06     29.6347E+06              0.    -84.9325E+06
            8862     108.753E+06     30.2733E+06              0.    -85.8850E+06
            8863     108.740E+06     30.9354E+06              0.    -86.8055E+06
            8864     108.678E+06     31.6201E+06              0.    -87.6903E+06
            8865     108.563E+06     32.3263E+06              0.    -88.5354E+06
            8866     108.393E+06     33.0529E+06              0.    -89.3367E+06
            8867     108.164E+06     33.7981E+06              0.    -90.0897E+06
            8868     107.874E+06     34.5602E+06              0.    -90.7897E+06
            8869     107.519E+06      35.337E+06              0.    -91.4319E+06
            8870     107.098E+06     36.1258E+06              0.    -92.0113E+06
            8871     106.606E+06     36.9238E+06              0.    -92.5224E+06
            8872     106.042E+06     37.7276E+06              0.    -92.9599E+06
            8873     105.403E+06     38.5334E+06              0.    -93.3179E+06
            8874     104.686E+06     39.3369E+06              0.    -93.5907E+06
            8875     103.888E+06     40.1334E+06              0.    -93.7723E+06
            8876     103.009E+06     40.9176E+06              0.    -93.8564E+06
            8877     102.046E+06     41.6837E+06              0.    -93.8371E+06
            8878     100.998E+06     42.4255E+06              0.    -93.7080E+06
            8879     99.8633E+06     43.1360E+06              0.    -93.4629E+06
            8880     98.6415E+06     43.8079E+06              0.    -93.0957E+06
            8881     97.3322E+06     44.4332E+06              0.    -92.6005E+06
            8882     95.9354E+06     45.0034E+06              0.    -91.9713E+06
            8883     94.4517E+06     45.5095E+06              0.    -91.2025E+06
            8884     92.8820E+06     45.9422E+06              0.    -90.2890E+06
            8885     91.2276E+06     46.2915E+06              0.    -89.2259E+06
            8886     89.4906E+06     46.5473E+06              0.    -88.0086E+06
            8887     87.6734E+06     46.6992E+06              0.    -86.6333E+06
            8888     85.7789E+06     46.7363E+06              0.    -85.0967E+06
            8889     83.8104E+06      46.648E+06              0.    -83.3961E+06
            8890     81.7716E+06     46.4234E+06              0.    -81.5296E+06
            8891     79.6668E+06     46.0519E+06              0.    -79.4960E+06
            8892     77.5004E+06     45.5228E+06              0.    -77.2947E+06
            8893     75.2772E+06     44.8262E+06              0.    -74.9262E+06
            8894     73.0023E+06     43.9523E+06              0.    -72.3917E+06
            8895     70.6812E+06     42.8924E+06              0.    -69.6928E+06
            8896     68.3238E+06     41.6394E+06              0.    -66.8327E+06
            8897     66.9107E+06     39.6913E+06              0.    -65.9009E+06
            8898     68.6870E+06     30.1161E+06              0.    -2.57271E+06
            8899     68.6794E+06     30.0290E+06              0.    -2.56815E+06
            8900     68.7092E+06     29.9598E+06              0.    -2.53381E+06
            8901     68.7387E+06     29.8926E+06              0.    -2.50459E+06
            8902     68.7678E+06     29.8271E+06              0.    -2.48036E+06
            8903     68.7968E+06     29.7633E+06              0.    -2.46098E+06
            8904     68.8255E+06     29.7012E+06              0.    -2.44632E+06
            8905     68.8541E+06     29.6406E+06              0.    -2.43627E+06
            8906     68.8827E+06     29.5816E+06              0.    -2.43072E+06
            8907     68.9112E+06     29.5239E+06              0.    -2.42956E+06
            8908     68.9397E+06     29.4675E+06              0.    -2.43268E+06
            8909     68.9683E+06     29.4124E+06              0.    -2.44000E+06
            8910     68.9971E+06     29.3584E+06              0.    -2.45142E+06
            8911     69.0260E+06     29.3056E+06              0.    -2.46687E+06
            8912     69.0552E+06     29.2538E+06              0.    -2.48625E+06
            8913     69.0846E+06     29.2030E+06              0.    -2.50950E+06
            8914     69.1143E+06     29.1531E+06              0.    -2.53655E+06
            8915     69.1444E+06     29.1040E+06              0.    -2.56733E+06
            8916     69.1749E+06     29.0558E+06              0.    -2.60178E+06
            8917     69.2058E+06     29.0082E+06              0.    -2.63985E+06
            8918     69.2372E+06     28.9614E+06              0.    -2.68149E+06
            8919     69.2692E+06     28.9152E+06              0.    -2.72665E+06
            8920     69.3017E+06     28.8695E+06              0.    -2.77528E+06
            8921     69.3349E+06     28.8244E+06              0.    -2.82735E+06
            8922     69.3687E+06     28.7798E+06              0.    -2.88283E+06
            8923     69.4031E+06     28.7356E+06              0.    -2.94168E+06
            8924     69.4384E+06     28.6917E+06              0.    -3.00387E+06
            8925     69.4744E+06     28.6482E+06              0.    -3.06938E+06
            8926     69.5112E+06     28.6050E+06              0.    -3.13819E+06
            8927     69.5488E+06     28.5620E+06              0.    -3.21028E+06
            8928     69.5874E+06     28.5192E+06              0.    -3.28565E+06
            8929     69.6268E+06     28.4766E+06              0.    -3.36427E+06
            8930     69.6673E+06     28.4341E+06              0.    -3.44615E+06
            8931     69.7088E+06     28.3917E+06              0.    -3.53127E+06
            8932     69.7512E+06     28.3493E+06              0.    -3.61965E+06
            8933     69.7948E+06     28.3070E+06              0.    -3.71127E+06
            8934     69.8395E+06     28.2646E+06              0.    -3.80615E+06
            8935     69.8854E+06     28.2221E+06              0.    -3.90429E+06
            8936     69.9325E+06     28.1795E+06              0.    -4.00571E+06
            8937     69.9808E+06     28.1368E+06              0.    -4.11041E+06
            8938     70.0303E+06     28.0940E+06              0.    -4.21842E+06
            8939     70.0812E+06     28.0509E+06              0.    -4.32975E+06
            8940     70.1335E+06     28.0076E+06              0.    -4.44443E+06
            8941     70.1871E+06     27.9640E+06              0.    -4.56247E+06
            8942     70.2422E+06     27.9202E+06              0.    -4.68392E+06
            8943     70.2988E+06     27.8760E+06              0.    -4.80878E+06
            8944     70.3568E+06     27.8315E+06              0.    -4.93711E+06
            8945     70.4165E+06     27.7866E+06              0.    -5.06893E+06
            8946     70.4777E+06     27.7413E+06              0.    -5.20428E+06
            8947     70.5406E+06     27.6955E+06              0.    -5.34319E+06
            8948     70.6051E+06     27.6493E+06              0.    -5.48572E+06
            8949     70.6714E+06     27.6026E+06              0.     -5.6319E+06
            8950     70.7394E+06     27.5555E+06              0.    -5.78178E+06
            8951     70.8093E+06     27.5077E+06              0.    -5.93540E+06
            8952     70.8810E+06     27.4595E+06              0.    -6.09283E+06
            8953     70.9546E+06     27.4106E+06              0.    -6.25411E+06
            8954     71.0301E+06     27.3612E+06              0.    -6.41929E+06
            8955     71.1077E+06     27.3111E+06              0.    -6.58844E+06
            8956     71.1872E+06     27.2604E+06              0.    -6.76161E+06
            8957     71.2689E+06     27.2090E+06              0.    -6.93886E+06
            8958     71.3527E+06     27.1569E+06              0.    -7.12026E+06
            8959     71.4387E+06     27.1042E+06              0.    -7.30588E+06
            8960     71.5268E+06     27.0507E+06              0.    -7.49578E+06
            8961     71.6173E+06     26.9965E+06              0.    -7.69003E+06
            8962     71.7101E+06     26.9415E+06              0.    -7.88870E+06
            8963     71.8053E+06     26.8857E+06              0.    -8.09187E+06
            8964     71.9029E+06     26.8292E+06              0.    -8.29961E+06
            8965     72.0030E+06     26.7718E+06              0.    -8.51201E+06
            8966     72.1056E+06     26.7137E+06              0.    -8.72913E+06
            8967     72.2108E+06     26.6547E+06              0.    -8.95107E+06
            8968     72.3187E+06     26.5949E+06              0.    -9.17791E+06
            8969     72.4292E+06     26.5342E+06              0.    -9.40973E+06
            8970     72.5425E+06     26.4726E+06              0.    -9.64662E+06
            8971     72.6586E+06     26.4102E+06              0.    -9.88867E+06
            8972     72.7776E+06     26.3469E+06              0.    -10.1360E+06
            8973     72.8995E+06     26.2827E+06              0.    -10.3886E+06
            8974     73.0244E+06     26.2175E+06              0.    -10.6467E+06
            8975     73.1523E+06     26.1515E+06              0.    -10.9103E+06
            8976     73.2833E+06     26.0846E+06              0.    -11.1796E+06
            8977     73.4175E+06     26.0167E+06              0.    -11.4546E+06
            8978     73.5549E+06     25.9480E+06              0.    -11.7355E+06
            8979     73.6956E+06     25.8783E+06              0.    -12.0222E+06
            8980     73.8397E+06     25.8077E+06              0.    -12.3151E+06
            8981     73.9872E+06     25.7361E+06              0.    -12.6141E+06
            8982     74.1381E+06     25.6637E+06              0.    -12.9194E+06
            8983     74.2926E+06     25.5903E+06              0.    -13.2310E+06
            8984     74.4507E+06     25.5160E+06              0.    -13.5492E+06
            8985     74.6125E+06     25.4408E+06              0.    -13.8739E+06
            8986     74.7781E+06     25.3648E+06              0.    -14.2054E+06
            8987     74.9474E+06     25.2878E+06              0.    -14.5437E+06
            8988     75.1206E+06     25.2100E+06              0.    -14.8890E+06
            8989     75.2978E+06     25.1313E+06              0.    -15.2414E+06
            8990     75.4790E+06     25.0518E+06              0.    -15.6010E+06
            8991     75.6642E+06     24.9714E+06              0.    -15.9679E+06
            8992     75.8537E+06     24.8903E+06              0.    -16.3423E+06
            8993     76.0473E+06     24.8083E+06              0.    -16.7242E+06
            8994     76.2452E+06     24.7257E+06              0.    -17.1139E+06
            8995     76.4475E+06     24.6423E+06              0.    -17.5114E+06
            8996     76.6542E+06     24.5582E+06              0.    -17.9169E+06
            8997     76.8655E+06     24.4734E+06              0.    -18.3305E+06
            8998     77.0813E+06     24.3880E+06              0.    -18.7524E+06
            8999     77.3017E+06     24.3021E+06              0.    -19.1826E+06
            9000     77.5268E+06     24.2156E+06              0.    -19.6213E+06
            9001     77.7567E+06     24.1286E+06              0.    -20.0686E+06
            9002     77.9915E+06     24.0411E+06              0.    -20.5248E+06
            9003     78.2311E+06     23.9533E+06              0.    -20.9898E+06
            9004     78.4757E+06     23.8651E+06              0.    -21.4639E+06
            9005     78.7254E+06     23.7767E+06              0.    -21.9472E+06
            9006     78.9801E+06     23.6881E+06              0.    -22.4399E+06
            9007     79.2400E+06     23.5993E+06              0.    -22.9420E+06
            9008     79.5051E+06     23.5104E+06              0.    -23.4537E+06
            9009     79.7755E+06     23.4216E+06              0.    -23.9751E+06
            9010     80.0512E+06     23.3329E+06              0.    -24.5065E+06
            9011     80.3323E+06     23.2444E+06              0.    -25.0479E+06
            9012     80.6188E+06     23.1562E+06              0.    -25.5994E+06
            9013     80.9108E+06     23.0684E+06              0.    -26.1613E+06
            9014     81.2083E+06     22.9810E+06              0.    -26.7335E+06
            9015     81.5114E+06     22.8943E+06              0.    -27.3164E+06
            9016     81.8201E+06     22.8083E+06              0.    -27.9100E+06
            9017     82.1344E+06     22.7232E+06              0.    -28.5144E+06
            9018     82.4544E+06     22.6391E+06              0.    -29.1297E+06
            9019     82.7800E+06     22.5561E+06              0.    -29.7562E+06
            9020     83.1113E+06     22.4744E+06              0.    -30.3939E+06
            9021     83.4484E+06     22.3941E+06              0.    -31.0430E+06
            9022     83.7912E+06     22.3154E+06              0.    -31.7035E+06
            9023     84.1396E+06     22.2385E+06              0.    -32.3756E+06
            9024     84.4938E+06     22.1636E+06              0.    -33.0594E+06
            9025     84.8536E+06     22.0908E+06              0.    -33.7550E+06
            9026     85.2192E+06     22.0203E+06              0.    -34.4625E+06
            9027     85.5903E+06     21.9524E+06              0.    -35.1821E+06
            9028     85.9670E+06     21.8873E+06              0.    -35.9137E+06
            9029     86.3492E+06     21.8252E+06              0.    -36.6575E+06
            9030     86.7369E+06     21.7663E+06              0.    -37.4136E+06
            9031     87.1299E+06     21.7109E+06              0.    -38.1821E+06
            9032     87.5282E+06     21.6593E+06              0.    -38.9629E+06
            9033     87.9317E+06     21.6118E+06              0.    -39.7563E+06
            9034     88.3402E+06     21.5685E+06              0.    -40.5621E+06
            9035     88.7536E+06     21.5299E+06              0.    -41.3805E+06
            9036     89.1718E+06     21.4962E+06              0.    -42.2114E+06
            9037     89.5945E+06     21.4678E+06              0.    -43.0550E+06
            9038     90.0216E+06     21.4449E+06              0.    -43.9111E+06
            9039     90.4529E+06     21.4281E+06              0.    -44.7798E+06
            9040     90.8881E+06     21.4175E+06              0.    -45.6610E+06
            9041     91.3269E+06     21.4136E+06              0.    -46.5547E+06
            9042     91.7692E+06     21.4168E+06              0.    -47.4608E+06
            9043     92.2144E+06     21.4275E+06              0.    -48.3793E+06
            9044     92.6624E+06     21.4462E+06              0.    -49.3100E+06
            9045     93.1128E+06     21.4731E+06              0.    -50.2527E+06
            9046     93.5650E+06     21.5089E+06              0.    -51.2074E+06
            9047     94.0188E+06     21.5540E+06              0.    -52.1739E+06
            9048     94.4736E+06     21.6088E+06              0.    -53.1519E+06
            9049     94.9289E+06     21.6739E+06              0.    -54.1412E+06
            9050     95.3842E+06     21.7497E+06              0.    -55.1415E+06
            9051     95.8388E+06     21.8367E+06              0.    -56.1526E+06
            9052     96.2921E+06     21.9356E+06              0.    -57.1739E+06
            9053     96.7435E+06     22.0468E+06              0.    -58.2053E+06
            9054     97.1922E+06     22.1710E+06              0.    -59.2462E+06
            9055     97.6374E+06     22.3086E+06              0.    -60.2961E+06
            9056     98.0782E+06     22.4602E+06              0.    -61.3545E+06
            9057     98.5139E+06     22.6265E+06              0.    -62.4208E+06
            9058     98.9433E+06     22.8080E+06              0.    -63.4944E+06
            9059     99.3655E+06     23.0053E+06              0.    -64.5745E+06
            9060     99.7795E+06     23.2189E+06              0.    -65.6604E+06
            9061     100.184E+06     23.4496E+06              0.    -66.7512E+06
            9062     100.578E+06     23.6978E+06              0.    -67.8459E+06
            9063     100.959E+06     23.9642E+06              0.    -68.9435E+06
            9064     101.328E+06     24.2492E+06              0.     -70.043E+06
            9065     101.682E+06     24.5535E+06              0.    -71.1431E+06
            9066     102.019E+06     24.8776E+06              0.    -72.2425E+06
            9067     102.338E+06     25.2219E+06              0.    -73.3398E+06
            9068     102.638E+06     25.5870E+06              0.    -74.4335E+06
            9069     102.916E+06     25.9732E+06              0.    -75.5219E+06
            9070     103.171E+06     26.3808E+06              0.    -76.6033E+06
            9071     103.401E+06     26.8104E+06              0.    -77.6756E+06
            9072     103.603E+06     27.2619E+06              0.    -78.7370E+06
            9073     103.777E+06     27.7357E+06              0.    -79.7851E+06
            9074     103.918E+06     28.2318E+06              0.    -80.8175E+06
            9075     104.026E+06     28.7502E+06              0.    -81.8318E+06
            9076     104.097E+06     29.2906E+06              0.    -82.8252E+06
            9077     104.129E+06     29.8529E+06              0.    -83.7949E+06
            9078     104.121E+06     30.4367E+06              0.    -84.7377E+06
            9079     104.068E+06     31.0412E+06              0.    -85.6503E+06
            9080     103.970E+06     31.6658E+06              0.    -86.5294E+06
            9081     103.822E+06     32.3094E+06              0.    -87.3711E+06
            9082     103.622E+06     32.9708E+06              0.    -88.1717E+06
            9083     103.368E+06     33.6487E+06              0.    -88.9269E+06
            9084     103.057E+06     34.3412E+06              0.    -89.6326E+06
            9085     102.686E+06     35.0463E+06              0.    -90.2841E+06
            9086     102.252E+06     35.7617E+06              0.    -90.8768E+06
            9087     101.753E+06     36.4848E+06              0.    -91.4058E+06
            9088     101.187E+06     37.2123E+06              0.    -91.8658E+06
            9089     100.550E+06     37.9410E+06              0.    -92.2517E+06
            9090     99.8417E+06     38.6669E+06              0.    -92.5579E+06
            9091     99.0585E+06     39.3858E+06              0.    -92.7790E+06
            9092     98.1990E+06     40.0929E+06              0.    -92.9091E+06
            9093     97.2614E+06     40.7829E+06              0.    -92.9426E+06
            9094     96.2443E+06     41.4502E+06              0.    -92.8736E+06
            9095     95.1465E+06     42.0885E+06              0.    -92.6963E+06
            9096     93.9672E+06     42.6912E+06              0.    -92.4049E+06
            9097     92.7058E+06     43.2510E+06              0.    -91.9936E+06
            9098     91.3623E+06     43.7603E+06              0.    -91.4569E+06
            9099     89.9369E+06     44.2110E+06              0.    -90.7893E+06
            9100     88.4302E+06     44.5944E+06              0.    -89.9858E+06
            9101     86.8435E+06     44.9017E+06              0.    -89.0414E+06
            9102     85.1781E+06     45.1234E+06              0.    -87.9517E+06
            9103     83.4362E+06     45.2499E+06              0.    -86.7127E+06
            9104     81.6201E+06     45.2713E+06              0.    -85.3208E+06
            9105     79.7326E+06     45.1777E+06              0.    -83.7731E+06
            9106     77.7771E+06     44.9589E+06              0.    -82.0671E+06
            9107     75.7571E+06     44.6049E+06              0.    -80.2010E+06
            9108     73.6767E+06     44.1057E+06              0.    -78.1739E+06
            9109     71.5400E+06     43.4514E+06              0.    -75.9854E+06
            9110     69.3518E+06     42.6328E+06              0.    -73.6358E+06
            9111     67.1166E+06     41.6407E+06              0.    -71.1262E+06
            9112     64.8394E+06     40.4667E+06              0.    -68.4586E+06
            9113     62.5222E+06     39.1016E+06              0.    -65.6356E+06
            9114     61.0895E+06     37.0537E+06              0.    -64.6985E+06
            9115     68.5849E+06     30.0728E+06              0.    -2.60109E+06
            9116     68.5778E+06     29.9921E+06              0.    -2.59648E+06
            9117     68.6054E+06     29.9280E+06              0.    -2.56175E+06
            9118     68.6328E+06     29.8657E+06              0.    -2.53221E+06
            9119     68.6598E+06     29.8050E+06              0.    -2.50770E+06
            9120     68.6866E+06     29.7460E+06              0.    -2.48810E+06
            9121     68.7132E+06     29.6884E+06              0.    -2.47328E+06
            9122     68.7398E+06     29.6324E+06              0.    -2.46311E+06
            9123     68.7662E+06     29.5776E+06              0.    -2.45749E+06
            9124     68.7926E+06     29.5242E+06              0.    -2.45631E+06
            9125     68.8191E+06     29.4720E+06              0.    -2.45946E+06
            9126     68.8456E+06     29.4209E+06              0.    -2.46685E+06
            9127     68.8722E+06     29.3710E+06              0.    -2.47839E+06
            9128     68.8990E+06     29.3220E+06              0.    -2.49400E+06
            9129     68.9260E+06     29.2741E+06              0.    -2.51359E+06
            9130     68.9533E+06      29.227E+06              0.    -2.53709E+06
            9131     68.9808E+06     29.1808E+06              0.    -2.56442E+06
            9132     69.0087E+06     29.1354E+06              0.    -2.59553E+06
            9133     69.0369E+06     29.0907E+06              0.    -2.63036E+06
            9134     69.0656E+06     29.0467E+06              0.    -2.66884E+06
            9135     69.0947E+06     29.0033E+06              0.    -2.71092E+06
            9136     69.1243E+06     28.9605E+06              0.    -2.75656E+06
            9137     69.1544E+06     28.9183E+06              0.    -2.80572E+06
            9138     69.1851E+06     28.8765E+06              0.    -2.85835E+06
            9139     69.2164E+06     28.8352E+06              0.    -2.91442E+06
            9140     69.2484E+06     28.7942E+06              0.    -2.97390E+06
            9141     69.2810E+06     28.7536E+06              0.    -3.03676E+06
            9142     69.3143E+06     28.7134E+06              0.    -3.10298E+06
            9143     69.3484E+06     28.6734E+06              0.    -3.17253E+06
            9144     69.3833E+06     28.6336E+06              0.    -3.24540E+06
            9145     69.4190E+06     28.5940E+06              0.    -3.32157E+06
            9146     69.4555E+06     28.5546E+06              0.    -3.40104E+06
            9147      69.493E+06     28.5153E+06              0.    -3.48379E+06
            9148     69.5314E+06     28.4760E+06              0.    -3.56983E+06
            9149     69.5707E+06     28.4368E+06              0.    -3.65915E+06
            9150     69.6111E+06     28.3976E+06              0.    -3.75176E+06
            9151     69.6525E+06     28.3584E+06              0.    -3.84765E+06
            9152     69.6949E+06     28.3191E+06              0.    -3.94684E+06
            9153     69.7385E+06     28.2798E+06              0.    -4.04934E+06
            9154     69.7832E+06     28.2403E+06              0.    -4.15516E+06
            9155     69.8291E+06     28.2006E+06              0.    -4.26432E+06
            9156     69.8762E+06     28.1608E+06              0.    -4.37683E+06
            9157     69.9246E+06     28.1208E+06              0.    -4.49273E+06
            9158     69.9743E+06     28.0805E+06              0.    -4.61203E+06
            9159     70.0253E+06     28.0400E+06              0.    -4.73476E+06
            9160     70.0776E+06     27.9992E+06              0.    -4.86095E+06
            9161     70.1314E+06     27.9580E+06              0.    -4.99064E+06
            9162     70.1866E+06     27.9166E+06              0.    -5.12385E+06
            9163     70.2432E+06     27.8747E+06              0.    -5.26063E+06
            9164     70.3014E+06     27.8325E+06              0.    -5.40100E+06
            9165     70.3612E+06     27.7898E+06              0.    -5.54503E+06
            9166     70.4225E+06     27.7467E+06              0.    -5.69274E+06
            9167     70.4855E+06     27.7031E+06              0.    -5.84419E+06
            9168     70.5501E+06     27.6591E+06              0.    -5.99943E+06
            9169     70.6165E+06     27.6146E+06              0.    -6.15849E+06
            9170     70.6846E+06     27.5695E+06              0.    -6.32145E+06
            9171     70.7545E+06     27.5239E+06              0.    -6.48835E+06
            9172     70.8262E+06     27.4777E+06              0.    -6.65925E+06
            9173     70.8998E+06     27.4309E+06              0.    -6.83422E+06
            9174     70.9754E+06     27.3835E+06              0.    -7.01330E+06
            9175     71.0529E+06     27.3355E+06              0.    -7.19658E+06
            9176     71.1324E+06     27.2869E+06              0.    -7.38410E+06
            9177     71.2140E+06     27.2376E+06              0.    -7.57595E+06
            9178     71.2977E+06     27.1876E+06              0.    -7.77218E+06
            9179     71.3835E+06     27.1370E+06              0.    -7.97288E+06
            9180     71.4715E+06     27.0857E+06              0.    -8.17812E+06
            9181     71.5618E+06     27.0336E+06              0.    -8.38797E+06
            9182     71.6544E+06     26.9808E+06              0.    -8.60251E+06
            9183     71.7492E+06     26.9273E+06              0.    -8.82183E+06
            9184     71.8465E+06     26.8730E+06              0.    -9.04600E+06
            9185     71.9462E+06     26.8180E+06              0.    -9.27511E+06
            9186     72.0484E+06     26.7622E+06              0.    -9.50924E+06
            9187     72.1531E+06     26.7056E+06              0.    -9.74849E+06
            9188     72.2605E+06     26.6482E+06              0.    -9.99294E+06
            9189     72.3704E+06     26.5900E+06              0.    -10.2427E+06
            9190     72.4831E+06     26.5310E+06              0.    -10.4978E+06
            9191     72.5985E+06     26.4712E+06              0.    -10.7584E+06
            9192     72.7167E+06     26.4106E+06              0.    -11.0246E+06
            9193     72.8377E+06     26.3492E+06              0.    -11.2965E+06
            9194     72.9617E+06     26.2870E+06              0.    -11.5742E+06
            9195     73.0886E+06     26.2239E+06              0.    -11.8577E+06
            9196     73.2186E+06     26.1600E+06              0.    -12.1472E+06
            9197     73.3516E+06     26.0953E+06              0.    -12.4429E+06
            9198     73.4878E+06     26.0298E+06              0.    -12.7447E+06
            9199     73.6272E+06     25.9634E+06              0.    -13.0529E+06
            9200     73.7698E+06     25.8963E+06              0.    -13.3674E+06
            9201     73.9157E+06     25.8284E+06              0.    -13.6885E+06
            9202     74.0650E+06     25.7596E+06              0.    -14.0163E+06
            9203     74.2178E+06     25.6901E+06              0.    -14.3508E+06
            9204     74.3740E+06     25.6198E+06              0.    -14.6922E+06
            9205     74.5338E+06     25.5487E+06              0.    -15.0407E+06
            9206     74.6972E+06     25.4770E+06              0.    -15.3962E+06
            9207     74.8643E+06     25.4044E+06              0.    -15.7590E+06
            9208     75.0351E+06     25.3312E+06              0.    -16.1292E+06
            9209     75.2097E+06     25.2573E+06              0.    -16.5068E+06
            9210     75.3882E+06     25.1828E+06              0.    -16.8921E+06
            9211     75.5706E+06     25.1076E+06              0.    -17.2852E+06
            9212     75.7569E+06     25.0318E+06              0.    -17.6861E+06
            9213     75.9473E+06     24.9554E+06              0.    -18.0950E+06
            9214     76.1418E+06     24.8785E+06              0.    -18.5121E+06
            9215     76.3405E+06     24.8011E+06              0.    -18.9374E+06
            9216     76.5434E+06     24.7232E+06              0.    -19.3711E+06
            9217     76.7505E+06     24.6450E+06              0.    -19.8134E+06
            9218      76.962E+06     24.5663E+06              0.    -20.2643E+06
            9219     77.1779E+06     24.4874E+06              0.    -20.7241E+06
            9220     77.3982E+06     24.4081E+06              0.    -21.1928E+06
            9221     77.6230E+06     24.3287E+06              0.    -21.6705E+06
            9222     77.8524E+06     24.2491E+06              0.    -22.1575E+06
            9223     78.0864E+06     24.1695E+06              0.    -22.6538E+06
            9224     78.3251E+06     24.0898E+06              0.    -23.1596E+06
            9225     78.5684E+06     24.0102E+06              0.    -23.6750E+06
            9226     78.8165E+06     23.9307E+06              0.    -24.2002E+06
            9227     79.0694E+06     23.8515E+06              0.    -24.7352E+06
            9228     79.3271E+06     23.7726E+06              0.    -25.2803E+06
            9229     79.5897E+06     23.6941E+06              0.    -25.8355E+06
            9230     79.8572E+06     23.6161E+06              0.    -26.4010E+06
            9231     80.1297E+06     23.5387E+06              0.    -26.9770E+06
            9232     80.4071E+06     23.4621E+06              0.    -27.5635E+06
            9233     80.6895E+06     23.3863E+06              0.    -28.1607E+06
            9234     80.9769E+06     23.3115E+06              0.    -28.7686E+06
            9235     81.2693E+06     23.2377E+06              0.    -29.3875E+06
            9236     81.5667E+06     23.1652E+06              0.    -30.0175E+06
            9237     81.8691E+06     23.0941E+06              0.    -30.6586E+06
            9238     82.1766E+06     23.0245E+06              0.    -31.3110E+06
            9239     82.4891E+06     22.9567E+06              0.    -31.9749E+06
            9240     82.8066E+06     22.8906E+06              0.    -32.6502E+06
            9241     83.1291E+06     22.8267E+06              0.    -33.3371E+06
            9242     83.4565E+06     22.7649E+06              0.    -34.0357E+06
            9243     83.7888E+06     22.7056E+06              0.    -34.7462E+06
            9244     84.1259E+06     22.6488E+06              0.    -35.4685E+06
            9245     84.4678E+06     22.5949E+06              0.    -36.2028E+06
            9246     84.8144E+06     22.5441E+06              0.    -36.9492E+06
            9247     85.1656E+06     22.4966E+06              0.    -37.7076E+06
            9248     85.5214E+06     22.4525E+06              0.    -38.4783E+06
            9249     85.8815E+06     22.4123E+06              0.    -39.2611E+06
            9250     86.2460E+06     22.3761E+06              0.    -40.0563E+06
            9251     86.6145E+06     22.3442E+06              0.    -40.8637E+06
            9252     86.9871E+06     22.3169E+06              0.    -41.6834E+06
            9253     87.3635E+06     22.2946E+06              0.    -42.5155E+06
            9254     87.7435E+06     22.2774E+06              0.    -43.3598E+06
            9255     88.1268E+06     22.2658E+06              0.    -44.2165E+06
            9256     88.5134E+06     22.2600E+06              0.    -45.0854E+06
            9257     88.9029E+06     22.2605E+06              0.    -45.9665E+06
            9258     89.2950E+06     22.2676E+06              0.    -46.8598E+06
            9259     89.6894E+06     22.2816E+06              0.    -47.7651E+06
            9260     90.0858E+06     22.3029E+06              0.    -48.6823E+06
            9261     90.4838E+06     22.3319E+06              0.    -49.6113E+06
            9262     90.8831E+06     22.3691E+06              0.    -50.5519E+06
            9263     91.2832E+06     22.4149E+06              0.    -51.5040E+06
            9264     91.6837E+06     22.4697E+06              0.    -52.4674E+06
            9265     92.0840E+06     22.5339E+06              0.    -53.4417E+06
            9266     92.4837E+06     22.6080E+06              0.    -54.4267E+06
            9267     92.8822E+06     22.6925E+06              0.    -55.4222E+06
            9268     93.2789E+06     22.7878E+06              0.    -56.4277E+06
            9269     93.6731E+06     22.8945E+06              0.    -57.4429E+06
            9270     94.0641E+06     23.0130E+06              0.    -58.4673E+06
            9271     94.4512E+06     23.1439E+06              0.    -59.5005E+06
            9272     94.8336E+06     23.2877E+06              0.    -60.5420E+06
            9273     95.2105E+06     23.4448E+06              0.    -61.5910E+06
            9274     95.5809E+06     23.6158E+06              0.    -62.6472E+06
            9275     95.9439E+06     23.8013E+06              0.    -63.7096E+06
            9276     96.2984E+06     24.0017E+06              0.    -64.7777E+06
            9277     96.6435E+06     24.2177E+06              0.    -65.8504E+06
            9278     96.9779E+06     24.4495E+06              0.    -66.9270E+06
            9279     97.3005E+06     24.6979E+06              0.    -68.0065E+06
            9280     97.6100E+06     24.9633E+06              0.    -69.0877E+06
            9281     97.9049E+06     25.2461E+06              0.    -70.1696E+06
            9282     98.1840E+06     25.5468E+06              0.    -71.2509E+06
            9283     98.4457E+06     25.8659E+06              0.    -72.3302E+06
            9284     98.6885E+06     26.2037E+06              0.    -73.4060E+06
            9285     98.9106E+06     26.5605E+06              0.    -74.4769E+06
            9286     99.1104E+06     26.9368E+06              0.    -75.5411E+06
            9287     99.2862E+06     27.3326E+06              0.    -76.5968E+06
            9288     99.4359E+06     27.7483E+06              0.    -77.6421E+06
            9289     99.5577E+06     28.1839E+06              0.    -78.6748E+06
            9290     99.6495E+06     28.6394E+06              0.    -79.6928E+06
            9291     99.7092E+06     29.1148E+06              0.    -80.6936E+06
            9292     99.7348E+06     29.6099E+06              0.    -81.6747E+06
            9293     99.7238E+06     30.1244E+06              0.    -82.6334E+06
            9294     99.6741E+06     30.6579E+06              0.    -83.5667E+06
            9295     99.5833E+06     31.2098E+06              0.    -84.4717E+06
            9296     99.4490E+06     31.7794E+06              0.    -85.3451E+06
            9297     99.2688E+06     32.3656E+06              0.    -86.1834E+06
            9298     99.0402E+06     32.9674E+06              0.    -86.9830E+06
            9299     98.7606E+06     33.5834E+06              0.    -87.7401E+06
            9300     98.4278E+06     34.2121E+06              0.    -88.4507E+06
            9301     98.0391E+06     34.8514E+06              0.    -89.1105E+06
            9302     97.5921E+06     35.4994E+06              0.    -89.7153E+06
            9303     97.0844E+06     36.1534E+06              0.    -90.2603E+06
            9304     96.5138E+06     36.8108E+06              0.    -90.7410E+06
            9305     95.8780E+06     37.4684E+06              0.    -91.1522E+06
            9306     95.1747E+06     38.1226E+06              0.    -91.4890E+06
            9307     94.4022E+06     38.7695E+06              0.    -91.7462E+06
            9308     93.5585E+06     39.4049E+06              0.    -91.9185E+06
            9309     92.6420E+06     40.0240E+06              0.    -92.0004E+06
            9310     91.6513E+06     40.6216E+06              0.    -91.9864E+06
            9311     90.5852E+06     41.1921E+06              0.    -91.8712E+06
            9312     89.4428E+06     41.7295E+06              0.    -91.6493E+06
            9313     88.2236E+06     42.2271E+06              0.    -91.3151E+06
            9314     86.9273E+06     42.6780E+06              0.    -90.8633E+06
            9315     85.5539E+06     43.0749E+06              0.    -90.2888E+06
            9316     84.1039E+06     43.4098E+06              0.    -89.5866E+06
            9317     82.5781E+06     43.6747E+06              0.    -88.7519E+06
            9318     80.9777E+06     43.8609E+06              0.    -87.7802E+06
            9319     79.3044E+06     43.9596E+06              0.    -86.6675E+06
            9320     77.5601E+06     43.9617E+06              0.    -85.4101E+06
            9321     75.7474E+06     43.8579E+06              0.    -84.0046E+06
            9322     73.8689E+06     43.6387E+06              0.    -82.4485E+06
            9323     71.9278E+06     43.2947E+06              0.    -80.7395E+06
            9324     69.9277E+06     42.8165E+06              0.    -78.8761E+06
            9325     67.8723E+06     42.1948E+06              0.    -76.8574E+06
            9326     65.7657E+06     41.4204E+06              0.    -74.6830E+06
            9327     63.6123E+06     40.4846E+06              0.    -72.3534E+06
            9328     61.4166E+06     39.3790E+06              0.    -69.8696E+06
            9329     59.1832E+06     38.0957E+06              0.    -67.2333E+06
            9330     56.9177E+06     36.6283E+06              0.    -64.4468E+06
            9331     55.4746E+06     34.4863E+06              0.    -63.5014E+06
            9332     68.4817E+06     30.0289E+06              0.    -2.62727E+06
            9333     68.4752E+06     29.9547E+06              0.    -2.62260E+06
            9334     68.5006E+06     29.8958E+06              0.    -2.58752E+06
            9335     68.5258E+06     29.8385E+06              0.    -2.55768E+06
            9336     68.5506E+06     29.7827E+06              0.    -2.53292E+06
            9337     68.5753E+06     29.7284E+06              0.    -2.51311E+06
            9338     68.5998E+06     29.6755E+06              0.    -2.49813E+06
            9339     68.6242E+06     29.6239E+06              0.    -2.48786E+06
            9340     68.6485E+06     29.5736E+06              0.    -2.48218E+06
            9341     68.6728E+06     29.5245E+06              0.    -2.48097E+06
            9342     68.6972E+06     29.4765E+06              0.    -2.48415E+06
            9343     68.7216E+06     29.4295E+06              0.    -2.49161E+06
            9344     68.7461E+06     29.3836E+06              0.    -2.50326E+06
            9345     68.7707E+06     29.3386E+06              0.    -2.51901E+06
            9346     68.7956E+06     29.2945E+06              0.    -2.53879E+06
            9347     68.8206E+06     29.2513E+06              0.    -2.56251E+06
            9348     68.8460E+06     29.2088E+06              0.    -2.59012E+06
            9349     68.8716E+06     29.1670E+06              0.    -2.62153E+06
            9350     68.8976E+06     29.1259E+06              0.    -2.65669E+06
            9351     68.9239E+06     29.0855E+06              0.    -2.69555E+06
            9352     68.9507E+06     29.0456E+06              0.    -2.73804E+06
            9353     68.9779E+06     29.0063E+06              0.    -2.78413E+06
            9354     69.0056E+06     28.9675E+06              0.    -2.83377E+06
            9355     69.0338E+06     28.9291E+06              0.    -2.88692E+06
            9356     69.0626E+06     28.8911E+06              0.    -2.94354E+06
            9357     69.0920E+06     28.8535E+06              0.    -3.00360E+06
            9358     69.1220E+06     28.8162E+06              0.    -3.06707E+06
            9359     69.1526E+06     28.7792E+06              0.    -3.13393E+06
            9360     69.1840E+06     28.7424E+06              0.    -3.20417E+06
            9361     69.2160E+06     28.7059E+06              0.    -3.27775E+06
            9362     69.2489E+06     28.6695E+06              0.    -3.35466E+06
            9363     69.2825E+06     28.6333E+06              0.    -3.43491E+06
            9364     69.3169E+06     28.5972E+06              0.    -3.51847E+06
            9365     69.3522E+06     28.5612E+06              0.    -3.60535E+06
            9366     69.3884E+06     28.5252E+06              0.    -3.69554E+06
            9367     69.4254E+06     28.4892E+06              0.    -3.78904E+06
            9368     69.4635E+06     28.4532E+06              0.    -3.88587E+06
            9369     69.5025E+06     28.4171E+06              0.    -3.98602E+06
            9370     69.5426E+06     28.3810E+06              0.    -4.08951E+06
            9371     69.5837E+06     28.3448E+06              0.    -4.19636E+06
            9372     69.6259E+06     28.3084E+06              0.    -4.30658E+06
            9373     69.6692E+06     28.2719E+06              0.    -4.42018E+06
            9374     69.7136E+06     28.2352E+06              0.    -4.53720E+06
            9375     69.7592E+06     28.1982E+06              0.    -4.65765E+06
            9376     69.8061E+06     28.1610E+06              0.    -4.78156E+06
            9377     69.8542E+06     28.1236E+06              0.    -4.90897E+06
            9378     69.9036E+06     28.0859E+06              0.    -5.03990E+06
            9379     69.9543E+06     28.0479E+06              0.    -5.17439E+06
            9380     70.0064E+06     28.0095E+06              0.    -5.31247E+06
            9381     70.0599E+06     27.9708E+06              0.    -5.45419E+06
            9382     70.1147E+06     27.9317E+06              0.    -5.59959E+06
            9383     70.1711E+06     27.8922E+06              0.    -5.74871E+06
            9384     70.2289E+06     27.8523E+06              0.     -5.9016E+06
            9385     70.2883E+06     27.8120E+06              0.    -6.05831E+06
            9386     70.3493E+06     27.7712E+06              0.    -6.21888E+06
            9387     70.4118E+06     27.7299E+06              0.    -6.38338E+06
            9388     70.4760E+06     27.6882E+06              0.    -6.55185E+06
            9389     70.5419E+06     27.6459E+06              0.    -6.72436E+06
            9390     70.6096E+06     27.6031E+06              0.    -6.90096E+06
            9391     70.6789E+06     27.5598E+06              0.    -7.08173E+06
            9392     70.7501E+06     27.5159E+06              0.    -7.26671E+06
            9393     70.8231E+06     27.4714E+06              0.    -7.45598E+06
            9394     70.8980E+06     27.4263E+06              0.    -7.64960E+06
            9395     70.9749E+06     27.3807E+06              0.    -7.84766E+06
            9396     71.0537E+06     27.3344E+06              0.    -8.05021E+06
            9397     71.1345E+06     27.2875E+06              0.    -8.25733E+06
            9398     71.2173E+06     27.2400E+06              0.    -8.46911E+06
            9399     71.3023E+06     27.1918E+06              0.    -8.68561E+06
            9400     71.3894E+06     27.1429E+06              0.    -8.90692E+06
            9401     71.4787E+06     27.0934E+06              0.    -9.13313E+06
            9402     71.5702E+06     27.0432E+06              0.    -9.36431E+06
            9403     71.6640E+06     26.9923E+06              0.    -9.60055E+06
            9404     71.7600E+06     26.9407E+06              0.    -9.84194E+06
            9405     71.8585E+06     26.8884E+06              0.    -10.0886E+06
            9406     71.9594E+06     26.8354E+06              0.    -10.3405E+06
            9407     72.0627E+06     26.7817E+06              0.    -10.5979E+06
            9408     72.1685E+06     26.7273E+06              0.    -10.8608E+06
            9409     72.2769E+06     26.6721E+06              0.    -11.1294E+06
            9410     72.3879E+06     26.6163E+06              0.    -11.4036E+06
            9411     72.5016E+06     26.5597E+06              0.    -11.6837E+06
            9412     72.6180E+06     26.5024E+06              0.    -11.9697E+06
            9413     72.7371E+06     26.4443E+06              0.    -12.2617E+06
            9414     72.8590E+06     26.3856E+06              0.    -12.5599E+06
            9415     72.9838E+06     26.3261E+06              0.    -12.8643E+06
            9416     73.1115E+06     26.2659E+06              0.    -13.1750E+06
            9417     73.2422E+06     26.2050E+06              0.    -13.4922E+06
            9418     73.3758E+06     26.1435E+06              0.    -13.8160E+06
            9419     73.5126E+06     26.0812E+06              0.    -14.1465E+06
            9420     73.6525E+06     26.0183E+06              0.    -14.4837E+06
            9421     73.7955E+06     25.9547E+06              0.    -14.8279E+06
            9422     73.9417E+06     25.8905E+06              0.    -15.1792E+06
            9423     74.0913E+06     25.8256E+06              0.    -15.5375E+06
            9424     74.2442E+06     25.7601E+06              0.    -15.9032E+06
            9425     74.4004E+06     25.6941E+06              0.    -16.2763E+06
            9426     74.5601E+06     25.6274E+06              0.    -16.6569E+06
            9427     74.7233E+06     25.5603E+06              0.    -17.0452E+06
            9428     74.8901E+06     25.4926E+06              0.    -17.4412E+06
            9429     75.0604E+06     25.4245E+06              0.    -17.8452E+06
            9430     75.2344E+06     25.3559E+06              0.    -18.2571E+06
            9431     75.4121E+06     25.2868E+06              0.    -18.6773E+06
            9432     75.5935E+06     25.2174E+06              0.    -19.1057E+06
            9433     75.7788E+06     25.1477E+06              0.    -19.5426E+06
            9434     75.9678E+06     25.0777E+06              0.    -19.9880E+06
            9435     76.1608E+06     25.0074E+06              0.    -20.4421E+06
            9436     76.3578E+06     24.9370E+06              0.    -20.9050E+06
            9437     76.5587E+06     24.8664E+06              0.    -21.3769E+06
            9438     76.7636E+06     24.7957E+06              0.    -21.8578E+06
            9439     76.9727E+06     24.7250E+06              0.    -22.3480E+06
            9440     77.1859E+06     24.6543E+06              0.    -22.8475E+06
            9441     77.4032E+06     24.5837E+06              0.    -23.3565E+06
            9442     77.6247E+06     24.5134E+06              0.    -23.8752E+06
            9443     77.8504E+06     24.4433E+06              0.    -24.4035E+06
            9444     78.0804E+06     24.3735E+06              0.    -24.9418E+06
            9445     78.3147E+06     24.3042E+06              0.    -25.4901E+06
            9446     78.5533E+06     24.2354E+06              0.    -26.0484E+06
            9447     78.7963E+06     24.1673E+06              0.    -26.6171E+06
            9448     79.0436E+06     24.0998E+06              0.    -27.1962E+06
            9449     79.2952E+06     24.0332E+06              0.    -27.7857E+06
            9450     79.5513E+06     23.9676E+06              0.    -28.3859E+06
            9451     79.8117E+06     23.9030E+06              0.    -28.9969E+06
            9452     80.0765E+06     23.8396E+06              0.    -29.6187E+06
            9453     80.3457E+06     23.7776E+06              0.    -30.2516E+06
            9454     80.6193E+06     23.7170E+06              0.    -30.8955E+06
            9455     80.8972E+06     23.6581E+06              0.    -31.5506E+06
            9456     81.1794E+06     23.6010E+06              0.    -32.2171E+06
            9457     81.4659E+06     23.5457E+06              0.    -32.8950E+06
            9458     81.7567E+06     23.4926E+06              0.    -33.5843E+06
            9459     82.0516E+06     23.4418E+06              0.    -34.2853E+06
            9460     82.3508E+06     23.3935E+06              0.    -34.9980E+06
            9461     82.6539E+06     23.3478E+06              0.    -35.7224E+06
            9462     82.9611E+06     23.3050E+06              0.    -36.4586E+06
            9463     83.2722E+06     23.2653E+06              0.    -37.2067E+06
            9464     83.5871E+06     23.2290E+06              0.    -37.9668E+06
            9465     83.9057E+06     23.1961E+06              0.    -38.7388E+06
            9466     84.2278E+06     23.1671E+06              0.    -39.5229E+06
            9467     84.5534E+06     23.1421E+06              0.    -40.3191E+06
            9468     84.8822E+06     23.1214E+06              0.    -41.1273E+06
            9469     85.2141E+06     23.1052E+06              0.    -41.9475E+06
            9470     85.5489E+06     23.0940E+06              0.    -42.7798E+06
            9471     85.8864E+06     23.0878E+06              0.    -43.6242E+06
            9472     86.2264E+06     23.0872E+06              0.    -44.4805E+06
            9473     86.5685E+06     23.0923E+06              0.    -45.3488E+06
            9474     86.9126E+06     23.1035E+06              0.    -46.2289E+06
            9475     87.2583E+06     23.1211E+06              0.    -47.1208E+06
            9476     87.6053E+06     23.1456E+06              0.    -48.0244E+06
            9477     87.9533E+06     23.1772E+06              0.    -48.9394E+06
            9478     88.3019E+06     23.2163E+06              0.    -49.8658E+06
            9479     88.6507E+06     23.2633E+06              0.    -50.8034E+06
            9480     88.9992E+06     23.3186E+06              0.    -51.7519E+06
            9481     89.3470E+06     23.3826E+06              0.    -52.7112E+06
            9482     89.6936E+06     23.4557E+06              0.    -53.6809E+06
            9483     90.0385E+06     23.5384E+06              0.    -54.6607E+06
            9484     90.3810E+06     23.6311E+06              0.    -55.6503E+06
            9485     90.7206E+06     23.7341E+06              0.    -56.6493E+06
            9486     91.0566E+06     23.8480E+06              0.    -57.6573E+06
            9487     91.3882E+06     23.9733E+06              0.    -58.6739E+06
            9488     91.7148E+06     24.1102E+06              0.    -59.6984E+06
            9489     92.0356E+06     24.2595E+06              0.    -60.7304E+06
            9490     92.3497E+06     24.4214E+06              0.    -61.7693E+06
            9491     92.6562E+06     24.5965E+06              0.    -62.8143E+06
            9492     92.9542E+06     24.7852E+06              0.    -63.8647E+06
            9493     93.2426E+06     24.9880E+06              0.    -64.9197E+06
            9494     93.5204E+06     25.2053E+06              0.    -65.9785E+06
            9495     93.7865E+06     25.4376E+06              0.    -67.0401E+06
            9496     94.0397E+06     25.6852E+06              0.    -68.1034E+06
            9497     94.2787E+06     25.9487E+06              0.    -69.1675E+06
            9498     94.5023E+06     26.2284E+06              0.    -70.2310E+06
            9499     94.7090E+06     26.5246E+06              0.    -71.2927E+06
            9500     94.8973E+06     26.8377E+06              0.    -72.3513E+06
            9501     95.0659E+06     27.1679E+06              0.    -73.4051E+06
            9502     95.2130E+06     27.5156E+06              0.    -74.4527E+06
            9503     95.3371E+06     27.8808E+06              0.    -75.4922E+06
            9504     95.4363E+06     28.2638E+06              0.    -76.5219E+06
            9505     95.5090E+06     28.6646E+06              0.    -77.5397E+06
            9506     95.5532E+06     29.0831E+06              0.    -78.5436E+06
            9507     95.5671E+06     29.5194E+06              0.    -79.5314E+06
            9508     95.5486E+06     29.9731E+06              0.    -80.5005E+06
            9509     95.4957E+06      30.444E+06              0.    -81.4485E+06
            9510     95.4063E+06     30.9316E+06              0.    -82.3727E+06
            9511     95.2782E+06     31.4354E+06              0.    -83.2702E+06
            9512     95.1093E+06     31.9546E+06              0.    -84.1379E+06
            9513     94.8973E+06     32.4884E+06              0.    -84.9726E+06
            9514     94.6399E+06     33.0356E+06              0.    -85.7710E+06
            9515     94.3350E+06     33.5950E+06              0.    -86.5295E+06
            9516     93.9801E+06     34.1651E+06              0.    -87.2443E+06
            9517     93.5732E+06     34.7442E+06              0.    -87.9116E+06
            9518     93.1118E+06     35.3301E+06              0.    -88.5272E+06
            9519     92.5938E+06     35.9208E+06              0.    -89.0869E+06
            9520     92.0171E+06     36.5136E+06              0.    -89.5862E+06
            9521     91.3796E+06     37.1056E+06              0.    -90.0206E+06
            9522     90.6793E+06     37.6937E+06              0.    -90.3854E+06
            9523     89.9143E+06     38.2742E+06              0.    -90.6757E+06
            9524     89.0829E+06     38.8432E+06              0.    -90.8865E+06
            9525     88.1837E+06     39.3963E+06              0.    -91.0127E+06
            9526     87.2151E+06     39.9290E+06              0.    -91.0494E+06
            9527     86.1761E+06     40.4361E+06              0.    -90.9912E+06
            9528     85.0658E+06     40.9119E+06              0.    -90.8330E+06
            9529     83.8834E+06     41.3507E+06              0.    -90.5697E+06
            9530     82.6287E+06     41.7460E+06              0.    -90.1962E+06
            9531     81.3015E+06     42.0912E+06              0.    -89.7075E+06
            9532     79.9021E+06     42.3789E+06              0.    -89.0988E+06
            9533     78.4312E+06     42.6019E+06              0.    -88.3654E+06
            9534     76.8896E+06     42.7521E+06              0.    -87.5029E+06
            9535     75.2786E+06     42.8216E+06              0.    -86.5072E+06
            9536     73.6000E+06     42.8018E+06              0.    -85.3746E+06
            9537     71.8558E+06     42.6841E+06              0.    -84.1017E+06
            9538     70.0484E+06     42.4598E+06              0.    -82.6855E+06
            9539     68.1805E+06     42.1200E+06              0.    -81.1236E+06
            9540     66.2551E+06     41.6557E+06              0.    -79.4139E+06
            9541     64.2757E+06     41.0583E+06              0.    -77.5552E+06
            9542     62.2459E+06     40.3189E+06              0.    -75.5465E+06
            9543     60.1696E+06     39.4291E+06              0.    -73.3877E+06
            9544     58.0509E+06     38.3807E+06              0.    -71.0791E+06
            9545     55.8939E+06     37.1659E+06              0.    -68.6218E+06
            9546     53.7035E+06     35.7776E+06              0.    -66.0173E+06
            9547     51.4844E+06     34.2088E+06              0.    -63.2678E+06
            9548     50.0304E+06     31.9750E+06              0.    -62.3194E+06
            9549     68.3775E+06     29.9846E+06              0.    -2.65121E+06
            9550     68.3716E+06     29.9170E+06              0.    -2.64649E+06
            9551     68.3948E+06     29.8633E+06              0.    -2.61109E+06
            9552     68.4177E+06     29.8110E+06              0.    -2.58097E+06
            9553     68.4404E+06     29.7602E+06              0.    -2.55598E+06
            9554     68.4629E+06     29.7107E+06              0.    -2.53599E+06
            9555     68.4853E+06     29.6625E+06              0.    -2.52087E+06
            9556     68.5075E+06     29.6154E+06              0.    -2.51049E+06
            9557     68.5297E+06     29.5696E+06              0.    -2.50475E+06
            9558     68.5519E+06     29.5248E+06              0.    -2.50353E+06
            9559     68.5741E+06     29.4810E+06              0.    -2.50673E+06
            9560     68.5964E+06     29.4382E+06              0.    -2.51425E+06
            9561     68.6187E+06     29.3964E+06              0.    -2.52600E+06
            9562     68.6412E+06     29.3554E+06              0.    -2.54188E+06
            9563     68.6639E+06     29.3152E+06              0.    -2.56183E+06
            9564     68.6867E+06     29.2757E+06              0.    -2.58576E+06
            9565     68.7098E+06     29.2370E+06              0.    -2.61361E+06
            9566     68.7332E+06     29.1989E+06              0.    -2.64530E+06
            9567     68.7569E+06     29.1615E+06              0.    -2.68077E+06
            9568     68.7809E+06     29.1247E+06              0.    -2.71997E+06
            9569     68.8053E+06     29.0883E+06              0.    -2.76284E+06
            9570     68.8301E+06     29.0525E+06              0.    -2.80933E+06
            9571     68.8554E+06     29.0171E+06              0.    -2.85941E+06
            9572     68.8811E+06     28.9821E+06              0.    -2.91302E+06
            9573     68.9074E+06     28.9476E+06              0.    -2.97014E+06
            9574     68.9341E+06     28.9133E+06              0.    -3.03073E+06
            9575     68.9615E+06     28.8793E+06              0.    -3.09477E+06
            9576     68.9894E+06     28.8456E+06              0.    -3.16222E+06
            9577     69.0180E+06     28.8122E+06              0.    -3.23307E+06
            9578     69.0472E+06     28.7789E+06              0.    -3.30730E+06
            9579     69.0771E+06     28.7458E+06              0.    -3.38490E+06
            9580     69.1078E+06     28.7128E+06              0.    -3.46585E+06
            9581     69.1391E+06     28.6799E+06              0.    -3.55015E+06
            9582     69.1713E+06     28.6471E+06              0.    -3.63779E+06
            9583     69.2043E+06     28.6144E+06              0.    -3.72877E+06
            9584     69.2381E+06     28.5816E+06              0.    -3.82310E+06
            9585     69.2727E+06     28.5489E+06              0.    -3.92077E+06
            9586     69.3083E+06     28.5161E+06              0.    -4.02180E+06
            9587     69.3448E+06     28.4832E+06              0.    -4.12620E+06
            9588     69.3823E+06     28.4502E+06              0.    -4.23398E+06
            9589     69.4207E+06     28.4172E+06              0.    -4.34516E+06
            9590     69.4602E+06     28.3839E+06              0.    -4.45976E+06
            9591     69.5006E+06     28.3506E+06              0.    -4.57779E+06
            9592     69.5422E+06     28.3170E+06              0.    -4.69929E+06
            9593     69.5849E+06     28.2832E+06              0.    -4.82428E+06
            9594     69.6288E+06     28.2492E+06              0.    -4.95279E+06
            9595     69.6737E+06     28.2149E+06              0.    -5.08485E+06
            9596     69.7199E+06     28.1804E+06              0.    -5.22050E+06
            9597     69.7674E+06     28.1455E+06              0.    -5.35978E+06
            9598     69.8161E+06     28.1104E+06              0.    -5.50272E+06
            9599     69.8661E+06     28.0749E+06              0.    -5.64936E+06
            9600     69.9174E+06     28.0391E+06              0.    -5.79976E+06
            9601     69.9701E+06     28.0029E+06              0.    -5.95396E+06
            9602     70.0242E+06     27.9663E+06              0.    -6.11200E+06
            9603     70.0797E+06     27.9293E+06              0.    -6.27394E+06
            9604     70.1366E+06     27.8918E+06              0.    -6.43984E+06
            9605     70.1951E+06     27.8540E+06              0.    -6.60974E+06
            9606     70.2551E+06     27.8156E+06              0.    -6.78370E+06
            9607     70.3166E+06     27.7769E+06              0.    -6.96180E+06
            9608     70.3798E+06     27.7376E+06              0.    -7.14408E+06
            9609     70.4446E+06     27.6978E+06              0.    -7.33061E+06
            9610     70.5111E+06     27.6576E+06              0.    -7.52146E+06
            9611     70.5793E+06     27.6168E+06              0.    -7.71670E+06
            9612     70.6492E+06     27.5755E+06              0.    -7.91639E+06
            9613     70.7209E+06     27.5336E+06              0.    -8.12062E+06
            9614     70.7945E+06     27.4912E+06              0.    -8.32945E+06
            9615     70.8699E+06     27.4482E+06              0.    -8.54297E+06
            9616     70.9472E+06     27.4046E+06              0.    -8.76124E+06
            9617     71.0264E+06     27.3605E+06              0.    -8.98436E+06
            9618     71.1076E+06     27.3157E+06              0.    -9.21240E+06
            9619     71.1908E+06     27.2704E+06              0.    -9.44544E+06
            9620     71.2761E+06     27.2244E+06              0.    -9.68359E+06
            9621     71.3635E+06     27.1779E+06              0.    -9.92691E+06
            9622     71.4531E+06     27.1307E+06              0.    -10.1755E+06
            9623     71.5448E+06     27.0829E+06              0.    -10.4295E+06
            9624     71.6387E+06     27.0345E+06              0.    -10.6889E+06
            9625     71.7349E+06     26.9855E+06              0.    -10.9539E+06
            9626     71.8334E+06     26.9358E+06              0.    -11.2245E+06
            9627     71.9343E+06     26.8855E+06              0.    -11.5009E+06
            9628     72.0376E+06     26.8346E+06              0.    -11.7831E+06
            9629     72.1433E+06     26.7831E+06              0.    -12.0713E+06
            9630     72.2516E+06     26.7309E+06              0.    -12.3656E+06
            9631     72.3623E+06     26.6782E+06              0.    -12.6660E+06
            9632     72.4756E+06     26.6248E+06              0.    -12.9726E+06
            9633     72.5916E+06     26.5708E+06              0.    -13.2857E+06
            9634     72.7102E+06     26.5162E+06              0.    -13.6053E+06
            9635     72.8315E+06     26.4611E+06              0.    -13.9314E+06
            9636     72.9556E+06     26.4053E+06              0.    -14.2643E+06
            9637     73.0826E+06     26.3490E+06              0.    -14.6040E+06
            9638     73.2123E+06     26.2922E+06              0.    -14.9507E+06
            9639     73.3450E+06     26.2348E+06              0.    -15.3044E+06
            9640     73.4806E+06     26.1769E+06              0.    -15.6653E+06
            9641     73.6192E+06     26.1185E+06              0.    -16.0336E+06
            9642     73.7608E+06     26.0596E+06              0.    -16.4092E+06
            9643     73.9055E+06     26.0003E+06              0.    -16.7924E+06
            9644     74.0534E+06     25.9406E+06              0.    -17.1833E+06
            9645     74.2044E+06     25.8805E+06              0.    -17.5820E+06
            9646     74.3586E+06     25.8200E+06              0.    -17.9886E+06
            9647     74.5161E+06     25.7592E+06              0.    -18.4033E+06
            9648     74.6769E+06     25.6980E+06              0.    -18.8261E+06
            9649     74.8410E+06     25.6367E+06              0.    -19.2572E+06
            9650     75.0086E+06     25.5751E+06              0.    -19.6968E+06
            9651     75.1795E+06     25.5133E+06              0.    -20.1450E+06
            9652     75.3539E+06     25.4515E+06              0.    -20.6018E+06
            9653     75.5319E+06     25.3895E+06              0.    -21.0675E+06
            9654     75.7133E+06     25.3275E+06              0.    -21.5421E+06
            9655     75.8983E+06     25.2656E+06              0.    -22.0258E+06
            9656     76.0870E+06     25.2038E+06              0.    -22.5188E+06
            9657     76.2792E+06     25.1421E+06              0.    -23.0210E+06
            9658     76.4752E+06     25.0807E+06              0.    -23.5328E+06
            9659     76.6748E+06     25.0195E+06              0.    -24.0541E+06
            9660     76.8781E+06     24.9588E+06              0.    -24.5852E+06
            9661     77.0852E+06     24.8985E+06              0.    -25.1262E+06
            9662     77.2960E+06     24.8387E+06              0.    -25.6771E+06
            9663     77.5105E+06     24.7797E+06              0.    -26.2381E+06
            9664     77.7289E+06     24.7213E+06              0.    -26.8094E+06
            9665      77.951E+06     24.6638E+06              0.    -27.3910E+06
            9666     78.1769E+06     24.6072E+06              0.    -27.9831E+06
            9667     78.4066E+06     24.5516E+06              0.    -28.5857E+06
            9668     78.6400E+06     24.4973E+06              0.    -29.1991E+06
            9669     78.8772E+06     24.4442E+06              0.    -29.8233E+06
            9670     79.1182E+06     24.3926E+06              0.    -30.4584E+06
            9671     79.3629E+06     24.3425E+06              0.    -31.1045E+06
            9672     79.6112E+06     24.2942E+06              0.    -31.7617E+06
            9673     79.8632E+06     24.2477E+06              0.    -32.4302E+06
            9674     80.1188E+06     24.2032E+06              0.    -33.1100E+06
            9675     80.3779E+06     24.1608E+06              0.    -33.8011E+06
            9676     80.6405E+06     24.1209E+06              0.    -34.5037E+06
            9677     80.9065E+06     24.0834E+06              0.    -35.2179E+06
            9678     81.1758E+06     24.0487E+06              0.    -35.9437E+06
            9679     81.4484E+06     24.0169E+06              0.    -36.6811E+06
            9680     81.7241E+06     23.9882E+06              0.    -37.4303E+06
            9681     82.0028E+06     23.9628E+06              0.    -38.1912E+06
            9682     82.2844E+06     23.9410E+06              0.    -38.9640E+06
            9683     82.5687E+06     23.9230E+06              0.    -39.7485E+06
            9684     82.8556E+06     23.9090E+06              0.    -40.5449E+06
            9685     83.1448E+06     23.8992E+06              0.    -41.3530E+06
            9686     83.4363E+06      23.894E+06              0.    -42.1730E+06
            9687     83.7299E+06     23.8936E+06              0.    -43.0048E+06
            9688     84.0251E+06     23.8982E+06              0.    -43.8483E+06
            9689     84.3220E+06     23.9082E+06              0.    -44.7035E+06
            9690     84.6201E+06     23.9239E+06              0.    -45.5702E+06
            9691     84.9192E+06     23.9456E+06              0.    -46.4485E+06
            9692     85.2189E+06     23.9735E+06              0.    -47.3382E+06
            9693     85.5190E+06     24.0080E+06              0.    -48.2391E+06
            9694     85.8191E+06     24.0495E+06              0.    -49.1511E+06
            9695     86.1188E+06     24.0983E+06              0.    -50.0740E+06
            9696     86.4177E+06     24.1547E+06              0.    -51.0076E+06
            9697     86.7153E+06     24.2191E+06              0.    -51.9517E+06
            9698     87.0111E+06     24.2920E+06              0.    -52.9059E+06
            9699     87.3047E+06     24.3735E+06              0.    -53.8701E+06
            9700     87.5955E+06     24.4643E+06              0.    -54.8438E+06
            9701     87.8829E+06     24.5645E+06              0.    -55.8266E+06
            9702     88.1663E+06     24.6748E+06              0.    -56.8182E+06
            9703     88.4450E+06     24.7953E+06              0.    -57.8182E+06
            9704     88.7184E+06     24.9266E+06              0.    -58.8259E+06
            9705     88.9856E+06     25.0691E+06              0.    -59.8409E+06
            9706     89.2460E+06     25.2232E+06              0.    -60.8626E+06
            9707     89.4986E+06     25.3892E+06              0.    -61.8903E+06
            9708     89.7425E+06     25.5676E+06              0.    -62.9233E+06
            9709     89.9769E+06     25.7588E+06              0.    -63.9608E+06
            9710     90.2007E+06     25.9632E+06              0.     -65.002E+06
            9711     90.4129E+06     26.1811E+06              0.    -66.0460E+06
            9712     90.6124E+06     26.4130E+06              0.    -67.0918E+06
            9713     90.7980E+06     26.6591E+06              0.    -68.1383E+06
            9714     90.9686E+06     26.9198E+06              0.    -69.1845E+06
            9715     91.1227E+06     27.1954E+06              0.    -70.2290E+06
            9716     91.2592E+06     27.4862E+06              0.    -71.2706E+06
            9717     91.3765E+06     27.7924E+06              0.    -72.3078E+06
            9718     91.4732E+06     28.1142E+06              0.    -73.3391E+06
            9719     91.5479E+06     28.4517E+06              0.    -74.3628E+06
            9720     91.5988E+06     28.8050E+06              0.    -75.3774E+06
            9721     91.6245E+06     29.1741E+06              0.    -76.3807E+06
            9722     91.6230E+06     29.5591E+06              0.    -77.3710E+06
            9723     91.5928E+06     29.9597E+06              0.    -78.3460E+06
            9724     91.5319E+06     30.3757E+06              0.    -79.3035E+06
            9725     91.4384E+06     30.8068E+06              0.    -80.2411E+06
            9726     91.3106E+06     31.2526E+06              0.    -81.1562E+06
            9727     91.1463E+06     31.7125E+06              0.    -82.0462E+06
            9728     90.9436E+06     32.1858E+06              0.    -82.9083E+06
            9729     90.7004E+06     32.6716E+06              0.    -83.7393E+06
            9730     90.4147E+06     33.1689E+06              0.    -84.5362E+06
            9731     90.0844E+06     33.6765E+06              0.    -85.2956E+06
            9732     89.7073E+06     34.1930E+06              0.    -86.0140E+06
            9733     89.2815E+06     34.7168E+06              0.    -86.6878E+06
            9734     88.8049E+06     35.2460E+06              0.    -87.3132E+06
            9735     88.2754E+06     35.7786E+06              0.    -87.8861E+06
            9736     87.6910E+06     36.3120E+06              0.    -88.4025E+06
            9737     87.0499E+06     36.8438E+06              0.    -88.8580E+06
            9738     86.3501E+06     37.3709E+06              0.    -89.2483E+06
            9739     85.5900E+06     37.8900E+06              0.    -89.5689E+06
            9740      84.768E+06     38.3976E+06              0.    -89.8150E+06
            9741     83.8825E+06     38.8898E+06              0.    -89.9820E+06
            9742     82.9323E+06     39.3621E+06              0.    -90.0651E+06
            9743     81.9163E+06     39.8100E+06              0.    -90.0593E+06
            9744     80.8334E+06     40.2283E+06              0.    -89.9599E+06
            9745     79.6832E+06     40.6117E+06              0.    -89.7619E+06
            9746     78.4649E+06     40.9544E+06              0.    -89.4604E+06
            9747     77.1786E+06     41.2502E+06              0.    -89.0508E+06
            9748     75.8244E+06     41.4925E+06              0.    -88.5284E+06
            9749     74.4026E+06     41.6745E+06              0.    -87.8887E+06
            9750     72.9139E+06     41.7890E+06              0.    -87.1273E+06
            9751     71.3595E+06     41.8285E+06              0.    -86.2402E+06
            9752     69.7406E+06     41.7852E+06              0.    -85.2237E+06
            9753     68.0592E+06     41.6511E+06              0.    -84.0742E+06
            9754     66.3170E+06     41.4181E+06              0.    -82.7885E+06
            9755     64.5167E+06     41.0778E+06              0.    -81.3642E+06
            9756     62.6607E+06      40.622E+06              0.    -79.7988E+06
            9757     60.7522E+06     40.0422E+06              0.    -78.0906E+06
            9758     58.7943E+06     39.3302E+06              0.    -76.2384E+06
            9759     56.7906E+06     38.4777E+06              0.    -74.2413E+06
            9760     54.7446E+06     37.4770E+06              0.    -72.0993E+06
            9761     52.6604E+06     36.3203E+06              0.    -69.8126E+06
            9762     50.5417E+06     35.0003E+06              0.    -67.3822E+06
            9763      48.392E+06     33.5100E+06              0.    -64.8096E+06
            9764     46.2144E+06     31.8431E+06              0.    -62.0968E+06
            9765     44.7440E+06     29.5160E+06              0.    -61.1432E+06
            9766     68.2724E+06     29.9399E+06              0.    -2.67290E+06
            9767     68.2671E+06     29.8790E+06              0.    -2.66814E+06
            9768     68.2881E+06     29.8305E+06              0.    -2.63245E+06
            9769     68.3088E+06     29.7833E+06              0.    -2.60207E+06
            9770     68.3293E+06     29.7375E+06              0.    -2.57687E+06
            9771     68.3496E+06     29.6928E+06              0.    -2.55671E+06
            9772     68.3698E+06     29.6493E+06              0.    -2.54146E+06
            9773     68.3899E+06     29.6069E+06              0.    -2.53099E+06
            9774     68.4099E+06     29.5655E+06              0.    -2.52520E+06
            9775     68.4300E+06     29.5251E+06              0.    -2.52396E+06
            9776       68.45E+06     29.4856E+06              0.    -2.52718E+06
            9777     68.4701E+06     29.4470E+06              0.    -2.53475E+06
            9778     68.4903E+06     29.4092E+06              0.    -2.54659E+06
            9779     68.5106E+06     29.3722E+06              0.    -2.56260E+06
            9780     68.5310E+06     29.3360E+06              0.    -2.58270E+06
            9781     68.5517E+06     29.3004E+06              0.    -2.60682E+06
            9782     68.5725E+06     29.2655E+06              0.    -2.63488E+06
            9783     68.5936E+06     29.2311E+06              0.    -2.66681E+06
            9784     68.6150E+06     29.1974E+06              0.    -2.70256E+06
            9785     68.6367E+06     29.1641E+06              0.    -2.74207E+06
            9786     68.6587E+06     29.1314E+06              0.    -2.78528E+06
            9787     68.6811E+06     29.0991E+06              0.    -2.83214E+06
            9788     68.7039E+06     29.0672E+06              0.    -2.88261E+06
            9789     68.7271E+06     29.0357E+06              0.    -2.93665E+06
            9790     68.7508E+06     29.0045E+06              0.    -2.99422E+06
            9791     68.7749E+06     28.9736E+06              0.    -3.05529E+06
            9792     68.7996E+06     28.9430E+06              0.    -3.11984E+06
            9793     68.8248E+06     28.9126E+06              0.    -3.18782E+06
            9794     68.8506E+06     28.8825E+06              0.    -3.25923E+06
            9795     68.8770E+06     28.8525E+06              0.    -3.33405E+06
            9796     68.9039E+06     28.8226E+06              0.    -3.41225E+06
            9797     68.9316E+06     28.7929E+06              0.    -3.49384E+06
            9798     68.9599E+06     28.7633E+06              0.    -3.57880E+06
            9799     68.9889E+06     28.7338E+06              0.    -3.66713E+06
            9800     69.0186E+06     28.7043E+06              0.    -3.75883E+06
            9801     69.0491E+06     28.6748E+06              0.    -3.85389E+06
            9802     69.0804E+06     28.6453E+06              0.    -3.95234E+06
            9803     69.1125E+06     28.6158E+06              0.    -4.05416E+06
            9804     69.1454E+06     28.5862E+06              0.    -4.15937E+06
            9805     69.1792E+06     28.5566E+06              0.    -4.26800E+06
            9806     69.2138E+06     28.5268E+06              0.    -4.38004E+06
            9807     69.2494E+06     28.4969E+06              0.    -4.49553E+06
            9808     69.2859E+06     28.4669E+06              0.    -4.61448E+06
            9809     69.3234E+06     28.4367E+06              0.    -4.73692E+06
            9810     69.3619E+06     28.4064E+06              0.    -4.86288E+06
            9811     69.4014E+06     28.3758E+06              0.    -4.99238E+06
            9812     69.4420E+06     28.3450E+06              0.    -5.12546E+06
            9813     69.4836E+06     28.3140E+06              0.    -5.26216E+06
            9814     69.5264E+06     28.2827E+06              0.    -5.40251E+06
            9815     69.5703E+06     28.2511E+06              0.    -5.54654E+06
            9816     69.6153E+06     28.2193E+06              0.    -5.69431E+06
            9817     69.6616E+06     28.1871E+06              0.    -5.84586E+06
            9818     69.7091E+06     28.1546E+06              0.    -6.00123E+06
            9819     69.7578E+06     28.1218E+06              0.    -6.16047E+06
            9820     69.8078E+06     28.0886E+06              0.    -6.32364E+06
            9821     69.8592E+06     28.0550E+06              0.    -6.49079E+06
            9822     69.9119E+06     28.0211E+06              0.    -6.66197E+06
            9823     69.9659E+06     27.9868E+06              0.    -6.83724E+06
            9824     70.0214E+06     27.9520E+06              0.    -7.01667E+06
            9825     70.0783E+06     27.9168E+06              0.    -7.20031E+06
            9826     70.1367E+06     27.8812E+06              0.    -7.38823E+06
            9827     70.1965E+06     27.8452E+06              0.    -7.58050E+06
            9828     70.2580E+06     27.8087E+06              0.    -7.77718E+06
            9829     70.3209E+06     27.7717E+06              0.    -7.97834E+06
            9830     70.3855E+06     27.7343E+06              0.    -8.18407E+06
            9831     70.4517E+06     27.6964E+06              0.    -8.39442E+06
            9832     70.5196E+06     27.6580E+06              0.    -8.60949E+06
            9833     70.5892E+06     27.6191E+06              0.    -8.82935E+06
            9834     70.6605E+06     27.5797E+06              0.    -9.05407E+06
            9835     70.7336E+06     27.5398E+06              0.    -9.28375E+06
            9836     70.8085E+06     27.4993E+06              0.    -9.51846E+06
            9837     70.8853E+06     27.4584E+06              0.    -9.75830E+06
            9838     70.9639E+06     27.4169E+06              0.    -10.0033E+06
            9839     71.0445E+06     27.3749E+06              0.    -10.2537E+06
            9840     71.1270E+06     27.3323E+06              0.    -10.5094E+06
            9841     71.2115E+06     27.2892E+06              0.    -10.7707E+06
            9842     71.2980E+06     27.2456E+06              0.    -11.0375E+06
            9843     71.3866E+06     27.2015E+06              0.    -11.3100E+06
            9844     71.4773E+06     27.1568E+06              0.    -11.5882E+06
            9845     71.5702E+06     27.1116E+06              0.    -11.8724E+06
            9846     71.6652E+06     27.0659E+06              0.    -12.1625E+06
            9847     71.7624E+06     27.0196E+06              0.    -12.4587E+06
            9848     71.8619E+06     26.9729E+06              0.    -12.7611E+06
            9849     71.9637E+06     26.9256E+06              0.    -13.0698E+06
            9850     72.0679E+06     26.8779E+06              0.    -13.3849E+06
            9851     72.1744E+06     26.8296E+06              0.    -13.7065E+06
            9852     72.2833E+06     26.7809E+06              0.    -14.0348E+06
            9853     72.3947E+06     26.7317E+06              0.    -14.3698E+06
            9854     72.5086E+06     26.6820E+06              0.    -14.7116E+06
            9855     72.6250E+06     26.6319E+06              0.    -15.0605E+06
            9856     72.7440E+06     26.5814E+06              0.    -15.4164E+06
            9857     72.8656E+06     26.5305E+06              0.    -15.7795E+06
            9858     72.9899E+06     26.4792E+06              0.    -16.1499E+06
            9859     73.1168E+06     26.4276E+06              0.    -16.5278E+06
            9860     73.2465E+06     26.3756E+06              0.    -16.9133E+06
            9861     73.3789E+06     26.3233E+06              0.    -17.3065E+06
            9862     73.5142E+06     26.2707E+06              0.    -17.7074E+06
            9863     73.6522E+06     26.2179E+06              0.    -18.1163E+06
            9864     73.7932E+06     26.1649E+06              0.    -18.5333E+06
            9865      73.937E+06     26.1117E+06              0.    -18.9584E+06
            9866     74.0838E+06     26.0584E+06              0.    -19.3919E+06
            9867     74.2335E+06     26.0050E+06              0.    -19.8338E+06
            9868     74.3863E+06     25.9515E+06              0.    -20.2843E+06
            9869     74.5421E+06     25.8980E+06              0.    -20.7435E+06
            9870     74.7009E+06     25.8446E+06              0.    -21.2115E+06
            9871     74.8628E+06     25.7912E+06              0.    -21.6884E+06
            9872     75.0279E+06     25.7381E+06              0.    -22.1745E+06
            9873     75.1960E+06     25.6851E+06              0.    -22.6697E+06
            9874     75.3674E+06     25.6324E+06              0.    -23.1743E+06
            9875     75.5419E+06     25.5801E+06              0.    -23.6883E+06
            9876     75.7195E+06     25.5282E+06              0.    -24.2119E+06
            9877     75.9004E+06     25.4768E+06              0.    -24.7452E+06
            9878     76.0845E+06     25.4259E+06              0.    -25.2883E+06
            9879     76.2718E+06     25.3757E+06              0.    -25.8414E+06
            9880     76.4623E+06     25.3263E+06              0.    -26.4045E+06
            9881     76.6560E+06     25.2777E+06              0.    -26.9778E+06
            9882     76.8530E+06     25.2300E+06              0.    -27.5615E+06
            9883     77.0531E+06     25.1834E+06              0.    -28.1555E+06
            9884     77.2564E+06     25.1380E+06              0.    -28.7601E+06
            9885     77.4629E+06     25.0938E+06              0.    -29.3753E+06
            9886     77.6726E+06     25.0509E+06              0.    -30.0012E+06
            9887     77.8853E+06     25.0096E+06              0.    -30.6380E+06
            9888     78.1011E+06     24.9700E+06              0.    -31.2857E+06
            9889     78.3199E+06     24.9321E+06              0.    -31.9444E+06
            9890     78.5418E+06     24.8962E+06              0.    -32.6142E+06
            9891     78.7665E+06     24.8623E+06              0.    -33.2952E+06
            9892     78.9940E+06     24.8306E+06              0.    -33.9875E+06
            9893     79.2244E+06     24.8014E+06              0.    -34.6911E+06
            9894     79.4574E+06     24.7747E+06              0.    -35.4061E+06
            9895     79.6930E+06     24.7508E+06              0.    -36.1326E+06
            9896     79.9311E+06     24.7298E+06              0.    -36.8706E+06
            9897     80.1715E+06     24.7120E+06              0.    -37.6201E+06
            9898     80.4142E+06     24.6974E+06              0.    -38.3811E+06
            9899     80.6589E+06     24.6865E+06              0.    -39.1538E+06
            9900     80.9056E+06     24.6793E+06              0.    -39.9380E+06
            9901     81.1541E+06     24.6760E+06              0.    -40.7338E+06
            9902     81.4041E+06     24.6770E+06              0.    -41.5412E+06
            9903     81.6555E+06     24.6825E+06              0.    -42.3602E+06
            9904     81.9080E+06     24.6927E+06              0.    -43.1906E+06
            9905     82.1614E+06     24.7078E+06              0.    -44.0324E+06
            9906     82.4155E+06     24.7283E+06              0.    -44.8856E+06
            9907     82.6700E+06     24.7542E+06              0.    -45.7501E+06
            9908     82.9245E+06     24.7860E+06              0.    -46.6257E+06
            9909     83.1788E+06     24.8238E+06              0.    -47.5123E+06
            9910     83.4325E+06     24.8681E+06              0.    -48.4097E+06
            9911     83.6852E+06     24.9191E+06              0.    -49.3178E+06
            9912     83.9366E+06     24.9772E+06              0.    -50.2364E+06
            9913     84.1861E+06     25.0426E+06              0.    -51.1652E+06
            9914     84.4335E+06     25.1157E+06              0.    -52.1039E+06
            9915     84.6781E+06     25.1969E+06              0.    -53.0523E+06
            9916     84.9194E+06     25.2864E+06              0.    -54.0100E+06
            9917     85.1570E+06     25.3847E+06              0.    -54.9767E+06
            9918     85.3902E+06     25.4921E+06              0.    -55.9519E+06
            9919     85.6183E+06     25.6089E+06              0.    -56.9353E+06
            9920     85.8408E+06     25.7356E+06              0.    -57.9262E+06
            9921     86.0570E+06     25.8724E+06              0.    -58.9243E+06
            9922     86.2660E+06     26.0197E+06              0.    -59.9290E+06
            9923     86.4671E+06     26.1779E+06              0.    -60.9395E+06
            9924     86.6595E+06     26.3474E+06              0.    -61.9552E+06
            9925     86.8423E+06     26.5284E+06              0.    -62.9754E+06
            9926     87.0146E+06     26.7214E+06              0.    -63.9992E+06
            9927     87.1754E+06     26.9266E+06              0.    -65.0259E+06
            9928     87.3236E+06     27.1444E+06              0.    -66.0543E+06
            9929     87.4582E+06     27.3750E+06              0.    -67.0837E+06
            9930     87.5781E+06     27.6188E+06              0.    -68.1127E+06
            9931     87.6821E+06     27.8759E+06              0.    -69.1403E+06
            9932     87.7689E+06     28.1467E+06              0.    -70.1653E+06
            9933     87.8373E+06     28.4312E+06              0.    -71.1862E+06
            9934     87.8858E+06     28.7296E+06              0.    -72.2016E+06
            9935     87.9132E+06     29.0420E+06              0.    -73.2099E+06
            9936     87.9178E+06     29.3684E+06              0.    -74.2096E+06
            9937     87.8983E+06     29.7089E+06              0.    -75.1988E+06
            9938     87.8530E+06     30.0634E+06              0.    -76.1757E+06
            9939     87.7803E+06     30.4316E+06              0.    -77.1383E+06
            9940     87.6786E+06     30.8134E+06              0.    -78.0843E+06
            9941     87.5460E+06     31.2083E+06              0.    -79.0117E+06
            9942     87.3809E+06     31.6160E+06              0.    -79.9179E+06
            9943     87.1814E+06     32.0359E+06              0.    -80.8005E+06
            9944     86.9458E+06     32.4673E+06              0.    -81.6568E+06
            9945     86.6720E+06     32.9094E+06              0.    -82.4840E+06
            9946     86.3583E+06     33.3612E+06              0.    -83.2790E+06
            9947     86.0028E+06     33.8216E+06              0.    -84.0389E+06
            9948     85.6034E+06     34.2891E+06              0.    -84.7603E+06
            9949     85.1583E+06     34.7624E+06              0.    -85.4397E+06
            9950     84.6657E+06     35.2396E+06              0.    -86.0738E+06
            9951     84.1236E+06     35.7189E+06              0.    -86.6586E+06
            9952     83.5302E+06     36.1980E+06              0.    -87.1905E+06
            9953     82.8837E+06     36.6744E+06              0.    -87.6653E+06
            9954     82.1825E+06     37.1455E+06              0.    -88.0790E+06
            9955     81.4249E+06     37.6081E+06              0.    -88.4273E+06
            9956     80.6094E+06     38.0591E+06              0.    -88.7058E+06
            9957     79.7347E+06     38.4948E+06              0.    -88.9103E+06
            9958     78.7994E+06     38.9112E+06              0.     -89.036E+06
            9959     77.8026E+06     39.3041E+06              0.    -89.0785E+06
            9960     76.7432E+06     39.6688E+06              0.    -89.0331E+06
            9961     75.6206E+06     40.0004E+06              0.    -88.8952E+06
            9962     74.4343E+06     40.2935E+06              0.    -88.6604E+06
            9963      73.184E+06     40.5425E+06              0.    -88.3238E+06
            9964     71.8698E+06     40.7414E+06              0.    -87.8812E+06
            9965     70.4918E+06     40.8839E+06              0.    -87.3282E+06
            9966     69.0507E+06     40.9634E+06              0.    -86.6605E+06
            9967     67.5473E+06     40.9729E+06              0.    -85.8742E+06
            9968     65.9828E+06     40.9053E+06              0.    -84.9655E+06
            9969     64.3585E+06     40.7532E+06              0.    -83.9309E+06
            9970     62.6762E+06     40.5089E+06              0.    -82.7672E+06
            9971      60.938E+06     40.1647E+06              0.    -81.4715E+06
            9972     59.1462E+06     39.7128E+06              0.    -80.0414E+06
            9973     57.3035E+06     39.1453E+06              0.    -78.4747E+06
            9974     55.4126E+06     38.4544E+06              0.    -76.7699E+06
            9975     53.4769E+06     37.6321E+06              0.    -74.9259E+06
            9976     51.4995E+06     36.6709E+06              0.    -72.9419E+06
            9977     49.4840E+06     35.5634E+06              0.    -70.8177E+06
            9978     47.4342E+06     34.3024E+06              0.    -68.5538E+06
            9979     45.3537E+06     32.8811E+06              0.    -66.1509E+06
            9980     43.2467E+06     31.2932E+06              0.    -63.6102E+06
            9981     41.1179E+06     29.5330E+06              0.    -60.9337E+06
            9982     39.6403E+06     27.1212E+06              0.    -59.9763E+06
            9983     68.1665E+06     29.8949E+06              0.    -2.69233E+06
            9984     68.1618E+06     29.8406E+06              0.    -2.68753E+06
            9985     68.1805E+06     29.7974E+06              0.    -2.65157E+06
            9986      68.199E+06     29.7554E+06              0.    -2.62097E+06
            9987     68.2173E+06     29.7145E+06              0.    -2.59558E+06
            9988     68.2354E+06     29.6747E+06              0.    -2.57526E+06
            9989     68.2534E+06     29.6360E+06              0.    -2.55990E+06
            9990     68.2713E+06     29.5982E+06              0.    -2.54935E+06
            9991     68.2892E+06     29.5613E+06              0.    -2.54350E+06
            9992     68.3071E+06     29.5253E+06              0.    -2.54225E+06
            9993     68.3249E+06     29.4902E+06              0.    -2.54548E+06
            9994     68.3429E+06     29.4558E+06              0.    -2.55310E+06
            9995     68.3608E+06     29.4221E+06              0.    -2.56502E+06
            9996     68.3789E+06     29.3892E+06              0.    -2.58113E+06
            9997     68.3972E+06     29.3569E+06              0.    -2.60137E+06
            9998     68.4156E+06     29.3252E+06              0.    -2.62566E+06
            9999     68.4342E+06     29.2941E+06              0.    -2.65391E+06
           10000     68.4530E+06     29.2636E+06              0.    -2.68607E+06
           10001     68.4720E+06     29.2335E+06              0.    -2.72207E+06
           10002     68.4913E+06     29.2039E+06              0.    -2.76185E+06
           10003     68.5110E+06     29.1748E+06              0.    -2.80536E+06
           10004     68.5309E+06     29.1460E+06              0.    -2.85255E+06
           10005     68.5512E+06     29.1176E+06              0.    -2.90337E+06
           10006     68.5719E+06     29.0896E+06              0.    -2.95779E+06
           10007     68.5930E+06     29.0618E+06              0.    -3.01576E+06
           10008     68.6145E+06     29.0343E+06              0.    -3.07726E+06
           10009     68.6365E+06     29.0071E+06              0.    -3.14225E+06
           10010     68.6590E+06     28.9801E+06              0.    -3.21071E+06
           10011     68.6819E+06     28.9533E+06              0.    -3.28262E+06
           10012     68.7054E+06     28.9266E+06              0.    -3.35795E+06
           10013     68.7295E+06     28.9001E+06              0.    -3.43670E+06
           10014     68.7541E+06     28.8737E+06              0.    -3.51886E+06
           10015     68.7793E+06     28.8474E+06              0.    -3.60441E+06
           10016     68.8051E+06     28.8211E+06              0.    -3.69335E+06
           10017     68.8316E+06     28.7949E+06              0.    -3.78569E+06
           10018     68.8587E+06     28.7687E+06              0.    -3.88141E+06
           10019     68.8866E+06     28.7425E+06              0.    -3.98053E+06
           10020     68.9152E+06     28.7163E+06              0.    -4.08306E+06
           10021     68.9445E+06     28.6900E+06              0.    -4.18900E+06
           10022     68.9745E+06     28.6637E+06              0.    -4.29837E+06
           10023     69.0054E+06     28.6373E+06              0.    -4.41119E+06
           10024     69.0371E+06     28.6108E+06              0.    -4.52747E+06
           10025     69.0696E+06     28.5841E+06              0.    -4.64724E+06
           10026     69.1030E+06     28.5574E+06              0.    -4.77052E+06
           10027     69.1372E+06     28.5304E+06              0.    -4.89733E+06
           10028     69.1724E+06     28.5033E+06              0.    -5.02772E+06
           10029     69.2085E+06     28.4760E+06              0.    -5.16171E+06
           10030     69.2456E+06     28.4486E+06              0.    -5.29933E+06
           10031     69.2836E+06     28.4208E+06              0.    -5.44062E+06
           10032     69.3227E+06     28.3929E+06              0.    -5.58563E+06
           10033     69.3628E+06     28.3647E+06              0.    -5.73440E+06
           10034     69.4040E+06     28.3362E+06              0.    -5.88696E+06
           10035     69.4462E+06     28.3074E+06              0.    -6.04337E+06
           10036     69.4896E+06     28.2784E+06              0.    -6.20368E+06
           10037     69.5341E+06     28.2491E+06              0.    -6.36794E+06
           10038     69.5797E+06     28.2194E+06              0.    -6.53619E+06
           10039     69.6266E+06     28.1894E+06              0.    -6.70851E+06
           10040     69.6747E+06     28.1591E+06              0.    -6.88493E+06
           10041      69.724E+06     28.1284E+06              0.    -7.06554E+06
           10042     69.7746E+06     28.0973E+06              0.    -7.25038E+06
           10043     69.8265E+06     28.0659E+06              0.    -7.43953E+06
           10044     69.8798E+06     28.0342E+06              0.    -7.63304E+06
           10045     69.9344E+06     28.0020E+06              0.    -7.83100E+06
           10046     69.9903E+06     27.9694E+06              0.    -8.03346E+06
           10047     70.0478E+06     27.9364E+06              0.    -8.24050E+06
           10048     70.1066E+06     27.9030E+06              0.    -8.45220E+06
           10049     70.1669E+06     27.8692E+06              0.    -8.66864E+06
           10050     70.2288E+06     27.8350E+06              0.    -8.88988E+06
           10051     70.2921E+06     27.8004E+06              0.    -9.11602E+06
           10052     70.3571E+06     27.7653E+06              0.    -9.34713E+06
           10053     70.4236E+06     27.7298E+06              0.    -9.58331E+06
           10054     70.4918E+06     27.6938E+06              0.    -9.82463E+06
           10055     70.5616E+06     27.6574E+06              0.    -10.0712E+06
           10056     70.6332E+06     27.6206E+06              0.    -10.3231E+06
           10057     70.7064E+06     27.5833E+06              0.    -10.5804E+06
           10058     70.7814E+06     27.5456E+06              0.    -10.8432E+06
           10059     70.8582E+06     27.5075E+06              0.    -11.1116E+06
           10060     70.9368E+06     27.4689E+06              0.    -11.3857E+06
           10061     71.0173E+06     27.4298E+06              0.    -11.6656E+06
           10062     71.0996E+06     27.3904E+06              0.    -11.9514E+06
           10063     71.1839E+06     27.3505E+06              0.    -12.2432E+06
           10064     71.2701E+06     27.3102E+06              0.    -12.5411E+06
           10065     71.3583E+06     27.2694E+06              0.    -12.8453E+06
           10066     71.4486E+06     27.2283E+06              0.    -13.1557E+06
           10067     71.5408E+06     27.1868E+06              0.    -13.4726E+06
           10068     71.6352E+06     27.1449E+06              0.    -13.7960E+06
           10069     71.7317E+06     27.1026E+06              0.    -14.1260E+06
           10070     71.8303E+06     27.0600E+06              0.    -14.4629E+06
           10071     71.9311E+06     27.0170E+06              0.    -14.8065E+06
           10072     72.0341E+06     26.9737E+06              0.    -15.1572E+06
           10073     72.1394E+06     26.9301E+06              0.    -15.5150E+06
           10074     72.2470E+06     26.8862E+06              0.    -15.8800E+06
           10075     72.3568E+06     26.8420E+06              0.    -16.2523E+06
           10076     72.4690E+06     26.7976E+06              0.    -16.6321E+06
           10077     72.5836E+06     26.7529E+06              0.    -17.0195E+06
           10078     72.7006E+06     26.7081E+06              0.    -17.4146E+06
           10079     72.8200E+06     26.6631E+06              0.    -17.8175E+06
           10080     72.9418E+06     26.6180E+06              0.    -18.2283E+06
           10081     73.0661E+06     26.5728E+06              0.    -18.6472E+06
           10082     73.1930E+06     26.5275E+06              0.    -19.0743E+06
           10083     73.3224E+06     26.4823E+06              0.    -19.5097E+06
           10084     73.4543E+06     26.4370E+06              0.    -19.9535E+06
           10085     73.5888E+06     26.3918E+06              0.    -20.4059E+06
           10086     73.7259E+06     26.3467E+06              0.    -20.8670E+06
           10087     73.8656E+06     26.3018E+06              0.    -21.3369E+06
           10088     74.0080E+06     26.2571E+06              0.    -21.8158E+06
           10089     74.1530E+06     26.2126E+06              0.    -22.3037E+06
           10090     74.3007E+06     26.1685E+06              0.    -22.8007E+06
           10091     74.4511E+06     26.1248E+06              0.    -23.3071E+06
           10092     74.6041E+06     26.0816E+06              0.    -23.8229E+06
           10093     74.7598E+06     26.0389E+06              0.    -24.3483E+06
           10094     74.9183E+06     25.9967E+06              0.    -24.8833E+06
           10095     75.0794E+06     25.9553E+06              0.    -25.4282E+06
           10096     75.2431E+06     25.9146E+06              0.    -25.9829E+06
           10097     75.4096E+06     25.8748E+06              0.    -26.5476E+06
           10098     75.5787E+06     25.8360E+06              0.    -27.1225E+06
           10099     75.7505E+06     25.7981E+06              0.    -27.7076E+06
           10100     75.9249E+06     25.7614E+06              0.    -28.3030E+06
           10101     76.1019E+06     25.7260E+06              0.    -28.9089E+06
           10102     76.2815E+06     25.6919E+06              0.    -29.5254E+06
           10103     76.4636E+06     25.6592E+06              0.    -30.1525E+06
           10104     76.6482E+06     25.6282E+06              0.    -30.7903E+06
           10105     76.8352E+06     25.5988E+06              0.    -31.4390E+06
           10106     77.0246E+06     25.5714E+06              0.    -32.0986E+06
           10107     77.2163E+06     25.5459E+06              0.    -32.7692E+06
           10108     77.4102E+06     25.5225E+06              0.    -33.4508E+06
           10109     77.6063E+06     25.5014E+06              0.    -34.1436E+06
           10110     77.8045E+06     25.4828E+06              0.    -34.8475E+06
           10111     78.0047E+06     25.4667E+06              0.    -35.5627E+06
           10112     78.2067E+06     25.4535E+06              0.    -36.2892E+06
           10113     78.4105E+06     25.4432E+06              0.    -37.0270E+06
           10114     78.6159E+06     25.4360E+06              0.    -37.7761E+06
           10115     78.8227E+06     25.4321E+06              0.    -38.5366E+06
           10116     79.0309E+06     25.4318E+06              0.    -39.3084E+06
           10117     79.2402E+06     25.4352E+06              0.    -40.0917E+06
           10118     79.4505E+06     25.4425E+06              0.    -40.8862E+06
           10119     79.6615E+06     25.4541E+06              0.    -41.6921E+06
           10120     79.8731E+06     25.4700E+06              0.    -42.5092E+06
           10121     80.0850E+06     25.4905E+06              0.    -43.3375E+06
           10122     80.2970E+06     25.5159E+06              0.    -44.1769E+06
           10123     80.5087E+06     25.5464E+06              0.    -45.0274E+06
           10124     80.7200E+06     25.5823E+06              0.    -45.8887E+06
           10125     80.9304E+06     25.6239E+06              0.    -46.7608E+06
           10126     81.1397E+06     25.6714E+06              0.    -47.6436E+06
           10127     81.3475E+06     25.7251E+06              0.    -48.5367E+06
           10128     81.5535E+06     25.7852E+06              0.    -49.4401E+06
           10129     81.7571E+06     25.8521E+06              0.    -50.3535E+06
           10130     81.9581E+06     25.9261E+06              0.    -51.2766E+06
           10131     82.1559E+06     26.0075E+06              0.    -52.2092E+06
           10132     82.3500E+06     26.0966E+06              0.    -53.1509E+06
           10133     82.5399E+06     26.1936E+06              0.    -54.1013E+06
           10134     82.7251E+06     26.2990E+06              0.    -55.0602E+06
           10135      82.905E+06     26.4129E+06              0.    -56.0270E+06
           10136     83.0789E+06     26.5358E+06              0.    -57.0012E+06
           10137     83.2463E+06     26.6680E+06              0.    -57.9825E+06
           10138     83.4063E+06     26.8097E+06              0.    -58.9701E+06
           10139     83.5583E+06     26.9613E+06              0.    -59.9636E+06
           10140     83.7014E+06     27.1230E+06              0.    -60.9622E+06
           10141     83.8350E+06     27.2953E+06              0.    -61.9652E+06
           10142     83.9580E+06     27.4783E+06              0.    -62.9718E+06
           10143     84.0697E+06     27.6723E+06              0.    -63.9813E+06
           10144     84.1689E+06     27.8777E+06              0.    -64.9927E+06
           10145     84.2549E+06     28.0945E+06              0.    -66.0050E+06
           10146     84.3264E+06     28.3232E+06              0.    -67.0172E+06
           10147     84.3824E+06     28.5638E+06              0.    -68.0282E+06
           10148     84.4218E+06     28.8166E+06              0.    -69.0368E+06
           10149     84.4433E+06     29.0816E+06              0.    -70.0416E+06
           10150     84.4457E+06     29.3590E+06              0.    -71.0414E+06
           10151     84.4277E+06     29.6488E+06              0.    -72.0346E+06
           10152     84.3880E+06     29.9510E+06              0.    -73.0197E+06
           10153     84.3251E+06     30.2656E+06              0.    -73.9951E+06
           10154     84.2377E+06     30.5925E+06              0.    -74.9588E+06
           10155     84.1242E+06     30.9314E+06              0.    -75.9091E+06
           10156     83.9830E+06     31.2821E+06              0.    -76.8439E+06
           10157     83.8127E+06     31.6442E+06              0.    -77.7611E+06
           10158     83.6115E+06     32.0174E+06              0.    -78.6585E+06
           10159     83.3779E+06     32.4009E+06              0.    -79.5337E+06
           10160     83.1101E+06     32.7943E+06              0.    -80.3841E+06
           10161     82.8064E+06     33.1966E+06              0.    -81.2072E+06
           10162     82.4651E+06     33.6069E+06              0.    -82.0001E+06
           10163     82.0844E+06     34.0241E+06              0.    -82.7599E+06
           10164     81.6627E+06     34.4470E+06              0.    -83.4836E+06
           10165     81.1980E+06     34.8742E+06              0.    -84.1680E+06
           10166     80.6887E+06     35.3040E+06              0.    -84.8097E+06
           10167     80.1331E+06     35.7345E+06              0.    -85.4053E+06
           10168     79.5295E+06     36.1638E+06              0.    -85.9511E+06
           10169     78.8763E+06     36.5896E+06              0.    -86.4435E+06
           10170     78.1718E+06     37.0092E+06              0.    -86.8785E+06
           10171     77.4146E+06     37.4201E+06              0.    -87.2522E+06
           10172     76.6033E+06     37.8190E+06              0.    -87.5605E+06
           10173     75.7365E+06     38.2026E+06              0.    -87.7993E+06
           10174     74.8131E+06     38.5674E+06              0.    -87.9643E+06
           10175     73.8321E+06     38.9093E+06              0.    -88.0512E+06
           10176     72.7925E+06     39.2242E+06              0.    -88.0557E+06
           10177     71.6936E+06     39.5075E+06              0.    -87.9734E+06
           10178     70.5350E+06     39.7542E+06              0.    -87.7999E+06
           10179     69.3162E+06     39.9592E+06              0.    -87.5309E+06
           10180     68.0374E+06     40.1169E+06              0.    -87.1621E+06
           10181     66.6984E+06     40.2217E+06              0.    -86.6894E+06
           10182     65.2999E+06     40.2673E+06              0.    -86.1087E+06
           10183     63.8424E+06     40.2473E+06              0.    -85.4160E+06
           10184     62.3269E+06     40.1552E+06              0.    -84.6076E+06
           10185     60.7546E+06      39.984E+06              0.    -83.6800E+06
           10186     59.1270E+06     39.7267E+06              0.    -82.6300E+06
           10187     57.4458E+06     39.3761E+06              0.    -81.4547E+06
           10188     55.7132E+06     38.9248E+06              0.    -80.1513E+06
           10189     53.9313E+06     38.3654E+06              0.    -78.7176E+06
           10190     52.1028E+06     37.6904E+06              0.    -77.1517E+06
           10191     50.2304E+06     36.8924E+06              0.    -75.4521E+06
           10192     48.3172E+06     35.9640E+06              0.    -73.6178E+06
           10193     46.3665E+06     34.8982E+06              0.    -71.6482E+06
           10194     44.3815E+06     33.6878E+06              0.    -69.5431E+06
           10195     42.3658E+06     32.3262E+06              0.    -67.3028E+06
           10196     40.3232E+06     30.8071E+06              0.    -64.9281E+06
           10197     38.2575E+06     29.1243E+06              0.    -62.4202E+06
           10198     36.1732E+06     27.2727E+06              0.    -59.7808E+06
           10199     34.6878E+06     24.7782E+06              0.    -58.8242E+06
           10200     68.0599E+06     29.8495E+06              0.    -2.70947E+06
           10201     68.0558E+06     29.8020E+06              0.    -2.70463E+06
           10202     68.0722E+06     29.7641E+06              0.    -2.66844E+06
           10203     68.0885E+06     29.7273E+06              0.    -2.63764E+06
           10204     68.1045E+06     29.6914E+06              0.    -2.61208E+06
           10205     68.1204E+06     29.6565E+06              0.    -2.59163E+06
           10206     68.1363E+06     29.6226E+06              0.    -2.57616E+06
           10207      68.152E+06     29.5894E+06              0.    -2.56554E+06
           10208     68.1677E+06     29.5571E+06              0.    -2.55965E+06
           10209     68.1834E+06     29.5256E+06              0.    -2.55838E+06
           10210     68.1991E+06     29.4947E+06              0.    -2.56163E+06
           10211     68.2148E+06     29.4646E+06              0.    -2.56929E+06
           10212     68.2306E+06     29.4351E+06              0.    -2.58127E+06
           10213     68.2464E+06     29.4063E+06              0.    -2.59748E+06
           10214     68.2624E+06     29.3780E+06              0.    -2.61784E+06
           10215     68.2786E+06     29.3502E+06              0.    -2.64226E+06
           10216     68.2949E+06     29.3230E+06              0.    -2.67069E+06
           10217     68.3114E+06     29.2962E+06              0.    -2.70304E+06
           10218     68.3281E+06     29.2699E+06              0.    -2.73926E+06
           10219     68.3450E+06     29.2439E+06              0.    -2.77928E+06
           10220     68.3623E+06     29.2184E+06              0.    -2.82305E+06
           10221     68.3798E+06     29.1932E+06              0.    -2.87053E+06
           10222     68.3976E+06     29.1684E+06              0.    -2.92166E+06
           10223     68.4157E+06     29.1438E+06              0.    -2.97641E+06
           10224     68.4342E+06     29.1195E+06              0.    -3.03473E+06
           10225     68.4531E+06     29.0955E+06              0.    -3.09660E+06
           10226     68.4723E+06     29.0716E+06              0.    -3.16199E+06
           10227     68.4920E+06     29.0480E+06              0.    -3.23086E+06
           10228     68.5122E+06     29.0245E+06              0.    -3.30321E+06
           10229     68.5327E+06     29.0012E+06              0.    -3.37900E+06
           10230     68.5538E+06     28.9780E+06              0.    -3.45823E+06
           10231     68.5754E+06     28.9549E+06              0.    -3.54089E+06
           10232     68.5975E+06     28.9319E+06              0.    -3.62696E+06
           10233     68.6201E+06     28.9090E+06              0.    -3.71644E+06
           10234     68.6433E+06     28.8861E+06              0.    -3.80933E+06
           10235     68.6671E+06     28.8632E+06              0.    -3.90563E+06
           10236     68.6915E+06     28.8403E+06              0.    -4.00535E+06
           10237     68.7166E+06     28.8174E+06              0.    -4.10849E+06
           10238     68.7422E+06     28.7945E+06              0.    -4.21507E+06
           10239     68.7686E+06     28.7715E+06              0.    -4.32509E+06
           10240     68.7956E+06     28.7485E+06              0.    -4.43858E+06
           10241     68.8234E+06     28.7253E+06              0.    -4.55556E+06
           10242     68.8518E+06     28.7021E+06              0.    -4.67604E+06
           10243     68.8811E+06     28.6788E+06              0.    -4.80005E+06
           10244     68.9111E+06     28.6553E+06              0.    -4.92762E+06
           10245     68.9419E+06     28.6317E+06              0.    -5.05877E+06
           10246     68.9735E+06     28.6079E+06              0.    -5.19355E+06
           10247     69.0060E+06     28.5840E+06              0.    -5.33198E+06
           10248     69.0393E+06     28.5598E+06              0.    -5.47411E+06
           10249     69.0735E+06     28.5355E+06              0.    -5.61996E+06
           10250     69.1086E+06     28.5110E+06              0.    -5.76960E+06
           10251     69.1447E+06     28.4862E+06              0.    -5.92305E+06
           10252     69.1816E+06     28.4612E+06              0.    -6.08036E+06
           10253     69.2196E+06     28.4360E+06              0.    -6.24160E+06
           10254     69.2585E+06     28.4105E+06              0.    -6.40680E+06
           10255     69.2985E+06     28.3848E+06              0.    -6.57602E+06
           10256     69.3395E+06     28.3588E+06              0.    -6.74932E+06
           10257     69.3816E+06     28.3325E+06              0.    -6.92675E+06
           10258     69.4248E+06     28.3059E+06              0.    -7.10838E+06
           10259     69.4690E+06     28.2790E+06              0.    -7.29426E+06
           10260     69.5144E+06     28.2518E+06              0.    -7.48447E+06
           10261     69.5610E+06     28.2243E+06              0.    -7.67907E+06
           10262     69.6088E+06     28.1964E+06              0.    -7.87812E+06
           10263     69.6577E+06     28.1683E+06              0.    -8.08170E+06
           10264     69.7079E+06     28.1398E+06              0.    -8.28989E+06
           10265     69.7594E+06     28.1109E+06              0.    -8.50275E+06
           10266     69.8121E+06     28.0818E+06              0.    -8.72036E+06
           10267     69.8662E+06     28.0522E+06              0.    -8.94281E+06
           10268     69.9215E+06     28.0224E+06              0.    -9.17016E+06
           10269     69.9783E+06     27.9922E+06              0.    -9.40251E+06
           10270     70.0364E+06     27.9616E+06              0.    -9.63994E+06
           10271     70.0960E+06     27.9307E+06              0.    -9.88254E+06
           10272     70.1570E+06     27.8994E+06              0.    -10.1304E+06
           10273     70.2194E+06     27.8678E+06              0.    -10.3836E+06
           10274     70.2834E+06     27.8358E+06              0.    -10.6422E+06
           10275     70.3488E+06     27.8034E+06              0.    -10.9063E+06
           10276     70.4158E+06     27.7707E+06              0.    -11.1761E+06
           10277     70.4844E+06     27.7377E+06              0.    -11.4516E+06
           10278     70.5546E+06     27.7043E+06              0.    -11.7329E+06
           10279     70.6264E+06     27.6706E+06              0.    -12.0201E+06
           10280     70.6999E+06     27.6366E+06              0.    -12.3134E+06
           10281     70.7751E+06     27.6022E+06              0.    -12.6127E+06
           10282     70.8519E+06     27.5676E+06              0.    -12.9183E+06
           10283     70.9306E+06     27.5326E+06              0.    -13.2303E+06
           10284     71.0109E+06     27.4973E+06              0.    -13.5486E+06
           10285     71.0931E+06     27.4618E+06              0.    -13.8735E+06
           10286     71.1771E+06     27.4260E+06              0.    -14.2051E+06
           10287     71.2629E+06     27.3899E+06              0.    -14.5434E+06
           10288     71.3506E+06     27.3536E+06              0.    -14.8887E+06
           10289     71.4402E+06     27.3171E+06              0.    -15.2409E+06
           10290     71.5317E+06     27.2804E+06              0.    -15.6002E+06
           10291     71.6251E+06     27.2435E+06              0.    -15.9667E+06
           10292     71.7206E+06     27.2065E+06              0.    -16.3406E+06
           10293     71.8180E+06     27.1693E+06              0.    -16.7220E+06
           10294     71.9174E+06     27.1320E+06              0.    -17.1109E+06
           10295     72.0189E+06     27.0947E+06              0.    -17.5076E+06
           10296     72.1224E+06     27.0573E+06              0.    -17.9120E+06
           10297      72.228E+06     27.0198E+06              0.    -18.3244E+06
           10298     72.3357E+06     26.9824E+06              0.    -18.7449E+06
           10299     72.4455E+06     26.9451E+06              0.    -19.1735E+06
           10300     72.5575E+06     26.9079E+06              0.    -19.6105E+06
           10301     72.6716E+06     26.8707E+06              0.    -20.0559E+06
           10302     72.7878E+06     26.8338E+06              0.    -20.5098E+06
           10303     72.9062E+06     26.7971E+06              0.    -20.9724E+06
           10304     73.0268E+06     26.7607E+06              0.    -21.4438E+06
           10305     73.1496E+06     26.7246E+06              0.    -21.9241E+06
           10306     73.2746E+06     26.6889E+06              0.    -22.4134E+06
           10307     73.4018E+06     26.6536E+06              0.    -22.9119E+06
           10308     73.5312E+06     26.6189E+06              0.    -23.4196E+06
           10309     73.6628E+06     26.5847E+06              0.    -23.9368E+06
           10310     73.7966E+06     26.5511E+06              0.    -24.4634E+06
           10311     73.9325E+06     26.5183E+06              0.    -24.9997E+06
           10312     74.0707E+06     26.4862E+06              0.    -25.5457E+06
           10313     74.2110E+06     26.4550E+06              0.    -26.1016E+06
           10314     74.3534E+06     26.4248E+06              0.    -26.6674E+06
           10315     74.4979E+06     26.3956E+06              0.    -27.2433E+06
           10316     74.6446E+06     26.3675E+06              0.    -27.8294E+06
           10317     74.7933E+06     26.3406E+06              0.    -28.4257E+06
           10318     74.9440E+06     26.3151E+06              0.    -29.0324E+06
           10319     75.0967E+06     26.2910E+06              0.    -29.6495E+06
           10320     75.2514E+06     26.2685E+06              0.    -30.2772E+06
           10321     75.4079E+06     26.2476E+06              0.    -30.9156E+06
           10322     75.5662E+06     26.2285E+06              0.    -31.5646E+06
           10323     75.7263E+06     26.2113E+06              0.    -32.2245E+06
           10324     75.8880E+06     26.1962E+06              0.    -32.8952E+06
           10325     76.0513E+06     26.1832E+06              0.    -33.5768E+06
           10326     76.2161E+06     26.1726E+06              0.    -34.2694E+06
           10327     76.3823E+06     26.1644E+06              0.    -34.9731E+06
           10328     76.5498E+06     26.1588E+06              0.    -35.6878E+06
           10329     76.7184E+06     26.1561E+06              0.    -36.4136E+06
           10330     76.8881E+06     26.1562E+06              0.    -37.1505E+06
           10331     77.0587E+06     26.1596E+06              0.    -37.8986E+06
           10332     77.2299E+06     26.1662E+06              0.    -38.6579E+06
           10333     77.4018E+06     26.1763E+06              0.    -39.4282E+06
           10334      77.574E+06     26.1901E+06              0.    -40.2097E+06
           10335     77.7464E+06     26.2078E+06              0.    -41.0023E+06
           10336     77.9188E+06     26.2296E+06              0.    -41.8058E+06
           10337     78.0909E+06     26.2557E+06              0.    -42.6204E+06
           10338     78.2626E+06     26.2863E+06              0.    -43.4459E+06
           10339     78.4334E+06     26.3217E+06              0.    -44.2821E+06
           10340     78.6033E+06     26.3620E+06              0.    -45.1290E+06
           10341     78.7718E+06     26.4076E+06              0.    -45.9865E+06
           10342     78.9387E+06     26.4586E+06              0.    -46.8544E+06
           10343     79.1036E+06     26.5154E+06              0.    -47.7325E+06
           10344     79.2661E+06     26.5781E+06              0.    -48.6206E+06
           10345     79.4259E+06     26.6470E+06              0.    -49.5185E+06
           10346     79.5825E+06     26.7224E+06              0.    -50.4259E+06
           10347     79.7355E+06     26.8046E+06              0.    -51.3426E+06
           10348     79.8845E+06     26.8938E+06              0.    -52.2682E+06
           10349     80.0289E+06     26.9903E+06              0.    -53.2024E+06
           10350     80.1683E+06     27.0943E+06              0.    -54.1448E+06
           10351     80.3020E+06     27.2062E+06              0.    -55.0951E+06
           10352     80.4296E+06     27.3263E+06              0.    -56.0526E+06
           10353     80.5503E+06     27.4547E+06              0.    -57.0171E+06
           10354     80.6635E+06     27.5918E+06              0.    -57.9878E+06
           10355     80.7686E+06     27.7379E+06              0.    -58.9643E+06
           10356     80.8647E+06     27.8931E+06              0.    -59.9458E+06
           10357     80.9512E+06     28.0578E+06              0.    -60.9318E+06
           10358     81.0272E+06     28.2322E+06              0.    -61.9214E+06
           10359     81.0919E+06     28.4165E+06              0.    -62.9138E+06
           10360     81.1444E+06     28.6109E+06              0.    -63.9083E+06
           10361     81.1838E+06     28.8157E+06              0.    -64.9038E+06
           10362     81.2091E+06     29.0310E+06              0.    -65.8994E+06
           10363     81.2192E+06     29.2569E+06              0.    -66.8939E+06
           10364     81.2132E+06     29.4937E+06              0.    -67.8864E+06
           10365     81.1899E+06     29.7413E+06              0.    -68.8754E+06
           10366     81.1481E+06     29.9999E+06              0.    -69.8598E+06
           10367     81.0867E+06     30.2694E+06              0.    -70.8381E+06
           10368     81.0044E+06     30.5498E+06              0.    -71.8088E+06
           10369        80.9E+06     30.8411E+06              0.    -72.7704E+06
           10370     80.7720E+06     31.1431E+06              0.    -73.7212E+06
           10371     80.6192E+06     31.4555E+06              0.    -74.6594E+06
           10372     80.4401E+06     31.7781E+06              0.    -75.5831E+06
           10373     80.2332E+06     32.1106E+06              0.    -76.4902E+06
           10374     79.9971E+06     32.4524E+06              0.    -77.3788E+06
           10375     79.7303E+06     32.8030E+06              0.    -78.2464E+06
           10376     79.4312E+06     33.1618E+06              0.    -79.0908E+06
           10377     79.0982E+06     33.5280E+06              0.    -79.9096E+06
           10378     78.7297E+06     33.9006E+06              0.    -80.7000E+06
           10379     78.3242E+06     34.2786E+06              0.    -81.4593E+06
           10380     77.8800E+06     34.6609E+06              0.    -82.1847E+06
           10381     77.3955E+06     35.0461E+06              0.    -82.8732E+06
           10382     76.8691E+06     35.4326E+06              0.    -83.5217E+06
           10383     76.2993E+06     35.8187E+06              0.    -84.1268E+06
           10384     75.6845E+06     36.2026E+06              0.    -84.6852E+06
           10385     75.0231E+06     36.5820E+06              0.    -85.1935E+06
           10386     74.3138E+06     36.9546E+06              0.     -85.648E+06
           10387     73.5551E+06     37.3179E+06              0.    -86.0450E+06
           10388     72.7458E+06     37.6691E+06              0.    -86.3806E+06
           10389     71.8845E+06     38.0049E+06              0.    -86.6510E+06
           10390     70.9702E+06     38.3221E+06              0.    -86.8521E+06
           10391     70.0019E+06     38.6171E+06              0.    -86.9799E+06
           10392     68.9788E+06     38.8858E+06              0.    -87.0304E+06
           10393     67.9001E+06     39.1242E+06              0.    -86.9993E+06
           10394     66.7653E+06     39.3277E+06              0.    -86.8826E+06
           10395     65.5741E+06     39.4915E+06              0.    -86.6761E+06
           10396     64.3263E+06     39.6105E+06              0.    -86.3757E+06
           10397     63.0219E+06     39.6794E+06              0.    -85.9774E+06
           10398     61.6613E+06     39.6926E+06              0.    -85.4773E+06
           10399     60.2450E+06     39.6441E+06              0.    -84.8716E+06
           10400     58.7737E+06     39.5277E+06              0.    -84.1565E+06
           10401     57.2485E+06     39.3372E+06              0.    -83.3287E+06
           10402     55.6706E+06     39.0659E+06              0.    -82.3849E+06
           10403     54.0416E+06     38.7070E+06              0.    -81.3220E+06
           10404     52.3632E+06     38.2538E+06              0.    -80.1374E+06
           10405     50.6374E+06     37.6991E+06              0.    -78.8285E+06
           10406     48.8666E+06     37.0360E+06              0.    -77.3933E+06
           10407     47.0532E+06     36.2574E+06              0.    -75.8301E+06
           10408     45.1999E+06     35.3563E+06              0.    -74.1374E+06
           10409     43.3098E+06     34.3258E+06              0.    -72.3144E+06
           10410     41.3857E+06     33.1591E+06              0.    -70.3604E+06
           10411     39.4311E+06     31.8496E+06              0.    -68.2753E+06
           10412     37.4493E+06     30.3911E+06              0.    -66.0595E+06
           10413     35.4438E+06     28.7774E+06              0.    -63.7135E+06
           10414     33.4177E+06     27.0027E+06              0.    -61.2386E+06
           10415     31.3722E+06     25.0611E+06              0.    -58.6363E+06
           10416     29.8726E+06     22.4823E+06              0.    -57.6775E+06
           10417     67.9527E+06     29.8039E+06              0.    -2.72431E+06
           10418     67.9492E+06     29.7631E+06              0.    -2.71945E+06
           10419     67.9634E+06     29.7305E+06              0.    -2.68305E+06
           10420     67.9773E+06     29.6989E+06              0.    -2.65207E+06
           10421     67.9911E+06     29.6682E+06              0.    -2.62637E+06
           10422     68.0048E+06     29.6382E+06              0.    -2.60580E+06
           10423     68.0184E+06     29.6091E+06              0.    -2.59024E+06
           10424     68.0320E+06     29.5806E+06              0.    -2.57955E+06
           10425     68.0455E+06     29.5529E+06              0.    -2.57362E+06
           10426     68.0589E+06     29.5258E+06              0.    -2.57234E+06
           10427     68.0724E+06     29.4993E+06              0.    -2.57560E+06
           10428     68.0859E+06     29.4735E+06              0.    -2.58329E+06
           10429     68.0995E+06     29.4482E+06              0.    -2.59533E+06
           10430     68.1132E+06     29.4234E+06              0.    -2.61162E+06
           10431     68.1269E+06     29.3991E+06              0.    -2.63208E+06
           10432     68.1408E+06     29.3753E+06              0.    -2.65663E+06
           10433     68.1548E+06     29.3520E+06              0.    -2.68520E+06
           10434     68.1690E+06     29.3290E+06              0.    -2.71772E+06
           10435     68.1833E+06     29.3064E+06              0.    -2.75412E+06
           10436     68.1979E+06     29.2842E+06              0.    -2.79435E+06
           10437     68.2127E+06     29.2623E+06              0.    -2.83835E+06
           10438     68.2277E+06     29.2407E+06              0.    -2.88607E+06
           10439     68.2430E+06     29.2194E+06              0.    -2.93747E+06
           10440     68.2586E+06     29.1984E+06              0.    -2.99250E+06
           10441     68.2745E+06     29.1775E+06              0.    -3.05113E+06
           10442     68.2907E+06     29.1569E+06              0.    -3.11332E+06
           10443     68.3072E+06     29.1365E+06              0.    -3.17905E+06
           10444     68.3241E+06     29.1163E+06              0.    -3.24828E+06
           10445     68.3414E+06     29.0962E+06              0.    -3.32100E+06
           10446     68.3591E+06     29.0762E+06              0.    -3.39718E+06
           10447     68.3772E+06     29.0564E+06              0.    -3.47682E+06
           10448     68.3957E+06     29.0366E+06              0.    -3.55990E+06
           10449     68.4146E+06     29.0170E+06              0.    -3.64642E+06
           10450     68.4341E+06     28.9973E+06              0.    -3.73636E+06
           10451     68.4540E+06     28.9778E+06              0.    -3.82973E+06
           10452     68.4744E+06     28.9582E+06              0.    -3.92652E+06
           10453     68.4954E+06     28.9387E+06              0.    -4.02675E+06
           10454     68.5168E+06     28.9191E+06              0.    -4.13042E+06
           10455     68.5389E+06     28.8995E+06              0.    -4.23755E+06
           10456     68.5615E+06     28.8799E+06              0.    -4.34813E+06
           10457     68.5847E+06     28.8603E+06              0.    -4.46220E+06
           10458     68.6085E+06     28.8405E+06              0.    -4.57977E+06
           10459     68.6329E+06     28.8207E+06              0.    -4.70086E+06
           10460     68.6580E+06     28.8008E+06              0.    -4.82550E+06
           10461     68.6837E+06     28.7808E+06              0.    -4.95371E+06
           10462     68.7101E+06     28.7607E+06              0.    -5.08552E+06
           10463     68.7372E+06     28.7405E+06              0.    -5.22097E+06
           10464     68.7651E+06     28.7201E+06              0.    -5.36010E+06
           10465     68.7936E+06     28.6996E+06              0.    -5.50293E+06
           10466     68.8230E+06     28.6789E+06              0.    -5.64951E+06
           10467     68.8531E+06     28.6581E+06              0.    -5.79988E+06
           10468     68.8839E+06     28.6371E+06              0.    -5.95408E+06
           10469     68.9156E+06     28.6159E+06              0.    -6.11217E+06
           10470     68.9482E+06     28.5945E+06              0.    -6.27419E+06
           10471     68.9815E+06     28.5729E+06              0.    -6.44020E+06
           10472     69.0158E+06     28.5511E+06              0.    -6.61024E+06
           10473     69.0509E+06     28.5290E+06              0.    -6.78437E+06
           10474     69.0870E+06     28.5068E+06              0.    -6.96265E+06
           10475     69.1239E+06     28.4843E+06              0.    -7.14515E+06
           10476     69.1618E+06     28.4615E+06              0.    -7.33192E+06
           10477     69.2007E+06     28.4386E+06              0.    -7.52302E+06
           10478     69.2406E+06     28.4153E+06              0.    -7.71854E+06
           10479     69.2815E+06     28.3919E+06              0.    -7.91852E+06
           10480     69.3234E+06     28.3681E+06              0.    -8.12305E+06
           10481     69.3663E+06     28.3441E+06              0.    -8.33219E+06
           10482     69.4104E+06     28.3199E+06              0.    -8.54603E+06
           10483     69.4555E+06     28.2953E+06              0.    -8.76464E+06
           10484     69.5017E+06     28.2706E+06              0.    -8.98809E+06
           10485     69.5490E+06     28.2455E+06              0.    -9.21647E+06
           10486     69.5976E+06     28.2202E+06              0.    -9.44985E+06
           10487     69.6473E+06     28.1945E+06              0.    -9.68833E+06
           10488     69.6981E+06     28.1687E+06              0.    -9.93199E+06
           10489     69.7503E+06     28.1425E+06              0.    -10.1809E+06
           10490     69.8036E+06     28.1161E+06              0.    -10.4352E+06
           10491     69.8582E+06     28.0894E+06              0.    -10.6949E+06
           10492     69.9141E+06     28.0625E+06              0.    -10.9602E+06
           10493     69.9713E+06     28.0353E+06              0.    -11.2311E+06
           10494     70.0299E+06     28.0078E+06              0.    -11.5077E+06
           10495     70.0898E+06     27.9801E+06              0.    -11.7902E+06
           10496     70.1510E+06     27.9522E+06              0.    -12.0786E+06
           10497     70.2137E+06     27.9240E+06              0.    -12.3730E+06
           10498     70.2777E+06     27.8956E+06              0.    -12.6735E+06
           10499     70.3432E+06     27.8670E+06              0.    -12.9803E+06
           10500     70.4102E+06     27.8382E+06              0.    -13.2935E+06
           10501     70.4786E+06     27.8092E+06              0.    -13.6130E+06
           10502     70.5485E+06     27.7801E+06              0.    -13.9392E+06
           10503     70.6200E+06     27.7507E+06              0.    -14.2719E+06
           10504     70.6930E+06     27.7213E+06              0.    -14.6115E+06
           10505     70.7675E+06     27.6917E+06              0.    -14.9580E+06
           10506     70.8437E+06     27.6620E+06              0.    -15.3114E+06
           10507     70.9214E+06     27.6321E+06              0.    -15.6720E+06
           10508     71.0007E+06     27.6023E+06              0.    -16.0398E+06
           10509     71.0817E+06     27.5724E+06              0.    -16.4149E+06
           10510     71.1643E+06     27.5424E+06              0.    -16.7975E+06
           10511     71.2485E+06     27.5125E+06              0.    -17.1876E+06
           10512     71.3345E+06     27.4826E+06              0.    -17.5855E+06
           10513     71.4221E+06     27.4528E+06              0.    -17.9912E+06
           10514     71.5115E+06     27.4231E+06              0.    -18.4048E+06
           10515     71.6025E+06     27.3935E+06              0.    -18.8264E+06
           10516     71.6953E+06     27.3640E+06              0.    -19.2562E+06
           10517     71.7898E+06     27.3348E+06              0.    -19.6943E+06
           10518     71.8860E+06     27.3059E+06              0.    -20.1408E+06
           10519      71.984E+06     27.2772E+06              0.    -20.5959E+06
           10520     72.0837E+06     27.2489E+06              0.    -21.0596E+06
           10521     72.1852E+06     27.2209E+06              0.    -21.5320E+06
           10522     72.2884E+06     27.1934E+06              0.    -22.0133E+06
           10523     72.3934E+06     27.1664E+06              0.    -22.5037E+06
           10524     72.5001E+06     27.1399E+06              0.    -23.0031E+06
           10525     72.6085E+06     27.1141E+06              0.    -23.5118E+06
           10526     72.7187E+06     27.0889E+06              0.    -24.0298E+06
           10527     72.8305E+06     27.0645E+06              0.    -24.5573E+06
           10528     72.9441E+06     27.0409E+06              0.    -25.0944E+06
           10529     73.0593E+06     27.0181E+06              0.    -25.6411E+06
           10530     73.1761E+06     26.9964E+06              0.    -26.1976E+06
           10531     73.2946E+06     26.9756E+06              0.     -26.764E+06
           10532     73.4146E+06     26.9560E+06              0.    -27.3404E+06
           10533     73.5362E+06     26.9376E+06              0.    -27.9269E+06
           10534     73.6593E+06     26.9206E+06              0.    -28.5235E+06
           10535     73.7838E+06     26.9049E+06              0.    -29.1305E+06
           10536     73.9098E+06     26.8908E+06              0.    -29.7478E+06
           10537     74.0370E+06     26.8782E+06              0.    -30.3755E+06
           10538     74.1656E+06     26.8674E+06              0.    -31.0138E+06
           10539     74.2953E+06     26.8584E+06              0.    -31.6626E+06
           10540     74.4262E+06     26.8514E+06              0.    -32.3221E+06
           10541     74.5580E+06     26.8465E+06              0.    -32.9924E+06
           10542     74.6909E+06     26.8438E+06              0.    -33.6734E+06
           10543     74.8246E+06     26.8434E+06              0.    -34.3652E+06
           10544     74.9590E+06     26.8456E+06              0.    -35.0679E+06
           10545     75.0939E+06     26.8504E+06              0.    -35.7815E+06
           10546     75.2294E+06     26.8579E+06              0.    -36.5061E+06
           10547     75.3652E+06     26.8684E+06              0.    -37.2415E+06
           10548     75.5012E+06     26.8821E+06              0.    -37.9879E+06
           10549     75.6372E+06     26.8990E+06              0.    -38.7452E+06
           10550     75.7730E+06     26.9194E+06              0.    -39.5133E+06
           10551     75.9084E+06     26.9433E+06              0.    -40.2924E+06
           10552     76.0433E+06     26.9712E+06              0.    -41.0823E+06
           10553     76.1774E+06     27.0030E+06              0.    -41.8829E+06
           10554     76.3105E+06     27.0390E+06              0.    -42.6942E+06
           10555     76.4423E+06     27.0794E+06              0.    -43.5160E+06
           10556     76.5725E+06     27.1245E+06              0.    -44.3484E+06
           10557     76.7010E+06     27.1744E+06              0.    -45.1911E+06
           10558     76.8272E+06     27.2293E+06              0.    -46.0439E+06
           10559     76.9511E+06     27.2894E+06              0.    -46.9068E+06
           10560     77.0721E+06     27.3551E+06              0.    -47.7795E+06
           10561     77.1899E+06     27.4265E+06              0.    -48.6618E+06
           10562     77.3042E+06     27.5038E+06              0.    -49.5535E+06
           10563     77.4145E+06     27.5873E+06              0.    -50.4542E+06
           10564     77.5203E+06     27.6772E+06              0.    -51.3637E+06
           10565     77.6213E+06     27.7738E+06              0.    -52.2816E+06
           10566     77.7169E+06     27.8773E+06              0.    -53.2076E+06
           10567     77.8066E+06     27.9879E+06              0.    -54.1413E+06
           10568     77.8898E+06     28.1059E+06              0.    -55.0822E+06
           10569     77.9659E+06     28.2315E+06              0.    -56.0298E+06
           10570     78.0345E+06     28.3649E+06              0.    -56.9837E+06
           10571     78.0947E+06     28.5064E+06              0.    -57.9432E+06
           10572     78.1459E+06     28.6562E+06              0.    -58.9078E+06
           10573     78.1875E+06     28.8145E+06              0.    -59.8768E+06
           10574     78.2186E+06     28.9815E+06              0.    -60.8494E+06
           10575     78.2384E+06     29.1574E+06              0.    -61.8250E+06
           10576     78.2462E+06     29.3424E+06              0.    -62.8026E+06
           10577     78.2411E+06     29.5366E+06              0.    -63.7815E+06
           10578     78.2222E+06     29.7401E+06              0.    -64.7606E+06
           10579     78.1884E+06     29.9531E+06              0.    -65.7389E+06
           10580     78.1390E+06     30.1757E+06              0.    -66.7154E+06
           10581     78.0728E+06     30.4079E+06              0.    -67.6888E+06
           10582     77.9887E+06     30.6497E+06              0.    -68.6579E+06
           10583     77.8856E+06     30.9011E+06              0.    -69.6215E+06
           10584     77.7625E+06     31.1620E+06              0.    -70.5780E+06
           10585     77.6181E+06     31.4323E+06              0.    -71.5261E+06
           10586     77.4512E+06     31.7119E+06              0.    -72.4640E+06
           10587     77.2605E+06     32.0006E+06              0.    -73.3902E+06
           10588     77.0448E+06     32.2979E+06              0.    -74.3027E+06
           10589     76.8026E+06     32.6035E+06              0.    -75.1998E+06
           10590     76.5327E+06     32.9171E+06              0.    -76.0795E+06
           10591     76.2336E+06     33.2379E+06              0.    -76.9395E+06
           10592     75.9039E+06     33.5655E+06              0.    -77.7778E+06
           10593     75.5422E+06     33.8989E+06              0.    -78.5919E+06
           10594     75.1471E+06     34.2374E+06              0.    -79.3794E+06
           10595     74.7169E+06     34.5799E+06              0.    -80.1378E+06
           10596     74.2504E+06     34.9253E+06              0.    -80.8643E+06
           10597     73.7459E+06     35.2723E+06              0.    -81.5561E+06
           10598     73.2021E+06     35.6194E+06              0.    -82.2104E+06
           10599     72.6174E+06     35.9652E+06              0.    -82.8240E+06
           10600     71.9905E+06     36.3076E+06              0.    -83.3938E+06
           10601     71.3199E+06     36.6448E+06              0.    -83.9164E+06
           10602     70.6044E+06     36.9745E+06              0.    -84.3886E+06
           10603     69.8425E+06     37.2944E+06              0.    -84.8068E+06
           10604     69.0332E+06     37.6018E+06              0.    -85.1674E+06
           10605     68.1753E+06     37.8938E+06              0.    -85.4668E+06
           10606     67.2677E+06     38.1674E+06              0.    -85.7012E+06
           10607     66.3094E+06     38.4191E+06              0.    -85.8668E+06
           10608     65.2998E+06     38.6454E+06              0.    -85.9596E+06
           10609     64.2380E+06     38.8423E+06              0.    -85.9759E+06
           10610     63.1235E+06     39.0057E+06              0.    -85.9116E+06
           10611     61.9561E+06     39.1311E+06              0.    -85.7630E+06
           10612     60.7354E+06     39.2140E+06              0.    -85.5259E+06
           10613     59.4615E+06     39.2492E+06              0.    -85.1967E+06
           10614     58.1346E+06     39.2316E+06              0.    -84.7715E+06
           10615     56.7550E+06     39.1558E+06              0.    -84.2466E+06
           10616     55.3235E+06     39.0159E+06              0.    -83.6184E+06
           10617     53.8407E+06     38.8061E+06              0.    -82.8836E+06
           10618     52.3079E+06     38.5203E+06              0.    -82.0389E+06
           10619     50.7264E+06     38.1521E+06              0.    -81.0812E+06
           10620     49.0976E+06     37.6951E+06              0.    -80.0078E+06
           10621     47.4234E+06     37.1427E+06              0.    -78.8161E+06
           10622     45.7058E+06     36.4884E+06              0.    -77.5038E+06
           10623     43.9471E+06     35.7253E+06              0.    -76.0691E+06
           10624     42.1496E+06     34.8469E+06              0.    -74.5102E+06
           10625     40.3159E+06     33.8464E+06              0.     -72.826E+06
           10626     38.4490E+06     32.7174E+06              0.    -71.0155E+06
           10627     36.5518E+06     31.4535E+06              0.    -69.0783E+06
           10628     34.6274E+06     30.0484E+06              0.    -67.0142E+06
           10629     32.6790E+06     28.4962E+06              0.    -64.8235E+06
           10630     30.7100E+06     26.7913E+06              0.    -62.5069E+06
           10631     28.7246E+06     24.9287E+06              0.    -60.0654E+06
           10632     26.7298E+06     22.9048E+06              0.    -57.5002E+06
           10633     25.2307E+06     20.2501E+06              0.    -56.5440E+06
           10634     67.8450E+06     29.7580E+06              0.    -2.73685E+06
           10635     67.8421E+06     29.7240E+06              0.    -2.73195E+06
           10636     67.8539E+06     29.6968E+06              0.    -2.69538E+06
           10637     67.8656E+06     29.6704E+06              0.    -2.66426E+06
           10638     67.8772E+06     29.6448E+06              0.    -2.63843E+06
           10639     67.8886E+06     29.6198E+06              0.    -2.61776E+06
           10640     67.9000E+06     29.5955E+06              0.    -2.60212E+06
           10641     67.9113E+06     29.5717E+06              0.    -2.59138E+06
           10642     67.9226E+06     29.5486E+06              0.    -2.58542E+06
           10643     67.9339E+06     29.5260E+06              0.    -2.58412E+06
           10644     67.9452E+06     29.5040E+06              0.    -2.58738E+06
           10645     67.9565E+06     29.4824E+06              0.    -2.59511E+06
           10646     67.9678E+06     29.4613E+06              0.    -2.60719E+06
           10647     67.9792E+06     29.4406E+06              0.    -2.62355E+06
           10648     67.9907E+06     29.4204E+06              0.    -2.64409E+06
           10649     68.0023E+06     29.4006E+06              0.    -2.66874E+06
           10650     68.0140E+06     29.3811E+06              0.    -2.69743E+06
           10651     68.0259E+06     29.3619E+06              0.    -2.73009E+06
           10652     68.0379E+06     29.3431E+06              0.    -2.76665E+06
           10653     68.0500E+06     29.3246E+06              0.    -2.80705E+06
           10654     68.0624E+06     29.3064E+06              0.    -2.85124E+06
           10655     68.0749E+06     29.2884E+06              0.    -2.89917E+06
           10656     68.0877E+06     29.2707E+06              0.    -2.95078E+06
           10657     68.1007E+06     29.2532E+06              0.    -3.00605E+06
           10658     68.1140E+06     29.2358E+06              0.    -3.06493E+06
           10659     68.1275E+06     29.2187E+06              0.    -3.12739E+06
           10660     68.1413E+06     29.2017E+06              0.    -3.19340E+06
           10661     68.1554E+06     29.1849E+06              0.    -3.26293E+06
           10662     68.1698E+06     29.1682E+06              0.    -3.33597E+06
           10663     68.1846E+06     29.1516E+06              0.    -3.41248E+06
           10664     68.1997E+06     29.1351E+06              0.    -3.49246E+06
           10665     68.2151E+06     29.1187E+06              0.    -3.57590E+06
           10666     68.2309E+06     29.1024E+06              0.    -3.66278E+06
           10667     68.2471E+06     29.0861E+06              0.    -3.75311E+06
           10668     68.2638E+06     29.0699E+06              0.    -3.84687E+06
           10669     68.2808E+06     29.0537E+06              0.    -3.94408E+06
           10670     68.2982E+06     29.0375E+06              0.    -4.04474E+06
           10671     68.3162E+06     29.0213E+06              0.    -4.14885E+06
           10672     68.3345E+06     29.0051E+06              0.    -4.25642E+06
           10673     68.3534E+06     28.9888E+06              0.    -4.36748E+06
           10674     68.3727E+06     28.9726E+06              0.    -4.48202E+06
           10675     68.3925E+06     28.9563E+06              0.    -4.60009E+06
           10676     68.4129E+06     28.9399E+06              0.    -4.72168E+06
           10677     68.4338E+06     28.9235E+06              0.    -4.84684E+06
           10678     68.4552E+06     28.9070E+06              0.    -4.97558E+06
           10679     68.4773E+06     28.8904E+06              0.    -5.10794E+06
           10680     68.4999E+06     28.8737E+06              0.    -5.24395E+06
           10681     68.5230E+06     28.8569E+06              0.    -5.38365E+06
           10682     68.5468E+06     28.8400E+06              0.    -5.52706E+06
           10683     68.5712E+06     28.8230E+06              0.    -5.67424E+06
           10684     68.5963E+06     28.8059E+06              0.    -5.82522E+06
           10685     68.6220E+06     28.7886E+06              0.    -5.98005E+06
           10686     68.6484E+06     28.7712E+06              0.    -6.13878E+06
           10687     68.6755E+06     28.7536E+06              0.    -6.30145E+06
           10688     68.7033E+06     28.7359E+06              0.    -6.46811E+06
           10689     68.7318E+06     28.7181E+06              0.    -6.63883E+06
           10690     68.7610E+06     28.7000E+06              0.    -6.81365E+06
           10691      68.791E+06     28.6818E+06              0.    -6.99263E+06
           10692     68.8217E+06     28.6635E+06              0.    -7.17583E+06
           10693     68.8533E+06     28.6449E+06              0.    -7.36333E+06
           10694     68.8856E+06     28.6262E+06              0.    -7.55517E+06
           10695     68.9188E+06     28.6073E+06              0.    -7.75143E+06
           10696     68.9527E+06     28.5881E+06              0.    -7.95217E+06
           10697     68.9876E+06     28.5689E+06              0.    -8.15747E+06
           10698     69.0232E+06     28.5494E+06              0.    -8.36739E+06
           10699     69.0598E+06     28.5297E+06              0.    -8.58202E+06
           10700     69.0973E+06     28.5098E+06              0.    -8.80143E+06
           10701     69.1357E+06     28.4898E+06              0.    -9.02570E+06
           10702     69.1750E+06     28.4695E+06              0.     -9.2549E+06
           10703     69.2152E+06     28.4491E+06              0.    -9.48912E+06
           10704     69.2565E+06     28.4284E+06              0.    -9.72844E+06
           10705     69.2987E+06     28.4076E+06              0.    -9.97296E+06
           10706     69.3419E+06     28.3866E+06              0.    -10.2227E+06
           10707     69.3861E+06     28.3654E+06              0.    -10.4779E+06
           10708     69.4314E+06     28.3441E+06              0.    -10.7385E+06
           10709     69.4777E+06     28.3225E+06              0.    -11.0047E+06
           10710     69.5251E+06     28.3008E+06              0.    -11.2765E+06
           10711     69.5735E+06     28.2790E+06              0.    -11.5540E+06
           10712     69.6231E+06     28.2569E+06              0.    -11.8374E+06
           10713     69.6737E+06     28.2348E+06              0.    -12.1267E+06
           10714     69.7255E+06     28.2125E+06              0.    -12.4220E+06
           10715     69.7785E+06     28.1901E+06              0.    -12.7235E+06
           10716     69.8326E+06     28.1675E+06              0.    -13.0312E+06
           10717     69.8879E+06     28.1449E+06              0.    -13.3453E+06
           10718     69.9443E+06     28.1222E+06              0.    -13.6658E+06
           10719     70.0020E+06     28.0994E+06              0.    -13.9928E+06
           10720     70.0609E+06     28.0766E+06              0.    -14.3265E+06
           10721     70.1211E+06     28.0537E+06              0.    -14.6670E+06
           10722     70.1824E+06     28.0308E+06              0.    -15.0144E+06
           10723     70.2451E+06     28.0079E+06              0.    -15.3688E+06
           10724     70.3090E+06     27.9850E+06              0.    -15.7303E+06
           10725     70.3742E+06     27.9621E+06              0.    -16.0990E+06
           10726     70.4407E+06     27.9393E+06              0.    -16.4750E+06
           10727     70.5085E+06     27.9166E+06              0.    -16.8585E+06
           10728     70.5776E+06     27.8941E+06              0.    -17.2495E+06
           10729     70.6480E+06     27.8716E+06              0.    -17.6483E+06
           10730     70.7197E+06     27.8494E+06              0.    -18.0548E+06
           10731     70.7928E+06     27.8273E+06              0.    -18.4692E+06
           10732     70.8672E+06     27.8055E+06              0.    -18.8917E+06
           10733     70.9429E+06     27.7840E+06              0.    -19.3223E+06
           10734     71.0200E+06     27.7628E+06              0.    -19.7612E+06
           10735     71.0984E+06     27.7419E+06              0.    -20.2085E+06
           10736     71.1781E+06     27.7215E+06              0.    -20.6642E+06
           10737     71.2591E+06     27.7015E+06              0.    -21.1286E+06
           10738     71.3415E+06     27.6820E+06              0.    -21.6017E+06
           10739     71.4252E+06     27.6631E+06              0.    -22.0836E+06
           10740     71.5101E+06     27.6447E+06              0.    -22.5745E+06
           10741     71.5964E+06     27.6270E+06              0.    -23.0745E+06
           10742     71.6839E+06     27.6101E+06              0.    -23.5836E+06
           10743     71.7727E+06     27.5939E+06              0.    -24.1021E+06
           10744     71.8626E+06     27.5785E+06              0.    -24.6299E+06
           10745     71.9538E+06     27.5641E+06              0.    -25.1673E+06
           10746     72.0461E+06     27.5506E+06              0.    -25.7142E+06
           10747     72.1396E+06     27.5382E+06              0.    -26.2709E+06
           10748     72.2341E+06     27.5269E+06              0.    -26.8374E+06
           10749     72.3297E+06     27.5168E+06              0.    -27.4138E+06
           10750     72.4263E+06     27.5081E+06              0.    -28.0001E+06
           10751     72.5239E+06     27.5007E+06              0.    -28.5966E+06
           10752     72.6223E+06     27.4948E+06              0.    -29.2033E+06
           10753     72.7216E+06     27.4905E+06              0.    -29.8202E+06
           10754     72.8216E+06     27.4878E+06              0.    -30.4474E+06
           10755     72.9223E+06     27.4870E+06              0.    -31.0850E+06
           10756     73.0236E+06     27.4880E+06              0.    -31.7331E+06
           10757     73.1254E+06     27.4911E+06              0.    -32.3917E+06
           10758     73.2277E+06     27.4963E+06              0.    -33.0609E+06
           10759     73.3302E+06     27.5037E+06              0.    -33.7407E+06
           10760     73.4329E+06     27.5135E+06              0.    -34.4312E+06
           10761     73.5357E+06     27.5258E+06              0.    -35.1323E+06
           10762     73.6385E+06     27.5407E+06              0.    -35.8442E+06
           10763     73.7410E+06     27.5585E+06              0.    -36.5667E+06
           10764     73.8432E+06     27.5791E+06              0.    -37.3000E+06
           10765     73.9449E+06     27.6029E+06              0.    -38.0440E+06
           10766     74.0458E+06     27.6299E+06              0.    -38.7987E+06
           10767     74.1459E+06     27.6603E+06              0.    -39.5641E+06
           10768     74.2450E+06     27.6942E+06              0.    -40.3400E+06
           10769     74.3427E+06     27.7319E+06              0.    -41.1265E+06
           10770     74.4389E+06     27.7735E+06              0.    -41.9235E+06
           10771     74.5333E+06     27.8192E+06              0.    -42.7308E+06
           10772     74.6257E+06     27.8692E+06              0.    -43.5484E+06
           10773     74.7158E+06     27.9236E+06              0.    -44.3762E+06
           10774     74.8033E+06     27.9827E+06              0.    -45.2139E+06
           10775     74.8879E+06     28.0466E+06              0.    -46.0615E+06
           10776     74.9693E+06     28.1156E+06              0.    -46.9186E+06
           10777     75.0470E+06     28.1898E+06              0.    -47.7852E+06
           10778     75.1208E+06     28.2695E+06              0.    -48.6610E+06
           10779     75.1903E+06     28.3548E+06              0.    -49.5457E+06
           10780     75.2549E+06     28.4460E+06              0.     -50.439E+06
           10781     75.3144E+06     28.5433E+06              0.    -51.3406E+06
           10782     75.3681E+06     28.6468E+06              0.    -52.2501E+06
           10783     75.4157E+06     28.7568E+06              0.    -53.1672E+06
           10784     75.4566E+06     28.8735E+06              0.    -54.0914E+06
           10785     75.4902E+06     28.9971E+06              0.    -55.0223E+06
           10786     75.5160E+06     29.1278E+06              0.    -55.9593E+06
           10787     75.5334E+06     29.2657E+06              0.    -56.9020E+06
           10788     75.5418E+06     29.4111E+06              0.    -57.8496E+06
           10789     75.5404E+06     29.5641E+06              0.    -58.8017E+06
           10790     75.5285E+06     29.7249E+06              0.    -59.7575E+06
           10791     75.5056E+06     29.8937E+06              0.    -60.7163E+06
           10792     75.4706E+06     30.0705E+06              0.    -61.6772E+06
           10793     75.4230E+06     30.2555E+06              0.    -62.6395E+06
           10794     75.3617E+06     30.4488E+06              0.    -63.6023E+06
           10795     75.2861E+06     30.6505E+06              0.    -64.5645E+06
           10796     75.1950E+06     30.8606E+06              0.    -65.5251E+06
           10797     75.0877E+06     31.0791E+06              0.    -66.4830E+06
           10798     74.9631E+06     31.3060E+06              0.    -67.4370E+06
           10799     74.8201E+06     31.5413E+06              0.    -68.3860E+06
           10800     74.6578E+06     31.7849E+06              0.    -69.3284E+06
           10801      74.475E+06     32.0366E+06              0.    -70.2630E+06
           10802     74.2706E+06     32.2962E+06              0.    -71.1881E+06
           10803     74.0435E+06     32.5634E+06              0.    -72.1023E+06
           10804     73.7924E+06     32.8380E+06              0.    -73.0038E+06
           10805     73.5162E+06     33.1196E+06              0.    -73.8908E+06
           10806     73.2135E+06     33.4077E+06              0.    -74.7615E+06
           10807     72.8831E+06     33.7017E+06              0.    -75.6138E+06
           10808     72.5237E+06     34.0011E+06              0.    -76.4456E+06
           10809     72.1339E+06     34.3050E+06              0.    -77.2548E+06
           10810     71.7125E+06     34.6126E+06              0.    -78.0391E+06
           10811     71.2581E+06     34.9229E+06              0.    -78.7960E+06
           10812     70.7693E+06     35.2349E+06              0.    -79.5230E+06
           10813     70.2447E+06     35.5474E+06              0.    -80.2175E+06
           10814     69.6831E+06     35.8589E+06              0.    -80.8766E+06
           10815     69.0831E+06     36.1679E+06              0.    -81.4976E+06
           10816     68.4433E+06     36.4727E+06              0.    -82.0775E+06
           10817     67.7626E+06     36.7715E+06              0.    -82.6132E+06
           10818     67.0396E+06     37.0622E+06              0.    -83.1014E+06
           10819     66.2732E+06     37.3425E+06              0.    -83.5390E+06
           10820     65.4623E+06     37.6100E+06              0.    -83.9225E+06
           10821     64.6057E+06     37.8620E+06              0.    -84.2485E+06
           10822     63.7025E+06     38.0957E+06              0.    -84.5134E+06
           10823     62.7519E+06     38.3078E+06              0.    -84.7137E+06
           10824     61.7530E+06     38.4950E+06              0.    -84.8457E+06
           10825     60.7052E+06     38.6538E+06              0.    -84.9057E+06
           10826     59.6079E+06     38.7802E+06              0.    -84.8900E+06
           10827     58.4608E+06     38.8702E+06              0.    -84.7949E+06
           10828     57.2637E+06     38.9194E+06              0.    -84.6166E+06
           10829     56.0165E+06     38.9232E+06              0.    -84.3514E+06
           10830     54.7193E+06     38.8768E+06              0.    -83.9958E+06
           10831     53.3724E+06     38.7750E+06              0.    -83.5460E+06
           10832     51.9763E+06     38.6126E+06              0.    -82.9988E+06
           10833     50.5318E+06     38.3841E+06              0.    -82.3507E+06
           10834     49.0398E+06     38.0837E+06              0.    -81.5985E+06
           10835     47.5013E+06     37.7056E+06              0.    -80.7392E+06
           10836     45.9178E+06     37.2437E+06              0.    -79.7699E+06
           10837     44.2909E+06     36.6919E+06              0.    -78.6881E+06
           10838     42.6222E+06     36.0438E+06              0.    -77.4914E+06
           10839     40.9138E+06     35.2932E+06              0.    -76.1777E+06
           10840     39.1680E+06     34.4336E+06              0.    -74.7451E+06
           10841     37.3870E+06     33.4589E+06              0.    -73.1923E+06
           10842     35.5734E+06     32.3626E+06              0.    -71.5180E+06
           10843     33.7300E+06     31.1386E+06              0.    -69.7214E+06
           10844     31.8597E+06     29.7809E+06              0.    -67.8020E+06
           10845     29.9653E+06     28.2835E+06              0.    -65.7598E+06
           10846     28.0499E+06     26.6409E+06              0.    -63.5949E+06
           10847     26.1166E+06     24.8477E+06              0.    -61.3079E+06
           10848     24.1677E+06     22.8985E+06              0.    -58.9000E+06
           10849     22.2016E+06     20.7871E+06              0.    -56.3722E+06
           10850     20.6816E+06     18.0475E+06              0.    -55.4162E+06
           10851     67.7368E+06     29.7119E+06              0.    -2.74707E+06
           10852     67.7345E+06     29.6847E+06              0.    -2.74214E+06
           10853     67.7440E+06     29.6629E+06              0.    -2.70543E+06
           10854     67.7534E+06     29.6418E+06              0.    -2.67419E+06
           10855     67.7627E+06     29.6213E+06              0.    -2.64826E+06
           10856     67.7720E+06     29.6013E+06              0.    -2.62751E+06
           10857     67.7811E+06     29.5818E+06              0.    -2.61180E+06
           10858     67.7902E+06     29.5628E+06              0.    -2.60101E+06
           10859     67.7993E+06     29.5443E+06              0.    -2.59502E+06
           10860     67.8083E+06     29.5262E+06              0.    -2.59371E+06
           10861     67.8174E+06     29.5086E+06              0.    -2.59698E+06
           10862     67.8265E+06     29.4913E+06              0.    -2.60472E+06
           10863     67.8356E+06     29.4744E+06              0.    -2.61684E+06
           10864     67.8447E+06     29.4579E+06              0.    -2.63325E+06
           10865     67.8540E+06     29.4417E+06              0.    -2.65386E+06
           10866     67.8633E+06     29.4259E+06              0.    -2.67860E+06
           10867     67.8727E+06     29.4103E+06              0.    -2.70738E+06
           10868     67.8822E+06     29.3950E+06              0.    -2.74015E+06
           10869     67.8918E+06     29.3800E+06              0.    -2.77683E+06
           10870     67.9016E+06     29.3652E+06              0.    -2.81737E+06
           10871     67.9115E+06     29.3506E+06              0.    -2.86171E+06
           10872     67.9215E+06     29.3363E+06              0.    -2.90980E+06
           10873     67.9318E+06     29.3221E+06              0.    -2.96160E+06
           10874     67.9422E+06     29.3082E+06              0.    -3.01706E+06
           10875     67.9528E+06     29.2943E+06              0.    -3.07614E+06
           10876     67.9637E+06     29.2807E+06              0.    -3.13881E+06
           10877     67.9747E+06     29.2672E+06              0.    -3.20505E+06
           10878     67.9860E+06     29.2538E+06              0.    -3.27482E+06
           10879     67.9976E+06     29.2405E+06              0.    -3.34810E+06
           10880     68.0094E+06     29.2273E+06              0.    -3.42488E+06
           10881     68.0215E+06     29.2142E+06              0.    -3.50514E+06
           10882     68.0338E+06     29.2011E+06              0.    -3.58886E+06
           10883     68.0465E+06     29.1881E+06              0.    -3.67604E+06
           10884     68.0595E+06     29.1752E+06              0.    -3.76667E+06
           10885     68.0728E+06     29.1623E+06              0.    -3.86076E+06
           10886     68.0864E+06     29.1495E+06              0.    -3.95829E+06
           10887     68.1004E+06     29.1366E+06              0.    -4.05929E+06
           10888     68.1147E+06     29.1238E+06              0.    -4.16375E+06
           10889     68.1294E+06     29.1110E+06              0.    -4.27169E+06
           10890     68.1444E+06     29.0982E+06              0.    -4.38311E+06
           10891     68.1599E+06     29.0853E+06              0.    -4.49804E+06
           10892     68.1758E+06     29.0724E+06              0.    -4.61650E+06
           10893     68.1921E+06     29.0595E+06              0.    -4.73849E+06
           10894     68.2088E+06     29.0466E+06              0.    -4.86406E+06
           10895     68.2259E+06     29.0336E+06              0.    -4.99323E+06
           10896     68.2435E+06     29.0205E+06              0.    -5.12603E+06
           10897     68.2616E+06     29.0074E+06              0.    -5.26248E+06
           10898     68.2801E+06     28.9942E+06              0.    -5.40263E+06
           10899     68.2991E+06     28.9810E+06              0.    -5.54651E+06
           10900     68.3186E+06     28.9676E+06              0.    -5.69416E+06
           10901     68.3386E+06     28.9542E+06              0.    -5.84562E+06
           10902     68.3592E+06     28.9407E+06              0.    -6.00094E+06
           10903     68.3802E+06     28.9271E+06              0.    -6.16017E+06
           10904     68.4018E+06     28.9134E+06              0.    -6.32334E+06
           10905      68.424E+06     28.8996E+06              0.    -6.49053E+06
           10906     68.4467E+06     28.8857E+06              0.    -6.66177E+06
           10907     68.4701E+06     28.8716E+06              0.    -6.83713E+06
           10908     68.4940E+06     28.8575E+06              0.    -7.01665E+06
           10909     68.5185E+06     28.8433E+06              0.    -7.20041E+06
           10910     68.5436E+06     28.8289E+06              0.    -7.38847E+06
           10911     68.5694E+06     28.8144E+06              0.    -7.58088E+06
           10912     68.5958E+06     28.7998E+06              0.    -7.77772E+06
           10913     68.6228E+06     28.7851E+06              0.    -7.97905E+06
           10914     68.6506E+06     28.7703E+06              0.    -8.18494E+06
           10915     68.6790E+06     28.7553E+06              0.    -8.39547E+06
           10916     68.7081E+06     28.7402E+06              0.    -8.61070E+06
           10917     68.7379E+06     28.7250E+06              0.    -8.83073E+06
           10918     68.7684E+06     28.7097E+06              0.    -9.05562E+06
           10919     68.7997E+06     28.6943E+06              0.    -9.28545E+06
           10920     68.8317E+06     28.6787E+06              0.    -9.52030E+06
           10921     68.8644E+06     28.6631E+06              0.    -9.76026E+06
           10922     68.8979E+06     28.6473E+06              0.    -10.0054E+06
           10923     68.9322E+06     28.6315E+06              0.    -10.2559E+06
           10924     68.9673E+06     28.6155E+06              0.    -10.5117E+06
           10925     69.0032E+06     28.5995E+06              0.    -10.7729E+06
           10926     69.0399E+06     28.5833E+06              0.    -11.0397E+06
           10927     69.0774E+06     28.5671E+06              0.    -11.3122E+06
           10928     69.1158E+06     28.5509E+06              0.    -11.5904E+06
           10929     69.1550E+06     28.5345E+06              0.    -11.8744E+06
           10930     69.1950E+06     28.5182E+06              0.    -12.1644E+06
           10931     69.2360E+06     28.5018E+06              0.    -12.4604E+06
           10932     69.2778E+06     28.4853E+06              0.    -12.7626E+06
           10933     69.3205E+06     28.4689E+06              0.    -13.0709E+06
           10934     69.3641E+06     28.4524E+06              0.    -13.3856E+06
           10935     69.4086E+06     28.4360E+06              0.    -13.7068E+06
           10936     69.4540E+06     28.4196E+06              0.    -14.0345E+06
           10937     69.5004E+06     28.4032E+06              0.    -14.3689E+06
           10938     69.5476E+06     28.3869E+06              0.    -14.7100E+06
           10939     69.5959E+06     28.3707E+06              0.    -15.0580E+06
           10940     69.6450E+06     28.3546E+06              0.    -15.4130E+06
           10941     69.6951E+06     28.3386E+06              0.    -15.7751E+06
           10942     69.7462E+06     28.3227E+06              0.    -16.1444E+06
           10943     69.7982E+06     28.3071E+06              0.    -16.5210E+06
           10944     69.8512E+06     28.2916E+06              0.    -16.9051E+06
           10945     69.9051E+06     28.2763E+06              0.    -17.2967E+06
           10946     69.9600E+06     28.2614E+06              0.    -17.6959E+06
           10947     70.0158E+06     28.2466E+06              0.    -18.1029E+06
           10948     70.0726E+06     28.2323E+06              0.    -18.5179E+06
           10949     70.1304E+06     28.2182E+06              0.    -18.9408E+06
           10950     70.1891E+06     28.2046E+06              0.    -19.3718E+06
           10951     70.2487E+06     28.1914E+06              0.    -19.8111E+06
           10952     70.3093E+06     28.1786E+06              0.    -20.2587E+06
           10953     70.3708E+06     28.1664E+06              0.    -20.7148E+06
           10954     70.4332E+06     28.1547E+06              0.    -21.1794E+06
           10955     70.4964E+06     28.1436E+06              0.    -21.6528E+06
           10956     70.5606E+06     28.1332E+06              0.    -22.1349E+06
           10957     70.6256E+06     28.1235E+06              0.    -22.6259E+06
           10958     70.6914E+06     28.1145E+06              0.    -23.1260E+06
           10959     70.7581E+06     28.1064E+06              0.    -23.6352E+06
           10960     70.8255E+06     28.0991E+06              0.    -24.1536E+06
           10961     70.8937E+06     28.0928E+06              0.    -24.6813E+06
           10962     70.9625E+06     28.0874E+06              0.    -25.2185E+06
           10963     71.0321E+06     28.0832E+06              0.    -25.7652E+06
           10964     71.1022E+06     28.0800E+06              0.    -26.3215E+06
           10965     71.1730E+06     28.0781E+06              0.    -26.8876E+06
           10966     71.2442E+06     28.0775E+06              0.    -27.4635E+06
           10967     71.3159E+06     28.0783E+06              0.    -28.0493E+06
           10968     71.3881E+06     28.0805E+06              0.    -28.6450E+06
           10969     71.4605E+06     28.0843E+06              0.    -29.2509E+06
           10970     71.5333E+06     28.0897E+06              0.    -29.8668E+06
           10971     71.6062E+06     28.0969E+06              0.    -30.4930E+06
           10972     71.6792E+06     28.1059E+06              0.    -31.1294E+06
           10973     71.7523E+06     28.1168E+06              0.    -31.7762E+06
           10974     71.8252E+06     28.1298E+06              0.    -32.4333E+06
           10975     71.8980E+06     28.1449E+06              0.    -33.1009E+06
           10976     71.9704E+06     28.1623E+06              0.    -33.7789E+06
           10977     72.0424E+06     28.1821E+06              0.    -34.4674E+06
           10978     72.1139E+06     28.2044E+06              0.    -35.1664E+06
           10979     72.1846E+06     28.2294E+06              0.    -35.8759E+06
           10980     72.2545E+06     28.2571E+06              0.    -36.5959E+06
           10981     72.3233E+06     28.2877E+06              0.    -37.3264E+06
           10982     72.3910E+06     28.3214E+06              0.    -38.0674E+06
           10983     72.4573E+06     28.3582E+06              0.    -38.8189E+06
           10984     72.5221E+06     28.3984E+06              0.    -39.5808E+06
           10985     72.5850E+06     28.4421E+06              0.    -40.3530E+06
           10986     72.6460E+06     28.4895E+06              0.    -41.1354E+06
           10987     72.7047E+06     28.5406E+06              0.    -41.9281E+06
           10988     72.7609E+06     28.5957E+06              0.    -42.7308E+06
           10989     72.8144E+06     28.6549E+06              0.    -43.5435E+06
           10990     72.8649E+06     28.7184E+06              0.    -44.3659E+06
           10991     72.9120E+06     28.7864E+06              0.    -45.1980E+06
           10992     72.9555E+06     28.8591E+06              0.    -46.0396E+06
           10993     72.9950E+06     28.9365E+06              0.    -46.8904E+06
           10994     73.0301E+06     29.0190E+06              0.    -47.7502E+06
           10995     73.0605E+06     29.1066E+06              0.    -48.6188E+06
           10996     73.0858E+06     29.1995E+06              0.    -49.4958E+06
           10997     73.1056E+06     29.2980E+06              0.    -50.3810E+06
           10998     73.1194E+06     29.4022E+06              0.    -51.2740E+06
           10999     73.1268E+06     29.5123E+06              0.    -52.1745E+06
           11000     73.1272E+06     29.6284E+06              0.    -53.0820E+06
           11001     73.1203E+06     29.7507E+06              0.    -53.9961E+06
           11002     73.1053E+06     29.8794E+06              0.    -54.9163E+06
           11003     73.0818E+06     30.0147E+06              0.    -55.8421E+06
           11004     73.0491E+06     30.1566E+06              0.    -56.7729E+06
           11005     73.0067E+06     30.3053E+06              0.    -57.7081E+06
           11006     72.9539E+06     30.4610E+06              0.    -58.6471E+06
           11007     72.8899E+06     30.6238E+06              0.    -59.5891E+06
           11008     72.8142E+06     30.7937E+06              0.    -60.5335E+06
           11009     72.7258E+06     30.9709E+06              0.    -61.4793E+06
           11010     72.6242E+06     31.1554E+06              0.    -62.4258E+06
           11011     72.5083E+06     31.3472E+06              0.    -63.3719E+06
           11012     72.3775E+06     31.5464E+06              0.    -64.3168E+06
           11013     72.2308E+06     31.7530E+06              0.    -65.2593E+06
           11014     72.0673E+06     31.9668E+06              0.    -66.1983E+06
           11015     71.8861E+06     32.1879E+06              0.    -67.1327E+06
           11016     71.6861E+06     32.4160E+06              0.    -68.0611E+06
           11017     71.4665E+06     32.6511E+06              0.    -68.9823E+06
           11018     71.2261E+06     32.8929E+06              0.    -69.8947E+06
           11019     70.9638E+06     33.1411E+06              0.    -70.7969E+06
           11020     70.6787E+06     33.3955E+06              0.    -71.6872E+06
           11021     70.3695E+06     33.6555E+06              0.    -72.5641E+06
           11022     70.0350E+06     33.9208E+06              0.    -73.4257E+06
           11023     69.6743E+06     34.1907E+06              0.    -74.2700E+06
           11024     69.2859E+06     34.4647E+06              0.    -75.0953E+06
           11025     68.8688E+06     34.7420E+06              0.    -75.8993E+06
           11026     68.4216E+06     35.0218E+06              0.    -76.6799E+06
           11027     67.9432E+06     35.3032E+06              0.    -77.4348E+06
           11028     67.4323E+06     35.5851E+06              0.    -78.1617E+06
           11029     66.8877E+06     35.8663E+06              0.    -78.8581E+06
           11030     66.3081E+06     36.1456E+06              0.    -79.5213E+06
           11031     65.6923E+06     36.4214E+06              0.    -80.1487E+06
           11032     65.0391E+06     36.6922E+06              0.    -80.7375E+06
           11033     64.3474E+06     36.9562E+06              0.    -81.2847E+06
           11034     63.6159E+06     37.2114E+06              0.    -81.7875E+06
           11035     62.8437E+06     37.4558E+06              0.    -82.2427E+06
           11036     62.0296E+06     37.6871E+06              0.    -82.6471E+06
           11037     61.1726E+06     37.9027E+06              0.    -82.9974E+06
           11038     60.2720E+06     38.1000E+06              0.    -83.2905E+06
           11039     59.3267E+06     38.2759E+06              0.    -83.5228E+06
           11040     58.3361E+06     38.4275E+06              0.    -83.6909E+06
           11041     57.2996E+06     38.5514E+06              0.    -83.7913E+06
           11042     56.2167E+06     38.6439E+06              0.    -83.8204E+06
           11043     55.0869E+06     38.7012E+06              0.    -83.7749E+06
           11044     53.9101E+06     38.7193E+06              0.    -83.6510E+06
           11045     52.6861E+06     38.6940E+06              0.    -83.4453E+06
           11046     51.4150E+06     38.6207E+06              0.    -83.1543E+06
           11047     50.0970E+06     38.4947E+06              0.    -82.7745E+06
           11048     48.7325E+06     38.3110E+06              0.    -82.3026E+06
           11049     47.3222E+06     38.0646E+06              0.    -81.7354E+06
           11050     45.8668E+06     37.7500E+06              0.    -81.0696E+06
           11051     44.3674E+06     37.3618E+06              0.    -80.3023E+06
           11052     42.8250E+06     36.8943E+06              0.    -79.4306E+06
           11053     41.2411E+06     36.3418E+06              0.    -78.4519E+06
           11054     39.6173E+06     35.6982E+06              0.    -77.3637E+06
           11055     37.9553E+06     34.9576E+06              0.    -76.1639E+06
           11056     36.2571E+06     34.1140E+06              0.    -74.8505E+06
           11057     34.5249E+06     33.1614E+06              0.    -73.4219E+06
           11058     32.7609E+06     32.0937E+06              0.    -71.8766E+06
           11059     30.9678E+06     30.9049E+06              0.    -70.2135E+06
           11060     29.1480E+06     29.5893E+06              0.    -68.4320E+06
           11061     27.3045E+06     28.1410E+06              0.    -66.5315E+06
           11062     25.4399E+06     26.5545E+06              0.    -64.5119E+06
           11063     23.5574E+06     24.8246E+06              0.    -62.3734E+06
           11064     21.6599E+06     22.9462E+06              0.    -60.1166E+06
           11065     19.7511E+06     20.9148E+06              0.    -57.7420E+06
           11066     17.8384E+06     18.7276E+06              0.    -55.2508E+06
           11067     16.3223E+06     15.9182E+06              0.    -54.2961E+06
           11068     67.6283E+06     29.6656E+06              0.    -2.75495E+06
           11069     67.6266E+06     29.6452E+06              0.    -2.75001E+06
           11070     67.6338E+06     29.6289E+06              0.    -2.71319E+06
           11071     67.6409E+06     29.6131E+06              0.    -2.68185E+06
           11072     67.6480E+06     29.5977E+06              0.    -2.65584E+06
           11073     67.6549E+06     29.5827E+06              0.    -2.63502E+06
           11074     67.6618E+06     29.5681E+06              0.    -2.61926E+06
           11075     67.6687E+06     29.5538E+06              0.    -2.60844E+06
           11076     67.6755E+06     29.5399E+06              0.    -2.60242E+06
           11077     67.6824E+06     29.5264E+06              0.    -2.60110E+06
           11078     67.6892E+06     29.5132E+06              0.    -2.60437E+06
           11079     67.6961E+06     29.5002E+06              0.    -2.61213E+06
           11080     67.7029E+06     29.4876E+06              0.    -2.62427E+06
           11081     67.7098E+06     29.4752E+06              0.    -2.64072E+06
           11082     67.7168E+06     29.4631E+06              0.    -2.66138E+06
           11083     67.7238E+06     29.4512E+06              0.    -2.68618E+06
           11084     67.7309E+06     29.4396E+06              0.    -2.71503E+06
           11085     67.7380E+06     29.4282E+06              0.    -2.74788E+06
           11086     67.7453E+06     29.4169E+06              0.    -2.78466E+06
           11087     67.7526E+06     29.4059E+06              0.    -2.82530E+06
           11088     67.7601E+06     29.3950E+06              0.    -2.86976E+06
           11089     67.7676E+06     29.3843E+06              0.    -2.91797E+06
           11090     67.7753E+06     29.3737E+06              0.    -2.96990E+06
           11091     67.7832E+06     29.3633E+06              0.    -3.02550E+06
           11092     67.7912E+06     29.3530E+06              0.    -3.08474E+06
           11093     67.7993E+06     29.3429E+06              0.    -3.14757E+06
           11094     67.8076E+06     29.3328E+06              0.    -3.21398E+06
           11095     67.8161E+06     29.3228E+06              0.    -3.28393E+06
           11096     67.8248E+06     29.3130E+06              0.    -3.35740E+06
           11097     67.8336E+06     29.3032E+06              0.    -3.43438E+06
           11098     67.8427E+06     29.2934E+06              0.    -3.51484E+06
           11099     67.8520E+06     29.2838E+06              0.    -3.59877E+06
           11100     67.8615E+06     29.2742E+06              0.    -3.68618E+06
           11101     67.8712E+06     29.2646E+06              0.    -3.77704E+06
           11102     67.8812E+06     29.2551E+06              0.    -3.87136E+06
           11103     67.8914E+06     29.2456E+06              0.    -3.96915E+06
           11104     67.9019E+06     29.2361E+06              0.    -4.07040E+06
           11105     67.9126E+06     29.2267E+06              0.    -4.17512E+06
           11106     67.9236E+06     29.2172E+06              0.    -4.28333E+06
           11107     67.9349E+06     29.2078E+06              0.    -4.39503E+06
           11108     67.9465E+06     29.1984E+06              0.    -4.51024E+06
           11109     67.9584E+06     29.1889E+06              0.    -4.62899E+06
           11110     67.9706E+06     29.1795E+06              0.    -4.75129E+06
           11111     67.9831E+06     29.1700E+06              0.    -4.87716E+06
           11112     67.9959E+06     29.1605E+06              0.    -5.00664E+06
           11113     68.0091E+06     29.1510E+06              0.    -5.13976E+06
           11114     68.0226E+06     29.1415E+06              0.    -5.27654E+06
           11115     68.0364E+06     29.1319E+06              0.    -5.41702E+06
           11116     68.0506E+06     29.1223E+06              0.    -5.56124E+06
           11117     68.0652E+06     29.1126E+06              0.    -5.70923E+06
           11118     68.0802E+06     29.1029E+06              0.    -5.86105E+06
           11119     68.0955E+06     29.0932E+06              0.    -6.01673E+06
           11120     68.1112E+06     29.0834E+06              0.    -6.17632E+06
           11121     68.1274E+06     29.0736E+06              0.    -6.33987E+06
           11122     68.1439E+06     29.0637E+06              0.    -6.50743E+06
           11123     68.1609E+06     29.0537E+06              0.    -6.67905E+06
           11124     68.1783E+06     29.0437E+06              0.    -6.85480E+06
           11125     68.1961E+06     29.0337E+06              0.    -7.03472E+06
           11126     68.2144E+06     29.0236E+06              0.    -7.21887E+06
           11127     68.2331E+06     29.0134E+06              0.    -7.40733E+06
           11128     68.2523E+06     29.0032E+06              0.    -7.60015E+06
           11129     68.2720E+06     28.9929E+06              0.    -7.79739E+06
           11130     68.2921E+06     28.9826E+06              0.    -7.99914E+06
           11131     68.3127E+06     28.9722E+06              0.    -8.20545E+06
           11132     68.3338E+06     28.9617E+06              0.     -8.4164E+06
           11133     68.3554E+06     28.9513E+06              0.    -8.63206E+06
           11134     68.3776E+06     28.9407E+06              0.    -8.85251E+06
           11135     68.4002E+06     28.9302E+06              0.    -9.07783E+06
           11136     68.4234E+06     28.9196E+06              0.    -9.30809E+06
           11137     68.4471E+06     28.9089E+06              0.    -9.54338E+06
           11138     68.4714E+06     28.8983E+06              0.    -9.78378E+06
           11139     68.4962E+06     28.8876E+06              0.    -10.0294E+06
           11140     68.5216E+06     28.8769E+06              0.    -10.2802E+06
           11141     68.5475E+06     28.8661E+06              0.    -10.5365E+06
           11142     68.5740E+06     28.8554E+06              0.    -10.7982E+06
           11143     68.6011E+06     28.8447E+06              0.    -11.0654E+06
           11144     68.6287E+06     28.8340E+06              0.    -11.3383E+06
           11145      68.657E+06     28.8233E+06              0.    -11.6169E+06
           11146     68.6859E+06     28.8127E+06              0.    -11.9014E+06
           11147     68.7153E+06     28.8021E+06              0.    -12.1918E+06
           11148     68.7454E+06     28.7916E+06              0.    -12.4882E+06
           11149     68.7761E+06     28.7811E+06              0.    -12.7908E+06
           11150     68.8074E+06     28.7707E+06              0.    -13.0995E+06
           11151     68.8393E+06     28.7604E+06              0.    -13.4146E+06
           11152     68.8718E+06     28.7503E+06              0.    -13.7362E+06
           11153     68.9050E+06     28.7402E+06              0.    -14.0642E+06
           11154     68.9388E+06     28.7303E+06              0.    -14.3990E+06
           11155     68.9732E+06     28.7206E+06              0.    -14.7405E+06
           11156     69.0082E+06     28.7111E+06              0.    -15.0888E+06
           11157     69.0439E+06     28.7018E+06              0.    -15.4441E+06
           11158     69.0802E+06     28.6926E+06              0.    -15.8065E+06
           11159     69.1171E+06     28.6838E+06              0.    -16.1761E+06
           11160     69.1547E+06     28.6752E+06              0.    -16.5529E+06
           11161     69.1929E+06     28.6670E+06              0.    -16.9372E+06
           11162     69.2316E+06     28.6590E+06              0.    -17.3290E+06
           11163     69.2710E+06     28.6515E+06              0.    -17.7284E+06
           11164     69.3110E+06     28.6443E+06              0.    -18.1356E+06
           11165     69.3516E+06     28.6375E+06              0.    -18.5507E+06
           11166     69.3927E+06     28.6313E+06              0.    -18.9737E+06
           11167     69.4344E+06     28.6255E+06              0.    -19.4048E+06
           11168     69.4767E+06     28.6202E+06              0.    -19.8440E+06
           11169     69.5194E+06     28.6155E+06              0.    -20.2916E+06
           11170     69.5627E+06     28.6114E+06              0.    -20.7476E+06
           11171     69.6065E+06     28.6080E+06              0.    -21.2122E+06
           11172     69.6508E+06     28.6053E+06              0.    -21.6853E+06
           11173     69.6955E+06     28.6034E+06              0.    -22.1672E+06
           11174     69.7406E+06     28.6022E+06              0.    -22.6580E+06
           11175     69.7861E+06     28.6019E+06              0.    -23.1577E+06
           11176     69.8319E+06     28.6026E+06              0.    -23.6665E+06
           11177     69.8781E+06     28.6041E+06              0.    -24.1844E+06
           11178     69.9245E+06     28.6068E+06              0.    -24.7116E+06
           11179     69.9711E+06     28.6105E+06              0.    -25.2481E+06
           11180     70.0180E+06     28.6153E+06              0.    -25.7941E+06
           11181     70.0649E+06     28.6214E+06              0.    -26.3496E+06
           11182     70.1120E+06     28.6288E+06              0.    -26.9148E+06
           11183     70.1590E+06     28.6376E+06              0.    -27.4897E+06
           11184     70.2060E+06     28.6478E+06              0.    -28.0744E+06
           11185     70.2528E+06     28.6595E+06              0.    -28.6689E+06
           11186     70.2995E+06     28.6729E+06              0.    -29.2734E+06
           11187     70.3458E+06     28.6879E+06              0.    -29.8879E+06
           11188     70.3918E+06     28.7047E+06              0.    -30.5125E+06
           11189     70.4373E+06     28.7235E+06              0.    -31.1472E+06
           11190     70.4823E+06     28.7441E+06              0.    -31.7921E+06
           11191     70.5266E+06     28.7669E+06              0.    -32.4472E+06
           11192     70.5701E+06     28.7919E+06              0.    -33.1125E+06
           11193     70.6127E+06     28.8191E+06              0.    -33.7882E+06
           11194     70.6542E+06     28.8487E+06              0.    -34.4741E+06
           11195     70.6945E+06     28.8809E+06              0.    -35.1703E+06
           11196     70.7336E+06     28.9156E+06              0.    -35.8769E+06
           11197     70.7711E+06     28.9532E+06              0.    -36.5938E+06
           11198     70.8069E+06     28.9936E+06              0.    -37.3209E+06
           11199     70.8410E+06     29.0369E+06              0.    -38.0583E+06
           11200     70.8730E+06     29.0835E+06              0.    -38.8059E+06
           11201     70.9027E+06     29.1332E+06              0.    -39.5637E+06
           11202       70.93E+06     29.1864E+06              0.    -40.3315E+06
           11203     70.9546E+06     29.2432E+06              0.    -41.1093E+06
           11204     70.9763E+06     29.3036E+06              0.    -41.8970E+06
           11205     70.9948E+06     29.3678E+06              0.    -42.6945E+06
           11206     71.0099E+06     29.4360E+06              0.    -43.5016E+06
           11207     71.0212E+06     29.5083E+06              0.    -44.3181E+06
           11208     71.0285E+06     29.5849E+06              0.    -45.1439E+06
           11209     71.0314E+06     29.6659E+06              0.    -45.9788E+06
           11210     71.0297E+06     29.7515E+06              0.    -46.8226E+06
           11211     71.0228E+06     29.8418E+06              0.    -47.6750E+06
           11212     71.0106E+06     29.9370E+06              0.    -48.5357E+06
           11213     70.9925E+06     30.0372E+06              0.    -49.4045E+06
           11214     70.9682E+06     30.1426E+06              0.    -50.2809E+06
           11215     70.9372E+06     30.2533E+06              0.    -51.1648E+06
           11216     70.8990E+06     30.3695E+06              0.    -52.0555E+06
           11217     70.8533E+06     30.4913E+06              0.    -52.9528E+06
           11218     70.7993E+06     30.6188E+06              0.    -53.8562E+06
           11219     70.7368E+06     30.7521E+06              0.    -54.7651E+06
           11220     70.6650E+06     30.8915E+06              0.    -55.6791E+06
           11221     70.5834E+06     31.0369E+06              0.    -56.5975E+06
           11222     70.4914E+06     31.1885E+06              0.    -57.5197E+06
           11223     70.3883E+06     31.3464E+06              0.    -58.4450E+06
           11224     70.2735E+06     31.5106E+06              0.    -59.3728E+06
           11225     70.1463E+06     31.6811E+06              0.    -60.3022E+06
           11226     70.0059E+06     31.8581E+06              0.    -61.2324E+06
           11227     69.8517E+06     32.0415E+06              0.    -62.1626E+06
           11228     69.6827E+06     32.2313E+06              0.    -63.0918E+06
           11229     69.4983E+06     32.4274E+06              0.    -64.0189E+06
           11230     69.2976E+06     32.6298E+06              0.    -64.9430E+06
           11231     69.0796E+06     32.8384E+06              0.    -65.8628E+06
           11232     68.8436E+06     33.0531E+06              0.    -66.7773E+06
           11233     68.5885E+06     33.2735E+06              0.    -67.6850E+06
           11234     68.3134E+06     33.4995E+06              0.    -68.5847E+06
           11235     68.0174E+06     33.7309E+06              0.    -69.4749E+06
           11236     67.6994E+06     33.9671E+06              0.    -70.3541E+06
           11237     67.3583E+06     34.2080E+06              0.    -71.2206E+06
           11238     66.9932E+06     34.4529E+06              0.    -72.0729E+06
           11239     66.6029E+06     34.7013E+06              0.    -72.9092E+06
           11240     66.1864E+06     34.9526E+06              0.    -73.7275E+06
           11241     65.7425E+06     35.2061E+06              0.     -74.526E+06
           11242     65.2701E+06     35.4610E+06              0.    -75.3025E+06
           11243     64.7681E+06     35.7164E+06              0.    -76.0550E+06
           11244     64.2353E+06     35.9712E+06              0.    -76.7812E+06
           11245     63.6707E+06     36.2243E+06              0.    -77.4787E+06
           11246     63.0730E+06     36.4745E+06              0.    -78.1451E+06
           11247     62.4411E+06     36.7204E+06              0.    -78.7780E+06
           11248     61.7740E+06     36.9605E+06              0.    -79.3745E+06
           11249     61.0706E+06     37.1931E+06              0.    -79.9321E+06
           11250     60.3298E+06     37.4163E+06              0.    -80.4479E+06
           11251     59.5506E+06     37.6283E+06              0.    -80.9190E+06
           11252     58.7320E+06     37.8267E+06              0.    -81.3425E+06
           11253     57.8731E+06     38.0093E+06              0.    -81.7152E+06
           11254     56.9732E+06     38.1736E+06              0.    -82.0340E+06
           11255     56.0314E+06     38.3167E+06              0.    -82.2957E+06
           11256     55.0469E+06     38.4359E+06              0.    -82.4970E+06
           11257     54.0194E+06     38.5279E+06              0.    -82.6347E+06
           11258     52.9481E+06     38.5894E+06              0.    -82.7054E+06
           11259     51.8329E+06     38.6169E+06              0.    -82.7058E+06
           11260     50.6733E+06     38.6065E+06              0.    -82.6324E+06
           11261     49.4693E+06     38.5544E+06              0.    -82.4819E+06
           11262     48.2210E+06     38.4563E+06              0.    -82.2509E+06
           11263     46.9284E+06     38.3078E+06              0.    -81.9363E+06
           11264     45.5920E+06     38.1043E+06              0.    -81.5346E+06
           11265     44.2121E+06     37.8410E+06              0.    -81.0427E+06
           11266     42.7896E+06     37.5129E+06              0.    -80.4576E+06
           11267     41.3253E+06     37.1148E+06              0.    -79.7763E+06
           11268     39.8201E+06     36.6415E+06              0.    -78.9959E+06
           11269     38.2754E+06     36.0874E+06              0.    -78.1139E+06
           11270     36.6924E+06     35.4471E+06              0.    -77.1278E+06
           11271     35.0729E+06     34.7148E+06              0.    -76.0352E+06
           11272     33.4186E+06     33.8849E+06              0.    -74.8342E+06
           11273     31.7315E+06     32.9515E+06              0.    -73.5228E+06
           11274     30.0135E+06     31.9090E+06              0.    -72.0996E+06
           11275     28.2671E+06     30.7515E+06              0.    -70.5633E+06
           11276     26.4946E+06     29.4735E+06              0.    -68.9128E+06
           11277     24.6986E+06     28.0693E+06              0.    -67.1473E+06
           11278     22.8818E+06     26.5335E+06              0.    -65.2666E+06
           11279     21.0468E+06     24.8610E+06              0.    -63.2705E+06
           11280     19.1967E+06     23.0465E+06              0.    -61.1591E+06
           11281     17.3341E+06     21.0854E+06              0.    -58.9329E+06
           11282     15.4624E+06     18.9731E+06              0.    -56.5928E+06
           11283     13.5814E+06     16.7036E+06              0.    -54.1398E+06
           11284     12.0523E+06     13.8187E+06              0.    -53.1908E+06
           11285     67.5195E+06     29.6192E+06              0.    -2.76051E+06
           11286     67.5185E+06     29.6057E+06              0.    -2.75555E+06
           11287     67.5233E+06     29.5948E+06              0.    -2.71865E+06
           11288     67.5281E+06     29.5843E+06              0.    -2.68724E+06
           11289     67.5329E+06     29.5740E+06              0.    -2.66117E+06
           11290     67.5376E+06     29.5640E+06              0.    -2.64031E+06
           11291     67.5423E+06     29.5543E+06              0.    -2.62451E+06
           11292     67.5469E+06     29.5448E+06              0.    -2.61365E+06
           11293     67.5515E+06     29.5356E+06              0.    -2.60762E+06
           11294     67.5561E+06     29.5266E+06              0.    -2.60629E+06
           11295     67.5607E+06     29.5178E+06              0.    -2.60956E+06
           11296     67.5653E+06     29.5092E+06              0.    -2.61732E+06
           11297     67.5700E+06     29.5008E+06              0.    -2.62948E+06
           11298     67.5746E+06     29.4926E+06              0.    -2.64595E+06
           11299     67.5793E+06     29.4845E+06              0.    -2.66664E+06
           11300     67.5840E+06     29.4767E+06              0.    -2.69148E+06
           11301     67.5887E+06     29.4689E+06              0.    -2.72039E+06
           11302     67.5936E+06     29.4614E+06              0.    -2.75329E+06
           11303     67.5984E+06     29.4540E+06              0.    -2.79013E+06
           11304     67.6033E+06     29.4467E+06              0.    -2.83084E+06
           11305     67.6083E+06     29.4395E+06              0.    -2.87537E+06
           11306     67.6134E+06     29.4324E+06              0.    -2.92367E+06
           11307     67.6185E+06     29.4255E+06              0.    -2.97569E+06
           11308     67.6238E+06     29.4186E+06              0.    -3.03138E+06
           11309     67.6291E+06     29.4118E+06              0.    -3.09072E+06
           11310     67.6346E+06     29.4052E+06              0.    -3.15367E+06
           11311     67.6401E+06     29.3986E+06              0.    -3.22019E+06
           11312     67.6458E+06     29.3920E+06              0.    -3.29026E+06
           11313     67.6516E+06     29.3856E+06              0.    -3.36385E+06
           11314     67.6575E+06     29.3792E+06              0.    -3.44096E+06
           11315     67.6635E+06     29.3729E+06              0.    -3.52156E+06
           11316     67.6697E+06     29.3666E+06              0.    -3.60564E+06
           11317     67.6760E+06     29.3603E+06              0.    -3.69319E+06
           11318     67.6825E+06     29.3542E+06              0.    -3.78421E+06
           11319     67.6892E+06     29.3480E+06              0.    -3.87869E+06
           11320     67.6960E+06     29.3419E+06              0.    -3.97664E+06
           11321     67.7029E+06     29.3358E+06              0.    -4.07805E+06
           11322     67.7101E+06     29.3297E+06              0.    -4.18295E+06
           11323     67.7174E+06     29.3237E+06              0.    -4.29133E+06
           11324     67.7249E+06     29.3177E+06              0.    -4.40322E+06
           11325     67.7326E+06     29.3117E+06              0.    -4.51862E+06
           11326     67.7405E+06     29.3057E+06              0.    -4.63756E+06
           11327     67.7486E+06     29.2997E+06              0.    -4.76005E+06
           11328     67.7569E+06     29.2937E+06              0.    -4.88612E+06
           11329     67.7654E+06     29.2877E+06              0.    -5.01581E+06
           11330     67.7741E+06     29.2818E+06              0.    -5.14913E+06
           11331     67.7831E+06     29.2758E+06              0.    -5.28612E+06
           11332     67.7923E+06     29.2698E+06              0.    -5.42681E+06
           11333     67.8017E+06     29.2639E+06              0.    -5.57125E+06
           11334     67.8113E+06     29.2579E+06              0.    -5.71947E+06
           11335     67.8212E+06     29.2520E+06              0.    -5.87151E+06
           11336     67.8313E+06     29.2460E+06              0.    -6.02741E+06
           11337     67.8418E+06     29.2400E+06              0.    -6.18723E+06
           11338     67.8524E+06     29.2340E+06              0.    -6.35101E+06
           11339     67.8633E+06     29.2281E+06              0.    -6.51881E+06
           11340     67.8745E+06     29.2221E+06              0.    -6.69067E+06
           11341     67.8860E+06     29.2161E+06              0.    -6.86665E+06
           11342     67.8977E+06     29.2101E+06              0.    -7.04681E+06
           11343     67.9097E+06     29.2042E+06              0.    -7.23120E+06
           11344     67.9220E+06     29.1982E+06              0.    -7.41990E+06
           11345     67.9346E+06     29.1922E+06              0.    -7.61296E+06
           11346     67.9476E+06     29.1863E+06              0.    -7.81045E+06
           11347     67.9608E+06     29.1803E+06              0.    -8.01244E+06
           11348     67.9743E+06     29.1744E+06              0.    -8.21899E+06
           11349     67.9881E+06     29.1685E+06              0.    -8.43019E+06
           11350     68.0022E+06     29.1626E+06              0.    -8.64609E+06
           11351     68.0167E+06     29.1568E+06              0.    -8.86678E+06
           11352     68.0315E+06     29.1510E+06              0.    -9.09233E+06
           11353     68.0466E+06     29.1452E+06              0.    -9.32283E+06
           11354     68.0620E+06     29.1394E+06              0.    -9.55835E+06
           11355     68.0778E+06     29.1338E+06              0.    -9.79898E+06
           11356     68.0939E+06     29.1281E+06              0.    -10.0448E+06
           11357     68.1103E+06     29.1226E+06              0.    -10.2959E+06
           11358     68.1271E+06     29.1171E+06              0.    -10.5523E+06
           11359     68.1442E+06     29.1117E+06              0.    -10.8143E+06
           11360     68.1617E+06     29.1064E+06              0.    -11.0817E+06
           11361     68.1795E+06     29.1012E+06              0.    -11.3548E+06
           11362     68.1976E+06     29.0961E+06              0.    -11.6336E+06
           11363     68.2161E+06     29.0912E+06              0.    -11.9182E+06
           11364     68.2350E+06     29.0864E+06              0.    -12.2088E+06
           11365     68.2542E+06     29.0817E+06              0.    -12.5054E+06
           11366     68.2737E+06     29.0772E+06              0.    -12.8081E+06
           11367     68.2936E+06     29.0729E+06              0.    -13.1170E+06
           11368     68.3139E+06     29.0687E+06              0.    -13.4322E+06
           11369     68.3345E+06     29.0648E+06              0.    -13.7538E+06
           11370     68.3554E+06     29.0612E+06              0.    -14.0820E+06
           11371     68.3766E+06     29.0577E+06              0.    -14.4168E+06
           11372     68.3982E+06     29.0546E+06              0.    -14.7583E+06
           11373     68.4201E+06     29.0517E+06              0.    -15.1067E+06
           11374     68.4423E+06     29.0491E+06              0.    -15.4620E+06
           11375     68.4648E+06     29.0469E+06              0.    -15.8244E+06
           11376     68.4877E+06     29.0450E+06              0.    -16.1939E+06
           11377     68.5108E+06     29.0435E+06              0.    -16.5707E+06
           11378     68.5342E+06     29.0425E+06              0.    -16.9549E+06
           11379     68.5578E+06     29.0418E+06              0.    -17.3466E+06
           11380     68.5817E+06     29.0416E+06              0.    -17.7459E+06
           11381     68.6059E+06     29.0420E+06              0.    -18.1528E+06
           11382     68.6303E+06     29.0428E+06              0.    -18.5677E+06
           11383     68.6548E+06     29.0442E+06              0.    -18.9904E+06
           11384     68.6796E+06     29.0463E+06              0.    -19.4212E+06
           11385     68.7045E+06     29.0489E+06              0.    -19.8601E+06
           11386     68.7295E+06     29.0523E+06              0.    -20.3073E+06
           11387     68.7547E+06     29.0563E+06              0.    -20.7628E+06
           11388     68.7799E+06     29.0611E+06              0.    -21.2268E+06
           11389     68.8052E+06     29.0667E+06              0.    -21.6994E+06
           11390     68.8305E+06     29.0732E+06              0.    -22.1807E+06
           11391     68.8558E+06     29.0806E+06              0.    -22.6707E+06
           11392     68.8810E+06     29.0889E+06              0.    -23.1697E+06
           11393     68.9062E+06     29.0982E+06              0.    -23.6776E+06
           11394     68.9312E+06     29.1086E+06              0.    -24.1946E+06
           11395     68.9559E+06     29.1201E+06              0.    -24.7208E+06
           11396     68.9805E+06     29.1328E+06              0.    -25.2562E+06
           11397     69.0047E+06     29.1467E+06              0.    -25.8011E+06
           11398     69.0286E+06     29.1619E+06              0.    -26.3553E+06
           11399     69.0520E+06     29.1785E+06              0.    -26.9191E+06
           11400     69.0750E+06     29.1965E+06              0.    -27.4925E+06
           11401     69.0974E+06     29.2161E+06              0.    -28.0756E+06
           11402     69.1191E+06     29.2372E+06              0.    -28.6684E+06
           11403     69.1401E+06     29.2600E+06              0.    -29.2710E+06
           11404     69.1603E+06     29.2846E+06              0.    -29.8836E+06
           11405     69.1795E+06     29.3110E+06              0.    -30.5060E+06
           11406     69.1977E+06     29.3393E+06              0.    -31.1385E+06
           11407     69.2148E+06     29.3696E+06              0.    -31.7809E+06
           11408     69.2307E+06     29.4020E+06              0.    -32.4334E+06
           11409     69.2452E+06     29.4366E+06              0.    -33.0960E+06
           11410     69.2581E+06     29.4735E+06              0.    -33.7688E+06
           11411     69.2695E+06     29.5128E+06              0.    -34.4516E+06
           11412     69.2790E+06     29.5546E+06              0.    -35.1445E+06
           11413     69.2866E+06     29.5990E+06              0.    -35.8476E+06
           11414     69.2921E+06     29.6462E+06              0.    -36.5607E+06
           11415     69.2953E+06     29.6961E+06              0.    -37.2839E+06
           11416     69.2960E+06      29.749E+06              0.    -38.0171E+06
           11417     69.2940E+06     29.8050E+06              0.    -38.7602E+06
           11418     69.2892E+06     29.8641E+06              0.    -39.5133E+06
           11419     69.2813E+06     29.9265E+06              0.    -40.2761E+06
           11420       69.27E+06     29.9924E+06              0.    -41.0486E+06
           11421     69.2551E+06     30.0618E+06              0.    -41.8308E+06
           11422     69.2364E+06     30.1349E+06              0.    -42.6223E+06
           11423     69.2136E+06     30.2118E+06              0.    -43.4232E+06
           11424     69.1864E+06     30.2926E+06              0.    -44.2332E+06
           11425     69.1544E+06     30.3775E+06              0.    -45.0521E+06
           11426     69.1174E+06     30.4665E+06              0.    -45.8797E+06
           11427     69.0750E+06     30.5599E+06              0.    -46.7159E+06
           11428     69.0269E+06     30.6578E+06              0.    -47.5602E+06
           11429     68.9727E+06     30.7602E+06              0.    -48.4125E+06
           11430     68.9120E+06     30.8673E+06              0.    -49.2723E+06
           11431     68.8444E+06     30.9792E+06              0.    -50.1394E+06
           11432     68.7694E+06     31.0960E+06              0.    -51.0134E+06
           11433     68.6866E+06     31.2179E+06              0.    -51.8939E+06
           11434     68.5955E+06     31.3449E+06              0.    -52.7804E+06
           11435     68.4956E+06     31.4771E+06              0.    -53.6725E+06
           11436     68.3864E+06     31.6147E+06              0.    -54.5696E+06
           11437     68.2674E+06     31.7577E+06              0.    -55.4712E+06
           11438     68.1380E+06     31.9061E+06              0.    -56.3766E+06
           11439     67.9975E+06     32.0601E+06              0.    -57.2853E+06
           11440     67.8454E+06     32.2196E+06              0.    -58.1965E+06
           11441     67.6810E+06     32.3847E+06              0.    -59.1096E+06
           11442     67.5036E+06     32.5554E+06              0.    -60.0236E+06
           11443     67.3126E+06     32.7317E+06              0.    -60.9378E+06
           11444     67.1072E+06     32.9134E+06              0.    -61.8513E+06
           11445     66.8867E+06     33.1007E+06              0.    -62.7631E+06
           11446     66.6503E+06     33.2932E+06              0.    -63.6723E+06
           11447     66.3971E+06     33.4910E+06              0.    -64.5776E+06
           11448     66.1264E+06     33.6938E+06              0.    -65.4780E+06
           11449     65.8373E+06     33.9014E+06              0.    -66.3723E+06
           11450     65.5289E+06     34.1135E+06              0.    -67.2592E+06
           11451     65.2003E+06     34.3300E+06              0.    -68.1373E+06
           11452     64.8506E+06     34.5503E+06              0.    -69.0052E+06
           11453     64.4788E+06     34.7742E+06              0.    -69.8614E+06
           11454     64.0840E+06      35.001E+06              0.    -70.7043E+06
           11455     63.6651E+06     35.2303E+06              0.    -71.5322E+06
           11456     63.2212E+06     35.4614E+06              0.    -72.3433E+06
           11457     62.7512E+06     35.6937E+06              0.    -73.1359E+06
           11458     62.2541E+06     35.9263E+06              0.    -73.9079E+06
           11459     61.7289E+06     36.1584E+06              0.    -74.6574E+06
           11460     61.1745E+06     36.3890E+06              0.    -75.3823E+06
           11461     60.5899E+06     36.6170E+06              0.    -76.0803E+06
           11462     59.9741E+06     36.8411E+06              0.    -76.7491E+06
           11463     59.3259E+06     37.0602E+06              0.    -77.3864E+06
           11464     58.6445E+06     37.2727E+06              0.    -77.9897E+06
           11465     57.9288E+06      37.477E+06              0.    -78.5564E+06
           11466     57.1778E+06     37.6714E+06              0.    -79.0838E+06
           11467     56.3907E+06     37.8541E+06              0.    -79.5693E+06
           11468     55.5665E+06     38.0229E+06              0.    -80.0100E+06
           11469     54.7044E+06     38.1758E+06              0.    -80.4031E+06
           11470     53.8036E+06     38.3102E+06              0.    -80.7454E+06
           11471     52.8635E+06     38.4237E+06              0.    -81.0342E+06
           11472     51.8832E+06     38.5135E+06              0.    -81.2662E+06
           11473     50.8624E+06     38.5767E+06              0.    -81.4383E+06
           11474     49.8005E+06     38.6101E+06              0.    -81.5474E+06
           11475     48.6972E+06     38.6104E+06              0.    -81.5902E+06
           11476     47.5522E+06     38.5742E+06              0.    -81.5636E+06
           11477     46.3654E+06     38.4976E+06              0.    -81.4643E+06
           11478     45.1367E+06     38.3768E+06              0.    -81.2892E+06
           11479     43.8664E+06     38.2077E+06              0.    -81.0351E+06
           11480     42.5546E+06     37.9859E+06              0.    -80.6988E+06
           11481     41.2018E+06     37.7069E+06              0.    -80.2772E+06
           11482     39.8087E+06     37.3661E+06              0.    -79.7675E+06
           11483     38.3758E+06     36.9587E+06              0.    -79.1666E+06
           11484     36.9042E+06     36.4796E+06              0.    -78.4718E+06
           11485     35.3949E+06     35.9237E+06              0.    -77.6805E+06
           11486     33.8492E+06     35.2858E+06              0.    -76.7901E+06
           11487     32.2684E+06     34.5605E+06              0.    -75.7984E+06
           11488     30.6543E+06     33.7424E+06              0.    -74.7032E+06
           11489     29.0086E+06     32.8261E+06              0.    -73.5026E+06
           11490     27.3331E+06     31.8060E+06              0.    -72.1948E+06
           11491     25.6300E+06     30.6766E+06              0.    -70.7786E+06
           11492     23.9014E+06     29.4324E+06              0.    -69.2525E+06
           11493     22.1498E+06     28.0682E+06              0.    -67.6157E+06
           11494     20.3776E+06     26.5785E+06              0.    -65.8675E+06
           11495     18.5874E+06     24.9582E+06              0.    -64.0075E+06
           11496     16.7818E+06     23.2024E+06              0.    -62.0356E+06
           11497     14.9636E+06     21.3062E+06              0.    -59.9518E+06
           11498     13.1355E+06     19.2650E+06              0.    -57.7567E+06
           11499     11.3002E+06     17.0746E+06              0.    -55.4509E+06
           11500     9.46275E+06     14.7325E+06              0.    -53.0354E+06
           11501     7.93008E+06     11.7761E+06              0.    -52.0893E+06
           11502     67.4106E+06     29.5727E+06              0.    -2.76373E+06
           11503     67.4101E+06     29.5661E+06              0.    -2.75876E+06
           11504     67.4127E+06     29.5607E+06              0.    -2.72181E+06
           11505     67.4152E+06     29.5554E+06              0.    -2.69036E+06
           11506     67.4177E+06     29.5503E+06              0.    -2.66425E+06
           11507     67.4201E+06     29.5453E+06              0.    -2.64336E+06
           11508     67.4225E+06     29.5405E+06              0.    -2.62753E+06
           11509     67.4249E+06     29.5357E+06              0.    -2.61666E+06
           11510     67.4273E+06     29.5312E+06              0.    -2.61061E+06
           11511     67.4297E+06     29.5267E+06              0.    -2.60927E+06
           11512     67.4321E+06     29.5223E+06              0.    -2.61253E+06
           11513     67.4344E+06     29.5181E+06              0.    -2.62030E+06
           11514     67.4368E+06     29.5140E+06              0.    -2.63246E+06
           11515     67.4392E+06     29.5099E+06              0.    -2.64894E+06
           11516     67.4416E+06     29.5060E+06              0.    -2.66965E+06
           11517     67.4440E+06     29.5021E+06              0.    -2.69451E+06
           11518     67.4464E+06     29.4983E+06              0.    -2.72343E+06
           11519     67.4489E+06     29.4946E+06              0.    -2.75636E+06
           11520     67.4513E+06     29.4910E+06              0.    -2.79323E+06
           11521     67.4538E+06     29.4875E+06              0.    -2.83398E+06
           11522     67.4564E+06     29.4840E+06              0.    -2.87855E+06
           11523     67.4589E+06     29.4806E+06              0.    -2.92689E+06
           11524     67.4615E+06     29.4772E+06              0.    -2.97895E+06
           11525     67.4642E+06     29.4739E+06              0.    -3.03470E+06
           11526     67.4668E+06     29.4707E+06              0.    -3.09409E+06
           11527     67.4696E+06     29.4675E+06              0.    -3.15709E+06
           11528     67.4724E+06     29.4644E+06              0.    -3.22367E+06
           11529     67.4752E+06     29.4613E+06              0.    -3.29380E+06
           11530     67.4781E+06     29.4583E+06              0.    -3.36746E+06
           11531     67.4811E+06     29.4553E+06              0.    -3.44463E+06
           11532     67.4841E+06     29.4524E+06              0.    -3.52530E+06
           11533     67.4872E+06     29.4495E+06              0.    -3.60945E+06
           11534     67.4904E+06     29.4467E+06              0.    -3.69707E+06
           11535     67.4936E+06     29.4438E+06              0.    -3.78817E+06
           11536     67.4969E+06     29.4411E+06              0.    -3.88273E+06
           11537     67.5003E+06     29.4383E+06              0.    -3.98075E+06
           11538     67.5038E+06     29.4356E+06              0.    -4.08226E+06
           11539     67.5073E+06     29.4329E+06              0.    -4.18724E+06
           11540     67.5109E+06     29.4303E+06              0.    -4.29570E+06
           11541     67.5147E+06     29.4277E+06              0.    -4.40768E+06
           11542     67.5184E+06     29.4251E+06              0.    -4.52317E+06
           11543     67.5224E+06     29.4225E+06              0.    -4.64219E+06
           11544     67.5263E+06     29.4200E+06              0.    -4.76478E+06
           11545     67.5304E+06     29.4175E+06              0.    -4.89094E+06
           11546     67.5346E+06     29.4151E+06              0.    -5.02072E+06
           11547     67.5389E+06     29.4127E+06              0.    -5.15414E+06
           11548     67.5433E+06     29.4103E+06              0.    -5.29122E+06
           11549     67.5478E+06     29.4080E+06              0.    -5.43201E+06
           11550     67.5524E+06     29.4056E+06              0.    -5.57654E+06
           11551     67.5571E+06     29.4034E+06              0.    -5.72485E+06
           11552     67.5620E+06     29.4011E+06              0.    -5.87699E+06
           11553     67.5669E+06     29.3989E+06              0.    -6.03299E+06
           11554     67.5720E+06     29.3968E+06              0.    -6.19290E+06
           11555     67.5771E+06     29.3947E+06              0.    -6.35677E+06
           11556     67.5824E+06     29.3926E+06              0.    -6.52466E+06
           11557     67.5878E+06     29.3906E+06              0.    -6.69661E+06
           11558     67.5933E+06     29.3887E+06              0.    -6.87268E+06
           11559     67.5990E+06     29.3868E+06              0.    -7.05292E+06
           11560     67.6048E+06     29.3849E+06              0.    -7.23740E+06
           11561     67.6107E+06     29.3832E+06              0.    -7.42618E+06
           11562     67.6167E+06     29.3815E+06              0.    -7.61932E+06
           11563     67.6228E+06     29.3798E+06              0.    -7.81689E+06
           11564     67.6291E+06     29.3783E+06              0.    -8.01895E+06
           11565     67.6355E+06     29.3768E+06              0.    -8.22557E+06
           11566     67.6420E+06     29.3754E+06              0.    -8.43682E+06
           11567     67.6487E+06     29.3742E+06              0.    -8.65278E+06
           11568     67.6555E+06     29.3730E+06              0.    -8.87352E+06
           11569     67.6624E+06     29.3719E+06              0.    -9.09913E+06
           11570     67.6694E+06     29.3710E+06              0.    -9.32966E+06
           11571     67.6766E+06     29.3701E+06              0.    -9.56522E+06
           11572     67.6838E+06     29.3694E+06              0.    -9.80587E+06
           11573     67.6912E+06     29.3689E+06              0.    -10.0517E+06
           11574     67.6988E+06     29.3684E+06              0.    -10.3028E+06
           11575     67.7064E+06     29.3682E+06              0.    -10.5593E+06
           11576     67.7141E+06     29.3681E+06              0.    -10.8211E+06
           11577      67.722E+06     29.3682E+06              0.    -11.0886E+06
           11578     67.7300E+06     29.3685E+06              0.    -11.3616E+06
           11579     67.7380E+06     29.3690E+06              0.    -11.6404E+06
           11580     67.7462E+06     29.3697E+06              0.    -11.9250E+06
           11581     67.7545E+06     29.3707E+06              0.    -12.2154E+06
           11582     67.7628E+06     29.3719E+06              0.    -12.5119E+06
           11583     67.7713E+06     29.3733E+06              0.    -12.8145E+06
           11584     67.7798E+06     29.3750E+06              0.    -13.1233E+06
           11585     67.7884E+06     29.3771E+06              0.    -13.4384E+06
           11586      67.797E+06     29.3794E+06              0.    -13.7598E+06
           11587     67.8057E+06     29.3821E+06              0.    -14.0878E+06
           11588     67.8144E+06     29.3851E+06              0.    -14.4224E+06
           11589     67.8232E+06     29.3884E+06              0.    -14.7637E+06
           11590     67.8320E+06     29.3922E+06              0.    -15.1118E+06
           11591     67.8407E+06     29.3964E+06              0.    -15.4668E+06
           11592     67.8495E+06     29.4010E+06              0.    -15.8289E+06
           11593     67.8583E+06     29.4061E+06              0.    -16.1981E+06
           11594     67.8670E+06     29.4117E+06              0.    -16.5745E+06
           11595     67.8756E+06     29.4177E+06              0.    -16.9582E+06
           11596     67.8842E+06     29.4243E+06              0.    -17.3495E+06
           11597     67.8927E+06     29.4315E+06              0.    -17.7482E+06
           11598     67.9011E+06     29.4393E+06              0.    -18.1547E+06
           11599     67.9093E+06     29.4477E+06              0.    -18.5689E+06
           11600     67.9173E+06     29.4568E+06              0.    -18.9910E+06
           11601     67.9252E+06     29.4666E+06              0.    -19.4211E+06
           11602     67.9328E+06     29.4771E+06              0.    -19.8593E+06
           11603     67.9402E+06     29.4885E+06              0.    -20.3057E+06
           11604     67.9473E+06     29.5006E+06              0.    -20.7604E+06
           11605     67.9541E+06     29.5136E+06              0.    -21.2235E+06
           11606     67.9605E+06     29.5274E+06              0.    -21.6951E+06
           11607     67.9665E+06     29.5423E+06              0.    -22.1753E+06
           11608     67.9721E+06     29.5581E+06              0.    -22.6642E+06
           11609     67.9771E+06     29.5749E+06              0.    -23.1620E+06
           11610     67.9816E+06     29.5929E+06              0.    -23.6687E+06
           11611     67.9856E+06     29.6120E+06              0.    -24.1843E+06
           11612     67.9888E+06     29.6323E+06              0.    -24.7090E+06
           11613     67.9914E+06     29.6539E+06              0.    -25.2430E+06
           11614     67.9932E+06     29.6767E+06              0.    -25.7861E+06
           11615     67.9941E+06     29.7010E+06              0.    -26.3387E+06
           11616     67.9941E+06     29.7267E+06              0.    -26.9006E+06
           11617     67.9932E+06     29.7539E+06              0.    -27.4720E+06
           11618     67.9911E+06     29.7827E+06              0.    -28.0530E+06
           11619     67.9879E+06     29.8131E+06              0.    -28.6436E+06
           11620     67.9834E+06     29.8453E+06              0.    -29.2439E+06
           11621     67.9776E+06     29.8792E+06              0.    -29.8540E+06
           11622     67.9703E+06     29.9150E+06              0.    -30.4738E+06
           11623     67.9615E+06     29.9528E+06              0.    -31.1034E+06
           11624     67.9509E+06     29.9926E+06              0.    -31.7430E+06
           11625     67.9386E+06     30.0345E+06              0.    -32.3924E+06
           11626     67.9243E+06     30.0786E+06              0.    -33.0517E+06
           11627     67.9080E+06     30.1250E+06              0.    -33.7209E+06
           11628     67.8894E+06     30.1738E+06              0.    -34.4001E+06
           11629     67.8684E+06     30.2251E+06              0.    -35.0891E+06
           11630     67.8449E+06     30.2790E+06              0.    -35.7881E+06
           11631     67.8187E+06     30.3355E+06              0.    -36.4969E+06
           11632     67.7896E+06     30.3948E+06              0.    -37.2156E+06
           11633     67.7574E+06     30.4570E+06              0.    -37.9440E+06
           11634     67.7219E+06     30.5221E+06              0.    -38.6821E+06
           11635     67.6829E+06     30.5904E+06              0.    -39.4298E+06
           11636     67.6402E+06     30.6618E+06              0.    -40.1871E+06
           11637     67.5935E+06     30.7366E+06              0.    -40.9538E+06
           11638     67.5425E+06     30.8147E+06              0.    -41.7297E+06
           11639     67.4871E+06     30.8964E+06              0.    -42.5148E+06
           11640     67.4270E+06     30.9817E+06              0.    -43.3089E+06
           11641     67.3617E+06     31.0707E+06              0.    -44.1117E+06
           11642     67.2911E+06     31.1636E+06              0.    -44.9231E+06
           11643     67.2148E+06     31.2604E+06              0.    -45.7429E+06
           11644     67.1325E+06     31.3612E+06              0.    -46.5708E+06
           11645     67.0438E+06     31.4662E+06              0.    -47.4065E+06
           11646     66.9484E+06     31.5755E+06              0.    -48.2497E+06
           11647     66.8458E+06     31.6891E+06              0.    -49.1001E+06
           11648     66.7357E+06     31.8072E+06              0.    -49.9573E+06
           11649     66.6175E+06     31.9297E+06              0.    -50.8209E+06
           11650     66.4910E+06     32.0569E+06              0.    -51.6905E+06
           11651     66.3555E+06     32.1887E+06              0.    -52.5657E+06
           11652     66.2107E+06     32.3253E+06              0.    -53.4459E+06
           11653     66.0559E+06     32.4666E+06              0.    -54.3307E+06
           11654     65.8907E+06     32.6128E+06              0.    -55.2194E+06
           11655     65.7145E+06     32.7638E+06              0.    -56.1114E+06
           11656     65.5268E+06     32.9197E+06              0.    -57.0061E+06
           11657     65.3268E+06     33.0804E+06              0.    -57.9027E+06
           11658     65.1141E+06     33.2459E+06              0.    -58.8006E+06
           11659     64.8880E+06     33.4162E+06              0.    -59.6988E+06
           11660     64.6477E+06     33.5913E+06              0.    -60.5967E+06
           11661     64.3926E+06     33.7709E+06              0.    -61.4932E+06
           11662     64.1220E+06      33.955E+06              0.    -62.3873E+06
           11663     63.8351E+06     34.1434E+06              0.    -63.2781E+06
           11664     63.5311E+06     34.3360E+06              0.    -64.1645E+06
           11665     63.2093E+06     34.5325E+06              0.    -65.0454E+06
           11666     62.8689E+06     34.7326E+06              0.    -65.9194E+06
           11667     62.5090E+06     34.9360E+06              0.    -66.7853E+06
           11668     62.1287E+06     35.1424E+06              0.    -67.6418E+06
           11669     61.7272E+06     35.3512E+06              0.    -68.4874E+06
           11670     61.3036E+06     35.5621E+06              0.    -69.3206E+06
           11671     60.8570E+06     35.7745E+06              0.    -70.1399E+06
           11672     60.3865E+06     35.9878E+06              0.    -70.9436E+06
           11673     59.8911E+06     36.2012E+06              0.    -71.7299E+06
           11674     59.3699E+06     36.4141E+06              0.    -72.4970E+06
           11675     58.8219E+06     36.6255E+06              0.    -73.2430E+06
           11676     58.2462E+06     36.8345E+06              0.    -73.9660E+06
           11677     57.6418E+06     37.0400E+06              0.    -74.6637E+06
           11678     57.0078E+06     37.2410E+06              0.    -75.3341E+06
           11679     56.3432E+06     37.4360E+06              0.    -75.9750E+06
           11680     55.6471E+06     37.6239E+06              0.    -76.5839E+06
           11681     54.9187E+06     37.8029E+06              0.    -77.1585E+06
           11682     54.1569E+06     37.9715E+06              0.    -77.6963E+06
           11683     53.3611E+06     38.1280E+06              0.    -78.1947E+06
           11684     52.5302E+06     38.2703E+06              0.    -78.6510E+06
           11685     51.6637E+06     38.3964E+06              0.    -79.0625E+06
           11686     50.7607E+06     38.5040E+06              0.    -79.4265E+06
           11687     49.8207E+06     38.5909E+06              0.    -79.7400E+06
           11688     48.8429E+06     38.6542E+06              0.    -80.0001E+06
           11689     47.8269E+06     38.6914E+06              0.    -80.2039E+06
           11690     46.7722E+06     38.6995E+06              0.    -80.3484E+06
           11691     45.6786E+06     38.6754E+06              0.    -80.4306E+06
           11692     44.5456E+06     38.6157E+06              0.    -80.4474E+06
           11693     43.3733E+06      38.517E+06              0.    -80.3956E+06
           11694     42.1616E+06     38.3756E+06              0.    -80.2724E+06
           11695     40.9105E+06     38.1878E+06              0.    -80.0746E+06
           11696     39.6203E+06     37.9493E+06              0.    -79.7992E+06
           11697     38.2914E+06     37.6561E+06              0.    -79.4432E+06
           11698     36.9242E+06     37.3037E+06              0.    -79.0038E+06
           11699     35.5195E+06     36.8876E+06              0.    -78.4781E+06
           11700     34.0779E+06     36.4031E+06              0.    -77.8635E+06
           11701     32.6006E+06     35.8454E+06              0.    -77.1571E+06
           11702     31.0886E+06     35.2095E+06              0.    -76.3567E+06
           11703     29.5431E+06     34.4903E+06              0.    -75.4598E+06
           11704     27.9657E+06     33.6828E+06              0.    -74.4643E+06
           11705     26.3579E+06     32.7817E+06              0.    -73.3681E+06
           11706     24.7215E+06     31.7818E+06              0.    -72.1695E+06
           11707     23.0584E+06     30.6778E+06              0.    -70.8669E+06
           11708     21.3705E+06     29.4645E+06              0.    -69.4589E+06
           11709     19.6601E+06     28.1366E+06              0.    -67.9444E+06
           11710     17.9295E+06     26.6890E+06              0.    -66.3224E+06
           11711     16.1810E+06     25.1167E+06              0.    -64.5924E+06
           11712     14.4172E+06     23.4147E+06              0.     -62.754E+06
           11713     12.6407E+06     21.5784E+06              0.    -60.8070E+06
           11714     10.8541E+06     19.6030E+06              0.    -58.7515E+06
           11715     9.06020E+06     17.4844E+06              0.    -56.5879E+06
           11716     7.26129E+06     15.2181E+06              0.    -54.3166E+06
           11717     5.45778E+06     12.7997E+06              0.    -51.9386E+06
           11718     3.91503E+06     9.77288E+06              0.    -50.9965E+06
           11719     67.3016E+06     29.5261E+06              0.    -2.76461E+06
           11720     67.3018E+06     29.5264E+06              0.    -2.75963E+06
           11721     67.3020E+06     29.5264E+06              0.    -2.72266E+06
           11722     67.3022E+06     29.5265E+06              0.    -2.69119E+06
           11723     67.3024E+06     29.5265E+06              0.    -2.66508E+06
           11724     67.3025E+06     29.5266E+06              0.    -2.64417E+06
           11725     67.3027E+06     29.5266E+06              0.    -2.62833E+06
           11726     67.3029E+06     29.5267E+06              0.    -2.61745E+06
           11727     67.3030E+06     29.5267E+06              0.    -2.61139E+06
           11728     67.3032E+06     29.5268E+06              0.    -2.61004E+06
           11729     67.3033E+06     29.5269E+06              0.    -2.61330E+06
           11730     67.3034E+06     29.5270E+06              0.    -2.62106E+06
           11731     67.3036E+06     29.5271E+06              0.    -2.63322E+06
           11732     67.3037E+06     29.5273E+06              0.    -2.64969E+06
           11733     67.3038E+06     29.5274E+06              0.    -2.67040E+06
           11734     67.3039E+06     29.5275E+06              0.    -2.69525E+06
           11735     67.3040E+06     29.5277E+06              0.    -2.72418E+06
           11736     67.3041E+06     29.5279E+06              0.    -2.75711E+06
           11737     67.3042E+06     29.5281E+06              0.    -2.79398E+06
           11738     67.3042E+06     29.5283E+06              0.    -2.83472E+06
           11739     67.3043E+06     29.5285E+06              0.    -2.87929E+06
           11740     67.3044E+06     29.5288E+06              0.    -2.92763E+06
           11741     67.3044E+06     29.5290E+06              0.    -2.97970E+06
           11742     67.3045E+06     29.5293E+06              0.    -3.03544E+06
           11743     67.3045E+06     29.5296E+06              0.    -3.09483E+06
           11744     67.3045E+06     29.5299E+06              0.    -3.15784E+06
           11745     67.3046E+06     29.5303E+06              0.    -3.22442E+06
           11746     67.3046E+06     29.5307E+06              0.    -3.29455E+06
           11747     67.3046E+06     29.5311E+06              0.    -3.36821E+06
           11748     67.3046E+06     29.5315E+06              0.    -3.44538E+06
           11749     67.3046E+06     29.5320E+06              0.    -3.52605E+06
           11750     67.3046E+06     29.5325E+06              0.    -3.61020E+06
           11751     67.3046E+06     29.5330E+06              0.    -3.69783E+06
           11752     67.3046E+06     29.5335E+06              0.    -3.78892E+06
           11753     67.3045E+06     29.5341E+06              0.    -3.88348E+06
           11754     67.3045E+06     29.5348E+06              0.    -3.98150E+06
           11755     67.3045E+06     29.5354E+06              0.    -4.08300E+06
           11756     67.3044E+06     29.5361E+06              0.    -4.18798E+06
           11757     67.3044E+06     29.5369E+06              0.    -4.29644E+06
           11758     67.3043E+06     29.5377E+06              0.    -4.40840E+06
           11759     67.3042E+06     29.5386E+06              0.    -4.52388E+06
           11760     67.3041E+06     29.5395E+06              0.    -4.64290E+06
           11761      67.304E+06     29.5404E+06              0.    -4.76547E+06
           11762     67.3039E+06     29.5414E+06              0.    -4.89163E+06
           11763     67.3038E+06     29.5425E+06              0.    -5.02139E+06
           11764     67.3036E+06     29.5436E+06              0.    -5.15478E+06
           11765     67.3034E+06     29.5448E+06              0.    -5.29184E+06
           11766     67.3033E+06     29.5461E+06              0.    -5.43261E+06
           11767     67.3031E+06     29.5474E+06              0.    -5.57711E+06
           11768     67.3028E+06     29.5489E+06              0.    -5.72539E+06
           11769     67.3026E+06     29.5503E+06              0.    -5.87749E+06
           11770     67.3024E+06     29.5519E+06              0.    -6.03345E+06
           11771     67.3021E+06     29.5536E+06              0.    -6.19332E+06
           11772     67.3018E+06     29.5554E+06              0.    -6.35715E+06
           11773     67.3014E+06     29.5572E+06              0.    -6.52499E+06
           11774     67.3011E+06     29.5592E+06              0.    -6.69688E+06
           11775     67.3007E+06     29.5613E+06              0.    -6.87289E+06
           11776     67.3002E+06     29.5634E+06              0.    -7.05307E+06
           11777     67.2998E+06     29.5657E+06              0.    -7.23748E+06
           11778     67.2992E+06     29.5682E+06              0.    -7.42618E+06
           11779     67.2987E+06     29.5707E+06              0.    -7.61923E+06
           11780     67.2981E+06     29.5734E+06              0.    -7.81670E+06
           11781     67.2974E+06     29.5762E+06              0.    -8.01866E+06
           11782     67.2967E+06     29.5792E+06              0.    -8.22517E+06
           11783     67.2960E+06     29.5824E+06              0.    -8.43631E+06
           11784     67.2952E+06     29.5857E+06              0.    -8.65215E+06
           11785     67.2943E+06     29.5892E+06              0.    -8.87276E+06
           11786     67.2933E+06     29.5928E+06              0.    -9.09821E+06
           11787     67.2923E+06     29.5967E+06              0.    -9.32859E+06
           11788     67.2912E+06     29.6007E+06              0.    -9.56398E+06
           11789     67.2900E+06     29.6050E+06              0.    -9.80445E+06
           11790     67.2887E+06     29.6095E+06              0.    -10.0501E+06
           11791     67.2873E+06     29.6142E+06              0.    -10.3010E+06
           11792     67.2858E+06     29.6192E+06              0.    -10.5572E+06
           11793     67.2842E+06     29.6244E+06              0.    -10.8189E+06
           11794     67.2825E+06     29.6299E+06              0.    -11.0861E+06
           11795     67.2806E+06     29.6357E+06              0.    -11.3588E+06
           11796     67.2786E+06     29.6417E+06              0.    -11.6373E+06
           11797     67.2765E+06     29.6481E+06              0.    -11.9216E+06
           11798     67.2742E+06     29.6548E+06              0.    -12.2118E+06
           11799     67.2717E+06     29.6618E+06              0.    -12.5079E+06
           11800     67.2690E+06     29.6692E+06              0.    -12.8101E+06
           11801     67.2662E+06     29.6770E+06              0.    -13.1185E+06
           11802     67.2632E+06     29.6851E+06              0.    -13.4332E+06
           11803     67.2599E+06     29.6937E+06              0.    -13.7542E+06
           11804     67.2564E+06     29.7027E+06              0.    -14.0817E+06
           11805     67.2526E+06     29.7121E+06              0.    -14.4158E+06
           11806     67.2486E+06     29.7220E+06              0.    -14.7566E+06
           11807     67.2443E+06     29.7324E+06              0.    -15.1041E+06
           11808     67.2397E+06     29.7433E+06              0.    -15.4585E+06
           11809     67.2348E+06     29.7547E+06              0.    -15.8200E+06
           11810     67.2295E+06     29.7667E+06              0.    -16.1885E+06
           11811     67.2239E+06     29.7793E+06              0.    -16.5642E+06
           11812     67.2178E+06     29.7925E+06              0.    -16.9472E+06
           11813     67.2114E+06     29.8063E+06              0.    -17.3376E+06
           11814     67.2045E+06     29.8208E+06              0.    -17.7356E+06
           11815     67.1972E+06     29.8360E+06              0.    -18.1411E+06
           11816     67.1893E+06     29.8520E+06              0.    -18.5544E+06
           11817     67.1809E+06     29.8687E+06              0.    -18.9755E+06
           11818     67.1719E+06     29.8862E+06              0.    -19.4046E+06
           11819     67.1624E+06     29.9045E+06              0.    -19.8417E+06
           11820     67.1522E+06     29.9238E+06              0.    -20.2869E+06
           11821     67.1413E+06     29.9439E+06              0.    -20.7404E+06
           11822     67.1297E+06     29.9650E+06              0.    -21.2022E+06
           11823     67.1173E+06     29.9871E+06              0.    -21.6724E+06
           11824     67.1041E+06     30.0102E+06              0.    -22.1512E+06
           11825     67.0901E+06     30.0344E+06              0.    -22.6386E+06
           11826     67.0751E+06     30.0597E+06              0.    -23.1348E+06
           11827     67.0591E+06     30.0862E+06              0.    -23.6397E+06
           11828     67.0421E+06     30.1140E+06              0.    -24.1536E+06
           11829     67.0240E+06     30.1430E+06              0.    -24.6765E+06
           11830     67.0047E+06     30.1734E+06              0.    -25.2084E+06
           11831     66.9842E+06     30.2051E+06              0.    -25.7495E+06
           11832     66.9623E+06     30.2383E+06              0.    -26.2998E+06
           11833     66.9391E+06     30.2730E+06              0.    -26.8594E+06
           11834     66.9144E+06     30.3093E+06              0.    -27.4284E+06
           11835     66.8881E+06     30.3472E+06              0.    -28.0069E+06
           11836     66.8601E+06     30.3868E+06              0.    -28.5948E+06
           11837     66.8304E+06     30.4281E+06              0.    -29.1923E+06
           11838     66.7988E+06     30.4713E+06              0.    -29.7993E+06
           11839     66.7652E+06     30.5164E+06              0.    -30.4160E+06
           11840     66.7295E+06     30.5635E+06              0.    -31.0424E+06
           11841     66.6916E+06     30.6126E+06              0.    -31.6784E+06
           11842     66.6513E+06     30.6639E+06              0.    -32.3242E+06
           11843     66.6086E+06     30.7173E+06              0.    -32.9797E+06
           11844     66.5632E+06     30.7731E+06              0.    -33.6449E+06
           11845     66.5150E+06     30.8312E+06              0.    -34.3199E+06
           11846     66.4639E+06     30.8918E+06              0.    -35.0045E+06
           11847     66.4096E+06     30.9549E+06              0.    -35.6988E+06
           11848     66.3521E+06     31.0206E+06              0.    -36.4028E+06
           11849     66.2911E+06     31.0891E+06              0.    -37.1163E+06
           11850     66.2264E+06     31.1603E+06              0.    -37.8394E+06
           11851     66.1578E+06     31.2345E+06              0.    -38.5719E+06
           11852     66.0850E+06     31.3116E+06              0.    -39.3138E+06
           11853     66.0080E+06     31.3918E+06              0.    -40.0649E+06
           11854     65.9264E+06     31.4752E+06              0.    -40.8251E+06
           11855     65.8399E+06     31.5618E+06              0.    -41.5944E+06
           11856     65.7483E+06     31.6518E+06              0.    -42.3724E+06
           11857     65.6514E+06     31.7452E+06              0.    -43.1591E+06
           11858     65.5487E+06     31.8421E+06              0.    -43.9542E+06
           11859     65.4401E+06     31.9426E+06              0.    -44.7576E+06
           11860     65.3252E+06     32.0468E+06              0.    -45.5689E+06
           11861     65.2036E+06     32.1548E+06              0.    -46.3880E+06
           11862     65.0751E+06     32.2667E+06              0.    -47.2144E+06
           11863     64.9392E+06     32.3825E+06              0.    -48.0480E+06
           11864     64.7955E+06     32.5022E+06              0.    -48.8884E+06
           11865     64.6437E+06     32.6260E+06              0.    -49.7351E+06
           11866     64.4833E+06     32.7539E+06              0.    -50.5879E+06
           11867     64.3138E+06     32.8860E+06              0.    -51.4461E+06
           11868     64.1349E+06     33.0222E+06              0.    -52.3095E+06
           11869     63.9461E+06     33.1627E+06              0.    -53.1774E+06
           11870     63.7468E+06     33.3074E+06              0.    -54.0493E+06
           11871     63.5365E+06     33.4563E+06              0.    -54.9246E+06
           11872     63.3147E+06     33.6094E+06              0.    -55.8027E+06
           11873     63.0808E+06     33.7667E+06              0.    -56.6830E+06
           11874     62.8343E+06     33.9282E+06              0.    -57.5646E+06
           11875     62.5745E+06     34.0937E+06              0.    -58.4470E+06
           11876     62.3009E+06     34.2632E+06              0.    -59.3291E+06
           11877     62.0127E+06     34.4365E+06              0.    -60.2102E+06
           11878     61.7093E+06     34.6135E+06              0.    -61.0894E+06
           11879     61.3900E+06     34.7940E+06              0.    -61.9656E+06
           11880     61.0542E+06     34.9779E+06              0.    -62.8379E+06
           11881     60.7010E+06     35.1648E+06              0.    -63.7052E+06
           11882     60.3298E+06     35.3545E+06              0.    -64.5662E+06
           11883     59.9397E+06     35.5466E+06              0.    -65.4198E+06
           11884     59.5300E+06     35.7408E+06              0.    -66.2648E+06
           11885     59.0999E+06     35.9366E+06              0.    -67.0996E+06
           11886     58.6485E+06     36.1336E+06              0.    -67.9230E+06
           11887     58.1751E+06     36.3311E+06              0.    -68.7334E+06
           11888     57.6787E+06     36.5287E+06              0.    -69.5292E+06
           11889     57.1586E+06     36.7255E+06              0.    -70.3089E+06
           11890     56.6138E+06     36.9209E+06              0.    -71.0706E+06
           11891     56.0435E+06     37.1140E+06              0.    -71.8127E+06
           11892     55.4468E+06     37.3039E+06              0.    -72.5331E+06
           11893     54.8228E+06     37.4896E+06              0.    -73.2299E+06
           11894     54.1707E+06     37.6699E+06              0.    -73.9012E+06
           11895     53.4896E+06     37.8437E+06              0.    -74.5447E+06
           11896     52.7787E+06     38.0096E+06              0.    -75.1583E+06
           11897     52.0371E+06     38.1661E+06              0.    -75.7397E+06
           11898     51.2641E+06     38.3118E+06              0.    -76.2865E+06
           11899     50.4587E+06     38.4448E+06              0.    -76.7964E+06
           11900     49.6204E+06     38.5635E+06              0.    -77.2667E+06
           11901     48.7484E+06     38.6657E+06              0.    -77.6950E+06
           11902     47.8420E+06     38.7495E+06              0.    -78.0785E+06
           11903     46.9006E+06     38.8124E+06              0.    -78.4147E+06
           11904     45.9237E+06     38.8522E+06              0.    -78.7006E+06
           11905     44.9108E+06     38.8662E+06              0.    -78.9337E+06
           11906     43.8615E+06     38.8515E+06              0.    -79.1108E+06
           11907     42.7754E+06     38.8055E+06              0.    -79.2293E+06
           11908     41.6523E+06     38.7248E+06              0.    -79.2862E+06
           11909     40.4920E+06     38.6063E+06              0.    -79.2786E+06
           11910     39.2946E+06     38.4465E+06              0.    -79.2035E+06
           11911     38.0601E+06     38.2418E+06              0.    -79.0581E+06
           11912     36.7887E+06     37.9884E+06              0.    -78.8394E+06
           11913     35.4807E+06     37.6824E+06              0.    -78.5446E+06
           11914     34.1365E+06     37.3196E+06              0.    -78.1709E+06
           11915     32.7567E+06     36.8957E+06              0.    -77.7155E+06
           11916     31.3421E+06     36.4064E+06              0.    -77.1758E+06
           11917     29.8934E+06     35.8471E+06              0.    -76.5492E+06
           11918     28.4118E+06     35.2131E+06              0.    -75.8332E+06
           11919     26.8983E+06     34.4996E+06              0.    -75.0254E+06
           11920     25.3542E+06     33.7018E+06              0.    -74.1237E+06
           11921     23.7811E+06     32.8147E+06              0.    -73.1260E+06
           11922     22.1805E+06     31.8333E+06              0.    -72.0305E+06
           11923     20.5541E+06     30.7525E+06              0.    -70.8354E+06
           11924     18.9038E+06     29.5675E+06              0.    -69.5393E+06
           11925     17.2316E+06     28.2730E+06              0.    -68.1409E+06
           11926     15.5396E+06     26.8641E+06              0.    -66.6391E+06
           11927     13.8300E+06     25.3360E+06              0.    -65.0330E+06
           11928     12.1052E+06     23.6838E+06              0.    -63.3222E+06
           11929     10.3676E+06     21.9028E+06              0.    -61.5061E+06
           11930     8.61976E+06     19.9885E+06              0.    -59.5847E+06
           11931     6.86423E+06     17.9366E+06              0.    -57.5580E+06
           11932     5.10391E+06     15.7430E+06              0.    -55.4266E+06
           11933     3.34248E+06     13.4039E+06              0.    -53.1906E+06
           11934     1.58517E+06     10.9164E+06              0.    -50.8510E+06
           11935     46.0229E+03     7.82741E+06              0.    -49.9162E+06
           11936     67.1926E+06     29.4796E+06              0.    -2.76315E+06
           11937     67.1934E+06     29.4867E+06              0.    -2.75817E+06
           11938     67.1913E+06     29.4922E+06              0.    -2.72121E+06
           11939     67.1892E+06     29.4975E+06              0.    -2.68976E+06
           11940     67.1871E+06     29.5027E+06              0.    -2.66365E+06
           11941     67.1850E+06     29.5078E+06              0.    -2.64274E+06
           11942     67.1829E+06     29.5127E+06              0.    -2.62691E+06
           11943     67.1808E+06     29.5176E+06              0.    -2.61602E+06
           11944     67.1788E+06     29.5223E+06              0.    -2.60996E+06
           11945     67.1767E+06     29.5269E+06              0.    -2.60861E+06
           11946     67.1746E+06     29.5315E+06              0.    -2.61185E+06
           11947     67.1725E+06     29.5359E+06              0.    -2.61960E+06
           11948     67.1704E+06     29.5403E+06              0.    -2.63175E+06
           11949     67.1682E+06     29.5446E+06              0.    -2.64820E+06
           11950     67.1660E+06     29.5488E+06              0.    -2.66889E+06
           11951     67.1638E+06     29.5530E+06              0.    -2.69372E+06
           11952     67.1616E+06     29.5571E+06              0.    -2.72262E+06
           11953     67.1593E+06     29.5611E+06              0.    -2.75552E+06
           11954     67.1570E+06     29.5651E+06              0.    -2.79235E+06
           11955     67.1547E+06     29.5691E+06              0.    -2.83306E+06
           11956     67.1523E+06     29.5730E+06              0.    -2.87760E+06
           11957     67.1498E+06     29.5769E+06              0.    -2.92590E+06
           11958     67.1473E+06     29.5808E+06              0.    -2.97792E+06
           11959     67.1448E+06     29.5846E+06              0.    -3.03362E+06
           11960     67.1422E+06     29.5885E+06              0.    -3.09296E+06
           11961     67.1395E+06     29.5923E+06              0.    -3.15591E+06
           11962     67.1368E+06     29.5961E+06              0.    -3.22244E+06
           11963     67.1340E+06     29.6000E+06              0.    -3.29251E+06
           11964     67.1311E+06     29.6038E+06              0.    -3.36611E+06
           11965     67.1282E+06     29.6076E+06              0.    -3.44322E+06
           11966     67.1252E+06     29.6115E+06              0.    -3.52382E+06
           11967     67.1221E+06     29.6154E+06              0.    -3.60790E+06
           11968     67.1189E+06     29.6193E+06              0.    -3.69545E+06
           11969     67.1156E+06     29.6232E+06              0.    -3.78647E+06
           11970     67.1122E+06     29.6272E+06              0.    -3.88094E+06
           11971     67.1088E+06     29.6312E+06              0.    -3.97889E+06
           11972     67.1053E+06     29.6352E+06              0.    -4.08029E+06
           11973     67.1016E+06     29.6393E+06              0.    -4.18517E+06
           11974     67.0979E+06     29.6435E+06              0.    -4.29354E+06
           11975     67.0940E+06     29.6477E+06              0.    -4.40540E+06
           11976     67.0900E+06     29.6520E+06              0.    -4.52077E+06
           11977     67.0860E+06     29.6563E+06              0.    -4.63968E+06
           11978     67.0818E+06     29.6607E+06              0.    -4.76214E+06
           11979     67.0774E+06     29.6652E+06              0.    -4.88817E+06
           11980     67.0730E+06     29.6698E+06              0.    -5.01780E+06
           11981     67.0684E+06     29.6745E+06              0.    -5.15106E+06
           11982     67.0637E+06     29.6793E+06              0.    -5.28799E+06
           11983     67.0588E+06     29.6842E+06              0.    -5.42861E+06
           11984     67.0539E+06     29.6891E+06              0.    -5.57296E+06
           11985     67.0487E+06     29.6943E+06              0.    -5.72109E+06
           11986     67.0434E+06     29.6995E+06              0.    -5.87303E+06
           11987     67.0380E+06     29.7048E+06              0.    -6.02882E+06
           11988     67.0323E+06     29.7103E+06              0.    -6.18851E+06
           11989     67.0266E+06     29.7159E+06              0.    -6.35215E+06
           11990     67.0206E+06     29.7217E+06              0.    -6.51980E+06
           11991     67.0145E+06     29.7276E+06              0.    -6.69149E+06
           11992     67.0082E+06     29.7337E+06              0.    -6.86729E+06
           11993     67.0017E+06     29.7400E+06              0.    -7.04725E+06
           11994     66.9949E+06     29.7464E+06              0.    -7.23143E+06
           11995     66.9880E+06     29.7530E+06              0.    -7.41989E+06
           11996     66.9809E+06     29.7598E+06              0.    -7.61269E+06
           11997     66.9736E+06     29.7668E+06              0.    -7.80991E+06
           11998     66.9660E+06     29.7740E+06              0.    -8.01160E+06
           11999     66.9582E+06     29.7814E+06              0.    -8.21783E+06
           12000     66.9502E+06     29.7891E+06              0.    -8.42867E+06
           12001     66.9419E+06     29.7970E+06              0.    -8.64420E+06
           12002     66.9334E+06     29.8051E+06              0.    -8.86449E+06
           12003     66.9246E+06     29.8135E+06              0.    -9.08961E+06
           12004     66.9155E+06     29.8222E+06              0.    -9.31964E+06
           12005     66.9062E+06     29.8311E+06              0.    -9.55466E+06
           12006     66.8965E+06     29.8403E+06              0.    -9.79475E+06
           12007     66.8865E+06     29.8499E+06              0.    -10.0400E+06
           12008     66.8763E+06     29.8597E+06              0.    -10.2905E+06
           12009     66.8657E+06     29.8699E+06              0.    -10.5463E+06
           12010     66.8547E+06     29.8804E+06              0.    -10.8075E+06
           12011     66.8434E+06     29.8913E+06              0.    -11.0742E+06
           12012     66.8318E+06     29.9025E+06              0.    -11.3465E+06
           12013     66.8197E+06     29.9141E+06              0.    -11.6244E+06
           12014     66.8073E+06     29.9261E+06              0.    -11.9082E+06
           12015     66.7945E+06     29.9385E+06              0.    -12.1977E+06
           12016     66.7812E+06     29.9514E+06              0.    -12.4933E+06
           12017     66.7675E+06     29.9647E+06              0.    -12.7949E+06
           12018     66.7533E+06     29.9784E+06              0.    -13.1026E+06
           12019     66.7387E+06     29.9927E+06              0.    -13.4166E+06
           12020     66.7236E+06     30.0074E+06              0.    -13.7369E+06
           12021     66.7079E+06     30.0227E+06              0.    -14.0637E+06
           12022     66.6917E+06     30.0385E+06              0.    -14.3970E+06
           12023     66.6750E+06     30.0549E+06              0.    -14.7370E+06
           12024     66.6576E+06     30.0719E+06              0.    -15.0837E+06
           12025     66.6397E+06     30.0894E+06              0.    -15.4372E+06
           12026     66.6211E+06     30.1077E+06              0.    -15.7977E+06
           12027     66.6019E+06     30.1265E+06              0.    -16.1652E+06
           12028     66.5819E+06     30.1461E+06              0.    -16.5399E+06
           12029     66.5613E+06     30.1664E+06              0.    -16.9219E+06
           12030     66.5399E+06     30.1874E+06              0.    -17.3112E+06
           12031     66.5177E+06     30.2092E+06              0.    -17.7080E+06
           12032     66.4947E+06     30.2317E+06              0.    -18.1123E+06
           12033     66.4709E+06     30.2552E+06              0.    -18.5243E+06
           12034     66.4461E+06     30.2794E+06              0.    -18.9441E+06
           12035     66.4204E+06     30.3046E+06              0.    -19.3718E+06
           12036     66.3937E+06     30.3307E+06              0.    -19.8074E+06
           12037     66.3661E+06     30.3578E+06              0.    -20.2511E+06
           12038     66.3373E+06     30.3859E+06              0.    -20.7029E+06
           12039     66.3074E+06     30.4150E+06              0.    -21.1631E+06
           12040     66.2764E+06     30.4452E+06              0.    -21.6316E+06
           12041     66.2441E+06     30.4766E+06              0.    -22.1085E+06
           12042     66.2105E+06     30.5091E+06              0.     -22.594E+06
           12043     66.1756E+06     30.5428E+06              0.    -23.0881E+06
           12044     66.1393E+06     30.5778E+06              0.    -23.5910E+06
           12045     66.1015E+06     30.6141E+06              0.    -24.1026E+06
           12046     66.0622E+06     30.6517E+06              0.    -24.6232E+06
           12047     66.0212E+06     30.6908E+06              0.    -25.1527E+06
           12048     65.9786E+06     30.7313E+06              0.    -25.6913E+06
           12049     65.9341E+06     30.7733E+06              0.    -26.2390E+06
           12050     65.8878E+06     30.8169E+06              0.    -26.7958E+06
           12051     65.8395E+06     30.8621E+06              0.    -27.3619E+06
           12052     65.7892E+06     30.9090E+06              0.    -27.9373E+06
           12053     65.7367E+06     30.9577E+06              0.    -28.5221E+06
           12054     65.6819E+06     31.0081E+06              0.    -29.1162E+06
           12055     65.6248E+06     31.0604E+06              0.    -29.7198E+06
           12056     65.5651E+06     31.1147E+06              0.    -30.3329E+06
           12057     65.5029E+06     31.1709E+06              0.    -30.9555E+06
           12058     65.4379E+06     31.2292E+06              0.    -31.5876E+06
           12059     65.3700E+06     31.2896E+06              0.    -32.2292E+06
           12060     65.2991E+06     31.3523E+06              0.    -32.8803E+06
           12061     65.2250E+06     31.4172E+06              0.    -33.5410E+06
           12062     65.1475E+06     31.4845E+06              0.    -34.2113E+06
           12063     65.0666E+06     31.5541E+06              0.    -34.8910E+06
           12064     64.9820E+06     31.6263E+06              0.    -35.5801E+06
           12065     64.8935E+06     31.7010E+06              0.    -36.2787E+06
           12066     64.8009E+06     31.7784E+06              0.    -36.9866E+06
           12067     64.7041E+06     31.8585E+06              0.    -37.7038E+06
           12068     64.6029E+06     31.9414E+06              0.    -38.4302E+06
           12069     64.4969E+06     32.0272E+06              0.    -39.1656E+06
           12070     64.3860E+06     32.1159E+06              0.    -39.9100E+06
           12071     64.2700E+06     32.2076E+06              0.    -40.6633E+06
           12072     64.1485E+06     32.3025E+06              0.    -41.4252E+06
           12073     64.0213E+06     32.4004E+06              0.    -42.1956E+06
           12074     63.8882E+06     32.5017E+06              0.    -42.9744E+06
           12075     63.7487E+06     32.6062E+06              0.    -43.7612E+06
           12076     63.6028E+06     32.7141E+06              0.    -44.5560E+06
           12077     63.4499E+06     32.8254E+06              0.    -45.3583E+06
           12078     63.2898E+06     32.9402E+06              0.    -46.1680E+06
           12079     63.1221E+06     33.0586E+06              0.    -46.9848E+06
           12080     62.9465E+06     33.1805E+06              0.    -47.8082E+06
           12081     62.7625E+06     33.3061E+06              0.    -48.6381E+06
           12082     62.5699E+06     33.4353E+06              0.    -49.4738E+06
           12083     62.3681E+06     33.5681E+06              0.    -50.3151E+06
           12084     62.1567E+06     33.7047E+06              0.    -51.1615E+06
           12085     61.9353E+06     33.8450E+06              0.    -52.0126E+06
           12086     61.7034E+06     33.9889E+06              0.    -52.8677E+06
           12087     61.4606E+06     34.1366E+06              0.    -53.7263E+06
           12088     61.2063E+06     34.2878E+06              0.    -54.5878E+06
           12089     60.9400E+06     34.4426E+06              0.    -55.4517E+06
           12090     60.6612E+06     34.6009E+06              0.    -56.3171E+06
           12091     60.3693E+06     34.7627E+06              0.    -57.1834E+06
           12092     60.0637E+06     34.9277E+06              0.    -58.0498E+06
           12093     59.7439E+06     35.0958E+06              0.    -58.9155E+06
           12094     59.4091E+06     35.2670E+06              0.    -59.7797E+06
           12095     59.0589E+06     35.4409E+06              0.    -60.6413E+06
           12096     58.6924E+06     35.6174E+06              0.    -61.4994E+06
           12097     58.3092E+06     35.7963E+06              0.    -62.3529E+06
           12098     57.9083E+06     35.9771E+06              0.    -63.2009E+06
           12099     57.4893E+06     36.1595E+06              0.    -64.0421E+06
           12100     57.0512E+06     36.3432E+06              0.    -64.8752E+06
           12101     56.5935E+06     36.5278E+06              0.    -65.6991E+06
           12102     56.1153E+06     36.7126E+06              0.    -66.5124E+06
           12103     55.6159E+06     36.8973E+06              0.    -67.3136E+06
           12104     55.0944E+06     37.0811E+06              0.    -68.1013E+06
           12105     54.5502E+06     37.2635E+06              0.    -68.8739E+06
           12106     53.9824E+06     37.4436E+06              0.    -69.6298E+06
           12107     53.3903E+06     37.6207E+06              0.    -70.3673E+06
           12108     52.7730E+06     37.7938E+06              0.    -71.0846E+06
           12109     52.1297E+06     37.9620E+06              0.    -71.7799E+06
           12110     51.4596E+06     38.1241E+06              0.    -72.4512E+06
           12111      50.762E+06     38.2791E+06              0.    -73.0965E+06
           12112     50.0361E+06     38.4256E+06              0.    -73.7138E+06
           12113     49.2811E+06     38.5623E+06              0.    -74.3009E+06
           12114     48.4963E+06     38.6876E+06              0.    -74.8555E+06
           12115     47.6809E+06     38.7999E+06              0.    -75.3755E+06
           12116     46.8344E+06     38.8976E+06              0.    -75.8583E+06
           12117     45.9560E+06     38.9787E+06              0.    -76.3017E+06
           12118     45.0451E+06     39.0413E+06              0.    -76.7031E+06
           12119     44.1012E+06     39.0831E+06              0.    -77.0599E+06
           12120     43.1238E+06     39.1019E+06              0.    -77.3695E+06
           12121     42.1124E+06     39.0952E+06              0.    -77.6293E+06
           12122     41.0666E+06     39.0605E+06              0.    -77.8366E+06
           12123     39.9862E+06     38.9949E+06              0.    -77.9886E+06
           12124     38.8709E+06     38.8957E+06              0.    -78.0826E+06
           12125     37.7206E+06     38.7596E+06              0.    -78.1159E+06
           12126     36.5352E+06     38.5835E+06              0.    -78.0855E+06
           12127     35.3148E+06     38.3639E+06              0.    -77.9888E+06
           12128     34.0595E+06     38.0973E+06              0.    -77.8229E+06
           12129     32.7697E+06     37.7800E+06              0.    -77.5851E+06
           12130     31.4456E+06     37.4080E+06              0.    -77.2727E+06
           12131     30.0879E+06     36.9775E+06              0.    -76.8830E+06
           12132     28.6971E+06     36.4841E+06              0.    -76.4134E+06
           12133     27.2741E+06     35.9236E+06              0.    -75.8615E+06
           12134     25.8197E+06     35.2917E+06              0.    -75.2246E+06
           12135     24.3350E+06     34.5836E+06              0.    -74.5006E+06
           12136     22.8212E+06     33.7950E+06              0.    -73.6872E+06
           12137     21.2796E+06     32.9209E+06              0.    -72.7824E+06
           12138     19.7116E+06     31.9567E+06              0.    -71.7841E+06
           12139     18.1189E+06     30.8976E+06              0.    -70.6907E+06
           12140     16.5030E+06     29.7387E+06              0.    -69.5006E+06
           12141     14.8660E+06     28.4751E+06              0.    -68.2123E+06
           12142     13.2098E+06     27.1022E+06              0.    -66.8247E+06
           12143     11.5363E+06     25.6150E+06              0.    -65.3367E+06
           12144     9.84785E+06     24.0090E+06              0.    -63.7475E+06
           12145     8.14665E+06     22.2795E+06              0.    -62.0566E+06
           12146     6.43506E+06     20.4221E+06              0.    -60.2636E+06
           12147     4.71546E+06     18.4324E+06              0.    -58.3684E+06
           12148     2.99032E+06     16.3063E+06              0.    -56.3711E+06
           12149     1.26207E+06     14.0398E+06              0.    -54.2721E+06
           12150    -466.949E+03     11.6290E+06              0.    -52.0721E+06
           12151    -2.19620E+06     9.06945E+06              0.    -49.7715E+06
           12152    -3.74854E+06     5.90835E+06              0.    -48.8449E+06
           12153     67.0837E+06     29.4330E+06              0.    -2.75935E+06
           12154     67.0851E+06     29.4471E+06              0.    -2.75437E+06
           12155     67.0807E+06     29.4580E+06              0.    -2.71746E+06
           12156     67.0763E+06     29.4686E+06              0.    -2.68604E+06
           12157     67.0719E+06     29.4790E+06              0.    -2.65996E+06
           12158     67.0676E+06     29.4890E+06              0.    -2.63908E+06
           12159     67.0633E+06     29.4989E+06              0.    -2.62327E+06
           12160     67.0589E+06     29.5085E+06              0.    -2.61239E+06
           12161     67.0546E+06     29.5179E+06              0.    -2.60633E+06
           12162     67.0503E+06     29.5270E+06              0.    -2.60497E+06
           12163     67.0460E+06     29.5360E+06              0.    -2.60820E+06
           12164     67.0417E+06     29.5448E+06              0.    -2.61593E+06
           12165     67.0373E+06     29.5534E+06              0.    -2.62805E+06
           12166     67.0329E+06     29.5619E+06              0.    -2.64447E+06
           12167     67.0284E+06     29.5702E+06              0.    -2.66512E+06
           12168     67.0239E+06     29.5783E+06              0.    -2.68990E+06
           12169     67.0194E+06     29.5864E+06              0.    -2.71875E+06
           12170     67.0147E+06     29.5943E+06              0.    -2.75160E+06
           12171     67.0100E+06     29.6021E+06              0.    -2.78837E+06
           12172     67.0053E+06     29.6098E+06              0.    -2.82901E+06
           12173     67.0004E+06     29.6175E+06              0.    -2.87347E+06
           12174     66.9955E+06     29.6250E+06              0.    -2.92169E+06
           12175     66.9904E+06     29.6325E+06              0.    -2.97362E+06
           12176     66.9853E+06     29.6399E+06              0.    -3.02923E+06
           12177     66.9800E+06     29.6473E+06              0.    -3.08848E+06
           12178     66.9747E+06     29.6546E+06              0.    -3.15132E+06
           12179     66.9692E+06     29.6619E+06              0.    -3.21773E+06
           12180     66.9636E+06     29.6692E+06              0.    -3.28769E+06
           12181     66.9578E+06     29.6764E+06              0.    -3.36117E+06
           12182     66.9519E+06     29.6837E+06              0.    -3.43815E+06
           12183     66.9459E+06     29.6909E+06              0.    -3.51861E+06
           12184     66.9397E+06     29.6982E+06              0.    -3.60255E+06
           12185     66.9334E+06     29.7055E+06              0.    -3.68995E+06
           12186     66.9269E+06     29.7128E+06              0.    -3.78081E+06
           12187     66.9202E+06     29.7201E+06              0.    -3.87513E+06
           12188     66.9133E+06     29.7275E+06              0.    -3.97290E+06
           12189     66.9063E+06     29.7349E+06              0.    -4.07413E+06
           12190     66.8990E+06     29.7424E+06              0.    -4.17883E+06
           12191     66.8916E+06     29.7499E+06              0.    -4.28701E+06
           12192     66.8840E+06     29.7575E+06              0.    -4.39867E+06
           12193     66.8761E+06     29.7652E+06              0.    -4.51384E+06
           12194     66.8681E+06     29.7730E+06              0.    -4.63254E+06
           12195     66.8598E+06     29.7809E+06              0.    -4.75477E+06
           12196     66.8513E+06     29.7889E+06              0.    -4.88058E+06
           12197     66.8425E+06     29.7970E+06              0.    -5.00998E+06
           12198     66.8335E+06     29.8052E+06              0.    -5.14299E+06
           12199     66.8243E+06     29.8135E+06              0.    -5.27967E+06
           12200     66.8148E+06     29.8220E+06              0.    -5.42003E+06
           12201     66.8050E+06     29.8307E+06              0.    -5.56411E+06
           12202     66.7949E+06     29.8394E+06              0.    -5.71195E+06
           12203     66.7846E+06     29.8484E+06              0.    -5.86360E+06
           12204     66.7739E+06     29.8575E+06              0.    -6.01909E+06
           12205     66.7630E+06     29.8668E+06              0.    -6.17847E+06
           12206     66.7518E+06     29.8763E+06              0.    -6.34179E+06
           12207     66.7402E+06     29.8859E+06              0.    -6.50909E+06
           12208     66.7283E+06     29.8958E+06              0.    -6.68044E+06
           12209     66.7161E+06     29.9059E+06              0.    -6.85588E+06
           12210     66.7035E+06     29.9162E+06              0.    -7.03547E+06
           12211     66.6906E+06     29.9267E+06              0.    -7.21927E+06
           12212     66.6773E+06     29.9375E+06              0.    -7.40733E+06
           12213     66.6636E+06     29.9486E+06              0.    -7.59973E+06
           12214     66.6496E+06     29.9599E+06              0.    -7.79652E+06
           12215     66.6351E+06     29.9714E+06              0.    -7.99777E+06
           12216     66.6203E+06     29.9833E+06              0.    -8.20354E+06
           12217      66.605E+06     29.9955E+06              0.    -8.41391E+06
           12218     66.5893E+06     30.0079E+06              0.    -8.62895E+06
           12219     66.5731E+06     30.0207E+06              0.    -8.84873E+06
           12220     66.5565E+06     30.0338E+06              0.    -9.07333E+06
           12221     66.5394E+06     30.0472E+06              0.    -9.30282E+06
           12222     66.5218E+06     30.0610E+06              0.    -9.53727E+06
           12223     66.5037E+06     30.0752E+06              0.    -9.77678E+06
           12224     66.4851E+06     30.0898E+06              0.    -10.0214E+06
           12225     66.4660E+06     30.1047E+06              0.    -10.2713E+06
           12226     66.4463E+06     30.1201E+06              0.    -10.5264E+06
           12227     66.4261E+06     30.1358E+06              0.    -10.7869E+06
           12228     66.4053E+06     30.1521E+06              0.    -11.0529E+06
           12229     66.3839E+06     30.1687E+06              0.    -11.3245E+06
           12230     66.3618E+06     30.1858E+06              0.    -11.6017E+06
           12231     66.3391E+06     30.2035E+06              0.    -11.8847E+06
           12232     66.3158E+06     30.2216E+06              0.    -12.1734E+06
           12233     66.2918E+06     30.2402E+06              0.    -12.4681E+06
           12234     66.2671E+06     30.2594E+06              0.    -12.7689E+06
           12235     66.2416E+06     30.2792E+06              0.    -13.0757E+06
           12236     66.2155E+06     30.2995E+06              0.    -13.3887E+06
           12237     66.1885E+06     30.3204E+06              0.    -13.7081E+06
           12238     66.1607E+06     30.3419E+06              0.    -14.0338E+06
           12239     66.1322E+06     30.3641E+06              0.    -14.3661E+06
           12240     66.1027E+06     30.3869E+06              0.    -14.7050E+06
           12241     66.0724E+06     30.4104E+06              0.    -15.0505E+06
           12242     66.0412E+06     30.4346E+06              0.    -15.4029E+06
           12243     66.0091E+06     30.4596E+06              0.    -15.7621E+06
           12244     65.9759E+06     30.4853E+06              0.    -16.1284E+06
           12245     65.9418E+06     30.5118E+06              0.    -16.5018E+06
           12246     65.9066E+06     30.5391E+06              0.    -16.8823E+06
           12247     65.8703E+06     30.5672E+06              0.    -17.2702E+06
           12248     65.8329E+06     30.5962E+06              0.    -17.6655E+06
           12249     65.7943E+06     30.6261E+06              0.    -18.0683E+06
           12250     65.7546E+06     30.6570E+06              0.    -18.4787E+06
           12251     65.7135E+06     30.6888E+06              0.    -18.8968E+06
           12252     65.6712E+06     30.7215E+06              0.    -19.3227E+06
           12253     65.6276E+06     30.7554E+06              0.    -19.7565E+06
           12254     65.5825E+06     30.7902E+06              0.    -20.1983E+06
           12255     65.5360E+06     30.8262E+06              0.    -20.6482E+06
           12256     65.4880E+06     30.8633E+06              0.    -21.1062E+06
           12257     65.4384E+06     30.9016E+06              0.    -21.5726E+06
           12258     65.3871E+06     30.9410E+06              0.    -22.0473E+06
           12259     65.3342E+06     30.9818E+06              0.    -22.5305E+06
           12260     65.2795E+06     31.0238E+06              0.    -23.0222E+06
           12261     65.2230E+06     31.0672E+06              0.    -23.5225E+06
           12262     65.1646E+06     31.1119E+06              0.    -24.0316E+06
           12263     65.1042E+06     31.1581E+06              0.    -24.5494E+06
           12264     65.0417E+06     31.2057E+06              0.    -25.0761E+06
           12265     64.9771E+06     31.2549E+06              0.    -25.6117E+06
           12266     64.9103E+06     31.3057E+06              0.    -26.1562E+06
           12267     64.8411E+06     31.3580E+06              0.    -26.7099E+06
           12268     64.7695E+06     31.4121E+06              0.    -27.2726E+06
           12269     64.6953E+06     31.4679E+06              0.    -27.8446E+06
           12270     64.6185E+06     31.5254E+06              0.    -28.4257E+06
           12271     64.5390E+06     31.5848E+06              0.    -29.0161E+06
           12272     64.4565E+06     31.6461E+06              0.    -29.6157E+06
           12273     64.3711E+06     31.7093E+06              0.    -30.2247E+06
           12274     64.2826E+06     31.7746E+06              0.    -30.8430E+06
           12275     64.1908E+06     31.8419E+06              0.    -31.4706E+06
           12276     64.0956E+06     31.9113E+06              0.    -32.1076E+06
           12277     63.9968E+06     31.9830E+06              0.    -32.7539E+06
           12278     63.8943E+06     32.0569E+06              0.    -33.4096E+06
           12279     63.7880E+06     32.1331E+06              0.    -34.0746E+06
           12280     63.6776E+06     32.2116E+06              0.    -34.7488E+06
           12281     63.5630E+06     32.2927E+06              0.    -35.4323E+06
           12282     63.4439E+06     32.3762E+06              0.    -36.1249E+06
           12283     63.3203E+06     32.4623E+06              0.    -36.8267E+06
           12284     63.1919E+06     32.5510E+06              0.    -37.5375E+06
           12285     63.0584E+06     32.6424E+06              0.    -38.2572E+06
           12286     62.9197E+06     32.7366E+06              0.    -38.9857E+06
           12287     62.7754E+06     32.8336E+06              0.    -39.7229E+06
           12288     62.6255E+06     32.9334E+06              0.    -40.4686E+06
           12289     62.4696E+06     33.0362E+06              0.    -41.2227E+06
           12290     62.3074E+06     33.1419E+06              0.    -41.9850E+06
           12291     62.1386E+06     33.2507E+06              0.    -42.7553E+06
           12292     61.9631E+06     33.3625E+06              0.    -43.5334E+06
           12293     61.7804E+06     33.4775E+06              0.    -44.3190E+06
           12294     61.5902E+06     33.5956E+06              0.    -45.1118E+06
           12295     61.3923E+06     33.7169E+06              0.    -45.9117E+06
           12296     61.1863E+06     33.8414E+06              0.    -46.7182E+06
           12297     60.9717E+06     33.9691E+06              0.    -47.5310E+06
           12298     60.7483E+06     34.1001E+06              0.    -48.3498E+06
           12299     60.5156E+06     34.2344E+06              0.    -49.1741E+06
           12300     60.2733E+06     34.3718E+06              0.    -50.0035E+06
           12301     60.0209E+06     34.5126E+06              0.    -50.8376E+06
           12302     59.7580E+06     34.6565E+06              0.    -51.6759E+06
           12303     59.4841E+06     34.8035E+06              0.    -52.5177E+06
           12304     59.1988E+06     34.9537E+06              0.    -53.3627E+06
           12305     58.9016E+06     35.1068E+06              0.    -54.2100E+06
           12306     58.5919E+06     35.2629E+06              0.    -55.0592E+06
           12307     58.2693E+06     35.4218E+06              0.    -55.9095E+06
           12308     57.9332E+06     35.5834E+06              0.    -56.7601E+06
           12309     57.5831E+06     35.7475E+06              0.    -57.6103E+06
           12310     57.2184E+06     35.9140E+06              0.    -58.4593E+06
           12311     56.8384E+06     36.0826E+06              0.    -59.3062E+06
           12312     56.4427E+06     36.2530E+06              0.    -60.1500E+06
           12313     56.0305E+06     36.4251E+06              0.    -60.9898E+06
           12314     55.6013E+06     36.5984E+06              0.    -61.8245E+06
           12315     55.1544E+06     36.7727E+06              0.    -62.6530E+06
           12316     54.6891E+06     36.9475E+06              0.    -63.4743E+06
           12317     54.2047E+06     37.1224E+06              0.    -64.2870E+06
           12318     53.7006E+06     37.2969E+06              0.    -65.0899E+06
           12319     53.1761E+06     37.4705E+06              0.    -65.8816E+06
           12320     52.6304E+06     37.6425E+06              0.    -66.6608E+06
           12321     52.0628E+06     37.8123E+06              0.    -67.4260E+06
           12322     51.4726E+06     37.9791E+06              0.    -68.1756E+06
           12323     50.8591E+06     38.1422E+06              0.    -68.9080E+06
           12324     50.2215E+06     38.3007E+06              0.    -69.6216E+06
           12325     49.5592E+06     38.4536E+06              0.    -70.3146E+06
           12326     48.8714E+06     38.5999E+06              0.    -70.9852E+06
           12327     48.1573E+06     38.7384E+06              0.    -71.6315E+06
           12328     47.4163E+06     38.8679E+06              0.    -72.2515E+06
           12329     46.6477E+06     38.9871E+06              0.    -72.8432E+06
           12330     45.8507E+06     39.0946E+06              0.    -73.4045E+06
           12331     45.0249E+06     39.1888E+06              0.    -73.9333E+06
           12332     44.1695E+06     39.2681E+06              0.    -74.4272E+06
           12333     43.2839E+06     39.3306E+06              0.    -74.8841E+06
           12334     42.3676E+06     39.3745E+06              0.    -75.3015E+06
           12335     41.4201E+06     39.3977E+06              0.    -75.6771E+06
           12336     40.4410E+06     39.3980E+06              0.    -76.0083E+06
           12337     39.4297E+06     39.3732E+06              0.    -76.2927E+06
           12338     38.3860E+06     39.3208E+06              0.    -76.5276E+06
           12339     37.3096E+06     39.2382E+06              0.    -76.7106E+06
           12340     36.2002E+06     39.1226E+06              0.    -76.8389E+06
           12341     35.0578E+06     38.9711E+06              0.    -76.9099E+06
           12342     33.8823E+06     38.7807E+06              0.    -76.9210E+06
           12343     32.6738E+06     38.5482E+06              0.    -76.8695E+06
           12344     31.4323E+06     38.2701E+06              0.    -76.7528E+06
           12345     30.1581E+06     37.9431E+06              0.    -76.5681E+06
           12346     28.8516E+06     37.5634E+06              0.    -76.3129E+06
           12347     27.5132E+06     37.1273E+06              0.    -75.9846E+06
           12348     26.1436E+06     36.6308E+06              0.    -75.5806E+06
           12349     24.7433E+06     36.0698E+06              0.    -75.0986E+06
           12350     23.3133E+06     35.4402E+06              0.    -74.5360E+06
           12351     21.8545E+06     34.7377E+06              0.    -73.8906E+06
           12352     20.3679E+06     33.9579E+06              0.    -73.1603E+06
           12353     18.8547E+06     33.0963E+06              0.    -72.3428E+06
           12354     17.3164E+06     32.1483E+06              0.    -71.4364E+06
           12355     15.7543E+06     31.1095E+06              0.    -70.4390E+06
           12356     14.1701E+06     29.9751E+06              0.    -69.3492E+06
           12357     12.5654E+06     28.7405E+06              0.    -68.1653E+06
           12358     10.9420E+06     27.4011E+06              0.    -66.8861E+06
           12359     9.30192E+06     25.9523E+06              0.    -65.5104E+06
           12360     7.64714E+06     24.3894E+06              0.    -64.0373E+06
           12361     5.97978E+06     22.7081E+06              0.    -62.4660E+06
           12362     4.30205E+06     20.9038E+06              0.    -60.7959E+06
           12363     2.61622E+06     18.9724E+06              0.    -59.0267E+06
           12364     924.608E+03     16.9097E+06              0.    -57.1583E+06
           12365    -770.470E+03     14.7117E+06              0.    -55.1906E+06
           12366    -2.46684E+06     12.3747E+06              0.    -53.1240E+06
           12367    -4.16282E+06     9.89482E+06              0.    -50.9588E+06
           12368    -5.85531E+06     7.26954E+06              0.    -48.6958E+06
           12369    -7.41461E+06     4.04082E+06              0.    -47.7724E+06
           12370     66.9751E+06     29.3866E+06              0.    -2.75322E+06
           12371     66.9771E+06     29.4075E+06              0.    -2.74825E+06
           12372     66.9703E+06     29.4238E+06              0.    -2.71142E+06
           12373     66.9636E+06     29.4397E+06              0.    -2.68006E+06
           12374     66.9570E+06     29.4552E+06              0.    -2.65403E+06
           12375     66.9504E+06     29.4703E+06              0.    -2.63319E+06
           12376     66.9438E+06     29.4850E+06              0.    -2.61740E+06
           12377     66.9373E+06     29.4994E+06              0.    -2.60654E+06
           12378     66.9307E+06     29.5134E+06              0.    -2.60048E+06
           12379     66.9242E+06     29.5271E+06              0.    -2.59912E+06
           12380     66.9177E+06     29.5405E+06              0.    -2.60234E+06
           12381     66.9111E+06     29.5536E+06              0.    -2.61004E+06
           12382     66.9045E+06     29.5665E+06              0.    -2.62213E+06
           12383     66.8978E+06     29.5791E+06              0.    -2.63851E+06
           12384     66.8911E+06     29.5915E+06              0.    -2.65910E+06
           12385     66.8843E+06     29.6036E+06              0.    -2.68382E+06
           12386     66.8774E+06     29.6156E+06              0.    -2.71259E+06
           12387     66.8704E+06     29.6274E+06              0.    -2.74535E+06
           12388     66.8633E+06     29.6390E+06              0.    -2.78203E+06
           12389     66.8562E+06     29.6505E+06              0.    -2.82257E+06
           12390     66.8489E+06     29.6618E+06              0.    -2.86691E+06
           12391     66.8414E+06     29.6730E+06              0.    -2.91501E+06
           12392     66.8338E+06     29.6841E+06              0.    -2.96681E+06
           12393     66.8261E+06     29.6950E+06              0.    -3.02228E+06
           12394     66.8182E+06     29.7059E+06              0.    -3.08138E+06
           12395     66.8102E+06     29.7168E+06              0.    -3.14406E+06
           12396     66.8019E+06     29.7275E+06              0.    -3.21031E+06
           12397     66.7935E+06     29.7382E+06              0.    -3.28009E+06
           12398     66.7849E+06     29.7489E+06              0.    -3.35339E+06
           12399     66.7761E+06     29.7595E+06              0.    -3.43017E+06
           12400     66.7670E+06     29.7702E+06              0.    -3.51043E+06
           12401     66.7577E+06     29.7808E+06              0.    -3.59416E+06
           12402     66.7482E+06     29.7915E+06              0.    -3.68134E+06
           12403     66.7385E+06     29.8021E+06              0.    -3.77197E+06
           12404     66.7285E+06     29.8128E+06              0.    -3.86604E+06
           12405     66.7182E+06     29.8235E+06              0.    -3.96356E+06
           12406     66.7077E+06     29.8343E+06              0.    -4.06453E+06
           12407     66.6969E+06     29.8452E+06              0.    -4.16896E+06
           12408     66.6858E+06     29.8561E+06              0.    -4.27686E+06
           12409     66.6744E+06     29.8671E+06              0.    -4.38823E+06
           12410     66.6627E+06     29.8782E+06              0.    -4.50310E+06
           12411     66.6506E+06     29.8895E+06              0.    -4.62148E+06
           12412     66.6383E+06     29.9008E+06              0.    -4.74340E+06
           12413     66.6256E+06     29.9123E+06              0.    -4.86887E+06
           12414     66.6125E+06     29.9239E+06              0.    -4.99792E+06
           12415     66.5991E+06     29.9356E+06              0.    -5.13058E+06
           12416     66.5853E+06     29.9475E+06              0.    -5.26689E+06
           12417     66.5712E+06     29.9596E+06              0.    -5.40686E+06
           12418     66.5566E+06     29.9718E+06              0.    -5.55055E+06
           12419     66.5417E+06     29.9843E+06              0.    -5.69799E+06
           12420     66.5263E+06     29.9969E+06              0.    -5.84922E+06
           12421     66.5105E+06     30.0098E+06              0.    -6.00428E+06
           12422     66.4943E+06     30.0229E+06              0.    -6.16321E+06
           12423     66.4776E+06     30.0362E+06              0.    -6.32607E+06
           12424     66.4604E+06     30.0498E+06              0.    -6.49290E+06
           12425     66.4428E+06     30.0636E+06              0.    -6.66376E+06
           12426     66.4247E+06     30.0777E+06              0.    -6.83869E+06
           12427     66.4061E+06     30.0920E+06              0.    -7.01776E+06
           12428     66.3870E+06     30.1067E+06              0.    -7.20102E+06
           12429     66.3673E+06     30.1216E+06              0.    -7.38853E+06
           12430     66.3471E+06     30.1369E+06              0.    -7.58036E+06
           12431     66.3264E+06     30.1525E+06              0.    -7.77655E+06
           12432     66.3051E+06     30.1684E+06              0.    -7.97719E+06
           12433     66.2832E+06     30.1847E+06              0.    -8.18234E+06
           12434     66.2607E+06     30.2013E+06              0.    -8.39206E+06
           12435     66.2375E+06     30.2183E+06              0.    -8.60643E+06
           12436     66.2138E+06     30.2357E+06              0.    -8.82552E+06
           12437     66.1894E+06     30.2535E+06              0.     -9.0494E+06
           12438     66.1643E+06     30.2717E+06              0.    -9.27815E+06
           12439     66.1385E+06     30.2904E+06              0.    -9.51185E+06
           12440     66.1120E+06     30.3094E+06              0.    -9.75057E+06
           12441     66.0848E+06     30.3290E+06              0.     -9.9944E+06
           12442     66.0569E+06     30.3490E+06              0.    -10.2434E+06
           12443     66.0282E+06     30.3695E+06              0.    -10.4977E+06
           12444     65.9987E+06     30.3905E+06              0.    -10.7573E+06
           12445     65.9684E+06     30.4121E+06              0.    -11.0224E+06
           12446     65.9372E+06     30.4341E+06              0.    -11.2930E+06
           12447     65.9052E+06     30.4568E+06              0.    -11.5693E+06
           12448     65.8723E+06     30.4800E+06              0.    -11.8512E+06
           12449     65.8385E+06     30.5038E+06              0.    -12.1389E+06
           12450     65.8038E+06     30.5282E+06              0.    -12.4325E+06
           12451     65.7682E+06     30.5532E+06              0.    -12.7321E+06
           12452     65.7315E+06     30.5789E+06              0.    -13.0378E+06
           12453     65.6938E+06     30.6052E+06              0.    -13.3496E+06
           12454     65.6551E+06     30.6323E+06              0.    -13.6677E+06
           12455     65.6153E+06     30.6600E+06              0.    -13.9922E+06
           12456     65.5744E+06     30.6885E+06              0.    -14.3231E+06
           12457     65.5324E+06     30.7177E+06              0.    -14.6606E+06
           12458     65.4892E+06     30.7478E+06              0.    -15.0047E+06
           12459     65.4448E+06     30.7786E+06              0.    -15.3556E+06
           12460     65.3991E+06     30.8102E+06              0.    -15.7134E+06
           12461     65.3522E+06     30.8427E+06              0.    -16.0781E+06
           12462     65.3039E+06     30.8761E+06              0.    -16.4498E+06
           12463     65.2542E+06     30.9104E+06              0.    -16.8287E+06
           12464     65.2032E+06     30.9456E+06              0.    -17.2148E+06
           12465     65.1506E+06     30.9817E+06              0.    -17.6082E+06
           12466     65.0966E+06     31.0189E+06              0.    -18.0091E+06
           12467     65.0411E+06     31.0571E+06              0.    -18.4176E+06
           12468     64.9839E+06     31.0963E+06              0.    -18.8336E+06
           12469     64.9250E+06     31.1366E+06              0.    -19.2574E+06
           12470     64.8645E+06     31.1781E+06              0.    -19.6891E+06
           12471     64.8022E+06     31.2207E+06              0.    -20.1286E+06
           12472     64.7380E+06     31.2644E+06              0.    -20.5761E+06
           12473     64.6720E+06     31.3094E+06              0.    -21.0318E+06
           12474     64.6040E+06     31.3557E+06              0.    -21.4956E+06
           12475     64.5340E+06     31.4032E+06              0.    -21.9677E+06
           12476     64.4618E+06     31.4521E+06              0.    -22.4482E+06
           12477     64.3876E+06     31.5023E+06              0.    -22.9371E+06
           12478     64.3110E+06     31.5540E+06              0.    -23.4345E+06
           12479     64.2322E+06     31.6071E+06              0.    -23.9405E+06
           12480     64.1509E+06     31.6617E+06              0.    -24.4552E+06
           12481     64.0671E+06     31.7178E+06              0.    -24.9786E+06
           12482     63.9807E+06     31.7755E+06              0.    -25.5108E+06
           12483     63.8917E+06     31.8349E+06              0.    -26.0519E+06
           12484     63.7998E+06     31.8959E+06              0.    -26.6019E+06
           12485     63.7051E+06     31.9587E+06              0.    -27.1608E+06
           12486     63.6074E+06     32.0232E+06              0.    -27.7288E+06
           12487     63.5065E+06     32.0895E+06              0.    -28.3059E+06
           12488     63.4024E+06     32.1577E+06              0.    -28.8920E+06
           12489     63.2950E+06     32.2278E+06              0.    -29.4872E+06
           12490     63.1841E+06     32.2999E+06              0.    -30.0916E+06
           12491     63.0696E+06     32.3740E+06              0.    -30.7052E+06
           12492     62.9513E+06     32.4502E+06              0.    -31.3279E+06
           12493     62.8291E+06     32.5284E+06              0.    -31.9598E+06
           12494     62.7028E+06     32.6089E+06              0.    -32.6008E+06
           12495     62.5723E+06     32.6916E+06              0.    -33.2509E+06
           12496     62.4374E+06     32.7766E+06              0.    -33.9102E+06
           12497     62.2980E+06     32.8638E+06              0.    -34.5784E+06
           12498     62.1538E+06     32.9535E+06              0.    -35.2557E+06
           12499     62.0046E+06     33.0456E+06              0.    -35.9420E+06
           12500     61.8503E+06     33.1402E+06              0.    -36.6371E+06
           12501     61.6907E+06     33.2373E+06              0.    -37.3409E+06
           12502     61.5255E+06     33.3370E+06              0.    -38.0534E+06
           12503     61.3545E+06     33.4393E+06              0.    -38.7745E+06
           12504     61.1775E+06     33.5443E+06              0.    -39.5039E+06
           12505     60.9942E+06     33.6520E+06              0.    -40.2416E+06
           12506     60.8044E+06     33.7624E+06              0.    -40.9874E+06
           12507     60.6078E+06     33.8756E+06              0.    -41.7411E+06
           12508     60.4041E+06     33.9917E+06              0.    -42.5024E+06
           12509     60.1930E+06     34.1105E+06              0.    -43.2712E+06
           12510     59.9743E+06     34.2322E+06              0.    -44.0472E+06
           12511     59.7476E+06     34.3568E+06              0.    -44.8301E+06
           12512     59.5126E+06     34.4843E+06              0.    -45.6196E+06
           12513     59.2689E+06     34.6146E+06              0.    -46.4154E+06
           12514     59.0162E+06     34.7479E+06              0.    -47.2171E+06
           12515     58.7542E+06     34.8840E+06              0.    -48.0243E+06
           12516     58.4824E+06     35.0229E+06              0.    -48.8368E+06
           12517     58.2005E+06     35.1646E+06              0.    -49.6539E+06
           12518     57.9080E+06     35.3091E+06              0.    -50.4752E+06
           12519     57.6045E+06     35.4563E+06              0.    -51.3003E+06
           12520     57.2896E+06     35.6060E+06              0.    -52.1285E+06
           12521     56.9629E+06     35.7583E+06              0.    -52.9594E+06
           12522     56.6238E+06     35.9130E+06              0.    -53.7922E+06
           12523     56.2719E+06     36.0700E+06              0.    -54.6263E+06
           12524     55.9066E+06     36.2291E+06              0.    -55.4611E+06
           12525     55.5276E+06     36.3902E+06              0.    -56.2958E+06
           12526     55.1341E+06      36.553E+06              0.    -57.1295E+06
           12527     54.7258E+06     36.7173E+06              0.    -57.9616E+06
           12528     54.3020E+06     36.8829E+06              0.    -58.7910E+06
           12529     53.8622E+06     37.0495E+06              0.    -59.6168E+06
           12530     53.4057E+06     37.2167E+06              0.    -60.4381E+06
           12531     52.9320E+06     37.3842E+06              0.    -61.2539E+06
           12532     52.4405E+06     37.5515E+06              0.    -62.0630E+06
           12533     51.9305E+06     37.7183E+06              0.    -62.8642E+06
           12534     51.4014E+06     37.8841E+06              0.    -63.6565E+06
           12535     50.8526E+06     38.0482E+06              0.    -64.4384E+06
           12536     50.2834E+06     38.2101E+06              0.    -65.2087E+06
           12537     49.6931E+06     38.3692E+06              0.    -65.9661E+06
           12538     49.0812E+06     38.5246E+06              0.    -66.7089E+06
           12539     48.4469E+06     38.6757E+06              0.    -67.4358E+06
           12540     47.7895E+06     38.8216E+06              0.    -68.1451E+06
           12541     47.1084E+06     38.9613E+06              0.    -68.8352E+06
           12542     46.4030E+06     39.0938E+06              0.    -69.5043E+06
           12543     45.6726E+06     39.2181E+06              0.    -70.1507E+06
           12544     44.9165E+06     39.3328E+06              0.    -70.7725E+06
           12545     44.1341E+06     39.4369E+06              0.    -71.3678E+06
           12546     43.3248E+06     39.5289E+06              0.    -71.9347E+06
           12547     42.4881E+06     39.6072E+06              0.     -72.471E+06
           12548     41.6233E+06     39.6705E+06              0.    -72.9747E+06
           12549     40.7299E+06     39.7168E+06              0.    -73.4436E+06
           12550     39.8074E+06     39.7444E+06              0.    -73.8754E+06
           12551     38.8554E+06     39.7514E+06              0.    -74.2679E+06
           12552     37.8734E+06     39.7358E+06              0.    -74.6187E+06
           12553     36.8610E+06     39.6952E+06              0.    -74.9255E+06
           12554      35.818E+06     39.6274E+06              0.    -75.1858E+06
           12555     34.7441E+06     39.5300E+06              0.    -75.3972E+06
           12556     33.6390E+06     39.4003E+06              0.    -75.5572E+06
           12557     32.5028E+06     39.2355E+06              0.    -75.6632E+06
           12558     31.3352E+06     39.0328E+06              0.    -75.7127E+06
           12559     30.1364E+06     38.7892E+06              0.    -75.7032E+06
           12560     28.9065E+06     38.5015E+06              0.    -75.6320E+06
           12561     27.6458E+06     38.1663E+06              0.    -75.4968E+06
           12562     26.3544E+06     37.7803E+06              0.    -75.2949E+06
           12563     25.0329E+06     37.3398E+06              0.    -75.0239E+06
           12564     23.6817E+06     36.8411E+06              0.    -74.6813E+06
           12565     22.3016E+06     36.2804E+06              0.    -74.2647E+06
           12566     20.8932E+06     35.6537E+06              0.    -73.7718E+06
           12567     19.4574E+06     34.9569E+06              0.    -73.2002E+06
           12568     17.9953E+06     34.1859E+06              0.    -72.5479E+06
           12569     16.5078E+06     33.3365E+06              0.    -71.8128E+06
           12570     14.9963E+06     32.4042E+06              0.    -70.9928E+06
           12571     13.4621E+06     31.3847E+06              0.    -70.0861E+06
           12572     11.9066E+06     30.2736E+06              0.    -69.0911E+06
           12573     10.3314E+06     29.0664E+06              0.    -68.0061E+06
           12574     8.73820E+06     27.7586E+06              0.    -66.8298E+06
           12575     7.12880E+06     26.3458E+06              0.    -65.5608E+06
           12576     5.50508E+06     24.8235E+06              0.    -64.1982E+06
           12577     3.86903E+06     23.1874E+06              0.    -62.7409E+06
           12578     2.22272E+06     21.4331E+06              0.    -61.1883E+06
           12579     568.306E+03     19.5565E+06              0.    -59.5399E+06
           12580    -1.09198E+06     17.5535E+06              0.    -57.7952E+06
           12581    -2.75589E+06     15.4200E+06              0.    -55.9541E+06
           12582    -4.42106E+06     13.1524E+06              0.    -54.0166E+06
           12583    -6.08513E+06     10.7469E+06              0.    -51.9829E+06
           12584     -7.7454E+06     8.20045E+06              0.    -49.8530E+06
           12585    -9.39855E+06     5.50958E+06              0.    -47.6279E+06
           12586    -10.9576E+06     2.22293E+06              0.    -46.7128E+06
           12587     66.8667E+06     29.3402E+06              0.    -2.74477E+06
           12588     66.8694E+06     29.3680E+06              0.    -2.73980E+06
           12589     66.8603E+06     29.3897E+06              0.    -2.70308E+06
           12590     66.8513E+06     29.4109E+06              0.    -2.67181E+06
           12591     66.8424E+06     29.4315E+06              0.    -2.64586E+06
           12592     66.8335E+06     29.4516E+06              0.    -2.62507E+06
           12593     66.8247E+06     29.4712E+06              0.    -2.60933E+06
           12594     66.8159E+06     29.4903E+06              0.    -2.59849E+06
           12595     66.8072E+06     29.5089E+06              0.    -2.59245E+06
           12596     66.7984E+06     29.5272E+06              0.    -2.59108E+06
           12597     66.7897E+06     29.5450E+06              0.    -2.59428E+06
           12598     66.7808E+06     29.5624E+06              0.    -2.60195E+06
           12599     66.7720E+06     29.5795E+06              0.    -2.61399E+06
           12600     66.7631E+06     29.5963E+06              0.    -2.63031E+06
           12601     66.7541E+06     29.6127E+06              0.    -2.65083E+06
           12602      66.745E+06     29.6289E+06              0.    -2.67546E+06
           12603     66.7358E+06     29.6448E+06              0.    -2.70414E+06
           12604     66.7265E+06     29.6604E+06              0.    -2.73678E+06
           12605     66.7171E+06     29.6758E+06              0.    -2.77334E+06
           12606     66.7075E+06     29.6910E+06              0.    -2.81374E+06
           12607     66.6977E+06     29.7060E+06              0.    -2.85793E+06
           12608     66.6878E+06     29.7208E+06              0.    -2.90587E+06
           12609     66.6777E+06     29.7355E+06              0.     -2.9575E+06
           12610     66.6674E+06     29.7500E+06              0.    -3.01278E+06
           12611     66.6569E+06     29.7644E+06              0.    -3.07168E+06
           12612     66.6461E+06     29.7787E+06              0.    -3.13415E+06
           12613     66.6351E+06     29.7929E+06              0.    -3.20018E+06
           12614     66.6239E+06     29.8071E+06              0.    -3.26973E+06
           12615     66.6124E+06     29.8212E+06              0.    -3.34277E+06
           12616     66.6007E+06     29.8352E+06              0.    -3.41930E+06
           12617     66.5886E+06     29.8492E+06              0.    -3.49929E+06
           12618     66.5763E+06     29.8632E+06              0.    -3.58273E+06
           12619     66.5636E+06     29.8772E+06              0.    -3.66961E+06
           12620     66.5507E+06     29.8912E+06              0.    -3.75993E+06
           12621     66.5374E+06     29.9052E+06              0.    -3.85369E+06
           12622     66.5237E+06     29.9193E+06              0.    -3.95088E+06
           12623     66.5097E+06     29.9335E+06              0.    -4.05150E+06
           12624     66.4953E+06     29.9477E+06              0.    -4.15557E+06
           12625     66.4806E+06     29.9620E+06              0.    -4.26310E+06
           12626     66.4654E+06     29.9764E+06              0.    -4.37409E+06
           12627     66.4499E+06     29.9909E+06              0.    -4.48856E+06
           12628     66.4339E+06     30.0055E+06              0.    -4.60653E+06
           12629     66.4175E+06     30.0203E+06              0.    -4.72802E+06
           12630     66.4006E+06     30.0352E+06              0.    -4.85305E+06
           12631     66.3833E+06     30.0503E+06              0.    -4.98165E+06
           12632     66.3654E+06     30.0656E+06              0.    -5.11384E+06
           12633     66.3472E+06     30.0811E+06              0.    -5.24966E+06
           12634     66.3284E+06     30.0967E+06              0.    -5.38914E+06
           12635     66.3091E+06     30.1126E+06              0.    -5.53232E+06
           12636     66.2892E+06     30.1287E+06              0.    -5.67922E+06
           12637     66.2688E+06     30.1450E+06              0.    -5.82991E+06
           12638     66.2479E+06     30.1616E+06              0.    -5.98440E+06
           12639     66.2264E+06     30.1785E+06              0.    -6.14276E+06
           12640     66.2043E+06     30.1956E+06              0.    -6.30502E+06
           12641     66.1816E+06     30.2131E+06              0.    -6.47124E+06
           12642     66.1582E+06     30.2308E+06              0.    -6.64146E+06
           12643     66.1343E+06     30.2489E+06              0.    -6.81574E+06
           12644     66.1096E+06     30.2672E+06              0.    -6.99414E+06
           12645     66.0843E+06     30.2860E+06              0.    -7.17671E+06
           12646     66.0584E+06     30.3051E+06              0.    -7.36351E+06
           12647     66.0317E+06     30.3245E+06              0.    -7.55459E+06
           12648     66.0043E+06     30.3444E+06              0.    -7.75004E+06
           12649     65.9761E+06     30.3646E+06              0.    -7.94990E+06
           12650     65.9472E+06     30.3853E+06              0.    -8.15424E+06
           12651     65.9175E+06     30.4064E+06              0.    -8.36314E+06
           12652     65.8870E+06     30.4279E+06              0.    -8.57666E+06
           12653     65.8557E+06     30.4499E+06              0.    -8.79488E+06
           12654     65.8235E+06     30.4724E+06              0.    -9.01786E+06
           12655     65.7905E+06     30.4954E+06              0.    -9.24568E+06
           12656     65.7565E+06     30.5188E+06              0.    -9.47842E+06
           12657     65.7217E+06     30.5428E+06              0.    -9.71617E+06
           12658     65.6859E+06     30.5673E+06              0.    -9.95898E+06
           12659     65.6492E+06     30.5924E+06              0.    -10.2069E+06
           12660     65.6115E+06     30.6180E+06              0.    -10.4602E+06
           12661     65.5728E+06     30.6443E+06              0.    -10.7187E+06
           12662     65.5330E+06     30.6711E+06              0.    -10.9826E+06
           12663     65.4922E+06     30.6986E+06              0.    -11.2521E+06
           12664     65.4503E+06     30.7266E+06              0.    -11.5271E+06
           12665     65.4073E+06     30.7554E+06              0.    -11.8077E+06
           12666     65.3631E+06     30.7848E+06              0.    -12.0942E+06
           12667     65.3178E+06     30.8150E+06              0.    -12.3865E+06
           12668     65.2712E+06     30.8458E+06              0.    -12.6847E+06
           12669     65.2234E+06     30.8774E+06              0.    -12.9890E+06
           12670     65.1743E+06     30.9097E+06              0.    -13.2993E+06
           12671     65.1239E+06     30.9428E+06              0.    -13.6159E+06
           12672     65.0721E+06     30.9768E+06              0.    -13.9388E+06
           12673      65.019E+06     31.0115E+06              0.    -14.2682E+06
           12674     64.9644E+06     31.0471E+06              0.    -14.6040E+06
           12675     64.9084E+06     31.0836E+06              0.    -14.9464E+06
           12676     64.8509E+06     31.1209E+06              0.    -15.2955E+06
           12677     64.7918E+06     31.1592E+06              0.    -15.6515E+06
           12678     64.7311E+06     31.1985E+06              0.    -16.0143E+06
           12679     64.6688E+06     31.2387E+06              0.    -16.3840E+06
           12680     64.6048E+06     31.2799E+06              0.    -16.7609E+06
           12681     64.5390E+06     31.3221E+06              0.    -17.1450E+06
           12682     64.4715E+06     31.3654E+06              0.    -17.5363E+06
           12683     64.4021E+06     31.4097E+06              0.    -17.9350E+06
           12684     64.3309E+06     31.4552E+06              0.    -18.3411E+06
           12685     64.2577E+06     31.5018E+06              0.    -18.7548E+06
           12686     64.1824E+06     31.5496E+06              0.    -19.1762E+06
           12687     64.1051E+06     31.5986E+06              0.    -19.6053E+06
           12688     64.0257E+06     31.6488E+06              0.    -20.0422E+06
           12689     63.9441E+06     31.7003E+06              0.    -20.4870E+06
           12690     63.8602E+06     31.7531E+06              0.    -20.9399E+06
           12691     63.7739E+06     31.8072E+06              0.    -21.4008E+06
           12692     63.6853E+06     31.8627E+06              0.    -21.8699E+06
           12693     63.5941E+06     31.9196E+06              0.    -22.3473E+06
           12694     63.5004E+06     31.9780E+06              0.    -22.8330E+06
           12695     63.4040E+06     32.0378E+06              0.    -23.3271E+06
           12696     63.3049E+06     32.0992E+06              0.    -23.8297E+06
           12697     63.2029E+06     32.1621E+06              0.    -24.3408E+06
           12698     63.0980E+06     32.2266E+06              0.    -24.8605E+06
           12699     62.9901E+06     32.2927E+06              0.    -25.3889E+06
           12700     62.8791E+06     32.3606E+06              0.    -25.9261E+06
           12701     62.7649E+06     32.4301E+06              0.    -26.4720E+06
           12702     62.6473E+06     32.5014E+06              0.    -27.0267E+06
           12703     62.5262E+06     32.5746E+06              0.    -27.5903E+06
           12704     62.4016E+06     32.6495E+06              0.    -28.1629E+06
           12705     62.2733E+06     32.7264E+06              0.    -28.7443E+06
           12706     62.1411E+06     32.8052E+06              0.    -29.3347E+06
           12707     62.0050E+06     32.8859E+06              0.    -29.9340E+06
           12708     61.8648E+06     32.9687E+06              0.    -30.5424E+06
           12709     61.7203E+06     33.0536E+06              0.    -31.1597E+06
           12710     61.5715E+06     33.1405E+06              0.    -31.7860E+06
           12711     61.4181E+06     33.2296E+06              0.    -32.4212E+06
           12712     61.2599E+06     33.3209E+06              0.    -33.0653E+06
           12713     61.0969E+06     33.4144E+06              0.    -33.7184E+06
           12714     60.9288E+06     33.5102E+06              0.    -34.3802E+06
           12715     60.7554E+06     33.6084E+06              0.    -35.0508E+06
           12716     60.5766E+06     33.7088E+06              0.    -35.7302E+06
           12717     60.3921E+06     33.8117E+06              0.    -36.4181E+06
           12718     60.2018E+06     33.9170E+06              0.    -37.1145E+06
           12719     60.0054E+06     34.0247E+06              0.    -37.8194E+06
           12720     59.8027E+06     34.1349E+06              0.    -38.5325E+06
           12721     59.5934E+06     34.2476E+06              0.    -39.2537E+06
           12722     59.3773E+06     34.3629E+06              0.    -39.9829E+06
           12723     59.1542E+06     34.4808E+06              0.    -40.7199E+06
           12724     58.9238E+06     34.6012E+06              0.    -41.4644E+06
           12725     58.6858E+06     34.7242E+06              0.    -42.2163E+06
           12726     58.4399E+06     34.8497E+06              0.    -42.9753E+06
           12727     58.1858E+06     34.9779E+06              0.    -43.7412E+06
           12728     57.9232E+06     35.1087E+06              0.    -44.5136E+06
           12729     57.6519E+06     35.2420E+06              0.    -45.2923E+06
           12730     57.3713E+06     35.3779E+06              0.    -46.0769E+06
           12731     57.0813E+06     35.5163E+06              0.    -46.8671E+06
           12732     56.7815E+06     35.6571E+06              0.    -47.6625E+06
           12733     56.4714E+06     35.8004E+06              0.    -48.4625E+06
           12734     56.1508E+06     35.9460E+06              0.    -49.2669E+06
           12735     55.8191E+06     36.0939E+06              0.    -50.0751E+06
           12736     55.4761E+06     36.2440E+06              0.    -50.8866E+06
           12737     55.1212E+06     36.3961E+06              0.    -51.7009E+06
           12738     54.7540E+06     36.5502E+06              0.    -52.5173E+06
           12739     54.3742E+06     36.7061E+06              0.    -53.3353E+06
           12740     53.9811E+06     36.8636E+06              0.    -54.1541E+06
           12741     53.5745E+06     37.0225E+06              0.    -54.9731E+06
           12742     53.1536E+06     37.1826E+06              0.    -55.7915E+06
           12743     52.7181E+06     37.3438E+06              0.    -56.6086E+06
           12744     52.2675E+06     37.5056E+06              0.    -57.4234E+06
           12745     51.8011E+06     37.6678E+06              0.    -58.2352E+06
           12746     51.3185E+06     37.8301E+06              0.    -59.0429E+06
           12747     50.8192E+06     37.9921E+06              0.    -59.8457E+06
           12748     50.3024E+06     38.1534E+06              0.    -60.6424E+06
           12749     49.7678E+06     38.3135E+06              0.    -61.4320E+06
           12750     49.2147E+06     38.4720E+06              0.    -62.2132E+06
           12751     48.6424E+06     38.6282E+06              0.    -62.9851E+06
           12752     48.0505E+06     38.7817E+06              0.    -63.7462E+06
           12753     47.4383E+06     38.9317E+06              0.    -64.4952E+06
           12754     46.8052E+06     39.0775E+06              0.    -65.2309E+06
           12755     46.1506E+06     39.2184E+06              0.    -65.9516E+06
           12756     45.4739E+06     39.3535E+06              0.    -66.6560E+06
           12757     44.7744E+06     39.4819E+06              0.    -67.3425E+06
           12758     44.0517E+06     39.6026E+06              0.    -68.0095E+06
           12759     43.3051E+06     39.7147E+06              0.    -68.6552E+06
           12760     42.5339E+06     39.8168E+06              0.    -69.2779E+06
           12761     41.7378E+06     39.9079E+06              0.    -69.8759E+06
           12762     40.9160E+06     39.9865E+06              0.    -70.4472E+06
           12763     40.0680E+06     40.0513E+06              0.    -70.9898E+06
           12764     39.1934E+06     40.1007E+06              0.    -71.5019E+06
           12765     38.2916E+06     40.1331E+06              0.    -71.9813E+06
           12766     37.3623E+06     40.1467E+06              0.     -72.426E+06
           12767     36.4049E+06     40.1398E+06              0.    -72.8337E+06
           12768     35.4191E+06     40.1104E+06              0.    -73.2024E+06
           12769     34.4045E+06     40.0563E+06              0.    -73.5296E+06
           12770     33.3610E+06     39.9754E+06              0.    -73.8131E+06
           12771     32.2882E+06     39.8653E+06              0.    -74.0506E+06
           12772     31.1860E+06     39.7235E+06              0.    -74.2396E+06
           12773     30.0542E+06     39.5475E+06              0.    -74.3779E+06
           12774     28.8929E+06     39.3345E+06              0.    -74.4629E+06
           12775     27.7020E+06     39.0817E+06              0.    -74.4923E+06
           12776     26.4817E+06     38.7860E+06              0.    -74.4636E+06
           12777     25.2322E+06     38.4443E+06              0.    -74.3743E+06
           12778     23.9538E+06     38.0534E+06              0.    -74.2221E+06
           12779     22.6469E+06     37.6098E+06              0.    -74.0046E+06
           12780     21.3118E+06     37.1100E+06              0.    -73.7193E+06
           12781     19.9493E+06     36.5504E+06              0.    -73.3639E+06
           12782     18.5600E+06     35.9273E+06              0.    -72.9362E+06
           12783     17.1448E+06     35.2367E+06              0.    -72.4339E+06
           12784     15.7044E+06     34.4747E+06              0.    -71.8550E+06
           12785     14.2400E+06     33.6372E+06              0.    -71.1972E+06
           12786     12.7526E+06     32.7202E+06              0.    -70.4587E+06
           12787     11.2435E+06     31.7194E+06              0.    -69.6376E+06
           12788     9.71407E+06     30.6306E+06              0.    -68.7322E+06
           12789     8.16575E+06     29.4495E+06              0.    -67.7408E+06
           12790     6.60009E+06     28.1717E+06              0.    -66.6619E+06
           12791     5.01878E+06     26.7931E+06              0.    -65.4943E+06
           12792     3.42358E+06     25.3092E+06              0.    -64.2367E+06
           12793     1.81635E+06     23.7159E+06              0.    -62.8881E+06
           12794     199.058E+03     22.0089E+06              0.    -61.4477E+06
           12795    -1.42629E+06     20.1841E+06              0.    -59.9146E+06
           12796    -3.05758E+06     18.2374E+06              0.    -58.2886E+06
           12797    -4.69262E+06     16.1650E+06              0.    -56.5691E+06
           12798    -6.32918E+06     13.9630E+06              0.    -54.7560E+06
           12799    -7.96491E+06     11.6278E+06              0.    -52.8493E+06
           12800    -9.59728E+06     9.15591E+06              0.    -50.8491E+06
           12801    -11.2235E+06     6.54402E+06              0.    -48.7559E+06
           12802    -12.8418E+06     3.78848E+06              0.    -46.5702E+06
           12803    -14.4035E+06     443.915E+03              0.    -45.6654E+06
           12804     66.7588E+06     29.2940E+06              0.    -2.73399E+06
           12805     66.7620E+06     29.3286E+06              0.    -2.72904E+06
           12806     66.7506E+06     29.3557E+06              0.    -2.69245E+06
           12807     66.7393E+06     29.3821E+06              0.    -2.66130E+06
           12808     66.7281E+06     29.4079E+06              0.    -2.63545E+06
           12809     66.7170E+06     29.4329E+06              0.    -2.61474E+06
           12810     66.7060E+06     29.4574E+06              0.    -2.59905E+06
           12811     66.6950E+06     29.4812E+06              0.    -2.58825E+06
           12812     66.6841E+06     29.5045E+06              0.    -2.58222E+06
           12813     66.6731E+06     29.5272E+06              0.    -2.58085E+06
           12814     66.6621E+06     29.5494E+06              0.    -2.58403E+06
           12815     66.6511E+06     29.5712E+06              0.    -2.59166E+06
           12816     66.6400E+06     29.5925E+06              0.    -2.60364E+06
           12817     66.6289E+06     29.6134E+06              0.    -2.61989E+06
           12818     66.6176E+06     29.6339E+06              0.    -2.64032E+06
           12819     66.6062E+06     29.6540E+06              0.    -2.66485E+06
           12820     66.5947E+06     29.6738E+06              0.    -2.69340E+06
           12821     66.5831E+06     29.6932E+06              0.    -2.72590E+06
           12822     66.5713E+06     29.7124E+06              0.    -2.76230E+06
           12823     66.5593E+06     29.7313E+06              0.    -2.80254E+06
           12824     66.5471E+06     29.7500E+06              0.    -2.84654E+06
           12825     66.5347E+06     29.7685E+06              0.    -2.89428E+06
           12826     66.5221E+06     29.7867E+06              0.    -2.94569E+06
           12827     66.5092E+06     29.8048E+06              0.    -3.00074E+06
           12828     66.4961E+06     29.8227E+06              0.    -3.05939E+06
           12829     66.4827E+06     29.8405E+06              0.    -3.12160E+06
           12830     66.4690E+06     29.8581E+06              0.    -3.18734E+06
           12831     66.4549E+06     29.8757E+06              0.    -3.25660E+06
           12832     66.4406E+06     29.8931E+06              0.    -3.32934E+06
           12833     66.4259E+06     29.9105E+06              0.    -3.40554E+06
           12834     66.4109E+06     29.9279E+06              0.    -3.48519E+06
           12835     66.3955E+06     29.9453E+06              0.    -3.56828E+06
           12836     66.3797E+06     29.9626E+06              0.    -3.65479E+06
           12837     66.3635E+06     29.9799E+06              0.    -3.74473E+06
           12838     66.3470E+06     29.9973E+06              0.    -3.83809E+06
           12839     66.3299E+06     30.0148E+06              0.    -3.93486E+06
           12840     66.3125E+06     30.0322E+06              0.    -4.03506E+06
           12841     66.2945E+06     30.0498E+06              0.    -4.13868E+06
           12842     66.2761E+06     30.0675E+06              0.    -4.24574E+06
           12843     66.2572E+06     30.0852E+06              0.    -4.35625E+06
           12844     66.2378E+06     30.1031E+06              0.    -4.47023E+06
           12845     66.2179E+06     30.1212E+06              0.    -4.58769E+06
           12846     66.1974E+06     30.1394E+06              0.    -4.70865E+06
           12847     66.1764E+06     30.1578E+06              0.    -4.83314E+06
           12848     66.1548E+06     30.1763E+06              0.    -4.96117E+06
           12849     66.1327E+06     30.1951E+06              0.    -5.09279E+06
           12850     66.1099E+06     30.2141E+06              0.    -5.22801E+06
           12851     66.0865E+06     30.2333E+06              0.    -5.36688E+06
           12852     66.0624E+06     30.2528E+06              0.    -5.50942E+06
           12853     66.0377E+06     30.2725E+06              0.    -5.65567E+06
           12854     66.0124E+06     30.2925E+06              0.    -5.80568E+06
           12855     65.9863E+06     30.3128E+06              0.    -5.95949E+06
           12856     65.9595E+06     30.3335E+06              0.    -6.11713E+06
           12857     65.9320E+06     30.3544E+06              0.    -6.27866E+06
           12858     65.9038E+06     30.3757E+06              0.    -6.44412E+06
           12859     65.8748E+06     30.3973E+06              0.    -6.61357E+06
           12860     65.8450E+06     30.4194E+06              0.    -6.78705E+06
           12861     65.8144E+06     30.4418E+06              0.    -6.96463E+06
           12862     65.7829E+06     30.4646E+06              0.    -7.14635E+06
           12863     65.7507E+06     30.4878E+06              0.    -7.33228E+06
           12864     65.7175E+06     30.5114E+06              0.    -7.52248E+06
           12865     65.6835E+06     30.5355E+06              0.    -7.71700E+06
           12866     65.6485E+06     30.5601E+06              0.    -7.91592E+06
           12867     65.6126E+06     30.5851E+06              0.    -8.11929E+06
           12868     65.5757E+06     30.6106E+06              0.    -8.32719E+06
           12869     65.5379E+06     30.6367E+06              0.    -8.53969E+06
           12870     65.4991E+06     30.6632E+06              0.    -8.75685E+06
           12871     65.4592E+06     30.6904E+06              0.    -8.97874E+06
           12872     65.4182E+06     30.7180E+06              0.    -9.20545E+06
           12873     65.3762E+06     30.7463E+06              0.    -9.43704E+06
           12874     65.3331E+06     30.7751E+06              0.    -9.67360E+06
           12875     65.2888E+06     30.8046E+06              0.    -9.91520E+06
           12876     65.2433E+06     30.8347E+06              0.    -10.1619E+06
           12877     65.1967E+06     30.8654E+06              0.    -10.4138E+06
           12878     65.1488E+06     30.8968E+06              0.    -10.6710E+06
           12879     65.0997E+06     30.9289E+06              0.    -10.9336E+06
           12880     65.0493E+06     30.9617E+06              0.    -11.2017E+06
           12881     64.9975E+06     30.9952E+06              0.    -11.4752E+06
           12882     64.9444E+06     31.0295E+06              0.    -11.7544E+06
           12883     64.8899E+06     31.0645E+06              0.    -12.0393E+06
           12884     64.8340E+06     31.1003E+06              0.    -12.3300E+06
           12885     64.7766E+06     31.1370E+06              0.    -12.6267E+06
           12886     64.7177E+06     31.1744E+06              0.    -12.9292E+06
           12887     64.6573E+06     31.2127E+06              0.    -13.2379E+06
           12888     64.5952E+06     31.2518E+06              0.    -13.5527E+06
           12889     64.5316E+06     31.2919E+06              0.    -13.8738E+06
           12890     64.4663E+06     31.3329E+06              0.    -14.2013E+06
           12891     64.3993E+06     31.3748E+06              0.    -14.5352E+06
           12892     64.3305E+06     31.4176E+06              0.    -14.8756E+06
           12893     64.2600E+06     31.4615E+06              0.    -15.2227E+06
           12894     64.1876E+06     31.5064E+06              0.    -15.5765E+06
           12895     64.1133E+06     31.5523E+06              0.    -15.9371E+06
           12896     64.0370E+06     31.5992E+06              0.    -16.3047E+06
           12897     63.9588E+06     31.6473E+06              0.    -16.6792E+06
           12898     63.8785E+06     31.6964E+06              0.    -17.0609E+06
           12899     63.7960E+06     31.7468E+06              0.    -17.4497E+06
           12900     63.7115E+06     31.7982E+06              0.    -17.8459E+06
           12901     63.6246E+06     31.8509E+06              0.    -18.2494E+06
           12902     63.5355E+06     31.9048E+06              0.    -18.6604E+06
           12903     63.4440E+06     31.9600E+06              0.    -19.0790E+06
           12904     63.3501E+06     32.0165E+06              0.    -19.5052E+06
           12905     63.2537E+06     32.0742E+06              0.    -19.9392E+06
           12906     63.1548E+06     32.1334E+06              0.    -20.3810E+06
           12907     63.0532E+06     32.1939E+06              0.    -20.8306E+06
           12908     62.9488E+06     32.2558E+06              0.    -21.2883E+06
           12909     62.8417E+06     32.3192E+06              0.    -21.7541E+06
           12910     62.7317E+06     32.3840E+06              0.    -22.2280E+06
           12911     62.6188E+06     32.4504E+06              0.    -22.7101E+06
           12912     62.5027E+06     32.5183E+06              0.    -23.2005E+06
           12913     62.3836E+06     32.5878E+06              0.    -23.6992E+06
           12914     62.2611E+06     32.6589E+06              0.    -24.2064E+06
           12915     62.1354E+06     32.7317E+06              0.    -24.7221E+06
           12916     62.0062E+06     32.8061E+06              0.    -25.2463E+06
           12917     61.8734E+06     32.8823E+06              0.    -25.7791E+06
           12918     61.7370E+06     32.9603E+06              0.    -26.3205E+06
           12919     61.5968E+06     33.0400E+06              0.    -26.8706E+06
           12920     61.4527E+06     33.1216E+06              0.    -27.4294E+06
           12921     61.3046E+06     33.2051E+06              0.    -27.9969E+06
           12922     61.1523E+06     33.2904E+06              0.    -28.5732E+06
           12923     60.9957E+06     33.3777E+06              0.    -29.1583E+06
           12924     60.8348E+06     33.4670E+06              0.    -29.7522E+06
           12925     60.6692E+06     33.5583E+06              0.    -30.3549E+06
           12926     60.4989E+06     33.6517E+06              0.    -30.9663E+06
           12927     60.3238E+06     33.7471E+06              0.    -31.5866E+06
           12928     60.1436E+06     33.8447E+06              0.    -32.2155E+06
           12929     59.9582E+06     33.9444E+06              0.    -32.8532E+06
           12930     59.7674E+06     34.0463E+06              0.    -33.4995E+06
           12931     59.5711E+06     34.1504E+06              0.    -34.1545E+06
           12932     59.3690E+06     34.2567E+06              0.    -34.8180E+06
           12933     59.1610E+06     34.3653E+06              0.    -35.4899E+06
           12934     58.9468E+06     34.4762E+06              0.    -36.1702E+06
           12935     58.7263E+06     34.5894E+06              0.    -36.8588E+06
           12936     58.4991E+06     34.7050E+06              0.    -37.5555E+06
           12937     58.2652E+06     34.8229E+06              0.    -38.2602E+06
           12938     58.0242E+06     34.9431E+06              0.    -38.9728E+06
           12939     57.7760E+06     35.0657E+06              0.    -39.6930E+06
           12940     57.5201E+06     35.1907E+06              0.    -40.4206E+06
           12941     57.2565E+06     35.3180E+06              0.    -41.1556E+06
           12942     56.9848E+06     35.4477E+06              0.    -41.8976E+06
           12943     56.7048E+06     35.5797E+06              0.    -42.6464E+06
           12944     56.4160E+06     35.7141E+06              0.    -43.4017E+06
           12945     56.1183E+06     35.8507E+06              0.    -44.1633E+06
           12946     55.8114E+06     35.9896E+06              0.    -44.9307E+06
           12947     55.4948E+06     36.1307E+06              0.    -45.7037E+06
           12948     55.1683E+06     36.2739E+06              0.    -46.4819E+06
           12949     54.8315E+06     36.4192E+06              0.    -47.2649E+06
           12950     54.4841E+06     36.5665E+06              0.    -48.0523E+06
           12951     54.1256E+06     36.7157E+06              0.    -48.8436E+06
           12952     53.7557E+06     36.8666E+06              0.    -49.6382E+06
           12953     53.3740E+06     37.0193E+06              0.    -50.4358E+06
           12954     52.9802E+06     37.1734E+06              0.    -51.2358E+06
           12955     52.5737E+06     37.3289E+06              0.    -52.0374E+06
           12956     52.1541E+06     37.4856E+06              0.    -52.8402E+06
           12957     51.7210E+06     37.6432E+06              0.    -53.6435E+06
           12958     51.2740E+06     37.8016E+06              0.    -54.4464E+06
           12959     50.8126E+06     37.9605E+06              0.    -55.2484E+06
           12960     50.3363E+06     38.1196E+06              0.    -56.0485E+06
           12961     49.8445E+06     38.2786E+06              0.    -56.8461E+06
           12962     49.3370E+06     38.4371E+06              0.    -57.6400E+06
           12963     48.8130E+06     38.5948E+06              0.    -58.4296E+06
           12964     48.2721E+06     38.7513E+06              0.    -59.2136E+06
           12965     47.7137E+06     38.9060E+06              0.    -59.9913E+06
           12966     47.1374E+06     39.0586E+06              0.    -60.7613E+06
           12967     46.5426E+06     39.2084E+06              0.    -61.5227E+06
           12968     45.9288E+06     39.3548E+06              0.    -62.2742E+06
           12969     45.2953E+06     39.4973E+06              0.    -63.0145E+06
           12970     44.6417E+06     39.6351E+06              0.    -63.7425E+06
           12971     43.9674E+06     39.7675E+06              0.    -64.4566E+06
           12972     43.2718E+06     39.8936E+06              0.    -65.1555E+06
           12973     42.5544E+06     40.0125E+06              0.    -65.8378E+06
           12974     41.8147E+06     40.1234E+06              0.    -66.5019E+06
           12975     41.0520E+06     40.2251E+06              0.    -67.1461E+06
           12976     40.2660E+06     40.3165E+06              0.    -67.7689E+06
           12977     39.4560E+06     40.3966E+06              0.    -68.3685E+06
           12978     38.6215E+06     40.4639E+06              0.    -68.9431E+06
           12979     37.7622E+06     40.5171E+06              0.    -69.4910E+06
           12980     36.8774E+06     40.5548E+06              0.    -70.0102E+06
           12981     35.9668E+06     40.5754E+06              0.    -70.4988E+06
           12982     35.0300E+06     40.5772E+06              0.    -70.9548E+06
           12983     34.0666E+06     40.5586E+06              0.    -71.3762E+06
           12984     33.0762E+06     40.5175E+06              0.    -71.7608E+06
           12985     32.0585E+06      40.452E+06              0.    -72.1065E+06
           12986     31.0134E+06     40.3600E+06              0.    -72.4112E+06
           12987     29.9405E+06     40.2393E+06              0.    -72.6725E+06
           12988     28.8398E+06     40.0876E+06              0.    -72.8883E+06
           12989     27.7111E+06     39.9023E+06              0.    -73.0563E+06
           12990     26.5544E+06     39.6809E+06              0.    -73.1741E+06
           12991     25.3697E+06     39.4206E+06              0.    -73.2395E+06
           12992     24.1573E+06     39.1186E+06              0.    -73.2501E+06
           12993     22.9171E+06      38.772E+06              0.    -73.2036E+06
           12994     21.6496E+06     38.3776E+06              0.    -73.0976E+06
           12995     20.3551E+06     37.9322E+06              0.    -72.9299E+06
           12996     19.0340E+06     37.4325E+06              0.    -72.6981E+06
           12997     17.6869E+06     36.8750E+06              0.    -72.4000E+06
           12998     16.3143E+06     36.2561E+06              0.    -72.0333E+06
           12999     14.9171E+06     35.5722E+06              0.    -71.5960E+06
           13000     13.4961E+06     34.8195E+06              0.    -71.0859E+06
           13001     12.0522E+06     33.9942E+06              0.    -70.5009E+06
           13002     10.5864E+06     33.0922E+06              0.    -69.8391E+06
           13003     9.09992E+06     32.1097E+06              0.    -69.0987E+06
           13004     7.59400E+06     31.0425E+06              0.    -68.2778E+06
           13005     6.06999E+06     29.8865E+06              0.    -67.3749E+06
           13006     4.52935E+06     28.6375E+06              0.    -66.3884E+06
           13007     2.97364E+06     27.2915E+06              0.    -65.3168E+06
           13008     1.40450E+06     25.8443E+06              0.    -64.1591E+06
           13009    -176.307E+03     24.2917E+06              0.    -62.9139E+06
           13010    -1.76696E+06     22.6296E+06              0.    -61.5803E+06
           13011    -3.36553E+06     20.8540E+06              0.    -60.1575E+06
           13012    -4.97005E+06     18.9609E+06              0.    -58.6449E+06
           13013    -6.57844E+06     16.9464E+06              0.    -57.0419E+06
           13014    -8.18857E+06     14.8068E+06              0.    -55.3483E+06
           13015    -9.79827E+06     12.5384E+06              0.    -53.5637E+06
           13016    -11.4053E+06     10.1376E+06              0.    -51.6883E+06
           13017    -13.0073E+06     7.60121E+06              0.    -49.7223E+06
           13018    -14.6019E+06     4.92600E+06              0.    -47.6661E+06
           13019    -16.1861E+06     2.10953E+06              0.    -45.5201E+06
           13020    -17.7513E+06    -1.29518E+06              0.    -44.6256E+06
           13021     66.6513E+06      29.248E+06              0.    -2.72090E+06
           13022     66.6551E+06     29.2893E+06              0.    -2.71597E+06
           13023     66.6414E+06     29.3218E+06              0.    -2.67955E+06
           13024     66.6279E+06     29.3535E+06              0.    -2.64855E+06
           13025     66.6144E+06     29.3843E+06              0.    -2.62281E+06
           13026     66.6011E+06     29.4143E+06              0.    -2.60219E+06
           13027     66.5879E+06     29.4436E+06              0.    -2.58657E+06
           13028     66.5747E+06     29.4721E+06              0.    -2.57582E+06
           13029     66.5615E+06     29.5000E+06              0.    -2.56981E+06
           13030     66.5484E+06     29.5272E+06              0.    -2.56844E+06
           13031     66.5352E+06     29.5538E+06              0.    -2.57160E+06
           13032     66.5219E+06     29.5799E+06              0.    -2.57918E+06
           13033     66.5086E+06     29.6054E+06              0.    -2.59110E+06
           13034     66.4952E+06     29.6304E+06              0.    -2.60726E+06
           13035     66.4817E+06     29.6549E+06              0.    -2.62758E+06
           13036     66.4681E+06     29.6790E+06              0.    -2.65198E+06
           13037     66.4543E+06     29.7027E+06              0.    -2.68039E+06
           13038     66.4403E+06     29.7259E+06              0.    -2.71273E+06
           13039     66.4262E+06     29.7489E+06              0.    -2.74894E+06
           13040     66.4118E+06     29.7715E+06              0.    -2.78897E+06
           13041     66.3972E+06     29.7938E+06              0.    -2.83275E+06
           13042     66.3823E+06     29.8159E+06              0.    -2.88024E+06
           13043     66.3672E+06     29.8377E+06              0.    -2.93139E+06
           13044     66.3518E+06     29.8593E+06              0.    -2.98616E+06
           13045     66.3360E+06     29.8807E+06              0.    -3.04451E+06
           13046     66.3200E+06     29.9019E+06              0.    -3.10641E+06
           13047     66.3035E+06     29.9230E+06              0.    -3.17182E+06
           13048     66.2867E+06     29.9439E+06              0.    -3.24072E+06
           13049     66.2696E+06     29.9648E+06              0.    -3.31309E+06
           13050     66.2520E+06     29.9855E+06              0.    -3.38891E+06
           13051     66.2340E+06     30.0063E+06              0.    -3.46815E+06
           13052     66.2155E+06     30.0269E+06              0.    -3.55082E+06
           13053     66.1966E+06     30.0476E+06              0.    -3.63689E+06
           13054     66.1773E+06     30.0683E+06              0.    -3.72637E+06
           13055     66.1574E+06     30.0890E+06              0.    -3.81925E+06
           13056     66.1370E+06     30.1097E+06              0.    -3.91552E+06
           13057     66.1161E+06     30.1305E+06              0.    -4.01520E+06
           13058     66.0947E+06     30.1514E+06              0.    -4.11830E+06
           13059     66.0726E+06     30.1724E+06              0.    -4.22481E+06
           13060     66.0500E+06     30.1936E+06              0.    -4.33475E+06
           13061     66.0268E+06     30.2148E+06              0.    -4.44814E+06
           13062     66.0030E+06     30.2363E+06              0.    -4.56499E+06
           13063     65.9785E+06     30.2579E+06              0.    -4.68532E+06
           13064     65.9533E+06     30.2797E+06              0.    -4.80916E+06
           13065     65.9275E+06     30.3017E+06              0.    -4.93652E+06
           13066     65.9010E+06     30.3240E+06              0.    -5.06745E+06
           13067     65.8737E+06     30.3465E+06              0.    -5.20196E+06
           13068     65.8458E+06     30.3692E+06              0.    -5.34009E+06
           13069      65.817E+06     30.3923E+06              0.    -5.48188E+06
           13070     65.7875E+06     30.4156E+06              0.    -5.62736E+06
           13071     65.7571E+06     30.4393E+06              0.    -5.77657E+06
           13072     65.7260E+06     30.4633E+06              0.    -5.92956E+06
           13073     65.6940E+06     30.4877E+06              0.    -6.08636E+06
           13074     65.6611E+06     30.5124E+06              0.    -6.24702E+06
           13075     65.6274E+06     30.5375E+06              0.    -6.41159E+06
           13076     65.5927E+06     30.5631E+06              0.    -6.58012E+06
           13077     65.5571E+06     30.5890E+06              0.    -6.75266E+06
           13078     65.5206E+06     30.6154E+06              0.    -6.92926E+06
           13079     65.4830E+06     30.6422E+06              0.    -7.10999E+06
           13080     65.4445E+06     30.6696E+06              0.    -7.29490E+06
           13081     65.4049E+06     30.6974E+06              0.    -7.48404E+06
           13082     65.3643E+06     30.7257E+06              0.    -7.67749E+06
           13083     65.3225E+06     30.7545E+06              0.    -7.87529E+06
           13084     65.2797E+06     30.7839E+06              0.    -8.07753E+06
           13085     65.2357E+06     30.8138E+06              0.    -8.28425E+06
           13086     65.1906E+06     30.8443E+06              0.    -8.49554E+06
           13087     65.1443E+06     30.8754E+06              0.    -8.71147E+06
           13088     65.0967E+06     30.9072E+06              0.    -8.93209E+06
           13089     65.0479E+06     30.9395E+06              0.    -9.15749E+06
           13090     64.9979E+06     30.9725E+06              0.    -9.38775E+06
           13091     64.9465E+06     31.0062E+06              0.    -9.62292E+06
           13092     64.8937E+06     31.0406E+06              0.    -9.86311E+06
           13093     64.8396E+06     31.0757E+06              0.    -10.1084E+06
           13094     64.7841E+06     31.1115E+06              0.    -10.3588E+06
           13095     64.7271E+06     31.1480E+06              0.    -10.6145E+06
           13096     64.6687E+06     31.1853E+06              0.    -10.8755E+06
           13097     64.6087E+06     31.2234E+06              0.    -11.1419E+06
           13098     64.5472E+06     31.2623E+06              0.    -11.4138E+06
           13099     64.4840E+06     31.3020E+06              0.    -11.6913E+06
           13100     64.4193E+06     31.3426E+06              0.    -11.9744E+06
           13101     64.3529E+06     31.3841E+06              0.    -12.2633E+06
           13102     64.2847E+06     31.4264E+06              0.    -12.5581E+06
           13103     64.2148E+06     31.4697E+06              0.    -12.8587E+06
           13104     64.1431E+06     31.5139E+06              0.    -13.1654E+06
           13105     64.0696E+06     31.5590E+06              0.    -13.4782E+06
           13106     63.9942E+06     31.6051E+06              0.    -13.7973E+06
           13107     63.9168E+06     31.6523E+06              0.    -14.1226E+06
           13108     63.8375E+06     31.7004E+06              0.    -14.4543E+06
           13109     63.7561E+06     31.7496E+06              0.    -14.7924E+06
           13110     63.6726E+06     31.7999E+06              0.    -15.1372E+06
           13111     63.5870E+06     31.8513E+06              0.    -15.4886E+06
           13112     63.4992E+06     31.9038E+06              0.    -15.8467E+06
           13113     63.4091E+06     31.9575E+06              0.    -16.2117E+06
           13114     63.3167E+06     32.0123E+06              0.    -16.5837E+06
           13115     63.2220E+06     32.0684E+06              0.    -16.9626E+06
           13116     63.1248E+06     32.1256E+06              0.    -17.3487E+06
           13117     63.0251E+06     32.1842E+06              0.    -17.7420E+06
           13118     62.9229E+06     32.2440E+06              0.    -18.1426E+06
           13119     62.8180E+06     32.3051E+06              0.    -18.5506E+06
           13120     62.7104E+06     32.3676E+06              0.    -18.9660E+06
           13121     62.6001E+06     32.4314E+06              0.    -19.3891E+06
           13122     62.4869E+06     32.4967E+06              0.    -19.8197E+06
           13123     62.3708E+06     32.5634E+06              0.    -20.2581E+06
           13124     62.2516E+06     32.6315E+06              0.    -20.7043E+06
           13125     62.1294E+06     32.7011E+06              0.    -21.1583E+06
           13126     62.0040E+06     32.7722E+06              0.    -21.6203E+06
           13127     61.8754E+06     32.8449E+06              0.    -22.0904E+06
           13128     61.7434E+06     32.9192E+06              0.    -22.5685E+06
           13129     61.6079E+06     32.9951E+06              0.    -23.0549E+06
           13130     61.4689E+06     33.0726E+06              0.    -23.5494E+06
           13131     61.3262E+06     33.1518E+06              0.    -24.0523E+06
           13132     61.1798E+06     33.2327E+06              0.    -24.5634E+06
           13133     61.0296E+06     33.3153E+06              0.    -25.0830E+06
           13134     60.8753E+06     33.3997E+06              0.    -25.6110E+06
           13135     60.7170E+06     33.4859E+06              0.    -26.1475E+06
           13136     60.5545E+06     33.5740E+06              0.    -26.6926E+06
           13137     60.3876E+06     33.6639E+06              0.    -27.2462E+06
           13138     60.2163E+06     33.7557E+06              0.    -27.8083E+06
           13139     60.0404E+06     33.8494E+06              0.    -28.3791E+06
           13140     59.8598E+06     33.9450E+06              0.    -28.9584E+06
           13141     59.6742E+06     34.0427E+06              0.    -29.5464E+06
           13142     59.4837E+06     34.1423E+06              0.    -30.1430E+06
           13143     59.2880E+06     34.2440E+06              0.    -30.7481E+06
           13144     59.0869E+06     34.3477E+06              0.    -31.3619E+06
           13145     58.8803E+06     34.4536E+06              0.    -31.9842E+06
           13146     58.6681E+06     34.5615E+06              0.    -32.6149E+06
           13147     58.4500E+06     34.6716E+06              0.    -33.2541E+06
           13148     58.2259E+06     34.7838E+06              0.    -33.9017E+06
           13149     57.9955E+06     34.8981E+06              0.    -34.5576E+06
           13150     57.7587E+06     35.0147E+06              0.    -35.2217E+06
           13151     57.5153E+06     35.1334E+06              0.    -35.8940E+06
           13152     57.2651E+06     35.2543E+06              0.    -36.5742E+06
           13153     57.0078E+06     35.3774E+06              0.    -37.2623E+06
           13154     56.7432E+06     35.5027E+06              0.    -37.9581E+06
           13155     56.4711E+06     35.6302E+06              0.    -38.6615E+06
           13156     56.1912E+06     35.7599E+06              0.    -39.3723E+06
           13157     55.9033E+06     35.8918E+06              0.    -40.0903E+06
           13158     55.6072E+06     36.0258E+06              0.    -40.8152E+06
           13159     55.3024E+06     36.1619E+06              0.    -41.5469E+06
           13160     54.9889E+06     36.3000E+06              0.    -42.2850E+06
           13161     54.6662E+06     36.4403E+06              0.    -43.0293E+06
           13162     54.3342E+06     36.5825E+06              0.    -43.7796E+06
           13163     53.9924E+06     36.7266E+06              0.    -44.5354E+06
           13164     53.6405E+06     36.8726E+06              0.    -45.2964E+06
           13165     53.2783E+06     37.0203E+06              0.    -46.0622E+06
           13166     52.9054E+06     37.1698E+06              0.    -46.8325E+06
           13167     52.5215E+06     37.3207E+06              0.    -47.6068E+06
           13168     52.1261E+06     37.4732E+06              0.    -48.3846E+06
           13169     51.7189E+06     37.6269E+06              0.    -49.1654E+06
           13170     51.2996E+06     37.7817E+06              0.    -49.9488E+06
           13171     50.8677E+06     37.9376E+06              0.    -50.7341E+06
           13172     50.4229E+06     38.0942E+06              0.    -51.5207E+06
           13173     49.9647E+06     38.2513E+06              0.    -52.3081E+06
           13174     49.4928E+06     38.4088E+06              0.    -53.0954E+06
           13175     49.0066E+06     38.5663E+06              0.    -53.8822E+06
           13176     48.5057E+06     38.7236E+06              0.    -54.6675E+06
           13177     47.9898E+06     38.8803E+06              0.    -55.4505E+06
           13178     47.4582E+06     39.0361E+06              0.    -56.2306E+06
           13179     46.9107E+06     39.1906E+06              0.    -57.0066E+06
           13180     46.3466E+06     39.3434E+06              0.    -57.7779E+06
           13181     45.7655E+06     39.4940E+06              0.    -58.5432E+06
           13182     45.1670E+06     39.6419E+06              0.    -59.3017E+06
           13183     44.5505E+06     39.7866E+06              0.    -60.0523E+06
           13184     43.9154E+06     39.9275E+06              0.    -60.7938E+06
           13185     43.2615E+06     40.0639E+06              0.    -61.5250E+06
           13186     42.5880E+06     40.1952E+06              0.    -62.2448E+06
           13187     41.8946E+06     40.3206E+06              0.    -62.9518E+06
           13188     41.1806E+06     40.4393E+06              0.    -63.6447E+06
           13189     40.4457E+06     40.5505E+06              0.    -64.3221E+06
           13190     39.6893E+06     40.6531E+06              0.    -64.9825E+06
           13191     38.9109E+06     40.7463E+06              0.    -65.6245E+06
           13192     38.1101E+06     40.8289E+06              0.    -66.2465E+06
           13193     37.2863E+06     40.8997E+06              0.    -66.8468E+06
           13194     36.4392E+06     40.9576E+06              0.    -67.4238E+06
           13195     35.5683E+06     41.0013E+06              0.    -67.9758E+06
           13196     34.6731E+06     41.0292E+06              0.    -68.5009E+06
           13197     33.7534E+06     41.0400E+06              0.    -68.9974E+06
           13198     32.8086E+06     41.0320E+06              0.    -69.4633E+06
           13199     31.8385E+06     41.0036E+06              0.    -69.8967E+06
           13200     30.8428E+06     40.9529E+06              0.    -70.2956E+06
           13201     29.8212E+06     40.8780E+06              0.    -70.6580E+06
           13202     28.7735E+06     40.7770E+06              0.    -70.9818E+06
           13203     27.6995E+06     40.6477E+06              0.    -71.2649E+06
           13204     26.5991E+06     40.4878E+06              0.    -71.5052E+06
           13205     25.4721E+06     40.2951E+06              0.    -71.7004E+06
           13206     24.3187E+06     40.0671E+06              0.    -71.8485E+06
           13207     23.1387E+06     39.8011E+06              0.    -71.9472E+06
           13208     21.9324E+06     39.4946E+06              0.    -71.9941E+06
           13209     20.6999E+06     39.1445E+06              0.    -71.9872E+06
           13210     19.4415E+06     38.7481E+06              0.    -71.9242E+06
           13211     18.1575E+06     38.3022E+06              0.    -71.8029E+06
           13212     16.8483E+06     37.8037E+06              0.    -71.6210E+06
           13213     15.5144E+06     37.2493E+06              0.    -71.3764E+06
           13214     14.1565E+06     36.6355E+06              0.    -71.0669E+06
           13215     12.7751E+06     35.9590E+06              0.    -70.6904E+06
           13216     11.3711E+06     35.2160E+06              0.    -70.2448E+06
           13217     9.94533E+06     34.4030E+06              0.    -69.7282E+06
           13218     8.49879E+06     33.5162E+06              0.    -69.1386E+06
           13219     7.03252E+06     32.5516E+06              0.    -68.4742E+06
           13220     5.54770E+06     31.5055E+06              0.    -67.7331E+06
           13221     4.04559E+06     30.3740E+06              0.    -66.9138E+06
           13222     2.52756E+06     29.1529E+06              0.    -66.0146E+06
           13223     995.053E+03     27.8383E+06              0.    -65.0342E+06
           13224    -550.383E+03     26.4262E+06              0.    -63.9711E+06
           13225    -2.10711E+06     24.9125E+06              0.    -62.8242E+06
           13226    -3.67339E+06     23.2934E+06              0.    -61.5924E+06
           13227    -5.24743E+06     21.5647E+06              0.    -60.2748E+06
           13228    -6.82735E+06     19.7228E+06              0.    -58.8706E+06
           13229    -8.41120E+06     17.7636E+06              0.    -57.3791E+06
           13230    -9.99696E+06     15.6834E+06              0.    -55.8000E+06
           13231    -11.5825E+06     13.4787E+06              0.    -54.1327E+06
           13232    -13.1659E+06     11.1459E+06              0.    -52.3773E+06
           13233    -14.7448E+06     8.68166E+06              0.    -50.5336E+06
           13234    -16.3172E+06     6.08270E+06              0.    -48.6018E+06
           13235    -17.8817E+06     3.34584E+06              0.    -46.5822E+06
           13236    -19.4371E+06     468.354E+03              0.    -44.4752E+06
           13237    -21.0113E+06    -2.99842E+06              0.    -43.5888E+06
           13238     66.5444E+06     29.2022E+06              0.    -2.70552E+06
           13239     66.5488E+06     29.2503E+06              0.    -2.70061E+06
           13240     66.5328E+06     29.2881E+06              0.    -2.66439E+06
           13241      66.517E+06     29.3250E+06              0.    -2.63356E+06
           13242     66.5013E+06     29.3609E+06              0.    -2.60796E+06
           13243     66.4858E+06     29.3958E+06              0.    -2.58745E+06
           13244     66.4703E+06     29.4299E+06              0.    -2.57191E+06
           13245     66.4550E+06     29.4631E+06              0.    -2.56121E+06
           13246     66.4396E+06     29.4955E+06              0.    -2.55523E+06
           13247     66.4243E+06     29.5272E+06              0.    -2.55386E+06
           13248     66.4089E+06     29.5582E+06              0.    -2.55700E+06
           13249     66.3934E+06     29.5885E+06              0.    -2.56453E+06
           13250     66.3779E+06     29.6182E+06              0.    -2.57637E+06
           13251     66.3623E+06     29.6473E+06              0.    -2.59243E+06
           13252     66.3466E+06     29.6758E+06              0.    -2.61263E+06
           13253     66.3307E+06     29.7038E+06              0.    -2.63688E+06
           13254     66.3146E+06     29.7314E+06              0.    -2.66511E+06
           13255     66.2984E+06     29.7585E+06              0.    -2.69726E+06
           13256     66.2819E+06     29.7851E+06              0.    -2.73326E+06
           13257     66.2651E+06     29.8114E+06              0.    -2.77304E+06
           13258     66.2481E+06     29.8374E+06              0.    -2.81657E+06
           13259     66.2308E+06     29.8630E+06              0.    -2.86377E+06
           13260     66.2131E+06     29.8884E+06              0.    -2.91462E+06
           13261     66.1952E+06     29.9135E+06              0.    -2.96907E+06
           13262     66.1768E+06     29.9383E+06              0.    -3.02707E+06
           13263     66.1581E+06     29.9630E+06              0.    -3.08860E+06
           13264     66.1390E+06     29.9875E+06              0.    -3.15362E+06
           13265     66.1194E+06     30.0118E+06              0.    -3.22212E+06
           13266     66.0994E+06     30.0360E+06              0.    -3.29405E+06
           13267     66.0790E+06     30.0601E+06              0.    -3.36942E+06
           13268     66.0580E+06     30.0842E+06              0.    -3.44819E+06
           13269     66.0366E+06     30.1082E+06              0.    -3.53036E+06
           13270     66.0146E+06     30.1321E+06              0.    -3.61592E+06
           13271     65.9920E+06     30.1561E+06              0.    -3.70487E+06
           13272     65.9689E+06     30.1801E+06              0.    -3.79719E+06
           13273     65.9452E+06     30.2042E+06              0.    -3.89289E+06
           13274     65.9208E+06     30.2283E+06              0.    -3.99197E+06
           13275     65.8959E+06     30.2525E+06              0.    -4.09445E+06
           13276     65.8702E+06     30.2768E+06              0.    -4.20031E+06
           13277     65.8439E+06     30.3013E+06              0.    -4.30959E+06
           13278     65.8169E+06     30.3259E+06              0.    -4.42230E+06
           13279     65.7892E+06     30.3507E+06              0.    -4.53844E+06
           13280     65.7607E+06     30.3757E+06              0.    -4.65804E+06
           13281     65.7315E+06     30.4009E+06              0.    -4.78113E+06
           13282     65.7014E+06     30.4264E+06              0.    -4.90772E+06
           13283     65.6706E+06     30.4521E+06              0.    -5.03784E+06
           13284     65.6389E+06     30.4781E+06              0.    -5.17153E+06
           13285     65.6064E+06     30.5044E+06              0.    -5.30882E+06
           13286     65.5729E+06     30.5310E+06              0.    -5.44974E+06
           13287     65.5386E+06     30.5580E+06              0.    -5.59432E+06
           13288     65.5034E+06     30.5853E+06              0.    -5.74261E+06
           13289     65.4671E+06     30.6129E+06              0.    -5.89464E+06
           13290     65.4299E+06     30.6410E+06              0.    -6.05047E+06
           13291     65.3918E+06     30.6695E+06              0.    -6.21012E+06
           13292     65.3525E+06     30.6984E+06              0.    -6.37366E+06
           13293     65.3123E+06     30.7278E+06              0.    -6.54114E+06
           13294     65.2709E+06     30.7577E+06              0.    -6.71259E+06
           13295     65.2284E+06     30.7880E+06              0.    -6.88808E+06
           13296     65.1848E+06     30.8189E+06              0.    -7.06766E+06
           13297     65.1401E+06     30.8503E+06              0.    -7.25139E+06
           13298     65.0941E+06     30.8822E+06              0.    -7.43933E+06
           13299     65.0469E+06     30.9147E+06              0.    -7.63153E+06
           13300     64.9985E+06     30.9478E+06              0.    -7.82806E+06
           13301     64.9488E+06     30.9815E+06              0.    -8.02899E+06
           13302     64.8977E+06     31.0158E+06              0.    -8.23437E+06
           13303     64.8454E+06     31.0507E+06              0.    -8.44428E+06
           13304     64.7916E+06     31.0864E+06              0.    -8.65879E+06
           13305     64.7365E+06     31.1227E+06              0.    -8.87796E+06
           13306     64.6799E+06     31.1597E+06              0.    -9.10187E+06
           13307     64.6218E+06     31.1974E+06              0.    -9.33059E+06
           13308     64.5622E+06     31.2359E+06              0.     -9.5642E+06
           13309     64.5011E+06     31.2751E+06              0.    -9.80277E+06
           13310     64.4384E+06     31.3151E+06              0.    -10.0464E+06
           13311     64.3740E+06     31.3559E+06              0.    -10.2951E+06
           13312     64.3080E+06     31.3976E+06              0.    -10.5490E+06
           13313     64.2403E+06     31.4401E+06              0.    -10.8082E+06
           13314     64.1709E+06     31.4834E+06              0.    -11.0728E+06
           13315     64.0996E+06     31.5277E+06              0.    -11.3428E+06
           13316     64.0266E+06     31.5728E+06              0.    -11.6184E+06
           13317     63.9517E+06     31.6189E+06              0.    -11.8995E+06
           13318     63.8748E+06     31.6660E+06              0.    -12.1864E+06
           13319     63.7960E+06     31.7140E+06              0.    -12.4790E+06
           13320     63.7152E+06     31.7630E+06              0.    -12.7775E+06
           13321     63.6324E+06     31.8130E+06              0.    -13.0820E+06
           13322     63.5474E+06     31.8641E+06              0.    -13.3925E+06
           13323     63.4603E+06     31.9162E+06              0.    -13.7092E+06
           13324     63.3710E+06     31.9695E+06              0.    -14.0321E+06
           13325     63.2794E+06     32.0238E+06              0.    -14.3613E+06
           13326     63.1855E+06     32.0793E+06              0.    -14.6970E+06
           13327     63.0892E+06     32.1360E+06              0.    -15.0391E+06
           13328     62.9905E+06     32.1938E+06              0.    -15.3878E+06
           13329     62.8893E+06     32.2529E+06              0.    -15.7432E+06
           13330     62.7856E+06     32.3131E+06              0.    -16.1054E+06
           13331     62.6792E+06     32.3747E+06              0.    -16.4744E+06
           13332     62.5701E+06     32.4375E+06              0.    -16.8504E+06
           13333     62.4583E+06     32.5017E+06              0.    -17.2334E+06
           13334     62.3437E+06     32.5672E+06              0.    -17.6235E+06
           13335     62.2262E+06     32.6341E+06              0.    -18.0208E+06
           13336     62.1057E+06     32.7023E+06              0.    -18.4255E+06
           13337     61.9822E+06     32.7720E+06              0.    -18.8375E+06
           13338     61.8556E+06     32.8432E+06              0.    -19.2570E+06
           13339     61.7258E+06     32.9158E+06              0.    -19.6840E+06
           13340     61.5927E+06     32.9899E+06              0.    -20.1186E+06
           13341     61.4562E+06     33.0655E+06              0.    -20.5609E+06
           13342     61.3163E+06     33.1427E+06              0.    -21.0110E+06
           13343     61.1728E+06     33.2215E+06              0.    -21.4689E+06
           13344     61.0257E+06     33.3020E+06              0.    -21.9348E+06
           13345     60.8749E+06     33.3840E+06              0.    -22.4086E+06
           13346     60.7202E+06     33.4677E+06              0.    -22.8905E+06
           13347     60.5616E+06     33.5532E+06              0.    -23.3804E+06
           13348     60.3990E+06     33.6403E+06              0.    -23.8785E+06
           13349     60.2322E+06     33.7292E+06              0.    -24.3848E+06
           13350     60.0611E+06     33.8199E+06              0.    -24.8994E+06
           13351     59.8857E+06     33.9124E+06              0.    -25.4223E+06
           13352     59.7058E+06     34.0067E+06              0.    -25.9535E+06
           13353     59.5212E+06     34.1029E+06              0.    -26.4931E+06
           13354     59.3319E+06     34.2010E+06              0.    -27.0410E+06
           13355     59.1377E+06     34.3009E+06              0.    -27.5974E+06
           13356     58.9384E+06     34.4028E+06              0.    -28.1622E+06
           13357     58.7340E+06     34.5067E+06              0.    -28.7354E+06
           13358     58.5243E+06     34.6125E+06              0.    -29.3170E+06
           13359     58.3091E+06     34.7203E+06              0.    -29.9070E+06
           13360     58.0883E+06     34.8302E+06              0.    -30.5055E+06
           13361     57.8618E+06     34.9420E+06              0.    -31.1123E+06
           13362     57.6292E+06     35.0559E+06              0.    -31.7274E+06
           13363     57.3905E+06     35.1719E+06              0.    -32.3509E+06
           13364     57.1456E+06     35.2899E+06              0.    -32.9825E+06
           13365     56.8941E+06     35.4100E+06              0.    -33.6223E+06
           13366     56.6359E+06     35.5322E+06              0.    -34.2702E+06
           13367     56.3709E+06     35.6564E+06              0.    -34.9260E+06
           13368     56.0988E+06     35.7828E+06              0.    -35.5897E+06
           13369     55.8194E+06     35.9111E+06              0.    -36.2612E+06
           13370     55.5324E+06     36.0416E+06              0.    -36.9403E+06
           13371     55.2378E+06     36.1741E+06              0.    -37.6268E+06
           13372     54.9351E+06     36.3086E+06              0.    -38.3206E+06
           13373     54.6242E+06     36.4451E+06              0.    -39.0215E+06
           13374     54.3049E+06     36.5836E+06              0.    -39.7293E+06
           13375     53.9768E+06     36.7239E+06              0.    -40.4438E+06
           13376     53.6397E+06     36.8662E+06              0.    -41.1647E+06
           13377     53.2934E+06     37.0103E+06              0.    -41.8918E+06
           13378     52.9375E+06     37.1561E+06              0.    -42.6248E+06
           13379     52.5718E+06     37.3036E+06              0.    -43.3633E+06
           13380     52.1959E+06     37.4527E+06              0.    -44.1070E+06
           13381     51.8096E+06     37.6033E+06              0.    -44.8557E+06
           13382     51.4126E+06     37.7552E+06              0.    -45.6088E+06
           13383     51.0044E+06     37.9085E+06              0.    -46.3660E+06
           13384     50.5848E+06     38.0628E+06              0.    -47.1268E+06
           13385     50.1534E+06     38.2182E+06              0.    -47.8908E+06
           13386     49.7100E+06     38.3743E+06              0.    -48.6575E+06
           13387     49.2540E+06     38.5311E+06              0.    -49.4263E+06
           13388     48.7851E+06     38.6883E+06              0.    -50.1967E+06
           13389     48.3030E+06     38.8457E+06              0.    -50.9680E+06
           13390     47.8072E+06     39.0030E+06              0.    -51.7397E+06
           13391     47.2975E+06     39.1599E+06              0.    -52.5110E+06
           13392     46.7732E+06     39.3163E+06              0.    -53.2813E+06
           13393     46.2341E+06     39.4716E+06              0.    -54.0498E+06
           13394     45.6797E+06     39.6257E+06              0.    -54.8156E+06
           13395     45.1096E+06     39.7780E+06              0.    -55.5780E+06
           13396     44.5233E+06     39.9281E+06              0.    -56.3361E+06
           13397     43.9205E+06     40.0757E+06              0.    -57.0890E+06
           13398     43.3006E+06     40.2202E+06              0.    -57.8356E+06
           13399     42.6632E+06     40.3610E+06              0.    -58.5750E+06
           13400     42.0078E+06     40.4976E+06              0.    -59.3062E+06
           13401     41.3340E+06     40.6293E+06              0.    -60.0279E+06
           13402     40.6414E+06     40.7555E+06              0.    -60.7390E+06
           13403     39.9294E+06     40.8754E+06              0.    -61.4383E+06
           13404     39.1976E+06     40.9882E+06              0.    -62.1246E+06
           13405     38.4456E+06     41.0931E+06              0.    -62.7965E+06
           13406     37.6729E+06     41.1892E+06              0.    -63.4527E+06
           13407     36.8791E+06     41.2755E+06              0.    -64.0916E+06
           13408     36.0637E+06     41.3509E+06              0.    -64.7120E+06
           13409     35.2263E+06     41.4143E+06              0.    -65.3121E+06
           13410     34.3666E+06     41.4646E+06              0.    -65.8905E+06
           13411     33.4840E+06     41.5004E+06              0.    -66.4454E+06
           13412     32.5783E+06     41.5205E+06              0.    -66.9753E+06
           13413     31.6491E+06     41.5233E+06              0.    -67.4783E+06
           13414     30.6960E+06     41.5074E+06              0.    -67.9527E+06
           13415     29.7188E+06     41.4711E+06              0.    -68.3967E+06
           13416     28.7172E+06     41.4126E+06              0.    -68.8083E+06
           13417     27.6909E+06     41.3303E+06              0.    -69.1856E+06
           13418     26.6399E+06     41.2221E+06              0.    -69.5267E+06
           13419     25.5638E+06     41.0860E+06              0.    -69.8296E+06
           13420     24.4626E+06     40.9199E+06              0.    -70.0922E+06
           13421     23.3363E+06     40.7216E+06              0.    -70.3124E+06
           13422     22.1848E+06     40.4887E+06              0.    -70.4883E+06
           13423     21.0082E+06     40.2187E+06              0.    -70.6176E+06
           13424     19.8066E+06     39.9091E+06              0.    -70.6982E+06
           13425     18.5801E+06     39.5572E+06              0.    -70.7280E+06
           13426     17.3291E+06     39.1602E+06              0.    -70.7049E+06
           13427     16.0538E+06     38.7151E+06              0.    -70.6267E+06
           13428     14.7547E+06     38.2189E+06              0.    -70.4913E+06
           13429     13.4321E+06     37.6686E+06              0.    -70.2966E+06
           13430     12.0867E+06     37.0609E+06              0.    -70.0405E+06
           13431     10.7191E+06     36.3924E+06              0.    -69.7209E+06
           13432     9.32998E+06     35.6598E+06              0.    -69.3359E+06
           13433     7.92021E+06     34.8594E+06              0.    -68.8835E+06
           13434     6.49067E+06     33.9878E+06              0.    -68.3617E+06
           13435     5.04236E+06     33.0413E+06              0.    -67.7688E+06
           13436     3.57637E+06     32.0160E+06              0.    -67.1030E+06
           13437     2.09388E+06     30.9083E+06              0.    -66.3625E+06
           13438     596.162E+03     29.7143E+06              0.    -65.5459E+06
           13439    -915.420E+03     28.4302E+06              0.    -64.6517E+06
           13440    -2.43941E+06     27.0520E+06              0.    -63.6784E+06
           13441    -3.97428E+06     25.5759E+06              0.    -62.6249E+06
           13442    -5.51840E+06     23.9980E+06              0.    -61.4899E+06
           13443    -7.07007E+06     22.3144E+06              0.    -60.2724E+06
           13444    -8.62751E+06     20.5214E+06              0.    -58.9716E+06
           13445    -10.1889E+06     18.6151E+06              0.    -57.5868E+06
           13446    -11.7523E+06     16.5920E+06              0.    -56.1172E+06
           13447    -13.3157E+06     14.4482E+06              0.    -54.5625E+06
           13448    -14.8771E+06     12.1805E+06              0.    -52.9223E+06
           13449    -16.4344E+06     9.78531E+06              0.    -51.1964E+06
           13450    -17.9856E+06     7.25951E+06              0.    -49.3848E+06
           13451    -19.5285E+06     4.59998E+06              0.    -47.4875E+06
           13452    -21.0607E+06     1.80407E+06              0.    -45.5045E+06
           13453    -22.5791E+06    -1.13088E+06              0.    -43.4364E+06
           13454    -24.1524E+06    -4.65106E+06              0.    -42.5594E+06
           13455     66.4381E+06     29.1567E+06              0.    -2.68785E+06
           13456     66.4432E+06     29.2114E+06              0.    -2.68297E+06
           13457     66.4249E+06     29.2546E+06              0.    -2.64698E+06
           13458     66.4068E+06     29.2966E+06              0.    -2.61634E+06
           13459     66.3889E+06     29.3375E+06              0.    -2.59091E+06
           13460     66.3712E+06     29.3774E+06              0.    -2.57053E+06
           13461     66.3536E+06     29.4162E+06              0.    -2.55508E+06
           13462     66.3360E+06     29.4541E+06              0.    -2.54445E+06
           13463     66.3184E+06     29.4911E+06              0.    -2.53850E+06
           13464     66.3009E+06     29.5272E+06              0.    -2.53713E+06
           13465     66.2834E+06     29.5625E+06              0.    -2.54024E+06
           13466     66.2658E+06     29.5970E+06              0.    -2.54771E+06
           13467     66.2481E+06     29.6309E+06              0.    -2.55947E+06
           13468     66.2302E+06     29.6640E+06              0.    -2.57542E+06
           13469     66.2123E+06     29.6966E+06              0.    -2.59547E+06
           13470     66.1942E+06     29.7285E+06              0.    -2.61955E+06
           13471     66.1758E+06     29.7599E+06              0.    -2.64759E+06
           13472     66.1572E+06     29.7907E+06              0.    -2.67952E+06
           13473     66.1384E+06     29.8211E+06              0.    -2.71527E+06
           13474     66.1193E+06     29.8511E+06              0.    -2.75478E+06
           13475     66.0999E+06     29.8807E+06              0.    -2.79801E+06
           13476     66.0802E+06     29.9099E+06              0.    -2.84489E+06
           13477     66.0600E+06     29.9387E+06              0.    -2.89539E+06
           13478     66.0395E+06     29.9673E+06              0.    -2.94947E+06
           13479     66.0186E+06     29.9956E+06              0.    -3.00708E+06
           13480     65.9973E+06     30.0237E+06              0.    -3.06819E+06
           13481     65.9755E+06     30.0515E+06              0.    -3.13277E+06
           13482     65.9532E+06     30.0792E+06              0.    -3.20079E+06
           13483     65.9304E+06     30.1068E+06              0.    -3.27224E+06
           13484     65.9071E+06     30.1342E+06              0.    -3.34709E+06
           13485     65.8832E+06     30.1616E+06              0.    -3.42533E+06
           13486     65.8587E+06     30.1889E+06              0.    -3.50694E+06
           13487     65.8336E+06     30.2161E+06              0.    -3.59191E+06
           13488     65.8079E+06     30.2434E+06              0.    -3.68024E+06
           13489     65.7816E+06     30.2707E+06              0.    -3.77193E+06
           13490     65.7545E+06     30.2980E+06              0.    -3.86698E+06
           13491     65.7268E+06     30.3254E+06              0.    -3.96538E+06
           13492     65.6984E+06     30.3529E+06              0.    -4.06715E+06
           13493     65.6692E+06     30.3805E+06              0.    -4.17229E+06
           13494     65.6392E+06     30.4083E+06              0.    -4.28081E+06
           13495     65.6084E+06     30.4363E+06              0.    -4.39273E+06
           13496     65.5768E+06     30.4644E+06              0.    -4.50807E+06
           13497     65.5444E+06     30.4928E+06              0.    -4.62685E+06
           13498     65.5110E+06     30.5214E+06              0.    -4.74907E+06
           13499     65.4768E+06     30.5503E+06              0.    -4.87479E+06
           13500     65.4417E+06     30.5794E+06              0.    -5.00400E+06
           13501     65.4056E+06     30.6089E+06              0.    -5.13676E+06
           13502     65.3685E+06     30.6387E+06              0.    -5.27308E+06
           13503     65.3305E+06     30.6688E+06              0.    -5.41301E+06
           13504     65.2914E+06     30.6993E+06              0.    -5.55657E+06
           13505     65.2512E+06     30.7302E+06              0.    -5.70382E+06
           13506     65.2100E+06     30.7616E+06              0.    -5.85478E+06
           13507     65.1676E+06     30.7933E+06              0.    -6.00950E+06
           13508     65.1242E+06     30.8256E+06              0.    -6.16802E+06
           13509     65.0795E+06     30.8583E+06              0.    -6.33039E+06
           13510     65.0337E+06     30.8915E+06              0.    -6.49667E+06
           13511     64.9866E+06     30.9252E+06              0.    -6.66689E+06
           13512     64.9382E+06     30.9595E+06              0.    -6.84112E+06
           13513     64.8886E+06     30.9943E+06              0.    -7.01941E+06
           13514     64.8377E+06     31.0298E+06              0.    -7.20180E+06
           13515     64.7854E+06     31.0658E+06              0.    -7.38837E+06
           13516     64.7317E+06     31.1024E+06              0.    -7.57918E+06
           13517     64.6766E+06     31.1397E+06              0.    -7.77427E+06
           13518     64.6201E+06     31.1777E+06              0.    -7.97372E+06
           13519     64.5620E+06     31.2163E+06              0.    -8.17759E+06
           13520     64.5025E+06     31.2557E+06              0.    -8.38595E+06
           13521     64.4414E+06     31.2958E+06              0.    -8.59887E+06
           13522     64.3787E+06     31.3366E+06              0.    -8.81640E+06
           13523     64.3143E+06     31.3783E+06              0.    -9.03864E+06
           13524     64.2483E+06     31.4207E+06              0.    -9.26564E+06
           13525     64.1806E+06     31.4639E+06              0.    -9.49748E+06
           13526     64.1112E+06     31.5080E+06              0.    -9.73424E+06
           13527     64.0399E+06     31.5529E+06              0.    -9.97599E+06
           13528     63.9668E+06     31.5987E+06              0.    -10.2228E+06
           13529     63.8919E+06     31.6454E+06              0.    -10.4748E+06
           13530     63.8150E+06     31.6930E+06              0.    -10.7320E+06
           13531     63.7362E+06     31.7416E+06              0.    -10.9945E+06
           13532     63.6553E+06     31.7911E+06              0.    -11.2624E+06
           13533     63.5724E+06     31.8416E+06              0.    -11.5358E+06
           13534     63.4874E+06     31.8932E+06              0.    -11.8147E+06
           13535     63.4003E+06     31.9457E+06              0.    -12.0993E+06
           13536     63.3109E+06     31.9994E+06              0.    -12.3896E+06
           13537     63.2193E+06     32.0541E+06              0.    -12.6857E+06
           13538     63.1254E+06     32.1099E+06              0.    -12.9877E+06
           13539     63.0291E+06     32.1668E+06              0.    -13.2957E+06
           13540     62.9304E+06     32.2249E+06              0.    -13.6098E+06
           13541     62.8292E+06     32.2842E+06              0.    -13.9300E+06
           13542     62.7255E+06     32.3447E+06              0.    -14.2565E+06
           13543     62.6192E+06     32.4064E+06              0.    -14.5893E+06
           13544     62.5103E+06     32.4693E+06              0.    -14.9286E+06
           13545     62.3986E+06     32.5336E+06              0.    -15.2743E+06
           13546     62.2842E+06     32.5991E+06              0.    -15.6267E+06
           13547     62.1668E+06     32.6659E+06              0.    -15.9857E+06
           13548     62.0466E+06     32.7341E+06              0.    -16.3515E+06
           13549     61.9234E+06     32.8037E+06              0.    -16.7242E+06
           13550     61.7972E+06     32.8746E+06              0.    -17.1038E+06
           13551     61.6678E+06     32.9470E+06              0.    -17.4905E+06
           13552     61.5351E+06     33.0209E+06              0.    -17.8843E+06
           13553     61.3992E+06     33.0962E+06              0.    -18.2852E+06
           13554     61.2600E+06     33.1730E+06              0.    -18.6935E+06
           13555     61.1172E+06     33.2513E+06              0.    -19.1091E+06
           13556     60.9710E+06     33.3312E+06              0.    -19.5321E+06
           13557     60.8211E+06     33.4127E+06              0.    -19.9626E+06
           13558     60.6675E+06     33.4957E+06              0.    -20.4007E+06
           13559     60.5101E+06     33.5804E+06              0.    -20.8465E+06
           13560     60.3488E+06     33.6668E+06              0.    -21.3000E+06
           13561     60.1834E+06     33.7548E+06              0.    -21.7613E+06
           13562     60.0140E+06     33.8445E+06              0.    -22.2304E+06
           13563     59.8404E+06     33.9360E+06              0.    -22.7075E+06
           13564     59.6624E+06     34.0292E+06              0.    -23.1925E+06
           13565     59.4801E+06     34.1241E+06              0.    -23.6855E+06
           13566     59.2931E+06     34.2209E+06              0.    -24.1866E+06
           13567     59.1016E+06     34.3195E+06              0.    -24.6957E+06
           13568     58.9052E+06     34.4199E+06              0.    -25.2131E+06
           13569     58.7040E+06     34.5222E+06              0.    -25.7386E+06
           13570     58.4977E+06     34.6264E+06              0.    -26.2723E+06
           13571     58.2862E+06     34.7325E+06              0.    -26.8142E+06
           13572     58.0694E+06     34.8405E+06              0.    -27.3644E+06
           13573     57.8472E+06     34.9504E+06              0.    -27.9228E+06
           13574     57.6194E+06     35.0623E+06              0.    -28.4894E+06
           13575     57.3859E+06     35.1761E+06              0.    -29.0643E+06
           13576     57.1465E+06     35.2919E+06              0.    -29.6474E+06
           13577     56.9010E+06     35.4097E+06              0.    -30.2387E+06
           13578     56.6493E+06     35.5295E+06              0.    -30.8382E+06
           13579     56.3912E+06     35.6513E+06              0.    -31.4458E+06
           13580     56.1265E+06     35.7751E+06              0.    -32.0614E+06
           13581     55.8551E+06     35.9009E+06              0.    -32.6851E+06
           13582     55.5767E+06     36.0287E+06              0.    -33.3167E+06
           13583     55.2913E+06     36.1584E+06              0.    -33.9561E+06
           13584     54.9985E+06     36.2902E+06              0.    -34.6032E+06
           13585     54.6982E+06     36.4239E+06              0.    -35.2580E+06
           13586     54.3901E+06     36.5595E+06              0.    -35.9203E+06
           13587     54.0741E+06     36.6971E+06              0.    -36.5899E+06
           13588     53.7499E+06     36.8365E+06              0.    -37.2667E+06
           13589     53.4173E+06     36.9778E+06              0.    -37.9505E+06
           13590     53.0760E+06     37.1208E+06              0.    -38.6412E+06
           13591     52.7258E+06     37.2656E+06              0.    -39.3384E+06
           13592     52.3665E+06     37.4122E+06              0.    -40.0421E+06
           13593     51.9978E+06     37.5603E+06              0.    -40.7518E+06
           13594     51.6193E+06     37.7100E+06              0.    -41.4674E+06
           13595     51.2310E+06     37.8611E+06              0.    -42.1886E+06
           13596     50.8324E+06     38.0136E+06              0.    -42.9151E+06
           13597     50.4232E+06     38.1674E+06              0.    -43.6464E+06
           13598     50.0033E+06     38.3223E+06              0.    -44.3823E+06
           13599     49.5722E+06     38.4782E+06              0.    -45.1224E+06
           13600     49.1296E+06     38.6350E+06              0.    -45.8662E+06
           13601     48.6753E+06     38.7924E+06              0.    -46.6132E+06
           13602     48.2088E+06     38.9504E+06              0.    -47.3632E+06
           13603     47.7299E+06     39.1087E+06              0.    -48.1154E+06
           13604     47.2382E+06     39.2670E+06              0.    -48.8694E+06
           13605     46.7334E+06     39.4253E+06              0.    -49.6246E+06
           13606     46.2150E+06     39.5831E+06              0.    -50.3804E+06
           13607     45.6827E+06     39.7403E+06              0.    -51.1362E+06
           13608     45.1362E+06     39.8965E+06              0.    -51.8912E+06
           13609     44.5751E+06     40.0513E+06              0.    -52.6449E+06
           13610     43.9989E+06     40.2044E+06              0.    -53.3964E+06
           13611     43.4072E+06     40.3555E+06              0.    -54.1449E+06
           13612     42.7997E+06     40.5041E+06              0.    -54.8896E+06
           13613     42.1760E+06     40.6496E+06              0.    -55.6296E+06
           13614     41.5356E+06     40.7917E+06              0.    -56.3641E+06
           13615     40.8782E+06     40.9298E+06              0.     -57.092E+06
           13616     40.2033E+06     41.0633E+06              0.    -57.8124E+06
           13617     39.5104E+06     41.1915E+06              0.    -58.5241E+06
           13618     38.7993E+06     41.3139E+06              0.    -59.2261E+06
           13619     38.0694E+06     41.4296E+06              0.    -59.9173E+06
           13620     37.3203E+06     41.5380E+06              0.    -60.5964E+06
           13621     36.5517E+06     41.6381E+06              0.    -61.2622E+06
           13622     35.7632E+06     41.7290E+06              0.    -61.9133E+06
           13623     34.9542E+06     41.8100E+06              0.    -62.5486E+06
           13624     34.1245E+06     41.8798E+06              0.    -63.1664E+06
           13625     33.2737E+06     41.9374E+06              0.    -63.7655E+06
           13626     32.4013E+06     41.9817E+06              0.    -64.3443E+06
           13627     31.5071E+06     42.0115E+06              0.    -64.9012E+06
           13628     30.5908E+06     42.0253E+06              0.    -65.4346E+06
           13629     29.6519E+06     42.0220E+06              0.    -65.9430E+06
           13630     28.6902E+06     41.9998E+06              0.    -66.4246E+06
           13631     27.7055E+06     41.9574E+06              0.    -66.8777E+06
           13632     26.6975E+06     41.8930E+06              0.    -67.3004E+06
           13633     25.6660E+06     41.8050E+06              0.    -67.6910E+06
           13634     24.6108E+06     41.6914E+06              0.    -68.0476E+06
           13635     23.5319E+06     41.5503E+06              0.    -68.3683E+06
           13636     22.4291E+06     41.3797E+06              0.    -68.6512E+06
           13637     21.3023E+06     41.1775E+06              0.    -68.8943E+06
           13638     20.1517E+06     40.9414E+06              0.    -69.0956E+06
           13639     18.9772E+06     40.6690E+06              0.    -69.2531E+06
           13640     17.7789E+06     40.3579E+06              0.    -69.3647E+06
           13641     16.5571E+06     40.0056E+06              0.    -69.4285E+06
           13642     15.3120E+06     39.6093E+06              0.    -69.4423E+06
           13643     14.0438E+06     39.1663E+06              0.    -69.4042E+06
           13644     12.7530E+06     38.6738E+06              0.    -69.3120E+06
           13645     11.4400E+06     38.1286E+06              0.    -69.1638E+06
           13646     10.1053E+06     37.5278E+06              0.    -68.9576E+06
           13647     8.74950E+06     36.8682E+06              0.    -68.6912E+06
           13648     7.37332E+06     36.1464E+06              0.    -68.3629E+06
           13649     5.97750E+06     35.3592E+06              0.    -67.9706E+06
           13650     4.56290E+06     34.5031E+06              0.    -67.5126E+06
           13651     3.13043E+06     33.5746E+06              0.    -66.9869E+06
           13652     1.68114E+06     32.5701E+06              0.    -66.3919E+06
           13653     216.106E+03     31.4860E+06              0.    -65.7259E+06
           13654    -1.26346E+06     30.3186E+06              0.    -64.9873E+06
           13655    -2.75628E+06     29.0641E+06              0.    -64.1746E+06
           13656    -4.26099E+06     27.7189E+06              0.    -63.2864E+06
           13657    -5.77614E+06     26.2791E+06              0.    -62.3214E+06
           13658    -7.30021E+06     24.7411E+06              0.    -61.2784E+06
           13659    -8.83160E+06     23.1009E+06              0.    -60.1562E+06
           13660    -10.3686E+06     21.3550E+06              0.    -58.9540E+06
           13661    -11.9095E+06     19.4997E+06              0.    -57.6709E+06
           13662    -13.4524E+06     17.5312E+06              0.    -56.3062E+06
           13663    -14.9956E+06     15.4461E+06              0.    -54.8592E+06
           13664    -16.5369E+06     13.2407E+06              0.    -53.3296E+06
           13665    -18.0745E+06     10.9119E+06              0.    -51.7169E+06
           13666    -19.6064E+06     8.45633E+06              0.    -50.0211E+06
           13667    -21.1304E+06     5.87082E+06              0.    -48.2420E+06
           13668    -22.6444E+06     3.15240E+06              0.    -46.3796E+06
           13669    -24.1460E+06     298.279E+03              0.    -44.4343E+06
           13670    -25.6328E+06    -2.69393E+06              0.    -42.4062E+06
           13671    -27.2080E+06    -6.26781E+06              0.    -41.5424E+06
           13672     66.3326E+06     29.1114E+06              0.    -2.66792E+06
           13673     66.3383E+06     29.1729E+06              0.    -2.66306E+06
           13674     66.3177E+06     29.2213E+06              0.    -2.62734E+06
           13675     66.2974E+06     29.2685E+06              0.    -2.59692E+06
           13676     66.2773E+06     29.3144E+06              0.    -2.57167E+06
           13677     66.2574E+06     29.3591E+06              0.    -2.55144E+06
           13678     66.2376E+06     29.4027E+06              0.    -2.53610E+06
           13679     66.2178E+06     29.4452E+06              0.    -2.52553E+06
           13680     66.1982E+06     29.4866E+06              0.    -2.51963E+06
           13681     66.1785E+06     29.5272E+06              0.    -2.51826E+06
           13682     66.1588E+06     29.5668E+06              0.    -2.52133E+06
           13683     66.1390E+06     29.6055E+06              0.    -2.52875E+06
           13684     66.1191E+06     29.6435E+06              0.    -2.54041E+06
           13685     66.0991E+06     29.6807E+06              0.    -2.55623E+06
           13686     66.0789E+06     29.7172E+06              0.    -2.57612E+06
           13687     66.0586E+06     29.7530E+06              0.    -2.60002E+06
           13688     66.0380E+06     29.7882E+06              0.    -2.62784E+06
           13689     66.0171E+06     29.8228E+06              0.    -2.65952E+06
           13690     65.9960E+06     29.8569E+06              0.    -2.69499E+06
           13691     65.9746E+06     29.8905E+06              0.     -2.7342E+06
           13692     65.9528E+06     29.9236E+06              0.    -2.77709E+06
           13693     65.9306E+06     29.9564E+06              0.    -2.82362E+06
           13694     65.9080E+06     29.9887E+06              0.    -2.87373E+06
           13695     65.8850E+06     30.0207E+06              0.    -2.92739E+06
           13696     65.8616E+06     30.0525E+06              0.    -2.98455E+06
           13697     65.8376E+06     30.0839E+06              0.    -3.04519E+06
           13698     65.8131E+06     30.1151E+06              0.    -3.10927E+06
           13699     65.7881E+06     30.1462E+06              0.    -3.17678E+06
           13700     65.7625E+06     30.1770E+06              0.    -3.24767E+06
           13701     65.7364E+06     30.2078E+06              0.    -3.32194E+06
           13702     65.7096E+06     30.2384E+06              0.    -3.39958E+06
           13703     65.6821E+06     30.2690E+06              0.    -3.48056E+06
           13704     65.6540E+06     30.2995E+06              0.    -3.56488E+06
           13705     65.6252E+06     30.3300E+06              0.    -3.65253E+06
           13706     65.5956E+06     30.3606E+06              0.    -3.74351E+06
           13707     65.5653E+06     30.3912E+06              0.    -3.83781E+06
           13708     65.5342E+06     30.4218E+06              0.    -3.93545E+06
           13709     65.5023E+06     30.4526E+06              0.    -4.03643E+06
           13710     65.4695E+06     30.4835E+06              0.    -4.14075E+06
           13711     65.4359E+06     30.5146E+06              0.    -4.24843E+06
           13712     65.4014E+06     30.5458E+06              0.    -4.35948E+06
           13713     65.3659E+06     30.5773E+06              0.    -4.47392E+06
           13714     65.3296E+06     30.6090E+06              0.    -4.59176E+06
           13715     65.2922E+06     30.6410E+06              0.    -4.71303E+06
           13716     65.2538E+06     30.6732E+06              0.    -4.83776E+06
           13717     65.2144E+06     30.7058E+06              0.    -4.96596E+06
           13718     65.1740E+06     30.7387E+06              0.    -5.09767E+06
           13719     65.1324E+06     30.7719E+06              0.    -5.23292E+06
           13720     65.0898E+06     30.8056E+06              0.    -5.37174E+06
           13721     65.0459E+06     30.8397E+06              0.    -5.51417E+06
           13722     65.0009E+06     30.8741E+06              0.    -5.66024E+06
           13723     64.9547E+06     30.9091E+06              0.    -5.81000E+06
           13724     64.9073E+06     30.9445E+06              0.    -5.96348E+06
           13725     64.8585E+06     30.9805E+06              0.    -6.12074E+06
           13726     64.8085E+06     31.0169E+06              0.    -6.28182E+06
           13727     64.7571E+06     31.0539E+06              0.    -6.44675E+06
           13728     64.7044E+06     31.0915E+06              0.    -6.61561E+06
           13729     64.6502E+06     31.1297E+06              0.    -6.78843E+06
           13730     64.5946E+06     31.1684E+06              0.    -6.96527E+06
           13731     64.5376E+06     31.2079E+06              0.    -7.14619E+06
           13732     64.4790E+06     31.2480E+06              0.    -7.33124E+06
           13733     64.4189E+06     31.2887E+06              0.    -7.52048E+06
           13734     64.3572E+06     31.3302E+06              0.    -7.71398E+06
           13735     64.2939E+06     31.3724E+06              0.    -7.91179E+06
           13736     64.2289E+06     31.4154E+06              0.    -8.11398E+06
           13737     64.1622E+06     31.4591E+06              0.    -8.32061E+06
           13738     64.0938E+06     31.5036E+06              0.    -8.53176E+06
           13739     64.0236E+06     31.5490E+06              0.    -8.74749E+06
           13740     63.9516E+06     31.5951E+06              0.    -8.96786E+06
           13741     63.8778E+06     31.6422E+06              0.    -9.19295E+06
           13742     63.8020E+06     31.6901E+06              0.    -9.42284E+06
           13743     63.7243E+06     31.7390E+06              0.    -9.65760E+06
           13744     63.6446E+06     31.7887E+06              0.    -9.89730E+06
           13745     63.5629E+06     31.8395E+06              0.    -10.1420E+06
           13746     63.4790E+06     31.8912E+06              0.    -10.3918E+06
           13747     63.3931E+06     31.9439E+06              0.    -10.6468E+06
           13748     63.3049E+06     31.9976E+06              0.    -10.9070E+06
           13749     63.2146E+06     32.0524E+06              0.    -11.1726E+06
           13750     63.1219E+06     32.1082E+06              0.    -11.4436E+06
           13751     63.0269E+06     32.1651E+06              0.    -11.7201E+06
           13752     62.9296E+06     32.2232E+06              0.    -12.0022E+06
           13753     62.8298E+06     32.2824E+06              0.    -12.2899E+06
           13754     62.7274E+06     32.3427E+06              0.    -12.5834E+06
           13755     62.6226E+06     32.4043E+06              0.    -12.8827E+06
           13756     62.5151E+06     32.4670E+06              0.    -13.1879E+06
           13757     62.4049E+06     32.5310E+06              0.    -13.4991E+06
           13758     62.2920E+06     32.5963E+06              0.    -13.8164E+06
           13759     62.1763E+06     32.6628E+06              0.    -14.1399E+06
           13760     62.0578E+06     32.7306E+06              0.    -14.4696E+06
           13761     61.9363E+06     32.7998E+06              0.    -14.8057E+06
           13762     61.8118E+06     32.8703E+06              0.    -15.1483E+06
           13763     61.6842E+06     32.9422E+06              0.    -15.4973E+06
           13764     61.5535E+06     33.0156E+06              0.    -15.8529E+06
           13765     61.4196E+06     33.0903E+06              0.    -16.2153E+06
           13766     61.2824E+06     33.1665E+06              0.    -16.5843E+06
           13767     61.1418E+06     33.2442E+06              0.    -16.9603E+06
           13768     60.9978E+06     33.3233E+06              0.    -17.3432E+06
           13769     60.8503E+06     33.4041E+06              0.    -17.7330E+06
           13770     60.6991E+06     33.4863E+06              0.    -18.1300E+06
           13771     60.5443E+06     33.5701E+06              0.    -18.5342E+06
           13772     60.3856E+06     33.6556E+06              0.    -18.9456E+06
           13773     60.2231E+06     33.7426E+06              0.    -19.3643E+06
           13774     60.0567E+06     33.8313E+06              0.    -19.7904E+06
           13775     59.8861E+06     33.9217E+06              0.    -20.2240E+06
           13776     59.7115E+06     34.0138E+06              0.    -20.6651E+06
           13777     59.5325E+06     34.1075E+06              0.    -21.1138E+06
           13778     59.3492E+06     34.2030E+06              0.    -21.5702E+06
           13779     59.1614E+06     34.3003E+06              0.    -22.0343E+06
           13780     58.9691E+06     34.3994E+06              0.    -22.5061E+06
           13781     58.7720E+06     34.5002E+06              0.    -22.9858E+06
           13782     58.5702E+06     34.6029E+06              0.    -23.4734E+06
           13783     58.3634E+06     34.7074E+06              0.    -23.9688E+06
           13784     58.1516E+06     34.8137E+06              0.    -24.4723E+06
           13785     57.9347E+06     34.9220E+06              0.    -24.9837E+06
           13786     57.7124E+06     35.0321E+06              0.    -25.5031E+06
           13787     57.4847E+06     35.1441E+06              0.    -26.0305E+06
           13788     57.2514E+06     35.2580E+06              0.    -26.5661E+06
           13789     57.0124E+06     35.3739E+06              0.    -27.1096E+06
           13790     56.7676E+06     35.4917E+06              0.    -27.6613E+06
           13791     56.5168E+06     35.6114E+06              0.    -28.2209E+06
           13792     56.2598E+06     35.7331E+06              0.    -28.7887E+06
           13793     55.9965E+06     35.8567E+06              0.    -29.3645E+06
           13794     55.7267E+06     35.9823E+06              0.    -29.9482E+06
           13795     55.4503E+06     36.1099E+06              0.    -30.5399E+06
           13796     55.1671E+06     36.2393E+06              0.    -31.1396E+06
           13797     54.8769E+06     36.3708E+06              0.    -31.7470E+06
           13798     54.5795E+06     36.5041E+06              0.    -32.3623E+06
           13799     54.2747E+06     36.6394E+06              0.    -32.9853E+06
           13800     53.9624E+06     36.7765E+06              0.    -33.6158E+06
           13801     53.6424E+06     36.9155E+06              0.    -34.2539E+06
           13802     53.3144E+06     37.0564E+06              0.    -34.8993E+06
           13803     52.9782E+06     37.1990E+06              0.    -35.5520E+06
           13804     52.6337E+06     37.3434E+06              0.    -36.2117E+06
           13805     52.2806E+06     37.4895E+06              0.    -36.8784E+06
           13806     51.9186E+06     37.6373E+06              0.    -37.5519E+06
           13807     51.5476E+06     37.7867E+06              0.    -38.2318E+06
           13808     51.1672E+06     37.9377E+06              0.    -38.9181E+06
           13809     50.7773E+06     38.0900E+06              0.    -39.6105E+06
           13810     50.3776E+06     38.2438E+06              0.    -40.3088E+06
           13811     49.9678E+06     38.3988E+06              0.    -41.0126E+06
           13812     49.5477E+06     38.5550E+06              0.    -41.7216E+06
           13813     49.1170E+06     38.7123E+06              0.    -42.4357E+06
           13814     48.6753E+06     38.8704E+06              0.    -43.1543E+06
           13815     48.2225E+06     39.0294E+06              0.    -43.8771E+06
           13816     47.7582E+06     39.1889E+06              0.    -44.6037E+06
           13817     47.2821E+06     39.3489E+06              0.    -45.3338E+06
           13818     46.7939E+06     39.5092E+06              0.    -46.0668E+06
           13819     46.2932E+06     39.6695E+06              0.    -46.8024E+06
           13820     45.7799E+06     39.8296E+06              0.    -47.5399E+06
           13821     45.2534E+06     39.9893E+06              0.    -48.2788E+06
           13822     44.7136E+06     40.1483E+06              0.    -49.0186E+06
           13823     44.1600E+06     40.3063E+06              0.    -49.7587E+06
           13824     43.5923E+06     40.4630E+06              0.    -50.4984E+06
           13825     43.0101E+06     40.6181E+06              0.    -51.2370E+06
           13826     42.4131E+06     40.7712E+06              0.    -51.9739E+06
           13827     41.8010E+06     40.9219E+06              0.    -52.7083E+06
           13828     41.1732E+06     41.0697E+06              0.    -53.4393E+06
           13829     40.5296E+06     41.2142E+06              0.    -54.1663E+06
           13830     39.8696E+06     41.3550E+06              0.    -54.8882E+06
           13831     39.1930E+06     41.4913E+06              0.    -55.6043E+06
           13832     38.4993E+06     41.6228E+06              0.    -56.3135E+06
           13833     37.7881E+06     41.7488E+06              0.    -57.0149E+06
           13834     37.0592E+06     41.8685E+06              0.    -57.7073E+06
           13835     36.3120E+06     41.9813E+06              0.    -58.3898E+06
           13836     35.5462E+06     42.0864E+06              0.    -59.0611E+06
           13837     34.7615E+06     42.1830E+06              0.    -59.7202E+06
           13838     33.9575E+06     42.2703E+06              0.    -60.3657E+06
           13839     33.1338E+06     42.3473E+06              0.    -60.9965E+06
           13840     32.2901E+06     42.4130E+06              0.    -61.6111E+06
           13841     31.4260E+06     42.4663E+06              0.    -62.2082E+06
           13842     30.5413E+06     42.5062E+06              0.    -62.7865E+06
           13843     29.6355E+06     42.5314E+06              0.    -63.3443E+06
           13844     28.7084E+06     42.5407E+06              0.    -63.8803E+06
           13845     27.7598E+06     42.5327E+06              0.    -64.3928E+06
           13846     26.7893E+06     42.5060E+06              0.    -64.8803E+06
           13847     25.7967E+06     42.4592E+06              0.    -65.3411E+06
           13848     24.7819E+06     42.3905E+06              0.    -65.7735E+06
           13849     23.7447E+06     42.2984E+06              0.    -66.1758E+06
           13850     22.6849E+06     42.1811E+06              0.    -66.5462E+06
           13851     21.6023E+06     42.0367E+06              0.    -66.8829E+06
           13852     20.4971E+06     41.8633E+06              0.    -67.1841E+06
           13853     19.3690E+06     41.6588E+06              0.    -67.4479E+06
           13854     18.2182E+06     41.4210E+06              0.    -67.6724E+06
           13855     17.0447E+06     41.1478E+06              0.    -67.8558E+06
           13856     15.8487E+06     40.8368E+06              0.    -67.9959E+06
           13857     14.6302E+06     40.4854E+06              0.    -68.0910E+06
           13858     13.3896E+06     40.0913E+06              0.    -68.1390E+06
           13859     12.1271E+06     39.6517E+06              0.    -68.1380E+06
           13860     10.8431E+06     39.1638E+06              0.    -68.0861E+06
           13861     9.53797E+06     38.6249E+06              0.    -67.9811E+06
           13862     8.21229E+06     38.0320E+06              0.    -67.8213E+06
           13863     6.86658E+06     37.3820E+06              0.    -67.6047E+06
           13864     5.50150E+06     36.6718E+06              0.    -67.3294E+06
           13865     4.11776E+06     35.8983E+06              0.    -66.9935E+06
           13866     2.71616E+06     35.0581E+06              0.    -66.5952E+06
           13867     1.29757E+06     34.1478E+06              0.    -66.1328E+06
           13868    -137.036E+03     33.1640E+06              0.    -65.6044E+06
           13869    -1.58662E+06     32.1033E+06              0.    -65.0086E+06
           13870    -3.05008E+06     30.9621E+06              0.    -64.3436E+06
           13871    -4.52619E+06     29.7368E+06              0.    -63.6079E+06
           13872    -6.01366E+06     28.4237E+06              0.    -62.8002E+06
           13873    -7.51114E+06     27.0193E+06              0.    -61.9191E+06
           13874    -9.01718E+06     25.5200E+06              0.    -60.9633E+06
           13875    -10.5303E+06     23.9219E+06              0.    -59.9318E+06
           13876    -12.0488E+06     22.2215E+06              0.    -58.8234E+06
           13877    -13.5712E+06     20.4153E+06              0.    -57.6373E+06
           13878    -15.0956E+06     18.4996E+06              0.    -56.3726E+06
           13879    -16.6202E+06     16.4709E+06              0.    -55.0287E+06
           13880    -18.1434E+06     14.3258E+06              0.     -53.605E+06
           13881    -19.6630E+06     12.0608E+06              0.    -52.1010E+06
           13882    -21.1772E+06     9.67289E+06              0.    -50.5165E+06
           13883    -22.6841E+06     7.15869E+06              0.    -48.8512E+06
           13884    -24.1814E+06     4.51526E+06              0.    -47.1050E+06
           13885    -25.6673E+06     1.73966E+06              0.    -45.2780E+06
           13886      -27.14E+06    -1.17109E+06              0.    -43.3702E+06
           13887    -28.5999E+06    -4.22033E+06              0.    -41.3821E+06
           13888    -30.1827E+06    -7.84999E+06              0.    -40.5276E+06
           13889     66.2280E+06     29.0665E+06              0.    -2.64573E+06
           13890     66.2342E+06     29.1346E+06              0.    -2.64091E+06
           13891     66.2114E+06     29.1883E+06              0.    -2.60548E+06
           13892     66.1889E+06     29.2405E+06              0.    -2.57531E+06
           13893     66.1666E+06     29.2914E+06              0.    -2.55026E+06
           13894     66.1445E+06     29.3409E+06              0.    -2.53019E+06
           13895     66.1225E+06     29.3892E+06              0.    -2.51498E+06
           13896     66.1006E+06     29.4363E+06              0.    -2.50449E+06
           13897     66.0788E+06     29.4822E+06              0.    -2.49863E+06
           13898     66.0570E+06     29.5271E+06              0.    -2.49726E+06
           13899     66.0351E+06     29.5710E+06              0.    -2.50031E+06
           13900     66.0132E+06     29.6139E+06              0.    -2.50765E+06
           13901     65.9912E+06     29.6560E+06              0.    -2.51920E+06
           13902     65.9690E+06     29.6972E+06              0.    -2.53488E+06
           13903     65.9466E+06     29.7376E+06              0.    -2.55461E+06
           13904     65.9241E+06     29.7772E+06              0.    -2.57829E+06
           13905     65.9012E+06     29.8162E+06              0.    -2.60587E+06
           13906     65.8781E+06     29.8546E+06              0.    -2.63727E+06
           13907     65.8547E+06     29.8923E+06              0.    -2.67244E+06
           13908     65.8310E+06     29.9295E+06              0.    -2.71131E+06
           13909     65.8068E+06     29.9662E+06              0.    -2.75384E+06
           13910     65.7822E+06     30.0025E+06              0.    -2.79996E+06
           13911     65.7572E+06     30.0383E+06              0.    -2.84964E+06
           13912     65.7317E+06     30.0737E+06              0.    -2.90284E+06
           13913     65.7057E+06     30.1089E+06              0.    -2.95951E+06
           13914     65.6792E+06     30.1437E+06              0.    -3.01963E+06
           13915     65.6521E+06     30.1782E+06              0.    -3.08316E+06
           13916     65.6244E+06     30.2126E+06              0.    -3.15008E+06
           13917     65.5961E+06     30.2467E+06              0.    -3.22037E+06
           13918     65.5671E+06     30.2807E+06              0.    -3.29400E+06
           13919     65.5374E+06     30.3146E+06              0.    -3.37097E+06
           13920     65.5070E+06     30.3484E+06              0.    -3.45125E+06
           13921     65.4758E+06     30.3822E+06              0.    -3.53484E+06
           13922     65.4439E+06     30.4159E+06              0.    -3.62174E+06
           13923     65.4111E+06     30.4497E+06              0.    -3.71193E+06
           13924     65.3776E+06     30.4835E+06              0.    -3.80542E+06
           13925     65.3431E+06     30.5174E+06              0.    -3.90222E+06
           13926     65.3078E+06     30.5514E+06              0.    -4.00232E+06
           13927     65.2715E+06     30.5856E+06              0.    -4.10574E+06
           13928     65.2343E+06     30.6199E+06              0.    -4.21248E+06
           13929     65.1960E+06     30.6545E+06              0.    -4.32257E+06
           13930     65.1568E+06     30.6892E+06              0.    -4.43601E+06
           13931     65.1165E+06     30.7242E+06              0.    -4.55282E+06
           13932     65.0752E+06     30.7595E+06              0.    -4.67304E+06
           13933     65.0327E+06     30.7951E+06              0.    -4.79667E+06
           13934     64.9891E+06     30.8311E+06              0.    -4.92375E+06
           13935     64.9443E+06     30.8674E+06              0.    -5.05431E+06
           13936     64.8983E+06     30.9041E+06              0.    -5.18837E+06
           13937     64.8510E+06     30.9412E+06              0.    -5.32597E+06
           13938     64.8025E+06     30.9788E+06              0.    -5.46714E+06
           13939     64.7527E+06     31.0168E+06              0.    -5.61192E+06
           13940     64.7016E+06     31.0554E+06              0.    -5.76035E+06
           13941     64.6491E+06     31.0944E+06              0.    -5.91248E+06
           13942     64.5951E+06     31.1340E+06              0.    -6.06834E+06
           13943     64.5398E+06     31.1742E+06              0.    -6.22798E+06
           13944     64.4829E+06     31.2150E+06              0.    -6.39144E+06
           13945     64.4246E+06     31.2564E+06              0.    -6.55879E+06
           13946     64.3646E+06     31.2984E+06              0.    -6.73006E+06
           13947     64.3031E+06     31.3411E+06              0.    -6.90531E+06
           13948     64.2400E+06     31.3845E+06              0.    -7.08460E+06
           13949     64.1752E+06     31.4286E+06              0.    -7.26798E+06
           13950     64.1087E+06     31.4734E+06              0.    -7.45551E+06
           13951     64.0405E+06     31.5190E+06              0.    -7.64724E+06
           13952     63.9705E+06     31.5654E+06              0.    -7.84325E+06
           13953     63.8986E+06     31.6127E+06              0.    -8.04359E+06
           13954     63.8249E+06     31.6607E+06              0.    -8.24833E+06
           13955     63.7493E+06     31.7096E+06              0.    -8.45754E+06
           13956     63.6717E+06     31.7594E+06              0.    -8.67127E+06
           13957     63.5921E+06     31.8101E+06              0.    -8.88961E+06
           13958     63.5104E+06     31.8618E+06              0.    -9.11261E+06
           13959     63.4267E+06     31.9143E+06              0.    -9.34036E+06
           13960     63.3408E+06     31.9679E+06              0.    -9.57292E+06
           13961     63.2528E+06     32.0225E+06              0.    -9.81036E+06
           13962     63.1624E+06     32.0781E+06              0.    -10.0528E+06
           13963     63.0698E+06     32.1347E+06              0.    -10.3002E+06
           13964     62.9749E+06     32.1925E+06              0.    -10.5528E+06
           13965     62.8776E+06     32.2513E+06              0.    -10.8105E+06
           13966     62.7778E+06     32.3113E+06              0.    -11.0736E+06
           13967     62.6755E+06     32.3724E+06              0.    -11.3419E+06
           13968     62.5706E+06     32.4346E+06              0.    -11.6158E+06
           13969     62.4631E+06     32.4981E+06              0.    -11.8951E+06
           13970     62.3530E+06     32.5628E+06              0.    -12.1800E+06
           13971     62.2401E+06     32.6287E+06              0.    -12.4706E+06
           13972     62.1243E+06     32.6959E+06              0.    -12.7670E+06
           13973     62.0058E+06     32.7644E+06              0.    -13.0692E+06
           13974     61.8843E+06     32.8342E+06              0.    -13.3773E+06
           13975     61.7598E+06     32.9053E+06              0.    -13.6914E+06
           13976     61.6322E+06     32.9779E+06              0.    -14.0116E+06
           13977     61.5015E+06     33.0518E+06              0.    -14.3381E+06
           13978     61.3677E+06     33.1271E+06              0.    -14.6707E+06
           13979     61.2305E+06     33.2038E+06              0.    -15.0097E+06
           13980     61.0900E+06     33.2820E+06              0.    -15.3552E+06
           13981     60.9460E+06     33.3617E+06              0.    -15.7071E+06
           13982     60.7986E+06     33.4430E+06              0.    -16.0657E+06
           13983     60.6475E+06     33.5257E+06              0.    -16.4309E+06
           13984     60.4928E+06     33.6100E+06              0.    -16.8028E+06
           13985     60.3344E+06     33.6959E+06              0.    -17.1816E+06
           13986     60.1721E+06     33.7833E+06              0.    -17.5673E+06
           13987     60.0059E+06     33.8725E+06              0.    -17.9600E+06
           13988     59.8357E+06     33.9632E+06              0.    -18.3598E+06
           13989     59.6613E+06     34.0556E+06              0.    -18.7667E+06
           13990     59.4828E+06     34.1497E+06              0.    -19.1808E+06
           13991     59.3000E+06     34.2456E+06              0.    -19.6022E+06
           13992     59.1127E+06     34.3431E+06              0.    -20.0309E+06
           13993     58.9210E+06     34.4424E+06              0.    -20.4670E+06
           13994     58.7247E+06     34.5435E+06              0.    -20.9106E+06
           13995     58.5236E+06     34.6464E+06              0.    -21.3617E+06
           13996     58.3178E+06     34.7511E+06              0.    -21.8204E+06
           13997     58.1070E+06     34.8576E+06              0.    -22.2867E+06
           13998     57.8911E+06     34.9660E+06              0.    -22.7607E+06
           13999     57.6701E+06     35.0762E+06              0.    -23.2425E+06
           14000     57.4438E+06     35.1883E+06              0.    -23.7320E+06
           14001     57.2120E+06     35.3023E+06              0.    -24.2292E+06
           14002     56.9747E+06     35.4181E+06              0.    -24.7344E+06
           14003     56.7318E+06     35.5359E+06              0.    -25.2473E+06
           14004     56.4830E+06     35.6556E+06              0.    -25.7682E+06
           14005     56.2283E+06     35.7773E+06              0.    -26.2969E+06
           14006     55.9674E+06     35.9008E+06              0.    -26.8335E+06
           14007     55.7003E+06     36.0263E+06              0.    -27.3779E+06
           14008     55.4268E+06     36.1537E+06              0.    -27.9303E+06
           14009     55.1468E+06     36.2831E+06              0.    -28.4905E+06
           14010     54.8600E+06     36.4143E+06              0.    -29.0585E+06
           14011     54.5664E+06     36.5475E+06              0.    -29.6344E+06
           14012     54.2657E+06     36.6826E+06              0.    -30.2180E+06
           14013     53.9578E+06     36.8196E+06              0.    -30.8092E+06
           14014     53.6425E+06     36.9584E+06              0.    -31.4081E+06
           14015     53.3196E+06     37.0991E+06              0.    -32.0146E+06
           14016     52.9890E+06     37.2416E+06              0.    -32.6285E+06
           14017     52.6504E+06     37.3860E+06              0.    -33.2498E+06
           14018     52.3036E+06     37.5320E+06              0.    -33.8784E+06
           14019     51.9485E+06     37.6798E+06              0.    -34.5141E+06
           14020     51.5848E+06     37.8292E+06              0.    -35.1568E+06
           14021     51.2123E+06     37.9803E+06              0.    -35.8063E+06
           14022     50.8308E+06     38.1329E+06              0.    -36.4625E+06
           14023     50.4401E+06     38.2869E+06              0.    -37.1252E+06
           14024     50.0399E+06     38.4424E+06              0.    -37.7941E+06
           14025     49.6301E+06     38.5992E+06              0.    -38.4691E+06
           14026     49.2102E+06     38.7572E+06              0.    -39.1499E+06
           14027     48.7803E+06     38.9163E+06              0.    -39.8363E+06
           14028     48.3398E+06     39.0764E+06              0.    -40.5279E+06
           14029     47.8887E+06     39.2374E+06              0.    -41.2245E+06
           14030     47.4266E+06     39.3991E+06              0.    -41.9257E+06
           14031     46.9532E+06     39.5614E+06              0.    -42.6313E+06
           14032     46.4683E+06     39.7241E+06              0.    -43.3407E+06
           14033     45.9716E+06     39.8870E+06              0.    -44.0537E+06
           14034     45.4629E+06       40.05E+06              0.    -44.7697E+06
           14035     44.9417E+06     40.2128E+06              0.    -45.4884E+06
           14036     44.4078E+06     40.3751E+06              0.    -46.2093E+06
           14037     43.8609E+06     40.5368E+06              0.    -46.9319E+06
           14038     43.3007E+06     40.6976E+06              0.    -47.6555E+06
           14039     42.7268E+06     40.8571E+06              0.    -48.3797E+06
           14040     42.1390E+06     41.0150E+06              0.    -49.1038E+06
           14041     41.5369E+06     41.1710E+06              0.    -49.8273E+06
           14042     40.9201E+06     41.3248E+06              0.    -50.5493E+06
           14043     40.2884E+06     41.4758E+06              0.    -51.2693E+06
           14044     39.6414E+06     41.6238E+06              0.    -51.9865E+06
           14045     38.9787E+06     41.7681E+06              0.    -52.7001E+06
           14046     38.3000E+06     41.9084E+06              0.    -53.4092E+06
           14047     37.6051E+06     42.0441E+06              0.    -54.1130E+06
           14048     36.8934E+06     42.1745E+06              0.    -54.8107E+06
           14049     36.1647E+06     42.2992E+06              0.    -55.5012E+06
           14050     35.4186E+06     42.4174E+06              0.    -56.1837E+06
           14051     34.6548E+06     42.5284E+06              0.    -56.8570E+06
           14052     33.8729E+06     42.6315E+06              0.    -57.5200E+06
           14053     33.0727E+06     42.7259E+06              0.    -58.1718E+06
           14054     32.2537E+06     42.8108E+06              0.     -58.811E+06
           14055     31.4156E+06     42.8851E+06              0.    -59.4366E+06
           14056     30.5582E+06     42.9480E+06              0.    -60.0472E+06
           14057     29.6812E+06     42.9984E+06              0.    -60.6415E+06
           14058     28.7842E+06     43.0353E+06              0.    -61.2183E+06
           14059     27.8669E+06     43.0575E+06              0.    -61.7761E+06
           14060     26.9292E+06     43.0637E+06              0.    -62.3135E+06
           14061     25.9707E+06     43.0526E+06              0.    -62.8291E+06
           14062     24.9913E+06     43.0229E+06              0.    -63.3212E+06
           14063     23.9907E+06     42.9732E+06              0.    -63.7884E+06
           14064     22.9688E+06     42.9019E+06              0.    -64.2290E+06
           14065     21.9254E+06     42.8073E+06              0.    -64.6415E+06
           14066     20.8604E+06     42.6878E+06              0.    -65.0240E+06
           14067     19.7737E+06     42.5417E+06              0.    -65.3750E+06
           14068     18.6653E+06     42.3669E+06              0.    -65.6927E+06
           14069     17.5352E+06     42.1617E+06              0.    -65.9752E+06
           14070     16.3833E+06     41.9238E+06              0.    -66.2209E+06
           14071     15.2099E+06     41.6512E+06              0.    -66.4278E+06
           14072     14.0150E+06     41.3416E+06              0.    -66.5941E+06
           14073     12.7987E+06     40.9926E+06              0.    -66.7180E+06
           14074     11.5613E+06     40.6019E+06              0.    -66.7976E+06
           14075     10.3032E+06     40.1669E+06              0.    -66.8309E+06
           14076     9.02460E+06     39.6849E+06              0.    -66.8162E+06
           14077     7.72595E+06     39.1533E+06              0.    -66.7515E+06
           14078     6.40774E+06     38.5692E+06              0.    -66.6349E+06
           14079     5.07049E+06     37.9297E+06              0.    -66.4647E+06
           14080     3.71483E+06     37.2318E+06              0.    -66.2389E+06
           14081     2.34143E+06     36.4725E+06              0.    -65.9557E+06
           14082     951.045E+03     35.6486E+06              0.    -65.6135E+06
           14083    -455.493E+03     34.7569E+06              0.    -65.2104E+06
           14084    -1.87727E+06     33.7940E+06              0.    -64.7447E+06
           14085    -3.31332E+06     32.7566E+06              0.    -64.2148E+06
           14086    -4.76257E+06     31.6414E+06              0.    -63.6192E+06
           14087    -6.22390E+06     30.4448E+06              0.    -62.9563E+06
           14088    -7.69608E+06     29.1634E+06              0.    -62.2246E+06
           14089    -9.17782E+06     27.7936E+06              0.    -61.4229E+06
           14090    -10.6678E+06     26.3319E+06              0.    -60.5499E+06
           14091    -12.1645E+06     24.7748E+06              0.    -59.6044E+06
           14092    -13.6664E+06     23.1186E+06              0.    -58.5852E+06
           14093    -15.1721E+06     21.3600E+06              0.    -57.4914E+06
           14094    -16.6798E+06     19.4954E+06              0.    -56.3222E+06
           14095    -18.1878E+06     17.5212E+06              0.    -55.0768E+06
           14096    -19.6944E+06     15.4343E+06              0.    -53.7544E+06
           14097    -21.1978E+06     13.2311E+06              0.    -52.3546E+06
           14098    -22.6961E+06     10.9084E+06              0.    -50.8768E+06
           14099    -24.1873E+06     8.46312E+06              0.    -49.3209E+06
           14100    -25.6696E+06     5.89214E+06              0.    -47.6866E+06
           14101    -27.1410E+06     3.19257E+06              0.    -45.9737E+06
           14102    -28.5994E+06     361.553E+03              0.    -44.1823E+06
           14103    -30.0419E+06    -2.60311E+06              0.    -42.3127E+06
           14104    -31.4627E+06    -5.70257E+06              0.    -40.3647E+06
           14105    -33.0395E+06    -9.38026E+06              0.    -39.5244E+06
           14106     66.1242E+06     29.0220E+06              0.    -2.62131E+06
           14107     66.1311E+06     29.0966E+06              0.    -2.61653E+06
           14108     66.1061E+06     29.1555E+06              0.    -2.58142E+06
           14109     66.0814E+06     29.2128E+06              0.    -2.55153E+06
           14110     66.0569E+06     29.2686E+06              0.    -2.52670E+06
           14111     66.0326E+06     29.3229E+06              0.    -2.50681E+06
           14112     66.0085E+06     29.3758E+06              0.    -2.49173E+06
           14113     65.9845E+06     29.4274E+06              0.    -2.48134E+06
           14114     65.9605E+06     29.4778E+06              0.    -2.47552E+06
           14115     65.9366E+06     29.5270E+06              0.    -2.47416E+06
           14116     65.9126E+06     29.5752E+06              0.    -2.47717E+06
           14117     65.8885E+06     29.6222E+06              0.    -2.48444E+06
           14118     65.8644E+06     29.6683E+06              0.    -2.49588E+06
           14119     65.8400E+06     29.7135E+06              0.    -2.51141E+06
           14120     65.8155E+06     29.7578E+06              0.    -2.53094E+06
           14121     65.7908E+06     29.8013E+06              0.    -2.55439E+06
           14122     65.7657E+06     29.8440E+06              0.    -2.58171E+06
           14123     65.7404E+06     29.8860E+06              0.    -2.61281E+06
           14124     65.7147E+06     29.9274E+06              0.    -2.64764E+06
           14125     65.6886E+06     29.9682E+06              0.    -2.68615E+06
           14126     65.6621E+06     30.0084E+06              0.    -2.72826E+06
           14127     65.6352E+06     30.0482E+06              0.    -2.77395E+06
           14128     65.6078E+06     30.0874E+06              0.    -2.82316E+06
           14129     65.5798E+06     30.1263E+06              0.    -2.87585E+06
           14130     65.5513E+06     30.1647E+06              0.    -2.93198E+06
           14131     65.5222E+06     30.2029E+06              0.    -2.99153E+06
           14132     65.4925E+06     30.2407E+06              0.    -3.05446E+06
           14133     65.4621E+06     30.2784E+06              0.    -3.12074E+06
           14134     65.4310E+06     30.3158E+06              0.    -3.19036E+06
           14135     65.3993E+06     30.3530E+06              0.    -3.26329E+06
           14136     65.3667E+06     30.3901E+06              0.    -3.33952E+06
           14137     65.3334E+06     30.4272E+06              0.    -3.41904E+06
           14138     65.2992E+06     30.4641E+06              0.    -3.50184E+06
           14139     65.2642E+06     30.5011E+06              0.    -3.58790E+06
           14140     65.2283E+06     30.5381E+06              0.    -3.67723E+06
           14141     65.1915E+06     30.5751E+06              0.    -3.76983E+06
           14142     65.1538E+06     30.6122E+06              0.    -3.86570E+06
           14143     65.1150E+06     30.6494E+06              0.    -3.96485E+06
           14144     65.0753E+06     30.6868E+06              0.    -4.06727E+06
           14145     65.0344E+06     30.7243E+06              0.    -4.17299E+06
           14146     64.9926E+06     30.7621E+06              0.    -4.28202E+06
           14147     64.9496E+06     30.8001E+06              0.    -4.39437E+06
           14148     64.9054E+06     30.8384E+06              0.    -4.51007E+06
           14149     64.8601E+06     30.8770E+06              0.    -4.62912E+06
           14150     64.8135E+06     30.9160E+06              0.    -4.75156E+06
           14151     64.7657E+06     30.9553E+06              0.    -4.87741E+06
           14152     64.7167E+06     30.9949E+06              0.    -5.00671E+06
           14153     64.6663E+06     31.0351E+06              0.    -5.13947E+06
           14154     64.6145E+06     31.0756E+06              0.    -5.27573E+06
           14155     64.5614E+06     31.1167E+06              0.    -5.41553E+06
           14156     64.5068E+06     31.1582E+06              0.     -5.5589E+06
           14157     64.4508E+06     31.2003E+06              0.    -5.70589E+06
           14158     64.3932E+06     31.2430E+06              0.    -5.85652E+06
           14159     64.3342E+06     31.2862E+06              0.    -6.01086E+06
           14160     64.2735E+06     31.3300E+06              0.    -6.16893E+06
           14161     64.2112E+06     31.3745E+06              0.    -6.33079E+06
           14162     64.1473E+06     31.4197E+06              0.    -6.49648E+06
           14163     64.0817E+06     31.4655E+06              0.    -6.66606E+06
           14164     64.0144E+06     31.5121E+06              0.    -6.83958E+06
           14165     63.9452E+06     31.5594E+06              0.    -7.01709E+06
           14166     63.8743E+06     31.6075E+06              0.    -7.19865E+06
           14167     63.8015E+06     31.6564E+06              0.    -7.38431E+06
           14168     63.7268E+06     31.7061E+06              0.    -7.57413E+06
           14169     63.6501E+06     31.7566E+06              0.    -7.76817E+06
           14170     63.5714E+06     31.8081E+06              0.    -7.96650E+06
           14171     63.4908E+06     31.8604E+06              0.    -8.16918E+06
           14172     63.4080E+06     31.9137E+06              0.    -8.37627E+06
           14173     63.3230E+06     31.9679E+06              0.    -8.58784E+06
           14174     63.2359E+06     32.0230E+06              0.    -8.80396E+06
           14175     63.1466E+06     32.0792E+06              0.    -9.02469E+06
           14176     63.0550E+06     32.1364E+06              0.    -9.25011E+06
           14177     62.9610E+06     32.1946E+06              0.    -9.48028E+06
           14178     62.8647E+06     32.2540E+06              0.    -9.71529E+06
           14179     62.7659E+06     32.3144E+06              0.    -9.95519E+06
           14180     62.6646E+06     32.3759E+06              0.    -10.2001E+06
           14181     62.5608E+06     32.4386E+06              0.    -10.4500E+06
           14182     62.4543E+06     32.5025E+06              0.    -10.7051E+06
           14183     62.3452E+06     32.5676E+06              0.    -10.9653E+06
           14184     62.2334E+06     32.6339E+06              0.    -11.2309E+06
           14185     62.1188E+06     32.7014E+06              0.    -11.5018E+06
           14186     62.0013E+06     32.7702E+06              0.    -11.7782E+06
           14187     61.8809E+06     32.8403E+06              0.    -12.0601E+06
           14188     61.7575E+06     32.9118E+06              0.    -12.3476E+06
           14189     61.6311E+06     32.9845E+06              0.    -12.6407E+06
           14190     61.5016E+06     33.0587E+06              0.    -12.9397E+06
           14191     61.3689E+06     33.1343E+06              0.    -13.2444E+06
           14192     61.2330E+06     33.2112E+06              0.    -13.5551E+06
           14193     61.0937E+06     33.2896E+06              0.    -13.8719E+06
           14194     60.9510E+06     33.3695E+06              0.    -14.1947E+06
           14195     60.8049E+06     33.4509E+06              0.    -14.5237E+06
           14196     60.6552E+06     33.5338E+06              0.    -14.8589E+06
           14197     60.5019E+06     33.6182E+06              0.    -15.2005E+06
           14198     60.3449E+06     33.7042E+06              0.    -15.5485E+06
           14199     60.1841E+06     33.7918E+06              0.    -15.9029E+06
           14200     60.0194E+06     33.8810E+06              0.    -16.2640E+06
           14201     59.8507E+06     33.9718E+06              0.    -16.6317E+06
           14202     59.6780E+06     34.0643E+06              0.    -17.0061E+06
           14203     59.5012E+06     34.1584E+06              0.    -17.3874E+06
           14204     59.3201E+06     34.2543E+06              0.    -17.7755E+06
           14205     59.1347E+06     34.3519E+06              0.    -18.1705E+06
           14206     58.9449E+06     34.4512E+06              0.    -18.5726E+06
           14207     58.7506E+06     34.5522E+06              0.    -18.9817E+06
           14208     58.5516E+06     34.6551E+06              0.    -19.3981E+06
           14209     58.3479E+06     34.7597E+06              0.    -19.8216E+06
           14210     58.1394E+06     34.8661E+06              0.    -20.2524E+06
           14211     57.9259E+06     34.9744E+06              0.    -20.6905E+06
           14212     57.7074E+06     35.0845E+06              0.    -21.1360E+06
           14213     57.4837E+06     35.1965E+06              0.    -21.5890E+06
           14214     57.2547E+06     35.3104E+06              0.    -22.0495E+06
           14215     57.0203E+06     35.4261E+06              0.    -22.5175E+06
           14216     56.7804E+06     35.5437E+06              0.    -22.9930E+06
           14217     56.5348E+06     35.6633E+06              0.    -23.4762E+06
           14218     56.2835E+06     35.7847E+06              0.    -23.9670E+06
           14219     56.0262E+06     35.9081E+06              0.    -24.4655E+06
           14220     55.7629E+06     36.0334E+06              0.    -24.9716E+06
           14221     55.4934E+06     36.1606E+06              0.    -25.4855E+06
           14222     55.2175E+06     36.2898E+06              0.    -26.0070E+06
           14223     54.9352E+06     36.4209E+06              0.    -26.5363E+06
           14224     54.6462E+06     36.5539E+06              0.    -27.0732E+06
           14225     54.3504E+06     36.6888E+06              0.    -27.6178E+06
           14226     54.0477E+06     36.8256E+06              0.    -28.1701E+06
           14227     53.7379E+06     36.9643E+06              0.    -28.7301E+06
           14228     53.4209E+06     37.1049E+06              0.    -29.2976E+06
           14229     53.0963E+06     37.2474E+06              0.    -29.8726E+06
           14230     52.7642E+06     37.3917E+06              0.    -30.4552E+06
           14231     52.4243E+06     37.5377E+06              0.    -31.0452E+06
           14232     52.0764E+06     37.6856E+06              0.    -31.6424E+06
           14233     51.7203E+06     37.8352E+06              0.    -32.2470E+06
           14234     51.3559E+06     37.9864E+06              0.    -32.8587E+06
           14235     50.9830E+06     38.1393E+06              0.    -33.4773E+06
           14236     50.6013E+06     38.2938E+06              0.    -34.1029E+06
           14237     50.2106E+06     38.4498E+06              0.    -34.7353E+06
           14238     49.8108E+06     38.6073E+06              0.    -35.3742E+06
           14239     49.4015E+06     38.7661E+06              0.    -36.0195E+06
           14240     48.9827E+06     38.9262E+06              0.    -36.6710E+06
           14241     48.5540E+06     39.0875E+06              0.    -37.3286E+06
           14242     48.1153E+06     39.2499E+06              0.    -37.9919E+06
           14243     47.6663E+06     39.4133E+06              0.    -38.6608E+06
           14244     47.2067E+06     39.5775E+06              0.    -39.3349E+06
           14245     46.7363E+06     39.7424E+06              0.    -40.0140E+06
           14246     46.2549E+06     39.9079E+06              0.    -40.6978E+06
           14247     45.7622E+06     40.0739E+06              0.    -41.3860E+06
           14248     45.2579E+06     40.2400E+06              0.    -42.0781E+06
           14249     44.7418E+06     40.4062E+06              0.    -42.7739E+06
           14250     44.2136E+06     40.5723E+06              0.    -43.4729E+06
           14251     43.6729E+06     40.7380E+06              0.    -44.1747E+06
           14252     43.1197E+06     40.9030E+06              0.    -44.8788E+06
           14253     42.5534E+06     41.0672E+06              0.    -45.5848E+06
           14254     41.9739E+06     41.2301E+06              0.    -46.2922E+06
           14255     41.3809E+06     41.3917E+06              0.    -47.0003E+06
           14256     40.7740E+06     41.5514E+06              0.    -47.7087E+06
           14257     40.1529E+06     41.7090E+06              0.    -48.4168E+06
           14258     39.5174E+06     41.8641E+06              0.    -49.1238E+06
           14259     38.8671E+06     42.0162E+06              0.    -49.8292E+06
           14260     38.2018E+06     42.1650E+06              0.    -50.5322E+06
           14261     37.5210E+06     42.3100E+06              0.    -51.2320E+06
           14262     36.8245E+06     42.4507E+06              0.    -51.9281E+06
           14263     36.1120E+06     42.5865E+06              0.    -52.6194E+06
           14264     35.3832E+06     42.7169E+06              0.    -53.3051E+06
           14265     34.6377E+06     42.8412E+06              0.    -53.9844E+06
           14266     33.8752E+06     42.9589E+06              0.    -54.6564E+06
           14267     33.0954E+06     43.0692E+06              0.    -55.3199E+06
           14268     32.2980E+06     43.1714E+06              0.    -55.9742E+06
           14269     31.4828E+06     43.2647E+06              0.    -56.6180E+06
           14270     30.6493E+06     43.3483E+06              0.    -57.2503E+06
           14271     29.7974E+06     43.4212E+06              0.    -57.8700E+06
           14272     28.9267E+06     43.4826E+06              0.    -58.4758E+06
           14273     28.0369E+06     43.5314E+06              0.    -59.0666E+06
           14274     27.1279E+06     43.5666E+06              0.    -59.6410E+06
           14275     26.1994E+06     43.5870E+06              0.    -60.1979E+06
           14276     25.2511E+06     43.5915E+06              0.    -60.7357E+06
           14277     24.2828E+06     43.5788E+06              0.    -61.2531E+06
           14278     23.2943E+06     43.5476E+06              0.    -61.7487E+06
           14279     22.2855E+06     43.4964E+06              0.    -62.2211E+06
           14280     21.2563E+06     43.4238E+06              0.    -62.6686E+06
           14281     20.2064E+06     43.3283E+06              0.    -63.0897E+06
           14282     19.1358E+06     43.2081E+06              0.    -63.4829E+06
           14283     18.0445E+06     43.0617E+06              0.    -63.8464E+06
           14284     16.9324E+06     42.8871E+06              0.    -64.1788E+06
           14285     15.7995E+06     42.6825E+06              0.    -64.4782E+06
           14286     14.6459E+06     42.4460E+06              0.    -64.7429E+06
           14287     13.4717E+06     42.1754E+06              0.    -64.9713E+06
           14288     12.2769E+06     41.8686E+06              0.    -65.1615E+06
           14289     11.0618E+06     41.5233E+06              0.    -65.3118E+06
           14290     9.82668E+06     41.1373E+06              0.    -65.4203E+06
           14291      8.5717E+06     40.7081E+06              0.    -65.4854E+06
           14292     7.29724E+06     40.2331E+06              0.    -65.5051E+06
           14293     6.00371E+06     39.7098E+06              0.    -65.4777E+06
           14294     4.69156E+06     39.1355E+06              0.    -65.4013E+06
           14295     3.36130E+06     38.5073E+06              0.    -65.2743E+06
           14296     2.01351E+06     37.8225E+06              0.    -65.0947E+06
           14297     648.861E+03     37.0780E+06              0.    -64.8608E+06
           14298    -731.949E+03     36.2709E+06              0.    -64.5710E+06
           14299    -2.12813E+06     35.3980E+06              0.    -64.2235E+06
           14300    -3.53882E+06     34.4563E+06              0.    -63.8166E+06
           14301    -4.96309E+06     33.4423E+06              0.    -63.3488E+06
           14302    -6.39994E+06     32.3530E+06              0.    -62.8185E+06
           14303    -7.84829E+06     31.1849E+06              0.    -62.2241E+06
           14304    -9.30699E+06     29.9346E+06              0.    -61.5644E+06
           14305    -10.7748E+06     28.5988E+06              0.    -60.8378E+06
           14306    -12.2505E+06     27.1741E+06              0.    -60.0431E+06
           14307    -13.7327E+06     25.6569E+06              0.    -59.1791E+06
           14308    -15.2198E+06     24.0439E+06              0.    -58.2447E+06
           14309    -16.7106E+06     22.3315E+06              0.    -57.2388E+06
           14310    -18.2033E+06     20.5165E+06              0.    -56.1605E+06
           14311    -19.6964E+06     18.5953E+06              0.    -55.0089E+06
           14312    -21.1882E+06     16.5647E+06              0.    -53.7834E+06
           14313    -22.6769E+06     14.4213E+06              0.    -52.4832E+06
           14314    -24.1608E+06     12.1618E+06              0.    -51.1078E+06
           14315    -25.6381E+06     9.78325E+06              0.    -49.6569E+06
           14316    -27.1068E+06     7.28247E+06              0.    -48.1300E+06
           14317    -28.5650E+06     4.65646E+06              0.    -46.5271E+06
           14318    -30.0110E+06     1.90243E+06              0.    -44.8478E+06
           14319    -31.4427E+06    -982.448E+03              0.    -43.0923E+06
           14320    -32.8595E+06    -4.00125E+06              0.    -41.2608E+06
           14321    -34.2637E+06    -7.15791E+06              0.    -39.3531E+06
           14322    -35.8559E+06    -10.8937E+06              0.    -38.5239E+06
           14323     66.0215E+06     28.9779E+06              0.    -2.59468E+06
           14324     66.0289E+06     29.0590E+06              0.    -2.58994E+06
           14325     66.0017E+06     29.1230E+06              0.    -2.55519E+06
           14326     65.9748E+06     29.1853E+06              0.    -2.52559E+06
           14327     65.9482E+06     29.2459E+06              0.    -2.50101E+06
           14328     65.9218E+06     29.3050E+06              0.    -2.48132E+06
           14329     65.8956E+06     29.3625E+06              0.    -2.46639E+06
           14330     65.8695E+06     29.4187E+06              0.    -2.45609E+06
           14331     65.8434E+06     29.4735E+06              0.    -2.45033E+06
           14332     65.8174E+06     29.5270E+06              0.    -2.44898E+06
           14333     65.7913E+06     29.5793E+06              0.    -2.45195E+06
           14334     65.7651E+06     29.6304E+06              0.    -2.45913E+06
           14335     65.7388E+06     29.6805E+06              0.    -2.47045E+06
           14336     65.7124E+06     29.7296E+06              0.    -2.48581E+06
           14337     65.6857E+06     29.7778E+06              0.    -2.50513E+06
           14338     65.6588E+06     29.8251E+06              0.    -2.52834E+06
           14339     65.6315E+06     29.8715E+06              0.    -2.55537E+06
           14340     65.6040E+06     29.9172E+06              0.    -2.58615E+06
           14341     65.5761E+06     29.9622E+06              0.    -2.62062E+06
           14342     65.5477E+06     30.0065E+06              0.    -2.65872E+06
           14343     65.5189E+06     30.0502E+06              0.    -2.70039E+06
           14344     65.4896E+06     30.0934E+06              0.    -2.74560E+06
           14345     65.4598E+06     30.1360E+06              0.    -2.79430E+06
           14346     65.4294E+06     30.1782E+06              0.    -2.84644E+06
           14347     65.3984E+06     30.2200E+06              0.    -2.90199E+06
           14348     65.3668E+06     30.2615E+06              0.    -2.96091E+06
           14349     65.3345E+06     30.3026E+06              0.    -3.02318E+06
           14350     65.3014E+06     30.3435E+06              0.    -3.08878E+06
           14351     65.2677E+06     30.3841E+06              0.    -3.15767E+06
           14352     65.2331E+06     30.4246E+06              0.    -3.22984E+06
           14353     65.1977E+06     30.4649E+06              0.    -3.30528E+06
           14354     65.1615E+06     30.5051E+06              0.    -3.38396E+06
           14355     65.1244E+06     30.5452E+06              0.    -3.46589E+06
           14356     65.0863E+06     30.5854E+06              0.    -3.55105E+06
           14357     65.0473E+06     30.6255E+06              0.    -3.63945E+06
           14358     65.0073E+06     30.6657E+06              0.    -3.73108E+06
           14359     64.9663E+06     30.7060E+06              0.    -3.82594E+06
           14360     64.9242E+06     30.7464E+06              0.    -3.92405E+06
           14361     64.8810E+06     30.7869E+06              0.    -4.02540E+06
           14362     64.8366E+06     30.8277E+06              0.    -4.13001E+06
           14363     64.7911E+06     30.8687E+06              0.    -4.23789E+06
           14364     64.7444E+06     30.9099E+06              0.    -4.34905E+06
           14365     64.6964E+06     30.9515E+06              0.    -4.46352E+06
           14366     64.6472E+06     30.9933E+06              0.    -4.58132E+06
           14367     64.5966E+06     31.0355E+06              0.    -4.70247E+06
           14368     64.5447E+06     31.0782E+06              0.    -4.82699E+06
           14369     64.4913E+06     31.1212E+06              0.    -4.95491E+06
           14370     64.4366E+06     31.1647E+06              0.    -5.08626E+06
           14371     64.3804E+06     31.2087E+06              0.    -5.22107E+06
           14372     64.3226E+06     31.2531E+06              0.    -5.35939E+06
           14373     64.2634E+06     31.2982E+06              0.    -5.50123E+06
           14374     64.2025E+06     31.3438E+06              0.    -5.64664E+06
           14375     64.1400E+06     31.3900E+06              0.    -5.79567E+06
           14376     64.0758E+06     31.4368E+06              0.    -5.94835E+06
           14377     64.0100E+06     31.4843E+06              0.    -6.10473E+06
           14378     63.9423E+06     31.5324E+06              0.    -6.26484E+06
           14379     63.8729E+06     31.5813E+06              0.    -6.42875E+06
           14380     63.8017E+06     31.6310E+06              0.    -6.59650E+06
           14381     63.7285E+06     31.6813E+06              0.    -6.76814E+06
           14382     63.6535E+06     31.7325E+06              0.    -6.94373E+06
           14383     63.5764E+06     31.7846E+06              0.    -7.12331E+06
           14384     63.4974E+06     31.8374E+06              0.    -7.30695E+06
           14385     63.4163E+06     31.8912E+06              0.    -7.49470E+06
           14386     63.3331E+06     31.9459E+06              0.    -7.68662E+06
           14387     63.2477E+06     32.0014E+06              0.    -7.88278E+06
           14388     63.1601E+06     32.0580E+06              0.    -8.08323E+06
           14389     63.0702E+06     32.1155E+06              0.    -8.28804E+06
           14390     62.9781E+06     32.1741E+06              0.    -8.49727E+06
           14391     62.8835E+06     32.2337E+06              0.    -8.71100E+06
           14392     62.7866E+06     32.2943E+06              0.    -8.92927E+06
           14393     62.6872E+06     32.3561E+06              0.    -9.15218E+06
           14394     62.5852E+06     32.4190E+06              0.    -9.37978E+06
           14395     62.4807E+06     32.4830E+06              0.    -9.61215E+06
           14396     62.3735E+06     32.5482E+06              0.    -9.84936E+06
           14397     62.2637E+06     32.6145E+06              0.    -10.0915E+06
           14398     62.1511E+06     32.6821E+06              0.    -10.3386E+06
           14399     62.0356E+06     32.7510E+06              0.    -10.5908E+06
           14400     61.9173E+06     32.8211E+06              0.    -10.8481E+06
           14401     61.7961E+06     32.8925E+06              0.    -11.1106E+06
           14402     61.6718E+06     32.9653E+06              0.    -11.3784E+06
           14403     61.5444E+06     33.0394E+06              0.    -11.6516E+06
           14404     61.4140E+06     33.1148E+06              0.    -11.9302E+06
           14405     61.2803E+06     33.1917E+06              0.    -12.2143E+06
           14406     61.1433E+06     33.2700E+06              0.    -12.5041E+06
           14407     61.0030E+06     33.3497E+06              0.    -12.7995E+06
           14408     60.8592E+06     33.4309E+06              0.    -13.1007E+06
           14409     60.7119E+06     33.5137E+06              0.    -13.4078E+06
           14410     60.5611E+06     33.5979E+06              0.    -13.7207E+06
           14411     60.4066E+06     33.6837E+06              0.    -14.0397E+06
           14412     60.2484E+06     33.7710E+06              0.    -14.3647E+06
           14413     60.0864E+06     33.8600E+06              0.    -14.6959E+06
           14414     59.9204E+06     33.9505E+06              0.    -15.0334E+06
           14415     59.7505E+06     34.0427E+06              0.    -15.3771E+06
           14416     59.5765E+06     34.1366E+06              0.    -15.7273E+06
           14417     59.3984E+06     34.2321E+06              0.    -16.0839E+06
           14418     59.2160E+06     34.3294E+06              0.    -16.4470E+06
           14419     59.0292E+06     34.4283E+06              0.    -16.8168E+06
           14420     58.8380E+06     34.5291E+06              0.    -17.1933E+06
           14421     58.6423E+06     34.6315E+06              0.    -17.5765E+06
           14422     58.4420E+06     34.7358E+06              0.    -17.9665E+06
           14423     58.2369E+06     34.8419E+06              0.    -18.3635E+06
           14424      58.027E+06     34.9498E+06              0.    -18.7674E+06
           14425     57.8121E+06     35.0595E+06              0.    -19.1783E+06
           14426     57.5922E+06     35.1711E+06              0.    -19.5964E+06
           14427     57.3672E+06     35.2845E+06              0.    -20.0215E+06
           14428     57.1368E+06     35.3999E+06              0.    -20.4539E+06
           14429     56.9011E+06     35.5171E+06              0.    -20.8935E+06
           14430     56.6598E+06     35.6362E+06              0.    -21.3404E+06
           14431     56.4130E+06     35.7573E+06              0.    -21.7947E+06
           14432     56.1603E+06     35.8802E+06              0.    -22.2563E+06
           14433     55.9018E+06     36.0051E+06              0.    -22.7253E+06
           14434     55.6373E+06     36.1320E+06              0.    -23.2018E+06
           14435     55.3667E+06     36.2608E+06              0.    -23.6858E+06
           14436     55.0897E+06     36.3915E+06              0.    -24.1773E+06
           14437     54.8064E+06     36.5241E+06              0.    -24.6763E+06
           14438     54.5165E+06     36.6587E+06              0.    -25.1828E+06
           14439     54.2199E+06     36.7952E+06              0.    -25.6968E+06
           14440     53.9164E+06     36.9337E+06              0.    -26.2183E+06
           14441     53.6060E+06     37.0740E+06              0.    -26.7474E+06
           14442     53.2883E+06     37.2163E+06              0.    -27.2840E+06
           14443     52.9634E+06     37.3604E+06              0.    -27.8280E+06
           14444     52.6310E+06     37.5064E+06              0.    -28.3794E+06
           14445     52.2909E+06     37.6542E+06              0.    -28.9383E+06
           14446     51.9430E+06     37.8038E+06              0.    -29.5044E+06
           14447     51.5871E+06     37.9552E+06              0.    -30.0779E+06
           14448     51.2231E+06     38.1083E+06              0.    -30.6585E+06
           14449     50.8506E+06     38.2631E+06              0.    -31.2463E+06
           14450     50.4697E+06     38.4195E+06              0.    -31.8411E+06
           14451     50.0800E+06     38.5775E+06              0.    -32.4427E+06
           14452     49.6814E+06     38.7371E+06              0.    -33.0512E+06
           14453     49.2737E+06     38.8980E+06              0.    -33.6663E+06
           14454     48.8566E+06     39.0604E+06              0.    -34.2879E+06
           14455     48.4300E+06      39.224E+06              0.    -34.9159E+06
           14456     47.9937E+06     39.3888E+06              0.    -35.5500E+06
           14457     47.5473E+06     39.5547E+06              0.    -36.1900E+06
           14458     47.0908E+06     39.7216E+06              0.    -36.8359E+06
           14459     46.6239E+06     39.8894E+06              0.    -37.4872E+06
           14460     46.1463E+06     40.0579E+06              0.    -38.1438E+06
           14461     45.6579E+06      40.227E+06              0.    -38.8054E+06
           14462     45.1583E+06     40.3965E+06              0.    -39.4717E+06
           14463     44.6473E+06     40.5663E+06              0.    -40.1424E+06
           14464     44.1248E+06     40.7362E+06              0.    -40.8172E+06
           14465     43.5904E+06      40.906E+06              0.    -41.4957E+06
           14466     43.0438E+06     41.0755E+06              0.    -42.1775E+06
           14467     42.4849E+06     41.2444E+06              0.    -42.8623E+06
           14468     41.9133E+06     41.4125E+06              0.    -43.5495E+06
           14469     41.3288E+06     41.5795E+06              0.    -44.2389E+06
           14470     40.7311E+06     41.7452E+06              0.    -44.9298E+06
           14471     40.1199E+06     41.9093E+06              0.    -45.6217E+06
           14472     39.4950E+06     42.0714E+06              0.    -46.3142E+06
           14473     38.8560E+06     42.2311E+06              0.    -47.0066E+06
           14474     38.2027E+06     42.3881E+06              0.    -47.6984E+06
           14475     37.5348E+06      42.542E+06              0.    -48.3889E+06
           14476     36.8521E+06     42.6923E+06              0.    -49.0775E+06
           14477     36.1541E+06     42.8387E+06              0.    -49.7634E+06
           14478     35.4407E+06     42.9805E+06              0.    -50.4459E+06
           14479     34.7115E+06     43.1172E+06              0.    -51.1244E+06
           14480     33.9663E+06     43.2484E+06              0.    -51.7978E+06
           14481     33.2048E+06     43.3733E+06              0.    -52.4655E+06
           14482     32.4266E+06     43.4914E+06              0.    -53.1265E+06
           14483     31.6315E+06     43.6019E+06              0.    -53.7799E+06
           14484     30.8193E+06     43.7042E+06              0.    -54.4248E+06
           14485     29.9896E+06     43.7975E+06              0.    -55.0601E+06
           14486     29.1422E+06     43.8809E+06              0.    -55.6849E+06
           14487     28.2768E+06     43.9535E+06              0.    -56.2979E+06
           14488     27.3932E+06     44.0145E+06              0.    -56.8983E+06
           14489     26.4912E+06     44.0629E+06              0.    -57.4847E+06
           14490     25.5704E+06     44.0977E+06              0.    -58.0559E+06
           14491     24.6308E+06     44.1177E+06              0.    -58.6108E+06
           14492     23.6720E+06     44.1217E+06              0.    -59.1481E+06
           14493     22.6940E+06     44.1087E+06              0.    -59.6664E+06
           14494     21.6965E+06     44.0772E+06              0.    -60.1643E+06
           14495     20.6795E+06     44.0259E+06              0.    -60.6405E+06
           14496     19.6427E+06     43.9535E+06              0.    -61.0936E+06
           14497     18.5861E+06     43.8583E+06              0.    -61.5220E+06
           14498     17.5097E+06     43.7389E+06              0.    -61.9242E+06
           14499     16.4133E+06     43.5935E+06              0.    -62.2988E+06
           14500     15.2970E+06     43.4205E+06              0.    -62.6441E+06
           14501     14.1608E+06     43.2180E+06              0.    -62.9585E+06
           14502     13.0048E+06     42.9841E+06              0.    -63.2404E+06
           14503     11.8290E+06     42.7168E+06              0.    -63.4882E+06
           14504     10.6336E+06     42.4141E+06              0.    -63.7001E+06
           14505     9.41884E+06     42.0738E+06              0.    -63.8745E+06
           14506     8.18488E+06     41.6936E+06              0.    -64.0097E+06
           14507     6.93201E+06     41.2713E+06              0.    -64.1039E+06
           14508     5.66057E+06     40.8045E+06              0.    -64.1554E+06
           14509     4.37095E+06     40.2905E+06              0.    -64.1625E+06
           14510     3.06358E+06     39.7269E+06              0.    -64.1234E+06
           14511     1.73896E+06     39.1109E+06              0.    -64.0365E+06
           14512     397.662E+03     38.4399E+06              0.    -63.8999E+06
           14513    -959.707E+03     37.7109E+06              0.    -63.7120E+06
           14514    -2.33246E+06     36.9211E+06              0.    -63.4712E+06
           14515    -3.71984E+06     36.0676E+06              0.    -63.1757E+06
           14516    -5.12105E+06     35.1472E+06              0.    -62.8240E+06
           14517    -6.53518E+06     34.1568E+06              0.    -62.4145E+06
           14518    -7.96129E+06     33.0933E+06              0.    -61.9456E+06
           14519    -9.39836E+06     31.9535E+06              0.    -61.4159E+06
           14520    -10.8453E+06     30.7342E+06              0.    -60.8239E+06
           14521    -12.3009E+06     29.4319E+06              0.    -60.1683E+06
           14522    -13.7641E+06     28.0435E+06              0.    -59.4477E+06
           14523    -15.2334E+06     26.5655E+06              0.     -58.661E+06
           14524    -16.7075E+06     24.9946E+06              0.    -57.8069E+06
           14525    -18.1851E+06     23.3275E+06              0.    -56.8845E+06
           14526    -19.6645E+06     21.5607E+06              0.    -55.8927E+06
           14527    -21.1444E+06     19.6911E+06              0.    -54.8306E+06
           14528    -22.6230E+06     17.7152E+06              0.    -53.6974E+06
           14529    -24.0987E+06     15.6299E+06              0.    -52.4924E+06
           14530    -25.5697E+06     13.4319E+06              0.    -51.2151E+06
           14531    -27.0345E+06     11.1180E+06              0.    -49.8648E+06
           14532    -28.4910E+06     8.68529E+06              0.    -48.4411E+06
           14533    -29.9376E+06     6.13073E+06              0.    -46.9438E+06
           14534    -31.3722E+06     3.45141E+06              0.    -45.3726E+06
           14535    -32.7931E+06     644.611E+03              0.    -43.7274E+06
           14536    -34.1982E+06    -2.29233E+06              0.    -42.0081E+06
           14537    -35.5848E+06    -5.36161E+06              0.    -40.2144E+06
           14538    -36.9466E+06    -8.56393E+06              0.    -38.3468E+06
           14539    -38.5289E+06    -12.3422E+06              0.    -37.5295E+06
           14540     65.9199E+06     28.9343E+06              0.    -2.56586E+06
           14541     65.9279E+06     29.0218E+06              0.    -2.56118E+06
           14542     65.8985E+06     29.0909E+06              0.    -2.52680E+06
           14543     65.8695E+06     29.1581E+06              0.    -2.49753E+06
           14544     65.8407E+06     29.2235E+06              0.    -2.47322E+06
           14545     65.8122E+06     29.2873E+06              0.    -2.45374E+06
           14546     65.7839E+06     29.3494E+06              0.    -2.43896E+06
           14547     65.7557E+06     29.4100E+06              0.    -2.42878E+06
           14548     65.7275E+06     29.4691E+06              0.    -2.42307E+06
           14549     65.6994E+06     29.5269E+06              0.    -2.42173E+06
           14550     65.6712E+06     29.5833E+06              0.    -2.42466E+06
           14551     65.6430E+06     29.6386E+06              0.    -2.43176E+06
           14552     65.6146E+06     29.6926E+06              0.    -2.44294E+06
           14553     65.5860E+06     29.7456E+06              0.    -2.45812E+06
           14554     65.5572E+06     29.7976E+06              0.    -2.47722E+06
           14555     65.5282E+06     29.8486E+06              0.    -2.50017E+06
           14556     65.4988E+06     29.8987E+06              0.    -2.52689E+06
           14557     65.4690E+06     29.9480E+06              0.    -2.55731E+06
           14558     65.4389E+06     29.9965E+06              0.    -2.59139E+06
           14559     65.4083E+06     30.0444E+06              0.    -2.62905E+06
           14560     65.3772E+06     30.0915E+06              0.    -2.67025E+06
           14561     65.3456E+06     30.1381E+06              0.    -2.71495E+06
           14562     65.3134E+06     30.1841E+06              0.    -2.76309E+06
           14563     65.2806E+06     30.2297E+06              0.    -2.81463E+06
           14564     65.2472E+06     30.2748E+06              0.    -2.86955E+06
           14565     65.2130E+06     30.3195E+06              0.    -2.92781E+06
           14566     65.1781E+06     30.3638E+06              0.    -2.98937E+06
           14567     65.1425E+06     30.4079E+06              0.    -3.05422E+06
           14568     65.1061E+06     30.4517E+06              0.    -3.12233E+06
           14569     65.0688E+06     30.4954E+06              0.    -3.19367E+06
           14570     65.0306E+06     30.5388E+06              0.    -3.26825E+06
           14571     64.9915E+06     30.5822E+06              0.    -3.34604E+06
           14572     64.9514E+06     30.6255E+06              0.    -3.42703E+06
           14573     64.9104E+06     30.6687E+06              0.    -3.51123E+06
           14574     64.8683E+06     30.7120E+06              0.    -3.59861E+06
           14575     64.8251E+06     30.7553E+06              0.    -3.68920E+06
           14576     64.7808E+06     30.7987E+06              0.    -3.78298E+06
           14577     64.7354E+06     30.8423E+06              0.    -3.87996E+06
           14578     64.6888E+06     30.8860E+06              0.    -3.98015E+06
           14579     64.6410E+06     30.9299E+06              0.    -4.08356E+06
           14580     64.5919E+06     30.9741E+06              0.    -4.19020E+06
           14581     64.5415E+06     31.0185E+06              0.    -4.30009E+06
           14582     64.4897E+06     31.0633E+06              0.    -4.41325E+06
           14583     64.4366E+06     31.1083E+06              0.    -4.52969E+06
           14584     64.3820E+06     31.1538E+06              0.    -4.64944E+06
           14585     64.3260E+06     31.1997E+06              0.    -4.77252E+06
           14586     64.2685E+06     31.2461E+06              0.    -4.89897E+06
           14587     64.2094E+06     31.2929E+06              0.    -5.02880E+06
           14588     64.1488E+06     31.3402E+06              0.    -5.16205E+06
           14589     64.0865E+06     31.3881E+06              0.    -5.29876E+06
           14590     64.0226E+06     31.4365E+06              0.    -5.43896E+06
           14591     63.9570E+06     31.4856E+06              0.    -5.58268E+06
           14592     63.8896E+06     31.5353E+06              0.    -5.72998E+06
           14593     63.8204E+06     31.5857E+06              0.    -5.88087E+06
           14594     63.7493E+06     31.6368E+06              0.    -6.03543E+06
           14595     63.6764E+06     31.6886E+06              0.    -6.19367E+06
           14596     63.6016E+06     31.7412E+06              0.    -6.35566E+06
           14597     63.5247E+06     31.7945E+06              0.    -6.52144E+06
           14598     63.4459E+06     31.8487E+06              0.    -6.69106E+06
           14599     63.3650E+06     31.9037E+06              0.    -6.86458E+06
           14600     63.2819E+06     31.9596E+06              0.    -7.04204E+06
           14601     63.1967E+06     32.0164E+06              0.    -7.22351E+06
           14602     63.1093E+06     32.0742E+06              0.    -7.40904E+06
           14603     63.0196E+06     32.1329E+06              0.    -7.59868E+06
           14604     62.9275E+06     32.1926E+06              0.    -7.79250E+06
           14605     62.8331E+06     32.2533E+06              0.    -7.99056E+06
           14606     62.7363E+06     32.3151E+06              0.    -8.19292E+06
           14607     62.6370E+06     32.3780E+06              0.    -8.39965E+06
           14608     62.5351E+06     32.4419E+06              0.    -8.61080E+06
           14609     62.4307E+06     32.5070E+06              0.    -8.82645E+06
           14610     62.3236E+06     32.5732E+06              0.    -9.04667E+06
           14611     62.2137E+06     32.6407E+06              0.    -9.27152E+06
           14612     62.1011E+06     32.7093E+06              0.    -9.50106E+06
           14613     61.9857E+06     32.7792E+06              0.    -9.73538E+06
           14614     61.8674E+06     32.8503E+06              0.    -9.97455E+06
           14615     61.7461E+06     32.9228E+06              0.    -10.2186E+06
           14616     61.6218E+06     32.9965E+06              0.    -10.4677E+06
           14617     61.4944E+06     33.0716E+06              0.    -10.7218E+06
           14618     61.3638E+06     33.1481E+06              0.    -10.9811E+06
           14619     61.2301E+06     33.2260E+06              0.    -11.2456E+06
           14620     61.0930E+06     33.3053E+06              0.    -11.5154E+06
           14621     60.9525E+06     33.3860E+06              0.    -11.7905E+06
           14622     60.8086E+06     33.4683E+06              0.    -12.0711E+06
           14623     60.6612E+06     33.5520E+06              0.    -12.3572E+06
           14624     60.5102E+06     33.6372E+06              0.    -12.6489E+06
           14625     60.3556E+06     33.7240E+06              0.    -12.9463E+06
           14626     60.1972E+06     33.8124E+06              0.    -13.2494E+06
           14627     60.0349E+06     33.9024E+06              0.    -13.5584E+06
           14628     59.8688E+06     33.9940E+06              0.    -13.8732E+06
           14629     59.6987E+06     34.0872E+06              0.    -14.1941E+06
           14630     59.5244E+06     34.1821E+06              0.    -14.5210E+06
           14631     59.3461E+06     34.2787E+06              0.    -14.8540E+06
           14632     59.1634E+06     34.3770E+06              0.    -15.1933E+06
           14633     58.9765E+06     34.4770E+06              0.    -15.5388E+06
           14634     58.7850E+06     34.5788E+06              0.    -15.8907E+06
           14635     58.5891E+06     34.6824E+06              0.    -16.2491E+06
           14636     58.3885E+06     34.7877E+06              0.    -16.6139E+06
           14637     58.1832E+06     34.8949E+06              0.    -16.9853E+06
           14638     57.9731E+06     35.0039E+06              0.    -17.3633E+06
           14639     57.7580E+06     35.1148E+06              0.    -17.7481E+06
           14640     57.5379E+06     35.2275E+06              0.    -18.1396E+06
           14641     57.3127E+06     35.3421E+06              0.    -18.5380E+06
           14642     57.0822E+06     35.4586E+06              0.    -18.9433E+06
           14643     56.8463E+06     35.5770E+06              0.    -19.3555E+06
           14644     56.6049E+06     35.6973E+06              0.    -19.7747E+06
           14645     56.3580E+06     35.8196E+06              0.    -20.2009E+06
           14646     56.1053E+06     35.9438E+06              0.    -20.6343E+06
           14647     55.8468E+06     36.0699E+06              0.    -21.0748E+06
           14648     55.5824E+06     36.1980E+06              0.    -21.5226E+06
           14649     55.3118E+06     36.3281E+06              0.    -21.9775E+06
           14650     55.0350E+06     36.4601E+06              0.    -22.4397E+06
           14651     54.7519E+06     36.5941E+06              0.    -22.9092E+06
           14652     54.4623E+06     36.7300E+06              0.    -23.3860E+06
           14653     54.1660E+06     36.8679E+06              0.    -23.8701E+06
           14654     53.8630E+06     37.0078E+06              0.    -24.3616E+06
           14655     53.5531E+06     37.1496E+06              0.    -24.8604E+06
           14656     53.2361E+06     37.2933E+06              0.    -25.3666E+06
           14657     52.9119E+06     37.4389E+06              0.    -25.8801E+06
           14658     52.5804E+06     37.5865E+06              0.    -26.4009E+06
           14659     52.2413E+06     37.7359E+06              0.    -26.9290E+06
           14660     51.8945E+06     37.8871E+06              0.    -27.4644E+06
           14661     51.5399E+06     38.0402E+06              0.    -28.0071E+06
           14662     51.1773E+06     38.1950E+06              0.    -28.5569E+06
           14663     50.8065E+06     38.3516E+06              0.    -29.1138E+06
           14664     50.4273E+06     38.5099E+06              0.    -29.6778E+06
           14665     50.0396E+06     38.6698E+06              0.    -30.2488E+06
           14666     49.6432E+06     38.8314E+06              0.    -30.8266E+06
           14667     49.2379E+06     38.9944E+06              0.    -31.4113E+06
           14668     48.8235E+06     39.1590E+06              0.    -32.0026E+06
           14669     48.3997E+06     39.3249E+06              0.    -32.6005E+06
           14670     47.9666E+06     39.4921E+06              0.    -33.2048E+06
           14671     47.5237E+06     39.6606E+06              0.    -33.8153E+06
           14672     47.0709E+06     39.8302E+06              0.    -34.4320E+06
           14673     46.6080E+06     40.0007E+06              0.    -35.0545E+06
           14674     46.1349E+06     40.1722E+06              0.    -35.6828E+06
           14675     45.6512E+06     40.3445E+06              0.    -36.3166E+06
           14676     45.1567E+06     40.5174E+06              0.    -36.9556E+06
           14677     44.6513E+06     40.6908E+06              0.    -37.5996E+06
           14678     44.1347E+06     40.8645E+06              0.    -38.2483E+06
           14679     43.6066E+06     41.0384E+06              0.    -38.9015E+06
           14680     43.0669E+06     41.2123E+06              0.    -39.5589E+06
           14681     42.5153E+06     41.3859E+06              0.      -40.22E+06
           14682     41.9515E+06     41.5590E+06              0.    -40.8846E+06
           14683     41.3753E+06     41.7315E+06              0.    -41.5522E+06
           14684     40.7865E+06     41.9030E+06              0.    -42.2225E+06
           14685     40.1848E+06     42.0733E+06              0.    -42.8950E+06
           14686     39.5699E+06     42.2422E+06              0.    -43.5693E+06
           14687     38.9417E+06     42.4092E+06              0.    -44.2449E+06
           14688     38.2997E+06     42.5741E+06              0.    -44.9213E+06
           14689     37.6438E+06     42.7364E+06              0.    -45.5979E+06
           14690     36.9738E+06     42.8959E+06              0.    -46.2742E+06
           14691     36.2893E+06     43.0521E+06              0.    -46.9496E+06
           14692     35.5900E+06     43.2047E+06              0.    -47.6235E+06
           14693     34.8758E+06     43.3530E+06              0.    -48.2952E+06
           14694     34.1463E+06     43.4966E+06              0.    -48.9640E+06
           14695     33.4013E+06     43.6351E+06              0.    -49.6291E+06
           14696     32.6405E+06     43.7677E+06              0.    -50.2899E+06
           14697     31.8637E+06     43.8941E+06              0.    -50.9456E+06
           14698     31.0706E+06     44.0134E+06              0.    -51.5952E+06
           14699     30.2609E+06     44.1251E+06              0.    -52.2379E+06
           14700     29.4344E+06     44.2284E+06              0.    -52.8729E+06
           14701     28.5909E+06     44.3225E+06              0.    -53.4992E+06
           14702     27.7301E+06     44.4067E+06              0.    -54.1158E+06
           14703     26.8518E+06     44.4801E+06              0.    -54.7217E+06
           14704     25.9557E+06     44.5419E+06              0.    -55.3158E+06
           14705     25.0417E+06     44.5909E+06              0.    -55.8970E+06
           14706     24.1096E+06     44.6263E+06              0.    -56.4643E+06
           14707     23.1591E+06     44.6470E+06              0.    -57.0163E+06
           14708     22.1901E+06     44.6519E+06              0.    -57.5521E+06
           14709     21.2025E+06     44.6397E+06              0.    -58.0701E+06
           14710     20.1961E+06     44.6092E+06              0.    -58.5693E+06
           14711     19.1707E+06     44.5591E+06              0.    -59.0482E+06
           14712     18.1263E+06     44.4880E+06              0.    -59.5055E+06
           14713     17.0629E+06     44.3946E+06              0.    -59.9398E+06
           14714     15.9803E+06     44.2771E+06              0.    -60.3497E+06
           14715     14.8786E+06     44.1341E+06              0.    -60.7337E+06
           14716     13.7577E+06     43.9639E+06              0.    -61.0904E+06
           14717     12.6177E+06     43.7647E+06              0.    -61.4181E+06
           14718     11.4587E+06     43.5348E+06              0.    -61.7153E+06
           14719     10.2808E+06     43.2721E+06              0.    -61.9806E+06
           14720     9.08413E+06     42.9747E+06              0.    -62.2121E+06
           14721     7.86886E+06     42.6405E+06              0.    -62.4085E+06
           14722     6.63524E+06     42.2674E+06              0.    -62.5680E+06
           14723     5.38355E+06     41.8531E+06              0.    -62.6889E+06
           14724     4.11413E+06     41.3954E+06              0.    -62.7697E+06
           14725     2.82734E+06     40.8918E+06              0.    -62.8086E+06
           14726     1.52361E+06     40.3398E+06              0.    -62.8040E+06
           14727     203.428E+03     39.7368E+06              0.    -62.7542E+06
           14728    -1.13267E+06     39.0803E+06              0.    -62.6577E+06
           14729    -2.48408E+06     38.3675E+06              0.    -62.5126E+06
           14730    -3.85016E+06     37.5957E+06              0.    -62.3175E+06
           14731    -5.23018E+06     36.7618E+06              0.    -62.0707E+06
           14732    -6.62337E+06     35.8631E+06              0.    -61.7706E+06
           14733    -8.02888E+06     34.8965E+06              0.    -61.4158E+06
           14734    -9.44581E+06     33.8590E+06              0.    -61.0046E+06
           14735    -10.8732E+06     32.7475E+06              0.    -60.5357E+06
           14736    -12.3100E+06     31.5588E+06              0.    -60.0075E+06
           14737    -13.7550E+06     30.2898E+06              0.    -59.4188E+06
           14738    -15.2072E+06     28.9372E+06              0.    -58.7683E+06
           14739    -16.6654E+06     27.4977E+06              0.    -58.0547E+06
           14740    -18.1281E+06     25.9682E+06              0.    -57.2768E+06
           14741    -19.5940E+06     24.3453E+06              0.    -56.4335E+06
           14742    -21.0618E+06     22.6258E+06              0.    -55.5239E+06
           14743    -22.5300E+06     20.8065E+06              0.    -54.5470E+06
           14744    -23.9969E+06     18.8840E+06              0.    -53.5018E+06
           14745    -25.4611E+06     16.8552E+06              0.    -52.3877E+06
           14746    -26.9209E+06     14.7169E+06              0.     -51.204E+06
           14747    -28.3746E+06     12.4661E+06              0.    -49.9500E+06
           14748    -29.8204E+06     10.0996E+06              0.    -48.6253E+06
           14749    -31.2567E+06     7.61442E+06              0.    -47.2295E+06
           14750    -32.6815E+06     5.00777E+06              0.    -45.7622E+06
           14751    -34.0930E+06     2.27677E+06              0.    -44.2232E+06
           14752    -35.4894E+06    -581.228E+03              0.    -42.6123E+06
           14753    -36.8688E+06    -3.56888E+06              0.    -40.9295E+06
           14754    -38.2292E+06    -6.68868E+06              0.    -39.1750E+06
           14755    -39.5717E+06    -9.94486E+06              0.    -37.3488E+06
           14756    -41.1630E+06    -13.7738E+06              0.    -36.5475E+06
           14757     65.8195E+06     28.8911E+06              0.    -2.53489E+06
           14758     65.8280E+06     28.9850E+06              0.    -2.53025E+06
           14759     65.7965E+06     29.0591E+06              0.    -2.49628E+06
           14760     65.7654E+06     29.1312E+06              0.    -2.46736E+06
           14761     65.7345E+06     29.2014E+06              0.    -2.44334E+06
           14762     65.7039E+06     29.2698E+06              0.    -2.42409E+06
           14763     65.6735E+06     29.3364E+06              0.    -2.40949E+06
           14764     65.6432E+06     29.4014E+06              0.    -2.39942E+06
           14765     65.6130E+06     29.4648E+06              0.    -2.39377E+06
           14766     65.5828E+06     29.5268E+06              0.    -2.39244E+06
           14767     65.5526E+06     29.5873E+06              0.    -2.39533E+06
           14768     65.5223E+06     29.6465E+06              0.    -2.40234E+06
           14769     65.4918E+06     29.7045E+06              0.    -2.41338E+06
           14770     65.4612E+06     29.7614E+06              0.    -2.42837E+06
           14771     65.4303E+06     29.8171E+06              0.    -2.44723E+06
           14772     65.3991E+06     29.8718E+06              0.    -2.46989E+06
           14773     65.3676E+06     29.9256E+06              0.    -2.49627E+06
           14774     65.3357E+06     29.9785E+06              0.    -2.52632E+06
           14775     65.3033E+06     30.0305E+06              0.    -2.55997E+06
           14776     65.2705E+06     30.0818E+06              0.    -2.59717E+06
           14777     65.2372E+06     30.1323E+06              0.    -2.63787E+06
           14778     65.2033E+06     30.1823E+06              0.    -2.68201E+06
           14779     65.1687E+06     30.2316E+06              0.    -2.72956E+06
           14780     65.1335E+06     30.2805E+06              0.    -2.78047E+06
           14781     65.0977E+06     30.3288E+06              0.    -2.83471E+06
           14782     65.0610E+06     30.3767E+06              0.    -2.89224E+06
           14783     65.0237E+06     30.4243E+06              0.    -2.95305E+06
           14784     64.9854E+06     30.4716E+06              0.    -3.01709E+06
           14785     64.9463E+06     30.5185E+06              0.    -3.08436E+06
           14786     64.9063E+06     30.5653E+06              0.    -3.15483E+06
           14787     64.8654E+06     30.6119E+06              0.    -3.22848E+06
           14788     64.8235E+06     30.6584E+06              0.    -3.30531E+06
           14789     64.7805E+06     30.7047E+06              0.    -3.38530E+06
           14790     64.7365E+06     30.7511E+06              0.    -3.46845E+06
           14791     64.6914E+06     30.7975E+06              0.    -3.55476E+06
           14792     64.6451E+06     30.8439E+06              0.    -3.64422E+06
           14793     64.5976E+06     30.8904E+06              0.    -3.73684E+06
           14794     64.5489E+06     30.9370E+06              0.    -3.83261E+06
           14795     64.4989E+06     30.9839E+06              0.    -3.93156E+06
           14796     64.4476E+06     31.0309E+06              0.    -4.03369E+06
           14797     64.3950E+06     31.0782E+06              0.    -4.13900E+06
           14798     64.3409E+06     31.1258E+06              0.    -4.24753E+06
           14799     64.2854E+06     31.1737E+06              0.    -4.35927E+06
           14800     64.2285E+06     31.2220E+06              0.    -4.47426E+06
           14801     64.1700E+06     31.2707E+06              0.    -4.59252E+06
           14802     64.1100E+06     31.3198E+06              0.    -4.71406E+06
           14803     64.0483E+06     31.3694E+06              0.    -4.83893E+06
           14804     63.9850E+06     31.4195E+06              0.    -4.96714E+06
           14805     63.9200E+06     31.4702E+06              0.    -5.09872E+06
           14806     63.8532E+06     31.5214E+06              0.    -5.23371E+06
           14807     63.7847E+06     31.5733E+06              0.    -5.37215E+06
           14808     63.7144E+06     31.6258E+06              0.    -5.51406E+06
           14809     63.6421E+06     31.6789E+06              0.     -5.6595E+06
           14810     63.5680E+06     31.7328E+06              0.    -5.80850E+06
           14811     63.4918E+06     31.7874E+06              0.    -5.96109E+06
           14812     63.4137E+06     31.8428E+06              0.    -6.11734E+06
           14813     63.3335E+06     31.8990E+06              0.    -6.27727E+06
           14814     63.2512E+06     31.9561E+06              0.    -6.44095E+06
           14815     63.1667E+06     32.0140E+06              0.    -6.60841E+06
           14816     63.0800E+06     32.0728E+06              0.    -6.77972E+06
           14817     62.9910E+06     32.1326E+06              0.    -6.95492E+06
           14818     62.8997E+06     32.1933E+06              0.    -7.13407E+06
           14819     62.8060E+06     32.2550E+06              0.    -7.31722E+06
           14820     62.7099E+06     32.3177E+06              0.    -7.50443E+06
           14821     62.6113E+06     32.3814E+06              0.    -7.69576E+06
           14822     62.5102E+06     32.4463E+06              0.    -7.89127E+06
           14823     62.4065E+06     32.5122E+06              0.    -8.09101E+06
           14824     62.3001E+06     32.5793E+06              0.    -8.29506E+06
           14825     62.1910E+06     32.6476E+06              0.    -8.50348E+06
           14826     62.0792E+06     32.7170E+06              0.    -8.71633E+06
           14827     61.9645E+06     32.7877E+06              0.    -8.93367E+06
           14828     61.8469E+06     32.8596E+06              0.    -9.15558E+06
           14829     61.7263E+06     32.9328E+06              0.    -9.38212E+06
           14830     61.6027E+06     33.0073E+06              0.    -9.61337E+06
           14831     61.4761E+06     33.0832E+06              0.    -9.84938E+06
           14832     61.3462E+06     33.1604E+06              0.    -10.0902E+06
           14833     61.2132E+06     33.2390E+06              0.    -10.3360E+06
           14834     61.0768E+06     33.3190E+06              0.    -10.5868E+06
           14835     60.9371E+06     33.4005E+06              0.    -10.8426E+06
           14836     60.7939E+06     33.4834E+06              0.    -11.1035E+06
           14837     60.6472E+06     33.5678E+06              0.    -11.3697E+06
           14838     60.4970E+06     33.6538E+06              0.    -11.6411E+06
           14839     60.3430E+06     33.7413E+06              0.    -11.9179E+06
           14840     60.1853E+06     33.8303E+06              0.    -12.2002E+06
           14841     60.0238E+06     33.9210E+06              0.    -12.4879E+06
           14842     59.8584E+06     34.0133E+06              0.    -12.7812E+06
           14843     59.6890E+06     34.1072E+06              0.    -13.0802E+06
           14844     59.5156E+06     34.2028E+06              0.    -13.3849E+06
           14845     59.3380E+06     34.3001E+06              0.    -13.6955E+06
           14846     59.1561E+06     34.3992E+06              0.    -14.0119E+06
           14847     58.9699E+06     34.4999E+06              0.    -14.3342E+06
           14848     58.7793E+06     34.6024E+06              0.    -14.6626E+06
           14849     58.5841E+06     34.7067E+06              0.    -14.9971E+06
           14850     58.3843E+06     34.8129E+06              0.    -15.3378E+06
           14851     58.1799E+06     34.9208E+06              0.    -15.6847E+06
           14852     57.9706E+06     35.0306E+06              0.    -16.0380E+06
           14853     57.7564E+06     35.1422E+06              0.    -16.3976E+06
           14854     57.5372E+06     35.2557E+06              0.    -16.7636E+06
           14855     57.3128E+06     35.3711E+06              0.    -17.1362E+06
           14856     57.0833E+06     35.4885E+06              0.    -17.5154E+06
           14857     56.8484E+06     35.6077E+06              0.    -17.9012E+06
           14858     56.6081E+06     35.7289E+06              0.    -18.2938E+06
           14859     56.3622E+06     35.8520E+06              0.    -18.6930E+06
           14860     56.1106E+06     35.9771E+06              0.    -19.0991E+06
           14861     55.8533E+06     36.1042E+06              0.    -19.5121E+06
           14862       55.59E+06     36.2333E+06              0.    -19.9319E+06
           14863     55.3207E+06     36.3643E+06              0.    -20.3588E+06
           14864     55.0452E+06     36.4973E+06              0.    -20.7926E+06
           14865     54.7635E+06     36.6323E+06              0.    -21.2335E+06
           14866     54.4753E+06     36.7693E+06              0.    -21.6814E+06
           14867     54.1806E+06     36.9083E+06              0.    -22.1364E+06
           14868     53.8792E+06     37.0493E+06              0.    -22.5986E+06
           14869     53.5709E+06     37.1922E+06              0.    -23.0679E+06
           14870     53.2558E+06     37.3372E+06              0.    -23.5444E+06
           14871     52.9334E+06     37.4841E+06              0.    -24.0280E+06
           14872     52.6039E+06     37.6329E+06              0.    -24.5188E+06
           14873     52.2669E+06     37.7836E+06              0.    -25.0168E+06
           14874     51.9224E+06     37.9363E+06              0.    -25.5219E+06
           14875     51.5701E+06     38.0908E+06              0.    -26.0341E+06
           14876     51.2100E+06     38.2472E+06              0.    -26.5535E+06
           14877     50.8419E+06     38.4053E+06              0.    -27.0799E+06
           14878     50.4655E+06     38.5653E+06              0.    -27.6133E+06
           14879     50.0808E+06     38.7270E+06              0.    -28.1538E+06
           14880     49.6876E+06     38.8903E+06              0.    -28.7011E+06
           14881     49.2856E+06     39.0553E+06              0.    -29.2553E+06
           14882     48.8748E+06     39.2219E+06              0.    -29.8163E+06
           14883     48.4548E+06     39.3900E+06              0.    -30.3839E+06
           14884     48.0257E+06     39.5595E+06              0.    -30.9581E+06
           14885     47.5871E+06     39.7303E+06              0.    -31.5388E+06
           14886     47.1388E+06     39.9024E+06              0.    -32.1257E+06
           14887     46.6807E+06     40.0757E+06              0.    -32.7189E+06
           14888     46.2126E+06     40.2501E+06              0.    -33.3181E+06
           14889     45.7343E+06     40.4254E+06              0.    -33.9231E+06
           14890     45.2456E+06     40.6015E+06              0.    -34.5338E+06
           14891     44.7462E+06     40.7784E+06              0.    -35.1499E+06
           14892     44.2359E+06     40.9558E+06              0.    -35.7713E+06
           14893     43.7146E+06     41.1336E+06              0.    -36.3977E+06
           14894     43.1821E+06     41.3117E+06              0.    -37.0288E+06
           14895     42.6380E+06     41.4898E+06              0.    -37.6645E+06
           14896     42.0822E+06     41.6678E+06              0.    -38.3043E+06
           14897     41.5144E+06     41.8454E+06              0.    -38.9480E+06
           14898     40.9345E+06     42.0225E+06              0.    -39.5952E+06
           14899     40.3422E+06     42.1988E+06              0.    -40.2456E+06
           14900     39.7372E+06     42.3741E+06              0.    -40.8988E+06
           14901     39.1193E+06     42.5480E+06              0.    -41.5544E+06
           14902     38.4883E+06     42.7203E+06              0.    -42.2119E+06
           14903     37.8440E+06     42.8907E+06              0.    -42.8710E+06
           14904     37.1861E+06     43.0588E+06              0.    -43.5311E+06
           14905     36.5143E+06     43.2242E+06              0.    -44.1917E+06
           14906     35.8284E+06     43.3867E+06              0.    -44.8524E+06
           14907     35.1282E+06     43.5458E+06              0.    -45.5125E+06
           14908     34.4134E+06     43.7010E+06              0.    -46.1714E+06
           14909     33.6838E+06     43.8519E+06              0.    -46.8285E+06
           14910     32.9391E+06     43.9980E+06              0.    -47.4832E+06
           14911     32.1791E+06     44.1388E+06              0.    -48.1348E+06
           14912     31.4036E+06     44.2737E+06              0.    -48.7826E+06
           14913     30.6123E+06     44.4021E+06              0.    -49.4258E+06
           14914     29.8049E+06     44.5235E+06              0.    -50.0636E+06
           14915     28.9814E+06     44.6371E+06              0.    -50.6952E+06
           14916     28.1413E+06     44.7422E+06              0.    -51.3198E+06
           14917     27.2846E+06     44.8382E+06              0.    -51.9365E+06
           14918     26.4109E+06     44.9241E+06              0.    -52.5443E+06
           14919     25.5202E+06     44.9992E+06              0.    -53.1423E+06
           14920     24.6121E+06     45.0626E+06              0.    -53.7295E+06
           14921     23.6866E+06     45.1134E+06              0.    -54.3049E+06
           14922     22.7434E+06     45.1505E+06              0.    -54.8673E+06
           14923     21.7824E+06     45.1729E+06              0.    -55.4157E+06
           14924     20.8034E+06     45.1796E+06              0.    -55.9489E+06
           14925     19.8064E+06     45.1694E+06              0.    -56.4658E+06
           14926     18.7911E+06     45.1411E+06              0.    -56.9651E+06
           14927     17.7575E+06     45.0933E+06              0.    -57.4456E+06
           14928     16.7055E+06     45.0249E+06              0.    -57.9059E+06
           14929     15.6351E+06     44.9342E+06              0.    -58.3449E+06
           14930     14.5463E+06     44.8200E+06              0.    -58.7610E+06
           14931     13.4390E+06     44.6806E+06              0.    -59.1530E+06
           14932     12.3132E+06     44.5144E+06              0.    -59.5194E+06
           14933     11.1691E+06     44.3198E+06              0.    -59.8587E+06
           14934     10.0066E+06     44.0949E+06              0.    -60.1695E+06
           14935     8.82604E+06     43.8379E+06              0.    -60.4503E+06
           14936     7.62743E+06     43.5470E+06              0.    -60.6996E+06
           14937     6.41099E+06     43.2201E+06              0.    -60.9158E+06
           14938     5.17697E+06     42.8551E+06              0.    -61.0973E+06
           14939     3.92565E+06     42.4500E+06              0.    -61.2427E+06
           14940     2.65735E+06     42.0024E+06              0.    -61.3503E+06
           14941     1.37243E+06     41.5100E+06              0.    -61.4185E+06
           14942     71.3231E+03     40.9705E+06              0.    -61.4457E+06
           14943    -1.24551E+06     40.3815E+06              0.    -61.4304E+06
           14944    -2.57755E+06     39.7403E+06              0.    -61.3709E+06
           14945    -3.92422E+06     39.0443E+06              0.    -61.2657E+06
           14946    -5.28488E+06     38.2909E+06              0.    -61.1132E+06
           14947    -6.65885E+06     37.4772E+06              0.    -60.9118E+06
           14948    -8.04538E+06     36.6006E+06              0.    -60.6600E+06
           14949    -9.44366E+06     35.6581E+06              0.    -60.3563E+06
           14950    -10.8528E+06     34.6467E+06              0.    -59.9992E+06
           14951    -12.2720E+06     33.5635E+06              0.    -59.5874E+06
           14952    -13.7001E+06     32.4054E+06              0.    -59.1193E+06
           14953    -15.1361E+06     31.1693E+06              0.    -58.5937E+06
           14954    -16.5789E+06     29.8521E+06              0.    -58.0093E+06
           14955    -18.0273E+06     28.4507E+06              0.    -57.3647E+06
           14956    -19.4801E+06     26.9619E+06              0.    -56.6589E+06
           14957    -20.9361E+06     25.3825E+06              0.    -55.8907E+06
           14958    -22.3937E+06     23.7093E+06              0.    -55.0591E+06
           14959    -23.8517E+06     21.9392E+06              0.    -54.1631E+06
           14960    -25.3085E+06     20.0689E+06              0.    -53.2017E+06
           14961    -26.7627E+06     18.0953E+06              0.    -52.1742E+06
           14962    -28.2126E+06     16.0153E+06              0.    -51.0799E+06
           14963    -29.6567E+06     13.8259E+06              0.     -49.918E+06
           14964    -31.0932E+06     11.5239E+06              0.    -48.6880E+06
           14965    -32.5205E+06     9.10639E+06              0.    -47.3894E+06
           14966    -33.9368E+06     6.57050E+06              0.    -46.0219E+06
           14967    -35.3403E+06     3.91343E+06              0.    -44.5850E+06
           14968    -36.7292E+06     1.13237E+06              0.    -43.0786E+06
           14969    -38.1017E+06    -1.77525E+06              0.    -41.5024E+06
           14970    -39.4559E+06    -4.81207E+06              0.    -39.8565E+06
           14971    -40.7903E+06    -7.98046E+06              0.    -38.1407E+06
           14972    -42.1004E+06    -11.2809E+06              0.    -36.3553E+06
           14973    -43.6905E+06    -15.1565E+06              0.    -35.5665E+06
           14974     65.7203E+06     28.8485E+06              0.    -2.50177E+06
           14975     65.7295E+06     28.9486E+06              0.    -2.49719E+06
           14976     65.6958E+06     29.0277E+06              0.    -2.46366E+06
           14977     65.6625E+06     29.1046E+06              0.    -2.43511E+06
           14978     65.6296E+06     29.1795E+06              0.    -2.41140E+06
           14979     65.5970E+06     29.2525E+06              0.    -2.39240E+06
           14980     65.5645E+06     29.3236E+06              0.    -2.37798E+06
           14981     65.5322E+06     29.3929E+06              0.    -2.36804E+06
           14982     65.5000E+06     29.4605E+06              0.    -2.36246E+06
           14983     65.4677E+06     29.5266E+06              0.    -2.36114E+06
           14984     65.4355E+06     29.5912E+06              0.    -2.36398E+06
           14985     65.4031E+06     29.6544E+06              0.    -2.37089E+06
           14986     65.3706E+06     29.7163E+06              0.    -2.38178E+06
           14987     65.3379E+06     29.7769E+06              0.    -2.39657E+06
           14988     65.3050E+06     29.8364E+06              0.    -2.41518E+06
           14989     65.2717E+06     29.8947E+06              0.    -2.43753E+06
           14990     65.2381E+06     29.9521E+06              0.    -2.46356E+06
           14991     65.2040E+06     30.0085E+06              0.    -2.49321E+06
           14992     65.1695E+06     30.0640E+06              0.    -2.52641E+06
           14993     65.1345E+06     30.1187E+06              0.    -2.56311E+06
           14994     65.0989E+06     30.1726E+06              0.    -2.60326E+06
           14995     65.0627E+06     30.2259E+06              0.    -2.64682E+06
           14996     65.0259E+06     30.2785E+06              0.    -2.69373E+06
           14997     64.9884E+06     30.3306E+06              0.    -2.74396E+06
           14998     64.9501E+06     30.3822E+06              0.    -2.79748E+06
           14999     64.9110E+06     30.4333E+06              0.    -2.85425E+06
           15000     64.8711E+06      30.484E+06              0.    -2.91424E+06
           15001     64.8304E+06     30.5344E+06              0.    -2.97744E+06
           15002     64.7887E+06     30.5845E+06              0.    -3.04380E+06
           15003      64.746E+06     30.6343E+06              0.    -3.11333E+06
           15004     64.7023E+06     30.6840E+06              0.    -3.18601E+06
           15005     64.6576E+06     30.7335E+06              0.    -3.26181E+06
           15006     64.6118E+06     30.7830E+06              0.    -3.34073E+06
           15007     64.5648E+06     30.8324E+06              0.    -3.42277E+06
           15008     64.5167E+06     30.8818E+06              0.    -3.50793E+06
           15009     64.4673E+06     30.9313E+06              0.    -3.59619E+06
           15010     64.4167E+06     30.9809E+06              0.    -3.68757E+06
           15011     64.3648E+06     31.0306E+06              0.    -3.78206E+06
           15012     64.3115E+06     31.0805E+06              0.    -3.87968E+06
           15013     64.2568E+06     31.1306E+06              0.    -3.98044E+06
           15014     64.2006E+06     31.1810E+06              0.    -4.08434E+06
           15015     64.1430E+06     31.2317E+06              0.    -4.19141E+06
           15016     64.0838E+06     31.2827E+06              0.    -4.30165E+06
           15017     64.0231E+06     31.3342E+06              0.    -4.41510E+06
           15018     63.9607E+06     31.3860E+06              0.    -4.53176E+06
           15019     63.8967E+06     31.4383E+06              0.    -4.65167E+06
           15020     63.8309E+06     31.4912E+06              0.    -4.77485E+06
           15021     63.7634E+06     31.5445E+06              0.    -4.90132E+06
           15022     63.6941E+06     31.5985E+06              0.    -5.03113E+06
           15023     63.6230E+06     31.6530E+06              0.    -5.16429E+06
           15024     63.5499E+06     31.7082E+06              0.    -5.30085E+06
           15025     63.4749E+06     31.7641E+06              0.    -5.44085E+06
           15026     63.3979E+06     31.8207E+06              0.    -5.58431E+06
           15027     63.3189E+06     31.8780E+06              0.    -5.73127E+06
           15028     63.2377E+06     31.9361E+06              0.    -5.88179E+06
           15029     63.1544E+06     31.9951E+06              0.    -6.03591E+06
           15030     63.0689E+06     32.0549E+06              0.    -6.19366E+06
           15031     62.9812E+06     32.1155E+06              0.    -6.35510E+06
           15032     62.8911E+06     32.1771E+06              0.    -6.52027E+06
           15033     62.7987E+06     32.2397E+06              0.    -6.68923E+06
           15034     62.7039E+06     32.3032E+06              0.    -6.86202E+06
           15035     62.6066E+06     32.3677E+06              0.    -7.03870E+06
           15036     62.5068E+06     32.4333E+06              0.    -7.21933E+06
           15037     62.4044E+06     32.5000E+06              0.    -7.40395E+06
           15038     62.2993E+06     32.5677E+06              0.    -7.59263E+06
           15039     62.1916E+06     32.6366E+06              0.    -7.78543E+06
           15040     62.0810E+06     32.7067E+06              0.    -7.98240E+06
           15041     61.9677E+06     32.7780E+06              0.    -8.18361E+06
           15042     61.8515E+06     32.8505E+06              0.    -8.38912E+06
           15043     61.7323E+06     32.9242E+06              0.    -8.59900E+06
           15044     61.6102E+06     32.9992E+06              0.    -8.81330E+06
           15045     61.4849E+06     33.0756E+06              0.    -9.03209E+06
           15046     61.3565E+06     33.1533E+06              0.    -9.25544E+06
           15047     61.2249E+06     33.2324E+06              0.    -9.48343E+06
           15048     61.0900E+06     33.3128E+06              0.    -9.71611E+06
           15049     60.9517E+06     33.3947E+06              0.    -9.95355E+06
           15050     60.8100E+06     33.4781E+06              0.    -10.1958E+06
           15051     60.6649E+06     33.5630E+06              0.    -10.4430E+06
           15052     60.5161E+06     33.6493E+06              0.    -10.6952E+06
           15053     60.3637E+06     33.7372E+06              0.    -10.9524E+06
           15054     60.2076E+06     33.8267E+06              0.    -11.2147E+06
           15055     60.0476E+06     33.9178E+06              0.    -11.4823E+06
           15056     59.8838E+06     34.0104E+06              0.    -11.7551E+06
           15057     59.7160E+06     34.1048E+06              0.    -12.0332E+06
           15058     59.5442E+06     34.2008E+06              0.    -12.3167E+06
           15059     59.3682E+06     34.2985E+06              0.    -12.6058E+06
           15060     59.1880E+06     34.3979E+06              0.    -12.9004E+06
           15061     59.0035E+06     34.4990E+06              0.    -13.2006E+06
           15062     58.8145E+06     34.6020E+06              0.    -13.5066E+06
           15063     58.6211E+06     34.7067E+06              0.    -13.8183E+06
           15064     58.4231E+06     34.8132E+06              0.    -14.1358E+06
           15065     58.2204E+06     34.9215E+06              0.    -14.4593E+06
           15066     58.0130E+06     35.0318E+06              0.    -14.7888E+06
           15067     57.8006E+06     35.1438E+06              0.    -15.1244E+06
           15068     57.5833E+06     35.2578E+06              0.    -15.4661E+06
           15069     57.3609E+06     35.3737E+06              0.    -15.8139E+06
           15070     57.1333E+06     35.4915E+06              0.    -16.1681E+06
           15071     56.9004E+06     35.6112E+06              0.    -16.5285E+06
           15072     56.6621E+06     35.7329E+06              0.    -16.8954E+06
           15073     56.4184E+06     35.8566E+06              0.    -17.2687E+06
           15074     56.1689E+06     35.9822E+06              0.    -17.6485E+06
           15075     55.9138E+06     36.1099E+06              0.    -18.0349E+06
           15076     55.6528E+06     36.2395E+06              0.    -18.4279E+06
           15077     55.3858E+06     36.3712E+06              0.    -18.8276E+06
           15078     55.1127E+06     36.5049E+06              0.    -19.2340E+06
           15079     54.8334E+06     36.6406E+06              0.    -19.6472E+06
           15080     54.5478E+06     36.7783E+06              0.    -20.0672E+06
           15081     54.2557E+06     36.9181E+06              0.    -20.4940E+06
           15082     53.9570E+06     37.0598E+06              0.    -20.9277E+06
           15083     53.6515E+06     37.2036E+06              0.    -21.3683E+06
           15084     53.3392E+06     37.3494E+06              0.    -21.8159E+06
           15085     53.0198E+06     37.4972E+06              0.    -22.2704E+06
           15086     52.6933E+06     37.6470E+06              0.    -22.7319E+06
           15087     52.3595E+06     37.7988E+06              0.    -23.2003E+06
           15088     52.0183E+06     37.9526E+06              0.    -23.6758E+06
           15089     51.6695E+06     38.1083E+06              0.    -24.1583E+06
           15090     51.3129E+06     38.2659E+06              0.    -24.6477E+06
           15091     50.9485E+06     38.4253E+06              0.    -25.1441E+06
           15092     50.5760E+06     38.5867E+06              0.    -25.6474E+06
           15093     50.1953E+06     38.7498E+06              0.    -26.1577E+06
           15094     49.8062E+06     38.9148E+06              0.    -26.6748E+06
           15095     49.4085E+06     39.0814E+06              0.    -27.1987E+06
           15096     49.0022E+06     39.2498E+06              0.    -27.7295E+06
           15097     48.5870E+06     39.4197E+06              0.    -28.2669E+06
           15098     48.1627E+06     39.5912E+06              0.    -28.8110E+06
           15099     47.7293E+06     39.7642E+06              0.    -29.3616E+06
           15100     47.2864E+06     39.9386E+06              0.    -29.9187E+06
           15101     46.8339E+06     40.1143E+06              0.    -30.4821E+06
           15102     46.3716E+06     40.2913E+06              0.    -31.0517E+06
           15103     45.8994E+06     40.4694E+06              0.    -31.6275E+06
           15104     45.4170E+06     40.6485E+06              0.    -32.2092E+06
           15105     44.9243E+06     40.8286E+06              0.    -32.7966E+06
           15106     44.4210E+06     41.0094E+06              0.    -33.3897E+06
           15107     43.9070E+06     41.1909E+06              0.    -33.9882E+06
           15108     43.3821E+06     41.3728E+06              0.    -34.5920E+06
           15109     42.8460E+06     41.5552E+06              0.    -35.2007E+06
           15110     42.2985E+06     41.7377E+06              0.    -35.8142E+06
           15111     41.7395E+06     41.9202E+06              0.    -36.4322E+06
           15112     41.1687E+06     42.1025E+06              0.    -37.0544E+06
           15113     40.5858E+06     42.2843E+06              0.    -37.6806E+06
           15114     39.9908E+06     42.4656E+06              0.    -38.3104E+06
           15115     39.3834E+06     42.6459E+06              0.    -38.9434E+06
           15116     38.7632E+06     42.8252E+06              0.    -39.5794E+06
           15117     38.1303E+06     43.0030E+06              0.    -40.2179E+06
           15118     37.4842E+06     43.1790E+06              0.    -40.8586E+06
           15119     36.8248E+06     43.3531E+06              0.    -41.5010E+06
           15120     36.1518E+06     43.5248E+06              0.    -42.1447E+06
           15121     35.4651E+06     43.6938E+06              0.    -42.7892E+06
           15122     34.7643E+06     43.8596E+06              0.    -43.4339E+06
           15123     34.0494E+06     44.0220E+06              0.    -44.0785E+06
           15124     33.3199E+06     44.1804E+06              0.    -44.7222E+06
           15125     32.5758E+06     44.3345E+06              0.    -45.3645E+06
           15126     31.8168E+06     44.4836E+06              0.    -46.0049E+06
           15127     31.0427E+06     44.6273E+06              0.    -46.6426E+06
           15128     30.2533E+06     44.7651E+06              0.    -47.2770E+06
           15129     29.4482E+06     44.8963E+06              0.    -47.9073E+06
           15130     28.6274E+06     45.0204E+06              0.    -48.5329E+06
           15131     27.7907E+06     45.1366E+06              0.    -49.1529E+06
           15132     26.9377E+06     45.2444E+06              0.    -49.7666E+06
           15133     26.0684E+06     45.3429E+06              0.    -50.3732E+06
           15134     25.1825E+06     45.4314E+06              0.    -50.9716E+06
           15135     24.2799E+06     45.5091E+06              0.    -51.5611E+06
           15136     23.3603E+06     45.5750E+06              0.    -52.1407E+06
           15137     22.4237E+06     45.6284E+06              0.    -52.7094E+06
           15138     21.4699E+06     45.6682E+06              0.    -53.2663E+06
           15139     20.4987E+06     45.6934E+06              0.    -53.8102E+06
           15140     19.5100E+06     45.7030E+06              0.    -54.3400E+06
           15141     18.5037E+06     45.6958E+06              0.    -54.8547E+06
           15142     17.4798E+06     45.6706E+06              0.    -55.3531E+06
           15143     16.4381E+06     45.6263E+06              0.    -55.8341E+06
           15144     15.3785E+06     45.5615E+06              0.    -56.2963E+06
           15145     14.3012E+06     45.4748E+06              0.    -56.7386E+06
           15146     13.2059E+06     45.3649E+06              0.    -57.1596E+06
           15147     12.0929E+06     45.2302E+06              0.    -57.5581E+06
           15148     10.9620E+06     45.0691E+06              0.    -57.9328E+06
           15149     9.81345E+06     44.8801E+06              0.    -58.2821E+06
           15150     8.64724E+06     44.6615E+06              0.    -58.6048E+06
           15151     7.46352E+06     44.4114E+06              0.    -58.8994E+06
           15152     6.26249E+06     44.1280E+06              0.    -59.1644E+06
           15153     5.04432E+06     43.8094E+06              0.    -59.3984E+06
           15154     3.80926E+06     43.4536E+06              0.    -59.6000E+06
           15155     2.55759E+06     43.0585E+06              0.    -59.7676E+06
           15156     1.28963E+06     42.6220E+06              0.    -59.8997E+06
           15157     5.74323E+03     42.1419E+06              0.    -59.9947E+06
           15158    -1.29366E+06     41.6158E+06              0.    -60.0512E+06
           15159    -2.60811E+06     41.0414E+06              0.    -60.0677E+06
           15160    -3.93712E+06     40.4162E+06              0.    -60.0425E+06
           15161    -5.28013E+06     39.7377E+06              0.    -59.9742E+06
           15162    -6.63651E+06     39.0033E+06              0.    -59.8612E+06
           15163    -8.00562E+06     38.2104E+06              0.    -59.7021E+06
           15164    -9.38673E+06     37.3562E+06              0.    -59.4954E+06
           15165    -10.7791E+06     36.4380E+06              0.    -59.2395E+06
           15166    -12.1818E+06     35.4530E+06              0.    -58.9332E+06
           15167    -13.5940E+06     34.3981E+06              0.    -58.5749E+06
           15168    -15.0148E+06     33.2706E+06              0.    -58.1633E+06
           15169    -16.4432E+06     32.0673E+06              0.    -57.6970E+06
           15170     -17.878E+06     30.7853E+06              0.    -57.1748E+06
           15171    -19.3182E+06     29.4216E+06              0.    -56.5955E+06
           15172    -20.7626E+06     27.9729E+06              0.    -55.9578E+06
           15173    -22.2099E+06     26.4363E+06              0.    -55.2607E+06
           15174    -23.6588E+06     24.8087E+06              0.    -54.5030E+06
           15175    -25.1081E+06     23.0868E+06              0.    -53.6837E+06
           15176    -26.5562E+06     21.2677E+06              0.    -52.8020E+06
           15177    -28.0017E+06     19.3482E+06              0.    -51.8570E+06
           15178    -29.4432E+06     17.3252E+06              0.    -50.8479E+06
           15179    -30.8790E+06     15.1957E+06              0.    -49.7739E+06
           15180    -32.3075E+06     12.9567E+06              0.    -48.6345E+06
           15181    -33.7272E+06     10.6052E+06              0.    -47.4290E+06
           15182    -35.1363E+06     8.13843E+06              0.    -46.1571E+06
           15183    -36.5330E+06     5.55344E+06              0.    -44.8182E+06
           15184    -37.9157E+06     2.84755E+06              0.    -43.4122E+06
           15185    -39.2825E+06     18.0297E+03              0.    -41.9388E+06
           15186    -40.6315E+06    -2.93764E+06              0.    -40.3977E+06
           15187    -41.9609E+06    -6.02204E+06              0.    -38.7889E+06
           15188    -43.2692E+06    -9.23769E+06              0.    -37.1121E+06
           15189    -44.5571E+06    -12.5877E+06              0.    -35.3676E+06
           15190    -46.1528E+06    -16.5090E+06              0.    -34.5921E+06
           15191     65.6225E+06     28.8065E+06              0.    -2.46655E+06
           15192     65.6322E+06     28.9127E+06              0.    -2.46203E+06
           15193     65.5965E+06     28.9967E+06              0.    -2.42897E+06
           15194     65.5611E+06     29.0784E+06              0.    -2.40082E+06
           15195     65.5262E+06     29.1579E+06              0.    -2.37743E+06
           15196     65.4915E+06     29.2354E+06              0.    -2.35869E+06
           15197     65.4570E+06     29.3109E+06              0.    -2.34447E+06
           15198     65.4227E+06     29.3845E+06              0.    -2.33467E+06
           15199     65.3884E+06     29.4563E+06              0.    -2.32916E+06
           15200     65.3542E+06     29.5265E+06              0.    -2.32786E+06
           15201     65.3200E+06     29.5951E+06              0.    -2.33065E+06
           15202     65.2856E+06     29.6622E+06              0.    -2.33746E+06
           15203     65.2511E+06     29.7279E+06              0.    -2.34818E+06
           15204     65.2164E+06     29.7923E+06              0.    -2.36276E+06
           15205     65.1814E+06     29.8554E+06              0.    -2.38109E+06
           15206     65.1460E+06     29.9173E+06              0.    -2.40312E+06
           15207     65.1103E+06     29.9782E+06              0.    -2.42878E+06
           15208     65.0741E+06     30.0381E+06              0.      -2.458E+06
           15209     65.0375E+06     30.0970E+06              0.    -2.49072E+06
           15210     65.0003E+06     30.1551E+06              0.     -2.5269E+06
           15211     64.9625E+06     30.2124E+06              0.    -2.56648E+06
           15212     64.9241E+06     30.2689E+06              0.    -2.60940E+06
           15213     64.8850E+06     30.3248E+06              0.    -2.65564E+06
           15214     64.8452E+06     30.3800E+06              0.    -2.70516E+06
           15215     64.8045E+06     30.4348E+06              0.    -2.75791E+06
           15216     64.7630E+06     30.4890E+06              0.    -2.81386E+06
           15217     64.7207E+06     30.5429E+06              0.    -2.87299E+06
           15218     64.6774E+06     30.5963E+06              0.    -2.93528E+06
           15219     64.6331E+06     30.6495E+06              0.    -3.00070E+06
           15220     64.5879E+06     30.7024E+06              0.    -3.06923E+06
           15221     64.5415E+06     30.7551E+06              0.    -3.14086E+06
           15222     64.4940E+06     30.8077E+06              0.    -3.21557E+06
           15223     64.4454E+06     30.8602E+06              0.    -3.29336E+06
           15224     64.3955E+06     30.9126E+06              0.    -3.37422E+06
           15225     64.3444E+06     30.9650E+06              0.    -3.45815E+06
           15226     64.2920E+06     31.0175E+06              0.    -3.54515E+06
           15227     64.2383E+06     31.0701E+06              0.    -3.63521E+06
           15228     64.1832E+06     31.1228E+06              0.    -3.72834E+06
           15229     64.1266E+06     31.1758E+06              0.    -3.82456E+06
           15230     64.0685E+06     31.2289E+06              0.    -3.92386E+06
           15231     64.0089E+06     31.2824E+06              0.    -4.02627E+06
           15232     63.9478E+06     31.3361E+06              0.    -4.13179E+06
           15233     63.8850E+06     31.3902E+06              0.    -4.24044E+06
           15234     63.8205E+06     31.4448E+06              0.    -4.35224E+06
           15235     63.7543E+06     31.4998E+06              0.    -4.46722E+06
           15236     63.6864E+06     31.5552E+06              0.    -4.58539E+06
           15237     63.6166E+06     31.6112E+06              0.    -4.70678E+06
           15238     63.5450E+06     31.6678E+06              0.    -4.83142E+06
           15239     63.4714E+06     31.7250E+06              0.    -4.95934E+06
           15240     63.3959E+06     31.7828E+06              0.    -5.09057E+06
           15241     63.3184E+06     31.8412E+06              0.    -5.22514E+06
           15242     63.2388E+06     31.9005E+06              0.    -5.36309E+06
           15243     63.1571E+06     31.9604E+06              0.    -5.50446E+06
           15244     63.0732E+06     32.0212E+06              0.    -5.64928E+06
           15245     62.9871E+06     32.0827E+06              0.    -5.79760E+06
           15246     62.8988E+06     32.1452E+06              0.    -5.94946E+06
           15247     62.8081E+06     32.2085E+06              0.    -6.10490E+06
           15248     62.7150E+06     32.2727E+06              0.    -6.26396E+06
           15249     62.6194E+06     32.3380E+06              0.    -6.42671E+06
           15250     62.5214E+06     32.4042E+06              0.    -6.59318E+06
           15251     62.4208E+06     32.4714E+06              0.    -6.76342E+06
           15252     62.3176E+06     32.5397E+06              0.    -6.93750E+06
           15253     62.2117E+06     32.6091E+06              0.    -7.11545E+06
           15254     62.1031E+06     32.6797E+06              0.    -7.29734E+06
           15255     61.9917E+06     32.7514E+06              0.    -7.48322E+06
           15256     61.8774E+06     32.8243E+06              0.    -7.67315E+06
           15257     61.7602E+06     32.8984E+06              0.    -7.86719E+06
           15258     61.6401E+06     32.9738E+06              0.    -8.06540E+06
           15259     61.5168E+06     33.0504E+06              0.    -8.26784E+06
           15260     61.3905E+06     33.1284E+06              0.    -8.47457E+06
           15261     61.2609E+06     33.2078E+06              0.    -8.68565E+06
           15262     61.1281E+06     33.2885E+06              0.    -8.90116E+06
           15263      60.992E+06     33.3706E+06              0.    -9.12114E+06
           15264     60.8525E+06     33.4541E+06              0.    -9.34568E+06
           15265     60.7095E+06     33.5392E+06              0.    -9.57484E+06
           15266     60.5629E+06     33.6257E+06              0.    -9.80868E+06
           15267     60.4128E+06     33.7137E+06              0.    -10.0473E+06
           15268     60.2589E+06     33.8033E+06              0.    -10.2907E+06
           15269     60.1013E+06     33.8945E+06              0.     -10.539E+06
           15270     59.9398E+06     33.9873E+06              0.    -10.7923E+06
           15271     59.7743E+06     34.0818E+06              0.    -11.0506E+06
           15272     59.6049E+06     34.1779E+06              0.    -11.3140E+06
           15273     59.4313E+06     34.2756E+06              0.    -11.5826E+06
           15274     59.2536E+06     34.3751E+06              0.    -11.8564E+06
           15275     59.0716E+06     34.4764E+06              0.    -12.1355E+06
           15276     58.8852E+06     34.5794E+06              0.    -12.4201E+06
           15277     58.6943E+06     34.6842E+06              0.    -12.7101E+06
           15278     58.4989E+06     34.7908E+06              0.    -13.0056E+06
           15279     58.2989E+06     34.8992E+06              0.    -13.3067E+06
           15280     58.0941E+06     35.0095E+06              0.    -13.6135E+06
           15281     57.8845E+06     35.1217E+06              0.    -13.9260E+06
           15282       57.67E+06     35.2358E+06              0.    -14.2444E+06
           15283     57.4504E+06     35.3518E+06              0.    -14.5686E+06
           15284     57.2257E+06     35.4697E+06              0.    -14.8988E+06
           15285     56.9958E+06     35.5896E+06              0.    -15.2350E+06
           15286     56.7605E+06     35.7114E+06              0.    -15.5772E+06
           15287     56.5198E+06     35.8353E+06              0.    -15.9256E+06
           15288     56.2735E+06     35.9611E+06              0.    -16.2802E+06
           15289     56.0215E+06      36.089E+06              0.    -16.6411E+06
           15290     55.7637E+06     36.2189E+06              0.    -17.0082E+06
           15291     55.5000E+06     36.3508E+06              0.    -17.3818E+06
           15292     55.2303E+06     36.4848E+06              0.    -17.7618E+06
           15293     54.9545E+06     36.6208E+06              0.    -18.1482E+06
           15294     54.6724E+06     36.7589E+06              0.    -18.5412E+06
           15295     54.3839E+06     36.8990E+06              0.    -18.9408E+06
           15296     54.0888E+06     37.0413E+06              0.    -19.3470E+06
           15297     53.7872E+06     37.1855E+06              0.    -19.7598E+06
           15298     53.4787E+06     37.3319E+06              0.    -20.1793E+06
           15299     53.1634E+06     37.4802E+06              0.    -20.6056E+06
           15300     52.8410E+06     37.6307E+06              0.    -21.0386E+06
           15301     52.5114E+06     37.7831E+06              0.    -21.4783E+06
           15302     52.1744E+06     37.9376E+06              0.    -21.9249E+06
           15303     51.8300E+06     38.0941E+06              0.    -22.3782E+06
           15304     51.4780E+06     38.2526E+06              0.    -22.8384E+06
           15305     51.1183E+06     38.4131E+06              0.    -23.3054E+06
           15306     50.7506E+06     38.5754E+06              0.    -23.7792E+06
           15307     50.3749E+06     38.7397E+06              0.    -24.2598E+06
           15308     49.9909E+06     38.9058E+06              0.    -24.7471E+06
           15309     49.5986E+06     39.0738E+06              0.    -25.2412E+06
           15310     49.1977E+06     39.2436E+06              0.    -25.7420E+06
           15311     48.7881E+06     39.4151E+06              0.    -26.2495E+06
           15312     48.3697E+06     39.5883E+06              0.    -26.7637E+06
           15313     47.9422E+06     39.7630E+06              0.    -27.2844E+06
           15314     47.5055E+06     39.9394E+06              0.    -27.8116E+06
           15315     47.0595E+06     40.1172E+06              0.    -28.3452E+06
           15316     46.6038E+06     40.2964E+06              0.    -28.8852E+06
           15317     46.1385E+06     40.4770E+06              0.    -29.4314E+06
           15318     45.6633E+06     40.6587E+06              0.    -29.9837E+06
           15319     45.1779E+06     40.8416E+06              0.    -30.5420E+06
           15320     44.6823E+06     41.0255E+06              0.    -31.1062E+06
           15321     44.1762E+06     41.2102E+06              0.    -31.6762E+06
           15322     43.6595E+06     41.3957E+06              0.    -32.2516E+06
           15323     43.1319E+06     41.5819E+06              0.    -32.8325E+06
           15324     42.5932E+06     41.7684E+06              0.    -33.4186E+06
           15325     42.0434E+06     41.9553E+06              0.    -34.0096E+06
           15326     41.4821E+06     42.1424E+06              0.    -34.6054E+06
           15327     40.9091E+06     42.3293E+06              0.    -35.2057E+06
           15328     40.3243E+06     42.5161E+06              0.    -35.8103E+06
           15329     39.7275E+06     42.7023E+06              0.    -36.4189E+06
           15330     39.1184E+06     42.8878E+06              0.    -37.0311E+06
           15331     38.4968E+06     43.0725E+06              0.    -37.6468E+06
           15332     37.8626E+06     43.2558E+06              0.    -38.2655E+06
           15333     37.2155E+06     43.4378E+06              0.    -38.8868E+06
           15334     36.5553E+06     43.6179E+06              0.    -39.5105E+06
           15335     35.8818E+06     43.7960E+06              0.    -40.1361E+06
           15336     35.1948E+06     43.9716E+06              0.    -40.7632E+06
           15337     34.4941E+06     44.1444E+06              0.    -41.3913E+06
           15338     33.7795E+06     44.3140E+06              0.    -42.0200E+06
           15339     33.0507E+06     44.4801E+06              0.    -42.6487E+06
           15340     32.3076E+06     44.6422E+06              0.    -43.2770E+06
           15341     31.5499E+06     44.7998E+06              0.    -43.9043E+06
           15342     30.7774E+06     44.9525E+06              0.    -44.5299E+06
           15343     29.9900E+06     45.0997E+06              0.    -45.1534E+06
           15344     29.1874E+06     45.2408E+06              0.    -45.7741E+06
           15345     28.3694E+06     45.3754E+06              0.    -46.3912E+06
           15346     27.5359E+06     45.5029E+06              0.    -47.0042E+06
           15347     26.6867E+06     45.6224E+06              0.    -47.6122E+06
           15348     25.8215E+06     45.7335E+06              0.    -48.2145E+06
           15349     24.9403E+06     45.8353E+06              0.    -48.8104E+06
           15350     24.0427E+06     45.9271E+06              0.    -49.3989E+06
           15351     23.1288E+06     46.0081E+06              0.    -49.9793E+06
           15352     22.1983E+06     46.0775E+06              0.    -50.5507E+06
           15353     21.2511E+06     46.1343E+06              0.    -51.1120E+06
           15354     20.2870E+06     46.1776E+06              0.    -51.6625E+06
           15355     19.3060E+06     46.2065E+06              0.    -52.2010E+06
           15356     18.3080E+06     46.2199E+06              0.    -52.7266E+06
           15357     17.2928E+06     46.2166E+06              0.    -53.2383E+06
           15358     16.2604E+06     46.1956E+06              0.    -53.7348E+06
           15359     15.2107E+06     46.1557E+06              0.    -54.2151E+06
           15360     14.1437E+06     46.0955E+06              0.    -54.6781E+06
           15361     13.0594E+06     46.0138E+06              0.    -55.1225E+06
           15362     11.9578E+06     45.9092E+06              0.    -55.5472E+06
           15363     10.8389E+06     45.7802E+06              0.    -55.9508E+06
           15364     9.70279E+06     45.6254E+06              0.    -56.3322E+06
           15365     8.54955E+06     45.4431E+06              0.    -56.6900E+06
           15366     7.37927E+06     45.2317E+06              0.    -57.0229E+06
           15367     6.19211E+06     44.9895E+06              0.    -57.3296E+06
           15368     4.98823E+06     44.7146E+06              0.    -57.6086E+06
           15369     3.76786E+06     44.4054E+06              0.    -57.8586E+06
           15370     2.53121E+06     44.0597E+06              0.    -58.0781E+06
           15371     1.27859E+06     43.6757E+06              0.    -58.2658E+06
           15372     10.2981E+03     43.2512E+06              0.    -58.4201E+06
           15373    -1.27329E+06     42.7841E+06              0.    -58.5397E+06
           15374    -2.57178E+06     42.2722E+06              0.    -58.6230E+06
           15375    -3.88472E+06     41.7132E+06              0.    -58.6687E+06
           15376    -5.21161E+06     41.1047E+06              0.    -58.6751E+06
           15377    -6.55192E+06     40.4444E+06              0.    -58.6410E+06
           15378    -7.90506E+06     39.7296E+06              0.    -58.5647E+06
           15379    -9.27037E+06     38.9579E+06              0.    -58.4449E+06
           15380    -10.6472E+06     38.1267E+06              0.    -58.2801E+06
           15381    -12.0347E+06     37.2331E+06              0.    -58.0690E+06
           15382    -13.4322E+06     36.2746E+06              0.    -57.8100E+06
           15383    -14.8388E+06     35.2483E+06              0.    -57.5018E+06
           15384    -16.2536E+06     34.1513E+06              0.    -57.1432E+06
           15385    -17.6755E+06     32.9808E+06              0.    -56.7327E+06
           15386    -19.1037E+06     31.7338E+06              0.    -56.2691E+06
           15387    -20.5370E+06     30.4073E+06              0.    -55.7512E+06
           15388    -21.9742E+06     28.9985E+06              0.    -55.1778E+06
           15389    -23.4143E+06     27.5041E+06              0.    -54.5478E+06
           15390    -24.8559E+06     25.9213E+06              0.    -53.8601E+06
           15391    -26.2978E+06     24.2470E+06              0.    -53.1137E+06
           15392    -27.7385E+06     22.4781E+06              0.    -52.3076E+06
           15393    -29.1768E+06     20.6116E+06              0.    -51.4410E+06
           15394    -30.6111E+06     18.6444E+06              0.    -50.5130E+06
           15395    -32.0399E+06     16.5737E+06              0.    -49.5228E+06
           15396    -33.4618E+06     14.3963E+06              0.    -48.4698E+06
           15397    -34.8751E+06     12.1094E+06              0.    -47.3534E+06
           15398    -36.2782E+06     9.71015E+06              0.    -46.1730E+06
           15399    -37.6694E+06     7.19563E+06              0.    -44.9281E+06
           15400    -39.0470E+06     4.56313E+06              0.    -43.6185E+06
           15401    -40.4093E+06     1.81000E+06              0.    -42.2437E+06
           15402    -41.7545E+06    -1.06643E+06              0.    -40.8036E+06
           15403    -43.0807E+06    -4.06861E+06              0.    -39.2980E+06
           15404    -44.3858E+06    -7.19898E+06              0.    -37.7268E+06
           15405    -45.6669E+06    -10.4596E+06              0.    -36.0899E+06
           15406    -46.9197E+06    -13.8520E+06              0.    -34.3873E+06
           15407    -48.5079E+06    -17.8114E+06              0.    -33.6281E+06
           15408     65.5262E+06      28.765E+06              0.    -2.42925E+06
           15409     65.5364E+06     28.8773E+06              0.    -2.42480E+06
           15410     65.4986E+06     28.9662E+06              0.    -2.39223E+06
           15411     65.4612E+06     29.0525E+06              0.    -2.36450E+06
           15412     65.4242E+06     29.1366E+06              0.    -2.34146E+06
           15413     65.3875E+06     29.2185E+06              0.    -2.32300E+06
           15414     65.3511E+06     29.2983E+06              0.    -2.30899E+06
           15415     65.3148E+06     29.3762E+06              0.    -2.29933E+06
           15416     65.2786E+06     29.4522E+06              0.    -2.29390E+06
           15417     65.2424E+06     29.5264E+06              0.    -2.29261E+06
           15418     65.2061E+06     29.5989E+06              0.    -2.29536E+06
           15419     65.1698E+06     29.6698E+06              0.    -2.30205E+06
           15420     65.1333E+06     29.7393E+06              0.    -2.31261E+06
           15421     65.0966E+06     29.8073E+06              0.    -2.32696E+06
           15422     65.0595E+06     29.8741E+06              0.    -2.34501E+06
           15423     65.0222E+06     29.9396E+06              0.    -2.36670E+06
           15424     64.9844E+06     30.0040E+06              0.    -2.39196E+06
           15425     64.9462E+06     30.0673E+06              0.    -2.42073E+06
           15426     64.9074E+06     30.1296E+06              0.    -2.45295E+06
           15427     64.8681E+06     30.1910E+06              0.    -2.48856E+06
           15428     64.8282E+06     30.2515E+06              0.    -2.52753E+06
           15429     64.7875E+06     30.3113E+06              0.    -2.56980E+06
           15430     64.7462E+06     30.3703E+06              0.    -2.61533E+06
           15431     64.7041E+06     30.4288E+06              0.    -2.66408E+06
           15432     64.6611E+06     30.4866E+06              0.    -2.71602E+06
           15433     64.6173E+06     30.5440E+06              0.    -2.77111E+06
           15434     64.5725E+06     30.6008E+06              0.    -2.82934E+06
           15435     64.5267E+06     30.6574E+06              0.    -2.89066E+06
           15436     64.4799E+06     30.7135E+06              0.    -2.95508E+06
           15437     64.4320E+06     30.7695E+06              0.    -3.02255E+06
           15438     64.3830E+06     30.8252E+06              0.    -3.09308E+06
           15439     64.3328E+06     30.8807E+06              0.    -3.16664E+06
           15440     64.2814E+06     30.9362E+06              0.    -3.24324E+06
           15441     64.2287E+06     30.9916E+06              0.    -3.32285E+06
           15442     64.1747E+06     31.0470E+06              0.    -3.40549E+06
           15443     64.1193E+06     31.1024E+06              0.    -3.49114E+06
           15444     64.0625E+06     31.1580E+06              0.    -3.57981E+06
           15445     64.0043E+06     31.2137E+06              0.    -3.67151E+06
           15446     63.9445E+06     31.2696E+06              0.    -3.76624E+06
           15447     63.8831E+06     31.3258E+06              0.    -3.86401E+06
           15448     63.8201E+06     31.3822E+06              0.    -3.96483E+06
           15449     63.7555E+06     31.4390E+06              0.    -4.06871E+06
           15450     63.6891E+06     31.4962E+06              0.    -4.17568E+06
           15451     63.6210E+06     31.5537E+06              0.    -4.28575E+06
           15452     63.5510E+06     31.6118E+06              0.    -4.39894E+06
           15453     63.4792E+06     31.6704E+06              0.    -4.51528E+06
           15454     63.4055E+06     31.7295E+06              0.    -4.63479E+06
           15455     63.3298E+06     31.7892E+06              0.    -4.75749E+06
           15456     63.2521E+06     31.8495E+06              0.    -4.88342E+06
           15457     63.1723E+06     31.9106E+06              0.    -5.01260E+06
           15458     63.0904E+06     31.9723E+06              0.    -5.14508E+06
           15459     63.0063E+06     32.0348E+06              0.    -5.28088E+06
           15460     62.9199E+06     32.0980E+06              0.    -5.42003E+06
           15461     62.8313E+06     32.1621E+06              0.    -5.56259E+06
           15462     62.7403E+06     32.2271E+06              0.    -5.70859E+06
           15463     62.6470E+06     32.2930E+06              0.    -5.85806E+06
           15464     62.5511E+06     32.3598E+06              0.    -6.01106E+06
           15465     62.4528E+06     32.4276E+06              0.    -6.16763E+06
           15466     62.3519E+06     32.4963E+06              0.    -6.32781E+06
           15467     62.2483E+06     32.5662E+06              0.    -6.49166E+06
           15468     62.1420E+06     32.6371E+06              0.    -6.65922E+06
           15469     62.0330E+06     32.7091E+06              0.    -6.83054E+06
           15470     61.9212E+06     32.7823E+06              0.    -7.00568E+06
           15471     61.8065E+06     32.8566E+06              0.    -7.18469E+06
           15472     61.6888E+06     32.9322E+06              0.    -7.36762E+06
           15473     61.5681E+06     33.0090E+06              0.    -7.55453E+06
           15474     61.4443E+06     33.0871E+06              0.    -7.74548E+06
           15475     61.3174E+06     33.1666E+06              0.    -7.94053E+06
           15476     61.1873E+06     33.2473E+06              0.    -8.13973E+06
           15477     61.0538E+06     33.3295E+06              0.    -8.34315E+06
           15478     60.9171E+06     33.4130E+06              0.    -8.55085E+06
           15479     60.7768E+06     33.4980E+06              0.    -8.76289E+06
           15480     60.6331E+06     33.5845E+06              0.    -8.97934E+06
           15481     60.4858E+06     33.6725E+06              0.    -9.20026E+06
           15482     60.3349E+06     33.7620E+06              0.    -9.42571E+06
           15483     60.1802E+06     33.8530E+06              0.    -9.65576E+06
           15484     60.0217E+06     33.9457E+06              0.    -9.89049E+06
           15485     59.8593E+06     34.0400E+06              0.    -10.1299E+06
           15486     59.6929E+06     34.1359E+06              0.    -10.3742E+06
           15487     59.5225E+06     34.2335E+06              0.    -10.6233E+06
           15488     59.3479E+06     34.3328E+06              0.    -10.8774E+06
           15489     59.1691E+06     34.4338E+06              0.    -11.1365E+06
           15490     58.9860E+06     34.5366E+06              0.    -11.4006E+06
           15491     58.7984E+06     34.6412E+06              0.    -11.6699E+06
           15492     58.6064E+06     34.7476E+06              0.    -11.9445E+06
           15493     58.4098E+06     34.8558E+06              0.    -12.2243E+06
           15494     58.2085E+06     34.9659E+06              0.    -12.5094E+06
           15495     58.0025E+06     35.0778E+06              0.    -12.8000E+06
           15496     57.7915E+06     35.1917E+06              0.    -13.0961E+06
           15497     57.5756E+06     35.3074E+06              0.    -13.3977E+06
           15498     57.3546E+06     35.4252E+06              0.    -13.7050E+06
           15499     57.1284E+06     35.5449E+06              0.    -14.0180E+06
           15500     56.8970E+06     35.6665E+06              0.    -14.3367E+06
           15501     56.6602E+06     35.7902E+06              0.    -14.6612E+06
           15502     56.4178E+06     35.9159E+06              0.    -14.9916E+06
           15503     56.1699E+06     36.0436E+06              0.    -15.3280E+06
           15504     55.9162E+06     36.1734E+06              0.    -15.6704E+06
           15505     55.6568E+06     36.3052E+06              0.    -16.0189E+06
           15506     55.3913E+06     36.4391E+06              0.    -16.3735E+06
           15507     55.1198E+06     36.5751E+06              0.    -16.7342E+06
           15508     54.8422E+06     36.7132E+06              0.    -17.1012E+06
           15509     54.5582E+06     36.8533E+06              0.    -17.4745E+06
           15510     54.2678E+06     36.9956E+06              0.    -17.8542E+06
           15511     53.9708E+06     37.1400E+06              0.    -18.2402E+06
           15512     53.6672E+06     37.2864E+06              0.    -18.6326E+06
           15513     53.3568E+06     37.4350E+06              0.    -19.0315E+06
           15514     53.0394E+06     37.5857E+06              0.    -19.4369E+06
           15515     52.7149E+06     37.7384E+06              0.    -19.8489E+06
           15516     52.3833E+06     37.8933E+06              0.    -20.2674E+06
           15517     52.0443E+06     38.0502E+06              0.    -20.6924E+06
           15518     51.6978E+06     38.2092E+06              0.    -21.1241E+06
           15519     51.3436E+06     38.3702E+06              0.    -21.5624E+06
           15520     50.9817E+06     38.5332E+06              0.    -22.0073E+06
           15521     50.6119E+06     38.6982E+06              0.    -22.4589E+06
           15522     50.2340E+06     38.8652E+06              0.    -22.9171E+06
           15523     49.8479E+06     39.0341E+06              0.    -23.3819E+06
           15524     49.4533E+06     39.2049E+06              0.    -23.8533E+06
           15525     49.0503E+06     39.3775E+06              0.    -24.3314E+06
           15526     48.6386E+06     39.5519E+06              0.    -24.8159E+06
           15527     48.2180E+06     39.7281E+06              0.    -25.3070E+06
           15528     47.7884E+06     39.9060E+06              0.    -25.8046E+06
           15529     47.3496E+06     40.0855E+06              0.    -26.3086E+06
           15530     46.9014E+06     40.2665E+06              0.    -26.8190E+06
           15531     46.4438E+06     40.4491E+06              0.    -27.3357E+06
           15532     45.9764E+06     40.6330E+06              0.    -27.8585E+06
           15533     45.4992E+06     40.8183E+06              0.    -28.3875E+06
           15534      45.012E+06     41.0047E+06              0.    -28.9226E+06
           15535     44.5145E+06     41.1923E+06              0.    -29.4635E+06
           15536     44.0067E+06     41.3809E+06              0.    -30.0102E+06
           15537     43.4882E+06     41.5703E+06              0.    -30.5626E+06
           15538     42.9590E+06     41.7605E+06              0.    -31.1205E+06
           15539     42.4189E+06     41.9513E+06              0.    -31.6837E+06
           15540     41.8676E+06     42.1425E+06              0.    -32.2520E+06
           15541     41.3050E+06     42.3340E+06              0.    -32.8253E+06
           15542     40.7308E+06     42.5256E+06              0.    -33.4034E+06
           15543     40.1450E+06     42.7171E+06              0.    -33.9860E+06
           15544     39.5472E+06     42.9083E+06              0.    -34.5729E+06
           15545     38.9374E+06     43.0990E+06              0.    -35.1638E+06
           15546     38.3152E+06     43.2890E+06              0.    -35.7585E+06
           15547     37.6806E+06     43.4780E+06              0.    -36.3566E+06
           15548     37.0333E+06     43.6658E+06              0.    -36.9579E+06
           15549     36.3731E+06     43.8520E+06              0.    -37.5620E+06
           15550     35.6998E+06     44.0365E+06              0.    -38.1686E+06
           15551     35.0132E+06     44.2187E+06              0.    -38.7772E+06
           15552     34.3131E+06     44.3985E+06              0.    -39.3875E+06
           15553     33.5994E+06     44.5755E+06              0.    -39.9991E+06
           15554     32.8717E+06     44.7493E+06              0.    -40.6115E+06
           15555     32.1301E+06     44.9194E+06              0.    -41.2243E+06
           15556     31.3741E+06     45.0855E+06              0.    -41.8369E+06
           15557     30.6037E+06     45.2471E+06              0.    -42.4488E+06
           15558     29.8186E+06     45.4037E+06              0.    -43.0595E+06
           15559     29.0187E+06     45.5549E+06              0.    -43.6685E+06
           15560     28.2038E+06     45.7000E+06              0.    -44.2751E+06
           15561     27.3738E+06     45.8385E+06              0.    -44.8786E+06
           15562     26.5283E+06     45.9698E+06              0.    -45.4785E+06
           15563     25.6673E+06     46.0933E+06              0.    -46.0741E+06
           15564     24.7906E+06     46.2083E+06              0.    -46.6646E+06
           15565     23.8981E+06     46.3140E+06              0.    -47.2493E+06
           15566     22.9896E+06     46.4099E+06              0.    -47.8274E+06
           15567     22.0649E+06     46.4949E+06              0.    -48.3981E+06
           15568     21.1240E+06     46.5684E+06              0.    -48.9605E+06
           15569     20.1667E+06     46.6294E+06              0.    -49.5139E+06
           15570     19.1929E+06     46.6771E+06              0.    -50.0572E+06
           15571     18.2025E+06     46.7104E+06              0.    -50.5897E+06
           15572     17.1954E+06     46.7284E+06              0.    -51.1102E+06
           15573     16.1716E+06     46.7300E+06              0.    -51.6178E+06
           15574     15.1310E+06     46.7140E+06              0.    -52.1115E+06
           15575     14.0736E+06     46.6794E+06              0.    -52.5901E+06
           15576     12.9993E+06     46.6248E+06              0.    -53.0527E+06
           15577     11.9082E+06     46.5490E+06              0.    -53.4981E+06
           15578     10.8002E+06     46.4507E+06              0.    -53.9252E+06
           15579     9.67551E+06     46.3284E+06              0.    -54.3327E+06
           15580     8.53408E+06     46.1807E+06              0.    -54.7195E+06
           15581     7.37603E+06     46.0060E+06              0.    -55.0843E+06
           15582      6.2015E+06     45.8029E+06              0.    -55.4258E+06
           15583     5.01062E+06     45.5695E+06              0.    -55.7429E+06
           15584     3.80359E+06     45.3042E+06              0.    -56.0341E+06
           15585     2.58061E+06     45.0051E+06              0.    -56.2982E+06
           15586     1.34194E+06     44.6705E+06              0.    -56.5337E+06
           15587     87.8453E+03     44.2984E+06              0.    -56.7395E+06
           15588    -1.18134E+06     43.8868E+06              0.    -56.9139E+06
           15589    -2.46527E+06     43.4336E+06              0.    -57.0558E+06
           15590    -3.76354E+06     42.9367E+06              0.    -57.1636E+06
           15591    -5.07571E+06     42.3938E+06              0.    -57.2360E+06
           15592     -6.4013E+06     41.8028E+06              0.    -57.2716E+06
           15593    -7.73978E+06     41.1612E+06              0.    -57.2689E+06
           15594    -9.09057E+06     40.4666E+06              0.    -57.2266E+06
           15595    -10.4531E+06     39.7166E+06              0.    -57.1432E+06
           15596    -11.8266E+06     38.9087E+06              0.    -57.0174E+06
           15597    -13.2104E+06     38.0401E+06              0.    -56.8478E+06
           15598    -14.6037E+06     37.1084E+06              0.    -56.6331E+06
           15599    -16.0058E+06     36.1108E+06              0.    -56.3718E+06
           15600    -17.4157E+06     35.0444E+06              0.    -56.0627E+06
           15601    -18.8325E+06     33.9066E+06              0.    -55.7045E+06
           15602    -20.2552E+06     32.6945E+06              0.    -55.2960E+06
           15603    -21.6828E+06     31.4052E+06              0.    -54.8360E+06
           15604    -23.1142E+06     30.0357E+06              0.    -54.3232E+06
           15605    -24.5482E+06     28.5832E+06              0.    -53.7566E+06
           15606    -25.9838E+06     27.0447E+06              0.    -53.1350E+06
           15607    -27.4195E+06     25.4172E+06              0.    -52.4575E+06
           15608    -28.8542E+06     23.6977E+06              0.    -51.7231E+06
           15609    -30.2864E+06     21.8833E+06              0.    -50.9309E+06
           15610    -31.7148E+06     19.9710E+06              0.    -50.0800E+06
           15611    -33.1380E+06     17.9578E+06              0.    -49.1696E+06
           15612    -34.5544E+06     15.8409E+06              0.    -48.1990E+06
           15613    -35.9625E+06     13.6173E+06              0.    -47.1675E+06
           15614    -37.3608E+06     11.2841E+06              0.    -46.0747E+06
           15615    -38.7476E+06     8.83858E+06              0.    -44.9198E+06
           15616    -40.1212E+06     6.27793E+06              0.    -43.7026E+06
           15617    -41.4801E+06     3.59948E+06              0.    -42.4225E+06
           15618    -42.8225E+06     800.632E+03              0.    -41.0794E+06
           15619    -44.1467E+06    -2.12121E+06              0.    -39.6730E+06
           15620    -45.4508E+06    -5.16845E+06              0.    -38.2031E+06
           15621    -46.7333E+06    -8.34356E+06              0.    -36.6697E+06
           15622    -47.9926E+06    -11.6490E+06              0.    -35.0731E+06
           15623    -49.2285E+06    -15.0877E+06              0.    -33.4130E+06
           15624    -50.8264E+06    -19.0962E+06              0.    -32.6709E+06
           15625     65.4313E+06     28.7242E+06              0.    -2.38991E+06
           15626     65.4421E+06     28.8425E+06              0.    -2.38552E+06
           15627     65.4022E+06     28.9361E+06              0.    -2.35348E+06
           15628     65.3629E+06     29.0271E+06              0.    -2.32619E+06
           15629     65.3239E+06     29.1156E+06              0.    -2.30353E+06
           15630     65.2852E+06     29.2019E+06              0.    -2.28536E+06
           15631     65.2468E+06     29.2860E+06              0.    -2.27157E+06
           15632     65.2086E+06      29.368E+06              0.    -2.26206E+06
           15633     65.1704E+06     29.4480E+06              0.    -2.25671E+06
           15634     65.1323E+06     29.5262E+06              0.    -2.25544E+06
           15635     65.0941E+06     29.6026E+06              0.    -2.25813E+06
           15636     65.0558E+06     29.6773E+06              0.    -2.26471E+06
           15637     65.0174E+06     29.7505E+06              0.    -2.27510E+06
           15638     64.9787E+06     29.8222E+06              0.    -2.28920E+06
           15639     64.9397E+06     29.8925E+06              0.    -2.30695E+06
           15640     64.9003E+06     29.9615E+06              0.    -2.32828E+06
           15641     64.8605E+06     30.0293E+06              0.    -2.35313E+06
           15642     64.8202E+06     30.0960E+06              0.    -2.38142E+06
           15643     64.7794E+06     30.1616E+06              0.    -2.41311E+06
           15644     64.7380E+06     30.2262E+06              0.    -2.44814E+06
           15645     64.6959E+06     30.2900E+06              0.    -2.48647E+06
           15646     64.6531E+06     30.3529E+06              0.    -2.52804E+06
           15647     64.6096E+06     30.4151E+06              0.    -2.57282E+06
           15648     64.5652E+06     30.4767E+06              0.    -2.62077E+06
           15649     64.5199E+06     30.5376E+06              0.    -2.67185E+06
           15650     64.4738E+06     30.5980E+06              0.    -2.72604E+06
           15651     64.4266E+06     30.6579E+06              0.    -2.78331E+06
           15652     64.3784E+06     30.7174E+06              0.    -2.84363E+06
           15653     64.3291E+06     30.7766E+06              0.    -2.90698E+06
           15654     64.2787E+06     30.8355E+06              0.    -2.97334E+06
           15655     64.2271E+06     30.8941E+06              0.    -3.04271E+06
           15656     64.1742E+06     30.9526E+06              0.    -3.11506E+06
           15657     64.1201E+06     31.0110E+06              0.    -3.19039E+06
           15658     64.0646E+06     31.0693E+06              0.    -3.26870E+06
           15659     64.0077E+06     31.1276E+06              0.    -3.34997E+06
           15660     63.9494E+06     31.1860E+06              0.    -3.43421E+06
           15661     63.8896E+06     31.2445E+06              0.    -3.52142E+06
           15662     63.8282E+06     31.3031E+06              0.    -3.61160E+06
           15663     63.7652E+06     31.3620E+06              0.    -3.70477E+06
           15664     63.7006E+06     31.4211E+06              0.    -3.80092E+06
           15665     63.6343E+06     31.4805E+06              0.    -3.90007E+06
           15666     63.5662E+06     31.5402E+06              0.    -4.00224E+06
           15667     63.4963E+06     31.6004E+06              0.    -4.10744E+06
           15668     63.4246E+06     31.6610E+06              0.    -4.21569E+06
           15669     63.3510E+06     31.7220E+06              0.    -4.32700E+06
           15670     63.2753E+06     31.7837E+06              0.    -4.44141E+06
           15671     63.1977E+06     31.8458E+06              0.    -4.55893E+06
           15672     63.1180E+06     31.9087E+06              0.    -4.67960E+06
           15673     63.0362E+06     31.9721E+06              0.    -4.80343E+06
           15674     62.9522E+06     32.0363E+06              0.    -4.93047E+06
           15675     62.8660E+06     32.1012E+06              0.    -5.06073E+06
           15676     62.7774E+06     32.1669E+06              0.    -5.19427E+06
           15677     62.6865E+06     32.2335E+06              0.    -5.33110E+06
           15678     62.5933E+06     32.3009E+06              0.    -5.47128E+06
           15679     62.4975E+06     32.3692E+06              0.    -5.61483E+06
           15680     62.3992E+06     32.4384E+06              0.    -5.76181E+06
           15681     62.2983E+06     32.5086E+06              0.    -5.91224E+06
           15682     62.1948E+06     32.5799E+06              0.    -6.06618E+06
           15683     62.0886E+06     32.6522E+06              0.    -6.22368E+06
           15684     61.9796E+06     32.7255E+06              0.    -6.38477E+06
           15685     61.8678E+06     32.8001E+06              0.    -6.54950E+06
           15686     61.7530E+06     32.8757E+06              0.    -6.71794E+06
           15687     61.6353E+06     32.9526E+06              0.    -6.89012E+06
           15688     61.5146E+06     33.0307E+06              0.    -7.06610E+06
           15689     61.3908E+06     33.1101E+06              0.    -7.24593E+06
           15690     61.2638E+06     33.1908E+06              0.    -7.42968E+06
           15691     61.1336E+06     33.2728E+06              0.    -7.61738E+06
           15692     61.0000E+06     33.3562E+06              0.    -7.80911E+06
           15693     60.8631E+06     33.4410E+06              0.    -8.00492E+06
           15694     60.7227E+06     33.5272E+06              0.    -8.20487E+06
           15695     60.5788E+06     33.6149E+06              0.    -8.40902E+06
           15696     60.4313E+06     33.7041E+06              0.    -8.61743E+06
           15697     60.2802E+06     33.7949E+06              0.    -8.83017E+06
           15698     60.1252E+06     33.8872E+06              0.    -9.04729E+06
           15699     59.9664E+06     33.9810E+06              0.    -9.26886E+06
           15700     59.8037E+06     34.0766E+06              0.    -9.49494E+06
           15701     59.6370E+06     34.1737E+06              0.    -9.72560E+06
           15702     59.4663E+06     34.2726E+06              0.    -9.96091E+06
           15703     59.2913E+06     34.3732E+06              0.    -10.2009E+06
           15704     59.1121E+06     34.4755E+06              0.    -10.4457E+06
           15705     58.9286E+06     34.5796E+06              0.    -10.6954E+06
           15706     58.7406E+06     34.6855E+06              0.    -10.9499E+06
           15707     58.5481E+06     34.7932E+06              0.    -11.2094E+06
           15708     58.3509E+06     34.9027E+06              0.    -11.4740E+06
           15709     58.1491E+06     35.0142E+06              0.    -11.7437E+06
           15710     57.9425E+06     35.1275E+06              0.    -12.0186E+06
           15711     57.7309E+06     35.2427E+06              0.    -12.2987E+06
           15712     57.5144E+06     35.3599E+06              0.    -12.5841E+06
           15713     57.2927E+06     35.4791E+06              0.    -12.8749E+06
           15714     57.0659E+06     35.6002E+06              0.    -13.1712E+06
           15715     56.8337E+06     35.7234E+06              0.    -13.4729E+06
           15716     56.5961E+06     35.8486E+06              0.    -13.7803E+06
           15717     56.3530E+06     35.9758E+06              0.    -14.0932E+06
           15718     56.1043E+06     36.1051E+06              0.    -14.4119E+06
           15719     55.8498E+06     36.2365E+06              0.    -14.7364E+06
           15720     55.5895E+06     36.3699E+06              0.    -15.0666E+06
           15721     55.3232E+06     36.5055E+06              0.    -15.4027E+06
           15722     55.0508E+06     36.6432E+06              0.    -15.7448E+06
           15723     54.7722E+06     36.7830E+06              0.    -16.0929E+06
           15724     54.4872E+06     36.9249E+06              0.    -16.4470E+06
           15725     54.1958E+06     37.0690E+06              0.    -16.8072E+06
           15726     53.8979E+06     37.2152E+06              0.    -17.1735E+06
           15727     53.5932E+06     37.3636E+06              0.    -17.5461E+06
           15728     53.2818E+06     37.5141E+06              0.    -17.9248E+06
           15729     52.9633E+06     37.6668E+06              0.    -18.3099E+06
           15730     52.6378E+06     37.8216E+06              0.    -18.7012E+06
           15731     52.3050E+06     37.9785E+06              0.    -19.0989E+06
           15732     51.9649E+06     38.1375E+06              0.    -19.5030E+06
           15733     51.6173E+06     38.2987E+06              0.    -19.9134E+06
           15734      51.262E+06     38.4619E+06              0.    -20.3303E+06
           15735     50.8990E+06     38.6272E+06              0.    -20.7536E+06
           15736     50.5280E+06     38.7946E+06              0.    -21.1834E+06
           15737     50.1489E+06     38.9640E+06              0.    -21.6196E+06
           15738     49.7617E+06     39.1353E+06              0.    -22.0622E+06
           15739     49.3660E+06     39.3086E+06              0.    -22.5114E+06
           15740     48.9618E+06     39.4839E+06              0.    -22.9669E+06
           15741     48.5490E+06      39.661E+06              0.    -23.4289E+06
           15742     48.1273E+06     39.8399E+06              0.    -23.8973E+06
           15743     47.6966E+06     40.0206E+06              0.    -24.3720E+06
           15744     47.2568E+06     40.2031E+06              0.    -24.8531E+06
           15745     46.8076E+06     40.3871E+06              0.    -25.3404E+06
           15746     46.3490E+06     40.5728E+06              0.    -25.8340E+06
           15747     45.8807E+06     40.7599E+06              0.    -26.3338E+06
           15748     45.4025E+06     40.9484E+06              0.    -26.8396E+06
           15749     44.9144E+06     41.1383E+06              0.    -27.3514E+06
           15750     44.4162E+06     41.3294E+06              0.    -27.8692E+06
           15751     43.9075E+06     41.5216E+06              0.    -28.3928E+06
           15752     43.3884E+06     41.7148E+06              0.    -28.9220E+06
           15753     42.8586E+06     41.9089E+06              0.    -29.4568E+06
           15754     42.3179E+06     42.1037E+06              0.    -29.9971E+06
           15755     41.7662E+06     42.2991E+06              0.    -30.5426E+06
           15756     41.2033E+06     42.4949E+06              0.    -31.0933E+06
           15757     40.6289E+06     42.6910E+06              0.    -31.6489E+06
           15758     40.0429E+06     42.8872E+06              0.    -32.2092E+06
           15759     39.4452E+06     43.0833E+06              0.    -32.7740E+06
           15760     38.8355E+06     43.2791E+06              0.    -33.3432E+06
           15761     38.2136E+06     43.4744E+06              0.    -33.9164E+06
           15762     37.5794E+06     43.6689E+06              0.    -34.4934E+06
           15763     36.9327E+06     43.8624E+06              0.    -35.0740E+06
           15764     36.2732E+06     44.0547E+06              0.    -35.6578E+06
           15765     35.6009E+06     44.2454E+06              0.    -36.2445E+06
           15766     34.9154E+06     44.4343E+06              0.    -36.8338E+06
           15767     34.2167E+06     44.6210E+06              0.    -37.4254E+06
           15768     33.5045E+06     44.8052E+06              0.    -38.0188E+06
           15769     32.7787E+06     44.9866E+06              0.    -38.6137E+06
           15770     32.0390E+06     45.1647E+06              0.    -39.2096E+06
           15771     31.2854E+06     45.3393E+06              0.    -39.8062E+06
           15772     30.5175E+06     45.5097E+06              0.    -40.4029E+06
           15773     29.7352E+06     45.6757E+06              0.    -40.9992E+06
           15774     28.9385E+06     45.8367E+06              0.    -41.5947E+06
           15775     28.1269E+06     45.9921E+06              0.    -42.1889E+06
           15776     27.3006E+06     46.1416E+06              0.    -42.7810E+06
           15777     26.4591E+06     46.2845E+06              0.    -43.3707E+06
           15778     25.6025E+06     46.4202E+06              0.    -43.9572E+06
           15779     24.7305E+06     46.5481E+06              0.    -44.5398E+06
           15780     23.8430E+06     46.6676E+06              0.    -45.1180E+06
           15781     22.9399E+06     46.7779E+06              0.    -45.6910E+06
           15782     22.0210E+06     46.8783E+06              0.    -46.2581E+06
           15783     21.0863E+06     46.9680E+06              0.    -46.8186E+06
           15784     20.1355E+06     47.0463E+06              0.    -47.3715E+06
           15785     19.1686E+06     47.1123E+06              0.    -47.9162E+06
           15786     18.1855E+06     47.1650E+06              0.    -48.4518E+06
           15787     17.1862E+06     47.2035E+06              0.    -48.9773E+06
           15788     16.1705E+06     47.2269E+06              0.    -49.4919E+06
           15789     15.1385E+06     47.2341E+06              0.    -49.9946E+06
           15790     14.0900E+06     47.2240E+06              0.    -50.4845E+06
           15791     13.0251E+06     47.1954E+06              0.    -50.9606E+06
           15792     11.9437E+06     47.1473E+06              0.    -51.4217E+06
           15793     10.8459E+06     47.0783E+06              0.    -51.8670E+06
           15794     9.73173E+06     46.9871E+06              0.    -52.2952E+06
           15795     8.60121E+06     46.8723E+06              0.    -52.7053E+06
           15796     7.45444E+06     46.7327E+06              0.    -53.0961E+06
           15797     6.29153E+06     46.5666E+06              0.    -53.4665E+06
           15798     5.11261E+06     46.3725E+06              0.    -53.8152E+06
           15799     3.91784E+06     46.1488E+06              0.    -54.1411E+06
           15800     2.70740E+06     45.8939E+06              0.    -54.4428E+06
           15801     1.48153E+06     45.6060E+06              0.    -54.7192E+06
           15802     240.456E+03     45.2833E+06              0.    -54.9690E+06
           15803    -1.01552E+06     44.9239E+06              0.    -55.1908E+06
           15804    -2.28609E+06     44.5259E+06              0.    -55.3833E+06
           15805    -3.57089E+06     44.0874E+06              0.    -55.5453E+06
           15806    -4.86954E+06     43.6062E+06              0.    -55.6754E+06
           15807    -6.18159E+06     43.0802E+06              0.    -55.7722E+06
           15808    -7.50657E+06     42.5072E+06              0.    -55.8344E+06
           15809    -8.84397E+06     41.8850E+06              0.    -55.8607E+06
           15810    -10.1932E+06     41.2112E+06              0.    -55.8497E+06
           15811    -11.5538E+06     40.4834E+06              0.    -55.8000E+06
           15812    -12.9249E+06     39.6991E+06              0.    -55.7103E+06
           15813    -14.3059E+06     38.8560E+06              0.    -55.5793E+06
           15814    -15.6961E+06     37.9513E+06              0.    -55.4057E+06
           15815    -17.0946E+06     36.9826E+06              0.    -55.1882E+06
           15816    -18.5007E+06     35.9470E+06              0.    -54.9255E+06
           15817    -19.9134E+06     34.8419E+06              0.    -54.6163E+06
           15818    -21.3317E+06     33.6646E+06              0.    -54.2594E+06
           15819    -22.7548E+06     32.4122E+06              0.    -53.8537E+06
           15820    -24.1815E+06     31.0818E+06              0.    -53.3979E+06
           15821    -25.6107E+06     29.6708E+06              0.    -52.8910E+06
           15822    -27.0413E+06     28.1761E+06              0.    -52.3319E+06
           15823    -28.4722E+06     26.5948E+06              0.    -51.7196E+06
           15824    -29.9019E+06     24.9241E+06              0.    -51.0530E+06
           15825    -31.3293E+06     23.1610E+06              0.    -50.3313E+06
           15826    -32.7530E+06     21.3027E+06              0.    -49.5536E+06
           15827    -34.1717E+06     19.3461E+06              0.    -48.7191E+06
           15828    -35.5838E+06     17.2885E+06              0.    -47.8269E+06
           15829    -36.9879E+06     15.1269E+06              0.    -46.8765E+06
           15830    -38.3825E+06     12.8586E+06              0.    -45.8672E+06
           15831    -39.7660E+06     10.4807E+06              0.    -44.7984E+06
           15832    -41.1368E+06     7.99051E+06              0.    -43.6696E+06
           15833    -42.4933E+06     5.38527E+06              0.    -42.4804E+06
           15834    -43.8339E+06     2.66238E+06              0.    -41.2303E+06
           15835    -45.1568E+06    -180.678E+03              0.    -39.9192E+06
           15836    -46.4603E+06    -3.14646E+06              0.    -38.5467E+06
           15837    -47.7429E+06    -6.23732E+06              0.    -37.1127E+06
           15838    -49.0029E+06    -9.45565E+06              0.    -35.6170E+06
           15839    -50.2395E+06    -12.8038E+06              0.    -34.0596E+06
           15840    -51.4501E+06    -16.2832E+06              0.    -32.4404E+06
           15841    -53.0512E+06    -20.3363E+06              0.    -31.7102E+06
           15842     65.3381E+06     28.6840E+06              0.    -2.34856E+06
           15843     65.3494E+06     28.8083E+06              0.    -2.34424E+06
           15844     65.3075E+06     28.9065E+06              0.    -2.31275E+06
           15845     65.2662E+06     29.0020E+06              0.    -2.28593E+06
           15846     65.2252E+06     29.0950E+06              0.    -2.26365E+06
           15847     65.1846E+06     29.1856E+06              0.    -2.24579E+06
           15848     65.1443E+06     29.2739E+06              0.    -2.23224E+06
           15849     65.1041E+06     29.3599E+06              0.    -2.22289E+06
           15850     65.0641E+06     29.4440E+06              0.    -2.21763E+06
           15851     65.0240E+06     29.5260E+06              0.    -2.21637E+06
           15852     64.9840E+06     29.6062E+06              0.    -2.21901E+06
           15853     64.9438E+06     29.6847E+06              0.    -2.22547E+06
           15854     64.9034E+06     29.7615E+06              0.    -2.23567E+06
           15855     64.8627E+06     29.8367E+06              0.    -2.24952E+06
           15856     64.8218E+06     29.9106E+06              0.    -2.26696E+06
           15857     64.7805E+06     29.9830E+06              0.    -2.28791E+06
           15858     64.7387E+06     30.0542E+06              0.    -2.31232E+06
           15859     64.6964E+06     30.1242E+06              0.    -2.34011E+06
           15860     64.6536E+06     30.1930E+06              0.    -2.37125E+06
           15861     64.6101E+06     30.2609E+06              0.    -2.40566E+06
           15862     64.5659E+06     30.3278E+06              0.    -2.44331E+06
           15863     64.5210E+06     30.3939E+06              0.    -2.48416E+06
           15864     64.4753E+06     30.4592E+06              0.    -2.52815E+06
           15865     64.4287E+06     30.5238E+06              0.    -2.57526E+06
           15866     64.3812E+06     30.5877E+06              0.    -2.62545E+06
           15867     64.3327E+06     30.6511E+06              0.    -2.67868E+06
           15868     64.2832E+06     30.7140E+06              0.    -2.73495E+06
           15869     64.2326E+06     30.7765E+06              0.    -2.79421E+06
           15870     64.1809E+06     30.8385E+06              0.    -2.85645E+06
           15871     64.1279E+06     30.9003E+06              0.    -2.92165E+06
           15872     64.0738E+06     30.9619E+06              0.    -2.98979E+06
           15873     64.0183E+06     31.0232E+06              0.    -3.06088E+06
           15874     63.9615E+06     31.0845E+06              0.    -3.13488E+06
           15875     63.9032E+06     31.1457E+06              0.    -3.21181E+06
           15876     63.8435E+06     31.2069E+06              0.    -3.29165E+06
           15877     63.7823E+06     31.2681E+06              0.    -3.37441E+06
           15878     63.7195E+06     31.3295E+06              0.    -3.46009E+06
           15879     63.6551E+06     31.3910E+06              0.    -3.54868E+06
           15880     63.5890E+06     31.4527E+06              0.    -3.64020E+06
           15881     63.5212E+06     31.5147E+06              0.    -3.73466E+06
           15882     63.4516E+06     31.5770E+06              0.    -3.83207E+06
           15883     63.3802E+06     31.6397E+06              0.    -3.93243E+06
           15884     63.3069E+06     31.7028E+06              0.    -4.03577E+06
           15885     63.2316E+06     31.7663E+06              0.    -4.14211E+06
           15886     63.1543E+06     31.8304E+06              0.    -4.25146E+06
           15887     63.0750E+06     31.8950E+06              0.    -4.36384E+06
           15888     62.9935E+06     31.9602E+06              0.    -4.47928E+06
           15889     62.9099E+06     32.0261E+06              0.    -4.59781E+06
           15890     62.8240E+06     32.0926E+06              0.    -4.71945E+06
           15891     62.7359E+06     32.1599E+06              0.    -4.84423E+06
           15892     62.6454E+06     32.2279E+06              0.    -4.97218E+06
           15893     62.5525E+06     32.2968E+06              0.    -5.10334E+06
           15894     62.4572E+06     32.3666E+06              0.    -5.23775E+06
           15895     62.3593E+06     32.4372E+06              0.    -5.37542E+06
           15896     62.2588E+06     32.5088E+06              0.    -5.51642E+06
           15897     62.1557E+06     32.5813E+06              0.    -5.66077E+06
           15898     62.0499E+06     32.6549E+06              0.    -5.80852E+06
           15899     61.9413E+06     32.7295E+06              0.    -5.95971E+06
           15900     61.8299E+06     32.8053E+06              0.    -6.11438E+06
           15901     61.7155E+06     32.8821E+06              0.    -6.27259E+06
           15902     61.5982E+06     32.9602E+06              0.    -6.43437E+06
           15903     61.4779E+06     33.0395E+06              0.    -6.59978E+06
           15904     61.3545E+06     33.1200E+06              0.    -6.76886E+06
           15905     61.2278E+06     33.2018E+06              0.    -6.94168E+06
           15906     61.0980E+06     33.2849E+06              0.    -7.11827E+06
           15907     60.9648E+06     33.3693E+06              0.    -7.29870E+06
           15908     60.8282E+06     33.4552E+06              0.    -7.48301E+06
           15909     60.6882E+06     33.5425E+06              0.    -7.67127E+06
           15910     60.5446E+06     33.6312E+06              0.    -7.86353E+06
           15911     60.3974E+06     33.7215E+06              0.    -8.05985E+06
           15912     60.2465E+06     33.8133E+06              0.    -8.26029E+06
           15913     60.0919E+06     33.9066E+06              0.    -8.46490E+06
           15914     59.9334E+06     34.0015E+06              0.    -8.67375E+06
           15915     59.7709E+06     34.0981E+06              0.    -8.88691E+06
           15916     59.6045E+06     34.1963E+06              0.    -9.10442E+06
           15917     59.4339E+06     34.2962E+06              0.    -9.32636E+06
           15918     59.2592E+06     34.3978E+06              0.    -9.55278E+06
           15919     59.0802E+06     34.5011E+06              0.    -9.78376E+06
           15920     58.8968E+06     34.6063E+06              0.    -10.0194E+06
           15921     58.7090E+06     34.7132E+06              0.    -10.2596E+06
           15922     58.5167E+06     34.8220E+06              0.    -10.5046E+06
           15923     58.3197E+06     34.9326E+06              0.    -10.7545E+06
           15924     58.1180E+06     35.0451E+06              0.    -11.0092E+06
           15925     57.9114E+06     35.1595E+06              0.    -11.2688E+06
           15926     57.7000E+06     35.2759E+06              0.    -11.5334E+06
           15927     57.4835E+06     35.3943E+06              0.    -11.8032E+06
           15928     57.2619E+06     35.5146E+06              0.    -12.0780E+06
           15929     57.0351E+06     35.6369E+06              0.    -12.3581E+06
           15930     56.8029E+06     35.7613E+06              0.    -12.6434E+06
           15931     56.5654E+06     35.8877E+06              0.    -12.9340E+06
           15932     56.3223E+06     36.0162E+06              0.    -13.2301E+06
           15933     56.0735E+06     36.1467E+06              0.    -13.5315E+06
           15934     55.8190E+06     36.2794E+06              0.    -13.8385E+06
           15935     55.5586E+06     36.4142E+06              0.    -14.1511E+06
           15936     55.2922E+06     36.5511E+06              0.    -14.4693E+06
           15937     55.0197E+06     36.6902E+06              0.    -14.7932E+06
           15938     54.7410E+06     36.8314E+06              0.    -15.1228E+06
           15939     54.4560E+06     36.9748E+06              0.    -15.4583E+06
           15940     54.1644E+06     37.1204E+06              0.    -15.7996E+06
           15941     53.8664E+06     37.2682E+06              0.    -16.1468E+06
           15942     53.5616E+06     37.4181E+06              0.    -16.4999E+06
           15943     53.2499E+06     37.5703E+06              0.    -16.8590E+06
           15944     52.9313E+06     37.7246E+06              0.    -17.2242E+06
           15945     52.6056E+06     37.8811E+06              0.    -17.5955E+06
           15946     52.2727E+06     38.0398E+06              0.    -17.9728E+06
           15947     51.9324E+06     38.2006E+06              0.    -18.3564E+06
           15948     51.5846E+06     38.3637E+06              0.    -18.7461E+06
           15949     51.2291E+06     38.5288E+06              0.    -19.1420E+06
           15950     50.8659E+06     38.6961E+06              0.    -19.5441E+06
           15951     50.4947E+06     38.8655E+06              0.    -19.9525E+06
           15952     50.1155E+06     39.0370E+06              0.    -20.3672E+06
           15953     49.7281E+06     39.2106E+06              0.    -20.7881E+06
           15954     49.3323E+06     39.3861E+06              0.    -21.2153E+06
           15955     48.9280E+06     39.5637E+06              0.    -21.6488E+06
           15956     48.5150E+06     39.7432E+06              0.    -22.0885E+06
           15957     48.0932E+06     39.9246E+06              0.    -22.5345E+06
           15958     47.6624E+06     40.1079E+06              0.    -22.9868E+06
           15959     47.2225E+06     40.2929E+06              0.    -23.4452E+06
           15960     46.7734E+06     40.4797E+06              0.    -23.9099E+06
           15961     46.3147E+06     40.6682E+06              0.    -24.3806E+06
           15962     45.8465E+06     40.8583E+06              0.    -24.8575E+06
           15963     45.3684E+06     41.0499E+06              0.    -25.3403E+06
           15964     44.8805E+06     41.2429E+06              0.    -25.8292E+06
           15965     44.3824E+06     41.4372E+06              0.    -26.3239E+06
           15966     43.8741E+06     41.6328E+06              0.    -26.8244E+06
           15967     43.3553E+06     41.8296E+06              0.    -27.3306E+06
           15968     42.8258E+06     42.0273E+06              0.    -27.8425E+06
           15969     42.2856E+06     42.2259E+06              0.    -28.3598E+06
           15970     41.7344E+06     42.4253E+06              0.    -28.8824E+06
           15971     41.1721E+06     42.6252E+06              0.    -29.4103E+06
           15972     40.5985E+06     42.8257E+06              0.    -29.9433E+06
           15973     40.0133E+06     43.0263E+06              0.    -30.4811E+06
           15974     39.4165E+06     43.2271E+06              0.    -31.0236E+06
           15975     38.8079E+06     43.4278E+06              0.    -31.5707E+06
           15976     38.1872E+06     43.6282E+06              0.    -32.1221E+06
           15977     37.5543E+06     43.8281E+06              0.    -32.6776E+06
           15978     36.9090E+06     44.0272E+06              0.    -33.2369E+06
           15979     36.2511E+06     44.2253E+06              0.    -33.7998E+06
           15980     35.5805E+06     44.4222E+06              0.    -34.3660E+06
           15981     34.8970E+06     44.6175E+06              0.    -34.9353E+06
           15982     34.2004E+06     44.8110E+06              0.    -35.5072E+06
           15983     33.4905E+06     45.0023E+06              0.    -36.0816E+06
           15984     32.7671E+06     45.1912E+06              0.    -36.6579E+06
           15985     32.0301E+06     45.3772E+06              0.    -37.2360E+06
           15986     31.2793E+06     45.5599E+06              0.    -37.8153E+06
           15987     30.5146E+06     45.7391E+06              0.    -38.3954E+06
           15988     29.7357E+06     45.9142E+06              0.    -38.9760E+06
           15989     28.9425E+06     46.0848E+06              0.    -39.5566E+06
           15990     28.1348E+06     46.2505E+06              0.    -40.1366E+06
           15991     27.3125E+06     46.4107E+06              0.    -40.7156E+06
           15992     26.4755E+06     46.5649E+06              0.    -41.2931E+06
           15993     25.6235E+06     46.7126E+06              0.    -41.8685E+06
           15994     24.7564E+06     46.8531E+06              0.    -42.4411E+06
           15995     23.8742E+06     46.9860E+06              0.    -43.0105E+06
           15996     22.9766E+06     47.1104E+06              0.    -43.5760E+06
           15997     22.0636E+06     47.2257E+06              0.    -44.1368E+06
           15998     21.1350E+06     47.3313E+06              0.    -44.6924E+06
           15999     20.1908E+06     47.4263E+06              0.    -45.2420E+06
           16000     19.2308E+06     47.5099E+06              0.    -45.7849E+06
           16001     18.2549E+06     47.5814E+06              0.    -46.3203E+06
           16002     17.2631E+06     47.6398E+06              0.    -46.8473E+06
           16003     16.2553E+06     47.6842E+06              0.    -47.3652E+06
           16004     15.2314E+06     47.7137E+06              0.    -47.8731E+06
           16005     14.1915E+06     47.7272E+06              0.    -48.3701E+06
           16006     13.1355E+06     47.7236E+06              0.    -48.8554E+06
           16007     12.0634E+06     47.7020E+06              0.    -49.3278E+06
           16008     10.9752E+06     47.6610E+06              0.    -49.7866E+06
           16009     9.87095E+06     47.5995E+06              0.    -50.2306E+06
           16010     8.75068E+06     47.5163E+06              0.    -50.6588E+06
           16011     7.61448E+06     47.4099E+06              0.    -51.0703E+06
           16012     6.46243E+06     47.2791E+06              0.    -51.4638E+06
           16013     5.29466E+06     47.1223E+06              0.    -51.8384E+06
           16014     4.11130E+06     46.9382E+06              0.    -52.1928E+06
           16015     2.91252E+06     46.7250E+06              0.    -52.5259E+06
           16016     1.69852E+06     46.4813E+06              0.    -52.8366E+06
           16017     469.527E+03     46.2053E+06              0.    -53.1236E+06
           16018    -774.214E+03     45.8952E+06              0.    -53.3858E+06
           16019    -2.03241E+06     45.5494E+06              0.    -53.6218E+06
           16020    -3.30475E+06     45.1659E+06              0.    -53.8305E+06
           16021    -4.59087E+06     44.7427E+06              0.    -54.0106E+06
           16022    -5.89038E+06     44.2779E+06              0.    -54.1607E+06
           16023    -7.20287E+06     43.7694E+06              0.    -54.2797E+06
           16024    -8.52785E+06     43.2151E+06              0.    -54.3662E+06
           16025    -9.86484E+06     42.6128E+06              0.    -54.4190E+06
           16026    -11.2133E+06     41.9603E+06              0.    -54.4367E+06
           16027    -12.5726E+06     41.2552E+06              0.    -54.4181E+06
           16028    -13.9421E+06     40.4951E+06              0.    -54.3618E+06
           16029    -15.3212E+06     39.6777E+06              0.    -54.2666E+06
           16030    -16.7091E+06     38.8004E+06              0.    -54.1312E+06
           16031    -18.1050E+06     37.8607E+06              0.    -53.9544E+06
           16032    -19.5082E+06     36.8560E+06              0.    -53.7349E+06
           16033    -20.9178E+06     35.7837E+06              0.    -53.4715E+06
           16034    -22.3328E+06     34.6411E+06              0.    -53.1629E+06
           16035    -23.7524E+06     33.4255E+06              0.    -52.8082E+06
           16036    -25.1754E+06     32.1341E+06              0.    -52.4060E+06
           16037    -26.6009E+06     30.7642E+06              0.    -51.9553E+06
           16038    -28.0277E+06     29.3129E+06              0.    -51.4550E+06
           16039    -29.4547E+06     27.7774E+06              0.    -50.9042E+06
           16040    -30.8806E+06     26.1548E+06              0.    -50.3018E+06
           16041    -32.3043E+06     24.4424E+06              0.    -49.6468E+06
           16042    -33.7244E+06     22.6372E+06              0.    -48.9385E+06
           16043    -35.1396E+06     20.7364E+06              0.    -48.1759E+06
           16044    -36.5485E+06     18.7371E+06              0.    -47.3584E+06
           16045    -37.9497E+06     16.6366E+06              0.    -46.4851E+06
           16046    -39.3417E+06     14.4319E+06              0.    -45.5554E+06
           16047    -40.7230E+06     12.1204E+06              0.    -44.5687E+06
           16048    -42.0920E+06     9.69929E+06              0.    -43.5244E+06
           16049    -43.4472E+06     7.16592E+06              0.    -42.4222E+06
           16050    -44.7869E+06     4.51759E+06              0.    -41.2614E+06
           16051    -46.1096E+06     1.75177E+06              0.    -40.0418E+06
           16052    -47.4134E+06    -1.13404E+06              0.    -38.7630E+06
           16053    -48.6967E+06    -4.14233E+06              0.    -37.4249E+06
           16054    -49.9579E+06    -7.27538E+06              0.    -36.0271E+06
           16055    -51.1950E+06    -10.5355E+06              0.    -34.5694E+06
           16056    -52.4061E+06    -13.9246E+06              0.    -33.0516E+06
           16057    -53.5884E+06    -17.4450E+06              0.    -31.4740E+06
           16058    -55.1857E+06    -21.5330E+06              0.    -30.7599E+06
           16059     65.2465E+06     28.6446E+06              0.    -2.30523E+06
           16060     65.2583E+06     28.7746E+06              0.    -2.30098E+06
           16061     65.2145E+06     28.8774E+06              0.    -2.27007E+06
           16062     65.1712E+06     28.9774E+06              0.    -2.24374E+06
           16063     65.1284E+06     29.0747E+06              0.    -2.22187E+06
           16064     65.0859E+06     29.1695E+06              0.    -2.20434E+06
           16065     65.0436E+06     29.2619E+06              0.    -2.19103E+06
           16066     65.0016E+06     29.3520E+06              0.    -2.18185E+06
           16067     64.9596E+06     29.4400E+06              0.    -2.17668E+06
           16068     64.9177E+06     29.5258E+06              0.    -2.17544E+06
           16069     64.8758E+06     29.6098E+06              0.    -2.17803E+06
           16070     64.8337E+06     29.6919E+06              0.    -2.18436E+06
           16071     64.7914E+06     29.7723E+06              0.    -2.19436E+06
           16072     64.7489E+06     29.8511E+06              0.    -2.20796E+06
           16073     64.7060E+06     29.9283E+06              0.    -2.22506E+06
           16074     64.6628E+06     30.0041E+06              0.    -2.24562E+06
           16075     64.6191E+06     30.0786E+06              0.    -2.26957E+06
           16076     64.5748E+06     30.1518E+06              0.    -2.29685E+06
           16077     64.5300E+06     30.2239E+06              0.    -2.32740E+06
           16078     64.4845E+06     30.2949E+06              0.    -2.36117E+06
           16079     64.4382E+06     30.3650E+06              0.    -2.39811E+06
           16080     64.3912E+06     30.4341E+06              0.    -2.43819E+06
           16081     64.3434E+06     30.5025E+06              0.    -2.48137E+06
           16082     64.2946E+06     30.5700E+06              0.    -2.52759E+06
           16083     64.2449E+06     30.6369E+06              0.    -2.57684E+06
           16084     64.1942E+06     30.7033E+06              0.    -2.62908E+06
           16085     64.1424E+06     30.7691E+06              0.    -2.68430E+06
           16086     64.0894E+06     30.8344E+06              0.    -2.74245E+06
           16087     64.0353E+06     30.8994E+06              0.    -2.80352E+06
           16088     63.9799E+06     30.9640E+06              0.    -2.86750E+06
           16089     63.9232E+06     31.0284E+06              0.    -2.93438E+06
           16090     63.8652E+06     31.0926E+06              0.    -3.00413E+06
           16091     63.8057E+06     31.1567E+06              0.    -3.07675E+06
           16092     63.7448E+06     31.2207E+06              0.    -3.15224E+06
           16093     63.6823E+06     31.2847E+06              0.    -3.23059E+06
           16094     63.6182E+06     31.3488E+06              0.    -3.31179E+06
           16095     63.5526E+06     31.4130E+06              0.    -3.39586E+06
           16096     63.4852E+06     31.4773E+06              0.    -3.48280E+06
           16097     63.4160E+06     31.5418E+06              0.    -3.57260E+06
           16098     63.3451E+06     31.6067E+06              0.    -3.66529E+06
           16099     63.2723E+06     31.6718E+06              0.    -3.76087E+06
           16100     63.1975E+06     31.7374E+06              0.    -3.85935E+06
           16101     63.1208E+06     31.8033E+06              0.    -3.96075E+06
           16102     63.0421E+06     31.8698E+06              0.    -4.06508E+06
           16103     62.9612E+06     31.9368E+06              0.    -4.17237E+06
           16104     62.8782E+06     32.0043E+06              0.    -4.28264E+06
           16105     62.7930E+06     32.0725E+06              0.    -4.39590E+06
           16106     62.7055E+06     32.1413E+06              0.    -4.51220E+06
           16107     62.6157E+06     32.2109E+06              0.    -4.63154E+06
           16108     62.5235E+06     32.2812E+06              0.    -4.75396E+06
           16109     62.4289E+06     32.3523E+06              0.    -4.87950E+06
           16110     62.3317E+06     32.4243E+06              0.    -5.00818E+06
           16111     62.2320E+06     32.4972E+06              0.    -5.14004E+06
           16112     62.1296E+06     32.5710E+06              0.    -5.27511E+06
           16113     62.0245E+06     32.6458E+06              0.    -5.41343E+06
           16114     61.9167E+06     32.7216E+06              0.    -5.55505E+06
           16115     61.8060E+06     32.7985E+06              0.    -5.69999E+06
           16116     61.6924E+06     32.8765E+06              0.    -5.84830E+06
           16117     61.5759E+06     32.9556E+06              0.    -6.00004E+06
           16118     61.4563E+06     33.0359E+06              0.    -6.15523E+06
           16119     61.3337E+06     33.1174E+06              0.    -6.31392E+06
           16120     61.2078E+06     33.2002E+06              0.    -6.47617E+06
           16121     61.0787E+06     33.2842E+06              0.    -6.64203E+06
           16122     60.9463E+06     33.3696E+06              0.    -6.81153E+06
           16123     60.8105E+06     33.4564E+06              0.    -6.98474E+06
           16124     60.6713E+06     33.5446E+06              0.    -7.16171E+06
           16125     60.5285E+06     33.6342E+06              0.    -7.34248E+06
           16126     60.3821E+06     33.7253E+06              0.    -7.52712E+06
           16127     60.2320E+06     33.8180E+06              0.    -7.71568E+06
           16128     60.0781E+06     33.9121E+06              0.    -7.90821E+06
           16129     59.9204E+06     34.0079E+06              0.    -8.10478E+06
           16130     59.7587E+06     34.1053E+06              0.    -8.30544E+06
           16131     59.5930E+06     34.2043E+06              0.    -8.51024E+06
           16132     59.4233E+06      34.305E+06              0.    -8.71926E+06
           16133     59.2493E+06     34.4074E+06              0.    -8.93254E+06
           16134     59.0710E+06     34.5116E+06              0.    -9.15016E+06
           16135     58.8884E+06     34.6176E+06              0.    -9.37217E+06
           16136     58.7014E+06     34.7253E+06              0.    -9.59864E+06
           16137     58.5098E+06     34.8349E+06              0.    -9.82962E+06
           16138     58.3135E+06     34.9464E+06              0.    -10.0652E+06
           16139     58.1126E+06     35.0597E+06              0.    -10.3054E+06
           16140     57.9067E+06     35.1750E+06              0.    -10.5503E+06
           16141     57.6960E+06     35.2922E+06              0.    -10.8000E+06
           16142     57.4803E+06     35.4115E+06              0.    -11.0545E+06
           16143     57.2594E+06     35.5327E+06              0.    -11.3139E+06
           16144     57.0333E+06     35.6559E+06              0.    -11.5782E+06
           16145     56.8018E+06     35.7812E+06              0.    -11.8476E+06
           16146     56.5650E+06     35.9085E+06              0.    -12.1221E+06
           16147     56.3225E+06     36.0380E+06              0.    -12.4017E+06
           16148     56.0745E+06     36.1695E+06              0.    -12.6865E+06
           16149     55.8206E+06     36.3032E+06              0.    -12.9766E+06
           16150     55.5609E+06     36.4390E+06              0.    -13.2720E+06
           16151     55.2952E+06     36.5770E+06              0.    -13.5728E+06
           16152     55.0234E+06     36.7172E+06              0.    -13.8790E+06
           16153     54.7454E+06     36.8596E+06              0.    -14.1908E+06
           16154     54.4610E+06     37.0041E+06              0.    -14.5081E+06
           16155     54.1702E+06     37.1509E+06              0.    -14.8310E+06
           16156     53.8728E+06     37.2999E+06              0.    -15.1595E+06
           16157     53.5686E+06     37.4511E+06              0.    -15.4938E+06
           16158     53.2577E+06     37.6046E+06              0.    -15.8338E+06
           16159     52.9397E+06     37.7602E+06              0.    -16.1797E+06
           16160     52.6147E+06     37.9182E+06              0.    -16.5313E+06
           16161     52.2825E+06     38.0783E+06              0.    -16.8889E+06
           16162     51.9429E+06     38.2406E+06              0.    -17.2524E+06
           16163     51.5958E+06     38.4052E+06              0.    -17.6218E+06
           16164     51.2410E+06     38.5720E+06              0.    -17.9973E+06
           16165     50.8785E+06     38.7409E+06              0.    -18.3787E+06
           16166     50.5081E+06     38.9121E+06              0.    -18.7662E+06
           16167     50.1296E+06     39.0854E+06              0.    -19.1598E+06
           16168     49.7430E+06     39.2608E+06              0.    -19.5594E+06
           16169     49.3479E+06     39.4383E+06              0.    -19.9652E+06
           16170     48.9444E+06     39.6178E+06              0.    -20.3770E+06
           16171     48.5323E+06     39.7994E+06              0.    -20.7949E+06
           16172     48.1114E+06     39.9830E+06              0.    -21.2189E+06
           16173     47.6815E+06     40.1685E+06              0.    -21.6490E+06
           16174     47.2425E+06     40.3559E+06              0.    -22.0852E+06
           16175     46.7943E+06     40.5451E+06              0.    -22.5274E+06
           16176     46.3366E+06     40.7362E+06              0.    -22.9757E+06
           16177     45.8694E+06     40.9289E+06              0.    -23.4299E+06
           16178     45.3924E+06     41.1232E+06              0.    -23.8901E+06
           16179     44.9056E+06     41.3191E+06              0.    -24.3561E+06
           16180     44.4087E+06     41.5164E+06              0.    -24.8280E+06
           16181     43.9016E+06     41.7152E+06              0.    -25.3057E+06
           16182     43.3840E+06     41.9151E+06              0.    -25.7890E+06
           16183     42.8560E+06     42.1163E+06              0.    -26.2779E+06
           16184     42.3172E+06     42.3185E+06              0.    -26.7724E+06
           16185     41.7675E+06     42.5215E+06              0.    -27.2722E+06
           16186     41.2068E+06     42.7254E+06              0.    -27.7773E+06
           16187     40.6348E+06     42.9299E+06              0.    -28.2875E+06
           16188     40.0514E+06     43.1348E+06              0.    -28.8028E+06
           16189     39.4565E+06     43.3400E+06              0.    -29.3229E+06
           16190     38.8498E+06     43.5454E+06              0.    -29.8476E+06
           16191     38.2311E+06     43.7506E+06              0.    -30.3769E+06
           16192     37.6004E+06     43.9556E+06              0.    -30.9105E+06
           16193     36.9575E+06     44.1601E+06              0.    -31.4482E+06
           16194     36.3020E+06     44.3639E+06              0.    -31.9898E+06
           16195     35.6340E+06     44.5667E+06              0.    -32.5350E+06
           16196     34.9532E+06     44.7682E+06              0.    -33.0836E+06
           16197     34.2595E+06     44.9682E+06              0.    -33.6353E+06
           16198     33.5526E+06     45.1664E+06              0.    -34.1898E+06
           16199     32.8324E+06     45.3625E+06              0.    -34.7468E+06
           16200     32.0988E+06     45.5561E+06              0.    -35.3060E+06
           16201     31.3516E+06     45.7468E+06              0.    -35.8670E+06
           16202     30.5906E+06     45.9344E+06              0.    -36.4295E+06
           16203     29.8156E+06     46.1184E+06              0.    -36.9931E+06
           16204     29.0266E+06     46.2984E+06              0.    -37.5574E+06
           16205     28.2233E+06     46.4740E+06              0.    -38.1219E+06
           16206     27.4056E+06     46.6446E+06              0.    -38.6862E+06
           16207     26.5734E+06     46.8098E+06              0.    -39.2498E+06
           16208     25.7265E+06     46.9691E+06              0.    -39.8123E+06
           16209     24.8648E+06     47.1219E+06              0.    -40.3731E+06
           16210     23.9881E+06     47.2677E+06              0.    -40.9316E+06
           16211     23.0964E+06     47.4058E+06              0.    -41.4873E+06
           16212     22.1894E+06     47.5356E+06              0.    -42.0396E+06
           16213     21.2672E+06     47.6565E+06              0.    -42.5878E+06
           16214     20.3296E+06     47.7677E+06              0.    -43.1314E+06
           16215     19.3765E+06     47.8684E+06              0.    -43.6697E+06
           16216     18.4079E+06     47.9580E+06              0.    -44.2019E+06
           16217     17.4236E+06     48.0355E+06              0.    -44.7273E+06
           16218     16.4236E+06     48.1002E+06              0.    -45.2452E+06
           16219     15.4078E+06     48.1511E+06              0.    -45.7547E+06
           16220     14.3763E+06     48.1873E+06              0.    -46.2552E+06
           16221     13.3290E+06     48.2077E+06              0.    -46.7457E+06
           16222     12.2658E+06     48.2114E+06              0.    -47.2253E+06
           16223     11.1869E+06     48.1973E+06              0.    -47.6933E+06
           16224     10.0921E+06     48.1642E+06              0.    -48.1486E+06
           16225     8.98166E+06     48.1110E+06              0.    -48.5903E+06
           16226     7.85552E+06     48.0364E+06              0.    -49.0175E+06
           16227     6.71380E+06     47.9391E+06              0.    -49.4291E+06
           16228     5.55658E+06     47.8178E+06              0.    -49.8242E+06
           16229     4.38401E+06     47.6712E+06              0.    -50.2016E+06
           16230     3.19622E+06     47.4977E+06              0.    -50.5604E+06
           16231     1.99340E+06     47.2958E+06              0.    -50.8993E+06
           16232     775.744E+03     47.0640E+06              0.    -51.2174E+06
           16233    -456.515E+03     46.8006E+06              0.    -51.5134E+06
           16234    -1.70312E+06      46.504E+06              0.    -51.7862E+06
           16235    -2.96379E+06     46.1724E+06              0.    -52.0347E+06
           16236    -4.23820E+06     45.8040E+06              0.    -52.2576E+06
           16237    -5.52599E+06     45.3968E+06              0.    -52.4537E+06
           16238    -6.82679E+06     44.9491E+06              0.    -52.6219E+06
           16239    -8.14017E+06     44.4588E+06              0.    -52.7609E+06
           16240    -9.46567E+06     43.9238E+06              0.    -52.8695E+06
           16241    -10.8028E+06     43.3419E+06              0.    -52.9464E+06
           16242    -12.1510E+06     42.7111E+06              0.    -52.9904E+06
           16243    -13.5097E+06     42.0291E+06              0.    -53.0002E+06
           16244    -14.8783E+06     41.2936E+06              0.    -52.9747E+06
           16245    -16.2562E+06     40.5023E+06              0.    -52.9126E+06
           16246    -17.6426E+06     39.6526E+06              0.    -52.8126E+06
           16247    -19.0368E+06     38.7422E+06              0.    -52.6736E+06
           16248    -20.4380E+06     37.7686E+06              0.    -52.4943E+06
           16249    -21.8453E+06     36.7291E+06              0.    -52.2735E+06
           16250    -23.2579E+06     35.6213E+06              0.    -52.0102E+06
           16251    -24.6749E+06     34.4424E+06              0.    -51.7031E+06
           16252    -26.0953E+06     33.1898E+06              0.    -51.3511E+06
           16253    -27.5180E+06     31.8607E+06              0.    -50.9532E+06
           16254    -28.9420E+06     30.4525E+06              0.    -50.5083E+06
           16255    -30.3661E+06     28.9623E+06              0.    -50.0154E+06
           16256    -31.7893E+06     27.3874E+06              0.    -49.4735E+06
           16257    -33.2103E+06      25.725E+06              0.    -48.8817E+06
           16258    -34.6279E+06     23.9722E+06              0.    -48.2390E+06
           16259    -36.0407E+06     22.1264E+06              0.    -47.5447E+06
           16260    -37.4474E+06     20.1846E+06              0.    -46.7979E+06
           16261    -38.8467E+06     18.1441E+06              0.    -45.9979E+06
           16262    -40.2371E+06     16.0021E+06              0.    -45.1440E+06
           16263    -41.6171E+06     13.7558E+06              0.    -44.2356E+06
           16264    -42.9854E+06     11.4027E+06              0.    -43.2721E+06
           16265    -44.3402E+06     8.93986E+06              0.    -42.2529E+06
           16266    -45.6801E+06     6.36480E+06              0.    -41.1775E+06
           16267    -47.0034E+06     3.67487E+06              0.    -40.0456E+06
           16268    -48.3085E+06     867.560E+03              0.    -38.8569E+06
           16269    -49.5938E+06    -2.05956E+06              0.    -37.6109E+06
           16270    -50.8574E+06    -5.10894E+06              0.    -36.3074E+06
           16271    -52.0977E+06    -8.28282E+06              0.    -34.9463E+06
           16272    -53.3125E+06    -11.5835E+06              0.    -33.5273E+06
           16273    -54.4999E+06    -15.0131E+06              0.    -32.0503E+06
           16274    -55.6587E+06    -18.5741E+06              0.    -30.5157E+06
           16275    -57.2557E+06    -22.6979E+06              0.    -29.8195E+06
           16276     65.1567E+06     28.6059E+06              0.    -2.25996E+06
           16277     65.1690E+06     28.7416E+06              0.    -2.25579E+06
           16278     65.1233E+06     28.8489E+06              0.    -2.22549E+06
           16279     65.0781E+06     28.9532E+06              0.    -2.19967E+06
           16280     65.0333E+06     29.0548E+06              0.    -2.17822E+06
           16281     64.9890E+06     29.1538E+06              0.    -2.16103E+06
           16282     64.9449E+06     29.2502E+06              0.    -2.14798E+06
           16283      64.901E+06     29.3442E+06              0.    -2.13897E+06
           16284     64.8572E+06     29.4360E+06              0.    -2.13390E+06
           16285     64.8135E+06     29.5257E+06              0.    -2.13268E+06
           16286     64.7697E+06     29.6133E+06              0.    -2.13521E+06
           16287     64.7258E+06     29.6990E+06              0.    -2.14142E+06
           16288     64.6816E+06     29.7829E+06              0.    -2.15122E+06
           16289     64.6373E+06     29.8651E+06              0.    -2.16453E+06
           16290     64.5925E+06     29.9457E+06              0.    -2.18130E+06
           16291     64.5474E+06     30.0248E+06              0.    -2.20145E+06
           16292     64.5017E+06     30.1025E+06              0.    -2.22492E+06
           16293     64.4555E+06     30.1790E+06              0.    -2.25165E+06
           16294     64.4087E+06     30.2542E+06              0.    -2.28159E+06
           16295     64.3612E+06     30.3283E+06              0.    -2.31469E+06
           16296     64.3130E+06     30.4014E+06              0.    -2.35091E+06
           16297     64.2639E+06     30.4736E+06              0.    -2.39019E+06
           16298     64.2140E+06     30.5449E+06              0.    -2.43250E+06
           16299     64.1631E+06     30.6154E+06              0.    -2.47781E+06
           16300     64.1112E+06     30.6852E+06              0.    -2.52608E+06
           16301     64.0583E+06     30.7544E+06              0.    -2.57728E+06
           16302     64.0042E+06     30.8231E+06              0.    -2.63140E+06
           16303     63.9490E+06     30.8912E+06              0.    -2.68839E+06
           16304     63.8925E+06     30.9590E+06              0.    -2.74825E+06
           16305     63.8347E+06     31.0265E+06              0.    -2.81096E+06
           16306     63.7756E+06     31.0937E+06              0.    -2.87651E+06
           16307     63.7150E+06     31.1606E+06              0.    -2.94487E+06
           16308     63.6529E+06     31.2275E+06              0.    -3.01605E+06
           16309     63.5894E+06     31.2943E+06              0.    -3.09003E+06
           16310     63.5242E+06     31.3610E+06              0.    -3.16682E+06
           16311     63.4573E+06     31.4279E+06              0.    -3.24641E+06
           16312     63.3888E+06     31.4948E+06              0.    -3.32881E+06
           16313     63.3185E+06     31.5619E+06              0.    -3.41401E+06
           16314     63.2463E+06     31.6292E+06              0.    -3.50202E+06
           16315     63.1723E+06     31.6969E+06              0.    -3.59286E+06
           16316     63.0964E+06     31.7648E+06              0.    -3.68653E+06
           16317     63.0184E+06     31.8332E+06              0.    -3.78304E+06
           16318     62.9384E+06     31.9020E+06              0.    -3.88242E+06
           16319     62.8562E+06     31.9712E+06              0.    -3.98467E+06
           16320     62.7719E+06     32.0411E+06              0.    -4.08981E+06
           16321     62.6853E+06     32.1115E+06              0.    -4.19787E+06
           16322     62.5964E+06     32.1826E+06              0.    -4.30887E+06
           16323     62.5051E+06     32.2544E+06              0.    -4.42283E+06
           16324     62.4114E+06     32.3269E+06              0.    -4.53979E+06
           16325     62.3153E+06     32.4002E+06              0.    -4.65975E+06
           16326     62.2165E+06     32.4743E+06              0.    -4.78277E+06
           16327     62.1152E+06     32.5494E+06              0.    -4.90887E+06
           16328     62.0112E+06     32.6253E+06              0.    -5.03807E+06
           16329     61.9044E+06     32.7022E+06              0.    -5.17043E+06
           16330     61.7948E+06     32.7802E+06              0.    -5.30597E+06
           16331     61.6823E+06     32.8592E+06              0.    -5.44472E+06
           16332     61.5669E+06     32.9393E+06              0.    -5.58674E+06
           16333     61.4484E+06     33.0205E+06              0.    -5.73206E+06
           16334     61.3269E+06     33.1029E+06              0.    -5.88073E+06
           16335     61.2022E+06     33.1866E+06              0.    -6.03278E+06
           16336     61.0743E+06     33.2715E+06              0.    -6.18827E+06
           16337     60.9430E+06     33.3577E+06              0.    -6.34723E+06
           16338     60.8084E+06     33.4453E+06              0.    -6.50972E+06
           16339     60.6704E+06     33.5342E+06              0.    -6.67578E+06
           16340     60.5288E+06     33.6246E+06              0.    -6.84547E+06
           16341     60.3836E+06     33.7164E+06              0.    -7.01883E+06
           16342     60.2347E+06     33.8097E+06              0.    -7.19592E+06
           16343     60.0820E+06     33.9046E+06              0.    -7.37680E+06
           16344     59.9255E+06     34.0010E+06              0.     -7.5615E+06
           16345     59.7651E+06      34.099E+06              0.    -7.75010E+06
           16346     59.6007E+06     34.1987E+06              0.    -7.94264E+06
           16347     59.4322E+06     34.3000E+06              0.    -8.13918E+06
           16348     59.2595E+06     34.4030E+06              0.    -8.33978E+06
           16349     59.0825E+06     34.5078E+06              0.    -8.54449E+06
           16350     58.9011E+06     34.6144E+06              0.    -8.75338E+06
           16351     58.7154E+06     34.7227E+06              0.    -8.96651E+06
           16352     58.5251E+06     34.8329E+06              0.    -9.18393E+06
           16353     58.3301E+06     34.9450E+06              0.    -9.40571E+06
           16354     58.1304E+06     35.0590E+06              0.    -9.63190E+06
           16355     57.9259E+06     35.1749E+06              0.    -9.86257E+06
           16356     57.7165E+06     35.2927E+06              0.    -10.0978E+06
           16357     57.5021E+06     35.4125E+06              0.    -10.3376E+06
           16358     57.2825E+06     35.5344E+06              0.    -10.5820E+06
           16359     57.0578E+06     35.6583E+06              0.    -10.8312E+06
           16360     56.8276E+06     35.7842E+06              0.    -11.0852E+06
           16361     56.5921E+06     35.9122E+06              0.    -11.3440E+06
           16362     56.3510E+06     36.0423E+06              0.    -11.6077E+06
           16363     56.1043E+06     36.1746E+06              0.    -11.8764E+06
           16364     55.8519E+06     36.3090E+06              0.    -12.1501E+06
           16365     55.5935E+06     36.4456E+06              0.    -12.4288E+06
           16366     55.3292E+06     36.5844E+06              0.    -12.7128E+06
           16367     55.0588E+06     36.7253E+06              0.    -13.0019E+06
           16368     54.7822E+06     36.8685E+06              0.    -13.2963E+06
           16369     54.4992E+06     37.0139E+06              0.    -13.5959E+06
           16370     54.2098E+06     37.1616E+06              0.    -13.9010E+06
           16371     53.9138E+06     37.3115E+06              0.    -14.2114E+06
           16372     53.6111E+06     37.4637E+06              0.    -14.5274E+06
           16373     53.3016E+06     37.6181E+06              0.    -14.8488E+06
           16374     52.9852E+06     37.7749E+06              0.    -15.1758E+06
           16375     52.6616E+06     37.9338E+06              0.    -15.5085E+06
           16376     52.3309E+06     38.0951E+06              0.    -15.8467E+06
           16377     51.9928E+06     38.2587E+06              0.    -16.1907E+06
           16378     51.6472E+06     38.4244E+06              0.    -16.5404E+06
           16379     51.2940E+06     38.5925E+06              0.    -16.8959E+06
           16380     50.9331E+06     38.7628E+06              0.    -17.2571E+06
           16381     50.5643E+06     38.9353E+06              0.    -17.6242E+06
           16382     50.1874E+06     39.1101E+06              0.    -17.9972E+06
           16383     49.8024E+06     39.2870E+06              0.    -18.3760E+06
           16384     49.4090E+06     39.4661E+06              0.    -18.7607E+06
           16385     49.0072E+06     39.6474E+06              0.    -19.1514E+06
           16386     48.5968E+06     39.8307E+06              0.    -19.5479E+06
           16387     48.1776E+06     40.0161E+06              0.    -19.9504E+06
           16388     47.7496E+06     40.2036E+06              0.    -20.3588E+06
           16389     47.3124E+06     40.3930E+06              0.    -20.7731E+06
           16390     46.8660E+06     40.5843E+06              0.    -21.1933E+06
           16391     46.4103E+06     40.7776E+06              0.    -21.6194E+06
           16392     45.9450E+06     40.9726E+06              0.    -22.0513E+06
           16393     45.4701E+06     41.1694E+06              0.    -22.4891E+06
           16394     44.9853E+06     41.3678E+06              0.    -22.9326E+06
           16395     44.4905E+06     41.5678E+06              0.    -23.3820E+06
           16396     43.9856E+06     41.7694E+06              0.    -23.8370E+06
           16397     43.4703E+06     41.9723E+06              0.    -24.2976E+06
           16398     42.9445E+06     42.1765E+06              0.    -24.7638E+06
           16399     42.4081E+06     42.3819E+06              0.    -25.2355E+06
           16400     41.8608E+06     42.5884E+06              0.    -25.7126E+06
           16401     41.3026E+06     42.7958E+06              0.    -26.1949E+06
           16402     40.7332E+06     43.0041E+06              0.    -26.6825E+06
           16403     40.1525E+06     43.2129E+06              0.    -27.1751E+06
           16404     39.5603E+06     43.4223E+06              0.    -27.6727E+06
           16405     38.9565E+06     43.6320E+06              0.    -28.1751E+06
           16406     38.3409E+06     43.8419E+06              0.    -28.6821E+06
           16407     37.7132E+06     44.0517E+06              0.    -29.1936E+06
           16408     37.0734E+06     44.2613E+06              0.    -29.7094E+06
           16409     36.4213E+06     44.4704E+06              0.    -30.2292E+06
           16410     35.7567E+06     44.6788E+06              0.    -30.7530E+06
           16411     35.0795E+06     44.8862E+06              0.    -31.2805E+06
           16412     34.3894E+06     45.0925E+06              0.    -31.8114E+06
           16413     33.6863E+06     45.2972E+06              0.    -32.3454E+06
           16414     32.9702E+06     45.5002E+06              0.    -32.8824E+06
           16415     32.2407E+06     45.7011E+06              0.    -33.4220E+06
           16416     31.4977E+06     45.8996E+06              0.    -33.9639E+06
           16417     30.7412E+06     46.0953E+06              0.    -34.5078E+06
           16418     29.9708E+06     46.2878E+06              0.    -35.0534E+06
           16419     29.1866E+06     46.4768E+06              0.    -35.6002E+06
           16420     28.3883E+06     46.6619E+06              0.    -36.1480E+06
           16421     27.5758E+06     46.8426E+06              0.    -36.6962E+06
           16422     26.7489E+06     47.0184E+06              0.    -37.2446E+06
           16423     25.9076E+06     47.1889E+06              0.    -37.7925E+06
           16424     25.0517E+06     47.3535E+06              0.    -38.3397E+06
           16425     24.1810E+06     47.5118E+06              0.    -38.8855E+06
           16426     23.2955E+06     47.6631E+06              0.    -39.4295E+06
           16427      22.395E+06     47.8069E+06              0.    -39.9712E+06
           16428     21.4795E+06     47.9425E+06              0.    -40.5099E+06
           16429     20.5488E+06     48.0693E+06              0.    -41.0452E+06
           16430     19.6028E+06     48.1865E+06              0.    -41.5763E+06
           16431     18.6415E+06     48.2935E+06              0.    -42.1027E+06
           16432     17.6649E+06     48.3894E+06              0.    -42.6236E+06
           16433     16.6728E+06     48.4735E+06              0.    -43.1385E+06
           16434     15.6651E+06     48.5449E+06              0.    -43.6466E+06
           16435     14.6420E+06     48.6028E+06              0.    -44.1471E+06
           16436     13.6032E+06     48.6462E+06              0.    -44.6394E+06
           16437     12.5489E+06     48.6742E+06              0.    -45.1226E+06
           16438     11.4791E+06     48.6857E+06              0.    -45.5959E+06
           16439     10.3937E+06     48.6798E+06              0.    -46.0584E+06
           16440     9.29277E+06     48.6552E+06              0.    -46.5093E+06
           16441     8.17640E+06     48.6108E+06              0.    -46.9478E+06
           16442     7.04465E+06     48.5455E+06              0.    -47.3728E+06
           16443     5.89761E+06      48.458E+06              0.    -47.7835E+06
           16444     4.73540E+06     48.3470E+06              0.    -48.1788E+06
           16445     3.55814E+06     48.2111E+06              0.    -48.5579E+06
           16446     2.36601E+06     48.0489E+06              0.    -48.9196E+06
           16447     1.15916E+06     47.8590E+06              0.    -49.2629E+06
           16448    -62.1712E+03     47.6397E+06              0.    -49.5869E+06
           16449    -1.29777E+06     47.3897E+06              0.    -49.8903E+06
           16450    -2.54736E+06     47.1071E+06              0.    -50.1722E+06
           16451    -3.81068E+06     46.7904E+06              0.    -50.4313E+06
           16452    -5.08738E+06     46.4377E+06              0.    -50.6666E+06
           16453    -6.37712E+06     46.0473E+06              0.    -50.8770E+06
           16454    -7.67952E+06     45.6172E+06              0.    -51.0612E+06
           16455    -8.99416E+06     45.1456E+06              0.    -51.2181E+06
           16456    -10.3206E+06     44.6304E+06              0.    -51.3466E+06
           16457    -11.6583E+06     44.0696E+06              0.    -51.4454E+06
           16458    -13.0068E+06      43.461E+06              0.    -51.5133E+06
           16459    -14.3655E+06     42.8025E+06              0.    -51.5492E+06
           16460    -15.7339E+06     42.0920E+06              0.    -51.5519E+06
           16461    -17.1112E+06     41.3270E+06              0.    -51.5202E+06
           16462    -18.4967E+06     40.5052E+06              0.    -51.4529E+06
           16463    -19.8899E+06     39.6244E+06              0.    -51.3489E+06
           16464    -21.2898E+06     38.6819E+06              0.    -51.2069E+06
           16465    -22.6957E+06     37.6754E+06              0.    -51.0258E+06
           16466    -24.1067E+06     36.6024E+06              0.    -50.8046E+06
           16467    -25.5220E+06     35.4602E+06              0.    -50.5420E+06
           16468    -26.9405E+06     34.2462E+06              0.    -50.2371E+06
           16469    -28.3613E+06     32.9578E+06              0.    -49.8887E+06
           16470    -29.7834E+06     31.5923E+06              0.    -49.4957E+06
           16471    -31.2057E+06     30.1471E+06              0.    -49.0573E+06
           16472    -32.6271E+06     28.6194E+06              0.    -48.5724E+06
           16473    -34.0463E+06     27.0065E+06              0.    -48.0401E+06
           16474    -35.4622E+06     25.3055E+06              0.    -47.4595E+06
           16475    -36.8736E+06     23.5139E+06              0.    -46.8298E+06
           16476    -38.2791E+06     21.6288E+06              0.    -46.1501E+06
           16477    -39.6774E+06     19.6475E+06              0.    -45.4197E+06
           16478    -41.0672E+06     17.5672E+06              0.    -44.6378E+06
           16479    -42.4470E+06     15.3852E+06              0.    -43.8039E+06
           16480    -43.8153E+06     13.0988E+06              0.    -42.9172E+06
           16481    -45.1707E+06     10.7055E+06              0.    -41.9773E+06
           16482    -46.5117E+06     8.20241E+06              0.    -40.9836E+06
           16483    -47.8366E+06     5.58713E+06              0.    -39.9356E+06
           16484    -49.1440E+06     2.85705E+06              0.    -38.8330E+06
           16485    -50.4321E+06     9.69528E+03              0.    -37.6754E+06
           16486    -51.6993E+06    -2.95731E+06              0.    -36.4626E+06
           16487    -52.9438E+06    -6.04638E+06              0.    -35.1942E+06
           16488    -54.1640E+06    -9.25973E+06              0.    -33.8701E+06
           16489    -55.3579E+06    -12.5996E+06              0.    -32.4902E+06
           16490    -56.5237E+06    -16.0682E+06              0.    -31.0546E+06
           16491    -57.6593E+06    -19.6667E+06              0.    -29.5630E+06
           16492    -59.2570E+06    -23.8285E+06              0.    -28.8845E+06
           16493     65.0687E+06     28.5680E+06              0.    -2.21279E+06
           16494     65.0815E+06     28.7092E+06              0.    -2.20871E+06
           16495     65.0339E+06     28.8209E+06              0.    -2.17903E+06
           16496     64.9868E+06     28.9295E+06              0.    -2.15375E+06
           16497     64.9403E+06     29.0353E+06              0.    -2.13275E+06
           16498     64.8941E+06     29.1383E+06              0.    -2.11591E+06
           16499     64.8482E+06     29.2387E+06              0.    -2.10313E+06
           16500     64.8025E+06     29.3366E+06              0.     -2.0943E+06
           16501     64.7569E+06     29.4321E+06              0.    -2.08933E+06
           16502     64.7113E+06     29.5255E+06              0.    -2.08813E+06
           16503     64.6657E+06     29.6167E+06              0.    -2.09060E+06
           16504     64.6200E+06     29.7059E+06              0.    -2.09667E+06
           16505     64.5741E+06     29.7932E+06              0.    -2.10626E+06
           16506     64.5279E+06     29.8788E+06              0.    -2.11930E+06
           16507     64.4813E+06     29.9627E+06              0.    -2.13571E+06
           16508     64.4343E+06     30.0451E+06              0.    -2.15543E+06
           16509     64.3868E+06     30.1260E+06              0.    -2.17840E+06
           16510     64.3387E+06     30.2055E+06              0.    -2.20457E+06
           16511     64.2900E+06     30.2839E+06              0.    -2.23388E+06
           16512     64.2405E+06     30.3610E+06              0.    -2.26628E+06
           16513     64.1903E+06     30.4371E+06              0.    -2.30173E+06
           16514     64.1392E+06     30.5122E+06              0.    -2.34018E+06
           16515     64.0873E+06     30.5864E+06              0.    -2.38160E+06
           16516     64.0343E+06     30.6598E+06              0.    -2.42595E+06
           16517     63.9803E+06     30.7325E+06              0.    -2.47320E+06
           16518     63.9252E+06     30.8045E+06              0.    -2.52333E+06
           16519     63.8689E+06     30.8760E+06              0.    -2.57630E+06
           16520     63.8114E+06     30.9469E+06              0.    -2.63209E+06
           16521     63.7526E+06     31.0175E+06              0.    -2.69069E+06
           16522     63.6925E+06     31.0876E+06              0.    -2.75207E+06
           16523     63.6309E+06     31.1576E+06              0.    -2.81623E+06
           16524     63.5679E+06     31.2273E+06              0.    -2.88315E+06
           16525     63.5033E+06     31.2968E+06              0.    -2.95283E+06
           16526     63.4371E+06     31.3663E+06              0.    -3.02525E+06
           16527     63.3693E+06     31.4358E+06              0.    -3.10041E+06
           16528     63.2997E+06     31.5053E+06              0.    -3.17832E+06
           16529     63.2284E+06     31.5750E+06              0.    -3.25897E+06
           16530     63.1552E+06     31.6448E+06              0.    -3.34237E+06
           16531     63.0801E+06     31.7148E+06              0.    -3.42852E+06
           16532     63.0031E+06     31.7852E+06              0.    -3.51744E+06
           16533     62.9241E+06     31.8559E+06              0.    -3.60912E+06
           16534     62.8429E+06     31.9270E+06              0.    -3.70359E+06
           16535     62.7596E+06     31.9985E+06              0.    -3.80086E+06
           16536     62.6741E+06     32.0706E+06              0.    -3.90094E+06
           16537     62.5864E+06     32.1432E+06              0.    -4.00385E+06
           16538     62.4963E+06     32.2165E+06              0.    -4.10962E+06
           16539     62.4038E+06     32.2904E+06              0.    -4.21826E+06
           16540     62.3088E+06     32.3651E+06              0.    -4.32980E+06
           16541     62.2114E+06     32.4405E+06              0.    -4.44426E+06
           16542     62.1113E+06     32.5167E+06              0.    -4.56168E+06
           16543     62.0086E+06     32.5938E+06              0.    -4.68207E+06
           16544     61.9031E+06     32.6718E+06              0.    -4.80548E+06
           16545     61.7949E+06     32.7508E+06              0.    -4.93193E+06
           16546     61.6838E+06     32.8307E+06              0.    -5.06146E+06
           16547     61.5698E+06     32.9118E+06              0.    -5.19411E+06
           16548     61.4528E+06     32.9939E+06              0.    -5.32990E+06
           16549     61.3327E+06     33.0771E+06              0.    -5.46888E+06
           16550     61.2095E+06     33.1616E+06              0.    -5.61109E+06
           16551     61.0830E+06     33.2472E+06              0.    -5.75657E+06
           16552     60.9533E+06     33.3341E+06              0.    -5.90536E+06
           16553     60.8202E+06     33.4224E+06              0.    -6.05751E+06
           16554     60.6837E+06     33.5120E+06              0.    -6.21305E+06
           16555     60.5437E+06     33.6029E+06              0.    -6.37205E+06
           16556     60.4001E+06     33.6953E+06              0.    -6.53454E+06
           16557     60.2528E+06     33.7892E+06              0.    -6.70057E+06
           16558     60.1018E+06     33.8846E+06              0.    -6.87019E+06
           16559     59.9470E+06     33.9815E+06              0.    -7.04346E+06
           16560     59.7882E+06     34.0800E+06              0.    -7.22042E+06
           16561     59.6255E+06     34.1802E+06              0.    -7.40113E+06
           16562     59.4587E+06     34.2819E+06              0.    -7.58563E+06
           16563     59.2877E+06     34.3854E+06              0.    -7.77400E+06
           16564     59.1124E+06     34.4906E+06              0.    -7.96627E+06
           16565     58.9329E+06     34.5976E+06              0.    -8.16250E+06
           16566     58.7489E+06     34.7064E+06              0.    -8.36276E+06
           16567     58.5603E+06     34.8170E+06              0.    -8.56710E+06
           16568     58.3672E+06     34.9294E+06              0.    -8.77557E+06
           16569     58.1693E+06     35.0438E+06              0.    -8.98823E+06
           16570     57.9667E+06     35.1600E+06              0.    -9.20515E+06
           16571     57.7591E+06     35.2783E+06              0.    -9.42638E+06
           16572     57.5465E+06     35.3985E+06              0.    -9.65197E+06
           16573     57.3289E+06     35.5207E+06              0.    -9.88200E+06
           16574     57.1060E+06     35.6450E+06              0.    -10.1165E+06
           16575     56.8778E+06     35.7713E+06              0.    -10.3556E+06
           16576     56.6442E+06     35.8998E+06              0.    -10.5992E+06
           16577     56.4051E+06     36.0303E+06              0.    -10.8476E+06
           16578     56.1604E+06     36.1630E+06              0.    -11.1006E+06
           16579     55.9099E+06     36.2979E+06              0.    -11.3585E+06
           16580     55.6536E+06     36.4349E+06              0.    -11.6211E+06
           16581     55.3913E+06     36.5742E+06              0.    -11.8887E+06
           16582     55.1229E+06     36.7157E+06              0.    -12.1613E+06
           16583     54.8484E+06     36.8594E+06              0.    -12.4388E+06
           16584     54.5675E+06     37.0054E+06              0.    -12.7214E+06
           16585     54.2802E+06     37.1536E+06              0.    -13.0092E+06
           16586     53.9864E+06     37.3042E+06              0.    -13.3021E+06
           16587     53.6858E+06     37.4570E+06              0.    -13.6002E+06
           16588     53.3785E+06     37.6121E+06              0.    -13.9036E+06
           16589     53.0643E+06     37.7696E+06              0.    -14.2123E+06
           16590     52.7430E+06     37.9293E+06              0.    -14.5265E+06
           16591     52.4145E+06     38.0914E+06              0.    -14.8460E+06
           16592     52.0787E+06     38.2558E+06              0.    -15.1710E+06
           16593     51.7354E+06     38.4225E+06              0.    -15.5015E+06
           16594     51.3846E+06     38.5915E+06              0.    -15.8375E+06
           16595     51.0260E+06     38.7628E+06              0.    -16.1791E+06
           16596     50.6596E+06     38.9364E+06              0.    -16.5263E+06
           16597     50.2851E+06     39.1123E+06              0.    -16.8791E+06
           16598     49.9026E+06     39.2905E+06              0.    -17.2376E+06
           16599     49.5117E+06     39.4708E+06              0.    -17.6018E+06
           16600     49.1125E+06     39.6534E+06              0.    -17.9718E+06
           16601     48.7046E+06     39.8382E+06              0.    -18.3474E+06
           16602     48.2881E+06     40.0251E+06              0.    -18.7288E+06
           16603     47.8626E+06     40.2141E+06              0.    -19.1159E+06
           16604     47.4282E+06     40.4052E+06              0.    -19.5087E+06
           16605     46.9846E+06     40.5983E+06              0.    -19.9073E+06
           16606     46.5316E+06     40.7934E+06              0.    -20.3116E+06
           16607     46.0692E+06     40.9904E+06              0.    -20.7217E+06
           16608     45.5972E+06     41.1893E+06              0.    -21.1374E+06
           16609     45.1154E+06     41.3899E+06              0.    -21.5588E+06
           16610     44.6236E+06     41.5923E+06              0.    -21.9858E+06
           16611     44.1217E+06     41.7963E+06              0.    -22.4185E+06
           16612     43.6095E+06     42.0018E+06              0.    -22.8567E+06
           16613     43.0870E+06     42.2088E+06              0.    -23.3004E+06
           16614     42.5538E+06     42.4171E+06              0.    -23.7495E+06
           16615     42.0099E+06     42.6267E+06              0.    -24.2040E+06
           16616     41.4551E+06     42.8373E+06              0.    -24.6638E+06
           16617     40.8892E+06     43.0490E+06              0.    -25.1288E+06
           16618     40.3121E+06     43.2614E+06              0.    -25.5989E+06
           16619     39.7236E+06     43.4746E+06              0.    -26.0739E+06
           16620     39.1235E+06     43.6884E+06              0.    -26.5538E+06
           16621     38.5117E+06     43.9025E+06              0.    -27.0385E+06
           16622     37.8880E+06     44.1167E+06              0.    -27.5278E+06
           16623     37.2523E+06     44.3310E+06              0.    -28.0215E+06
           16624     36.6043E+06     44.5451E+06              0.    -28.5194E+06
           16625     35.9440E+06     44.7588E+06              0.    -29.0215E+06
           16626     35.2711E+06     44.9718E+06              0.    -29.5275E+06
           16627     34.5856E+06     45.1839E+06              0.    -30.0372E+06
           16628     33.8871E+06     45.3949E+06              0.    -30.5503E+06
           16629     33.1757E+06     45.6044E+06              0.    -31.0667E+06
           16630     32.4511E+06     45.8122E+06              0.    -31.5860E+06
           16631     31.7132E+06     46.0180E+06              0.    -32.1081E+06
           16632     30.9619E+06     46.2214E+06              0.    -32.6326E+06
           16633     30.1969E+06     46.4221E+06              0.    -33.1593E+06
           16634     29.4181E+06     46.6197E+06              0.    -33.6877E+06
           16635     28.6255E+06     46.8139E+06              0.    -34.2177E+06
           16636     27.8188E+06     47.0042E+06              0.    -34.7487E+06
           16637     26.9979E+06     47.1902E+06              0.    -35.2805E+06
           16638     26.1627E+06     47.3714E+06              0.    -35.8127E+06
           16639     25.3131E+06     47.5474E+06              0.    -36.3448E+06
           16640     24.4490E+06     47.7176E+06              0.    -36.8764E+06
           16641     23.5701E+06     47.8816E+06              0.    -37.4070E+06
           16642     22.6766E+06     48.0388E+06              0.    -37.9362E+06
           16643     21.7681E+06     48.1885E+06              0.    -38.4634E+06
           16644     20.8447E+06     48.3302E+06              0.    -38.9882E+06
           16645     19.9062E+06     48.4632E+06              0.    -39.5099E+06
           16646     18.9527E+06     48.5868E+06              0.    -40.0281E+06
           16647     17.9839E+06     48.7003E+06              0.    -40.5421E+06
           16648     16.9999E+06     48.8031E+06              0.    -41.0514E+06
           16649     16.0005E+06     48.8941E+06              0.    -41.5551E+06
           16650     14.9859E+06     48.9728E+06              0.    -42.0528E+06
           16651     13.9559E+06     49.0382E+06              0.    -42.5437E+06
           16652     12.9105E+06     49.0893E+06              0.    -43.0271E+06
           16653     11.8497E+06     49.1253E+06              0.    -43.5022E+06
           16654     10.7736E+06     49.1452E+06              0.    -43.9683E+06
           16655     9.68216E+06     49.1479E+06              0.    -44.4245E+06
           16656     8.57545E+06     49.1323E+06              0.    -44.8702E+06
           16657     7.45352E+06     49.0974E+06              0.    -45.3044E+06
           16658     6.31647E+06     49.0420E+06              0.    -45.7262E+06
           16659     5.16438E+06     48.9648E+06              0.    -46.1349E+06
           16660     3.99739E+06     48.8646E+06              0.    -46.5294E+06
           16661     2.81563E+06     48.7401E+06              0.    -46.9088E+06
           16662     1.61928E+06     48.5898E+06              0.    -47.2722E+06
           16663     408.506E+03     48.4125E+06              0.    -47.6186E+06
           16664    -816.469E+03     48.2065E+06              0.    -47.9470E+06
           16665    -2.05541E+06     47.9703E+06              0.    -48.2563E+06
           16666    -3.30805E+06     47.7025E+06              0.    -48.5456E+06
           16667    -4.57410E+06     47.4012E+06              0.    -48.8138E+06
           16668    -5.85324E+06     47.0649E+06              0.    -49.0598E+06
           16669    -7.14513E+06     46.6917E+06              0.    -49.2825E+06
           16670    -8.44937E+06     46.2798E+06              0.    -49.4808E+06
           16671    -9.76557E+06     45.8274E+06              0.    -49.6537E+06
           16672    -11.0933E+06     45.3325E+06              0.    -49.7999E+06
           16673    -12.4320E+06     44.7931E+06              0.    -49.9184E+06
           16674    -13.7812E+06     44.2072E+06              0.    -50.0081E+06
           16675    -15.1404E+06     43.5727E+06              0.    -50.0677E+06
           16676    -16.5089E+06     42.8874E+06              0.    -50.0962E+06
           16677    -17.8862E+06     42.1492E+06              0.    -50.0924E+06
           16678    -19.2715E+06     41.3556E+06              0.    -50.0551E+06
           16679    -20.6642E+06     40.5045E+06              0.    -49.9834E+06
           16680    -22.0636E+06     39.5934E+06              0.    -49.8759E+06
           16681    -23.4687E+06     38.6199E+06              0.    -49.7317E+06
           16682    -24.8789E+06     37.5817E+06              0.    -49.5496E+06
           16683    -26.2932E+06     36.4761E+06              0.    -49.3285E+06
           16684    -27.7107E+06     35.3006E+06              0.    -49.0674E+06
           16685    -29.1304E+06     34.0528E+06              0.    -48.7653E+06
           16686    -30.5514E+06     32.7298E+06              0.    -48.4211E+06
           16687    -31.9727E+06     31.3292E+06              0.    -48.0338E+06
           16688    -33.3930E+06     29.8483E+06              0.    -47.6025E+06
           16689    -34.8114E+06     28.2844E+06              0.    -47.1263E+06
           16690    -36.2266E+06     26.6347E+06              0.    -46.6042E+06
           16691    -37.6374E+06     24.8967E+06              0.    -46.0355E+06
           16692    -39.0426E+06     23.0676E+06              0.    -45.4192E+06
           16693    -40.4408E+06     21.1446E+06              0.    -44.7547E+06
           16694    -41.8308E+06     19.1251E+06              0.    -44.0412E+06
           16695    -43.2112E+06     17.0065E+06              0.    -43.2780E+06
           16696    -44.5805E+06     14.7860E+06              0.    -42.4645E+06
           16697    -45.9374E+06     12.4609E+06              0.    -41.6001E+06
           16698    -47.2803E+06     10.0288E+06              0.    -40.6843E+06
           16699    -48.6077E+06     7.48696E+06              0.    -39.7165E+06
           16700    -49.9181E+06     4.83290E+06              0.    -38.6963E+06
           16701    -51.2098E+06     2.06409E+06              0.    -37.6234E+06
           16702    -52.4814E+06    -821.888E+03              0.    -36.4974E+06
           16703    -53.7310E+06    -3.82737E+06              0.    -35.3180E+06
           16704    -54.9571E+06    -6.95473E+06              0.    -34.0850E+06
           16705    -56.1580E+06    -10.2062E+06              0.    -32.7982E+06
           16706    -57.3320E+06    -13.5839E+06              0.    -31.4575E+06
           16707    -58.4778E+06    -17.0900E+06              0.    -30.0628E+06
           16708    -59.5943E+06    -20.7264E+06              0.    -28.6140E+06
           16709    -61.1966E+06    -24.9280E+06              0.    -27.9517E+06
           16710     64.9826E+06     28.5308E+06              0.    -2.16376E+06
           16711     64.9959E+06     28.6775E+06              0.    -2.15977E+06
           16712     64.9464E+06     28.7935E+06              0.    -2.13074E+06
           16713     64.8976E+06     28.9064E+06              0.    -2.10602E+06
           16714     64.8492E+06     29.0162E+06              0.    -2.08548E+06
           16715     64.8012E+06     29.1232E+06              0.    -2.06901E+06
           16716     64.7535E+06     29.2274E+06              0.    -2.05651E+06
           16717     64.7060E+06     29.3291E+06              0.    -2.04787E+06
           16718     64.6587E+06     29.4283E+06              0.    -2.04301E+06
           16719     64.6114E+06     29.5252E+06              0.    -2.04183E+06
           16720     64.5640E+06     29.6200E+06              0.    -2.04424E+06
           16721     64.5165E+06     29.7126E+06              0.    -2.05017E+06
           16722     64.4688E+06     29.8033E+06              0.    -2.05954E+06
           16723     64.4208E+06     29.8922E+06              0.    -2.07228E+06
           16724     64.3725E+06     29.9793E+06              0.    -2.08832E+06
           16725     64.3237E+06     30.0649E+06              0.    -2.10760E+06
           16726     64.2743E+06     30.1489E+06              0.    -2.13006E+06
           16727     64.2244E+06     30.2315E+06              0.    -2.15564E+06
           16728     64.1738E+06     30.3129E+06              0.    -2.18429E+06
           16729     64.1224E+06     30.3930E+06              0.    -2.21596E+06
           16730     64.0703E+06     30.4720E+06              0.    -2.25062E+06
           16731     64.0172E+06     30.5500E+06              0.    -2.28821E+06
           16732     63.9633E+06     30.6270E+06              0.    -2.32870E+06
           16733     63.9083E+06     30.7033E+06              0.    -2.37206E+06
           16734     63.8522E+06     30.7787E+06              0.    -2.41826E+06
           16735     63.7950E+06     30.8535E+06              0.    -2.46726E+06
           16736     63.7365E+06     30.9277E+06              0.    -2.51904E+06
           16737     63.6768E+06     31.0014E+06              0.    -2.57359E+06
           16738     63.6158E+06     31.0746E+06              0.    -2.63088E+06
           16739     63.5533E+06     31.1475E+06              0.    -2.69089E+06
           16740     63.4894E+06     31.2201E+06              0.    -2.75361E+06
           16741     63.4239E+06     31.2924E+06              0.    -2.81903E+06
           16742     63.3569E+06     31.3647E+06              0.    -2.88714E+06
           16743     63.2882E+06     31.4368E+06              0.    -2.95794E+06
           16744     63.2178E+06     31.5089E+06              0.    -3.03142E+06
           16745     63.1455E+06     31.5811E+06              0.    -3.10758E+06
           16746     63.0715E+06     31.6534E+06              0.    -3.18642E+06
           16747     62.9955E+06     31.7259E+06              0.    -3.26795E+06
           16748     62.9176E+06     31.7986E+06              0.    -3.35217E+06
           16749     62.8376E+06     31.8716E+06              0.    -3.43909E+06
           16750     62.7555E+06     31.9450E+06              0.    -3.52871E+06
           16751     62.6713E+06     32.0187E+06              0.    -3.62106E+06
           16752     62.5848E+06     32.0930E+06              0.    -3.71614E+06
           16753     62.4961E+06     32.1678E+06              0.    -3.81397E+06
           16754     62.4049E+06     32.2432E+06              0.    -3.91457E+06
           16755     62.3114E+06     32.3192E+06              0.    -4.01795E+06
           16756     62.2154E+06     32.3959E+06              0.    -4.12414E+06
           16757     62.1168E+06     32.4733E+06              0.    -4.23317E+06
           16758     62.0156E+06     32.5516E+06              0.    -4.34505E+06
           16759     61.9118E+06     32.6307E+06              0.    -4.45982E+06
           16760     61.8051E+06     32.7106E+06              0.    -4.57750E+06
           16761     61.6957E+06     32.7916E+06              0.    -4.69812E+06
           16762     61.5833E+06     32.8735E+06              0.    -4.82171E+06
           16763     61.4680E+06     32.9564E+06              0.    -4.94831E+06
           16764     61.3497E+06     33.0404E+06              0.    -5.07795E+06
           16765     61.2282E+06     33.1256E+06              0.    -5.21067E+06
           16766     61.1036E+06     33.2120E+06              0.    -5.34650E+06
           16767     60.9757E+06     33.2995E+06              0.    -5.48549E+06
           16768     60.8445E+06     33.3883E+06              0.    -5.62766E+06
           16769     60.7099E+06     33.4785E+06              0.    -5.77307E+06
           16770     60.5718E+06     33.5700E+06              0.    -5.92176E+06
           16771     60.4301E+06     33.6628E+06              0.    -6.07377E+06
           16772     60.2848E+06     33.7571E+06              0.    -6.22914E+06
           16773     60.1358E+06     33.8529E+06              0.    -6.38793E+06
           16774     59.9830E+06     33.9502E+06              0.    -6.55017E+06
           16775     59.8263E+06     34.0491E+06              0.    -6.71592E+06
           16776     59.6657E+06     34.1495E+06              0.    -6.88522E+06
           16777     59.5009E+06     34.2516E+06              0.    -7.05813E+06
           16778     59.3321E+06     34.3554E+06              0.    -7.23470E+06
           16779     59.1590E+06     34.4608E+06              0.    -7.41497E+06
           16780     58.9816E+06     34.5680E+06              0.    -7.59901E+06
           16781     58.7998E+06     34.6770E+06              0.    -7.78686E+06
           16782     58.6135E+06     34.7878E+06              0.    -7.97858E+06
           16783     58.4227E+06     34.9005E+06              0.    -8.17422E+06
           16784     58.2271E+06     35.0150E+06              0.    -8.37384E+06
           16785     58.0268E+06     35.1314E+06              0.    -8.57750E+06
           16786     57.8215E+06     35.2498E+06              0.    -8.78524E+06
           16787     57.6114E+06     35.3702E+06              0.    -8.99713E+06
           16788     57.3961E+06     35.4926E+06              0.    -9.21322E+06
           16789     57.1757E+06     35.6171E+06              0.    -9.43358E+06
           16790     56.9499E+06     35.7436E+06              0.    -9.65825E+06
           16791     56.7188E+06     35.8722E+06              0.    -9.88729E+06
           16792     56.4822E+06     36.0029E+06              0.    -10.1208E+06
           16793     56.2400E+06     36.1358E+06              0.    -10.3587E+06
           16794     55.9921E+06     36.2708E+06              0.    -10.6013E+06
           16795     55.7384E+06     36.4081E+06              0.    -10.8484E+06
           16796     55.4788E+06     36.5476E+06              0.    -11.1001E+06
           16797     55.2131E+06     36.6893E+06              0.    -11.3566E+06
           16798     54.9412E+06     36.8333E+06              0.    -11.6179E+06
           16799     54.6631E+06     36.9795E+06              0.    -11.8840E+06
           16800     54.3785E+06     37.1281E+06              0.    -12.1550E+06
           16801     54.0874E+06     37.2790E+06              0.    -12.4309E+06
           16802     53.7897E+06     37.4322E+06              0.    -12.7118E+06
           16803     53.4853E+06     37.5877E+06              0.    -12.9977E+06
           16804     53.1739E+06     37.7455E+06              0.    -13.2887E+06
           16805     52.8555E+06     37.9058E+06              0.    -13.5848E+06
           16806     52.5300E+06     38.0683E+06              0.    -13.8862E+06
           16807     52.1972E+06     38.2333E+06              0.    -14.1927E+06
           16808     51.8570E+06     38.4006E+06              0.    -14.5045E+06
           16809     51.5092E+06     38.5702E+06              0.    -14.8216E+06
           16810     51.1537E+06     38.7422E+06              0.    -15.1441E+06
           16811     50.7905E+06     38.9165E+06              0.    -15.4720E+06
           16812     50.4193E+06     39.0932E+06              0.    -15.8052E+06
           16813     50.0399E+06     39.2722E+06              0.    -16.1439E+06
           16814     49.6524E+06     39.4535E+06              0.    -16.4881E+06
           16815     49.2564E+06     39.6371E+06              0.    -16.8378E+06
           16816     48.8520E+06     39.8229E+06              0.    -17.1930E+06
           16817     48.4388E+06      40.011E+06              0.    -17.5538E+06
           16818     48.0169E+06     40.2013E+06              0.    -17.9201E+06
           16819     47.5860E+06     40.3937E+06              0.    -18.2919E+06
           16820     47.1459E+06     40.5882E+06              0.    -18.6694E+06
           16821     46.6966E+06     40.7848E+06              0.    -19.0523E+06
           16822     46.2379E+06     40.9835E+06              0.    -19.4409E+06
           16823     45.7696E+06     41.1840E+06              0.    -19.8350E+06
           16824     45.2916E+06     41.3865E+06              0.    -20.2346E+06
           16825     44.8037E+06     41.5909E+06              0.    -20.6397E+06
           16826     44.3057E+06     41.7969E+06              0.    -21.0504E+06
           16827     43.7976E+06     42.0047E+06              0.    -21.4664E+06
           16828     43.2791E+06     42.2141E+06              0.    -21.8879E+06
           16829     42.7501E+06     42.4249E+06              0.    -22.3148E+06
           16830     42.2104E+06     42.6371E+06              0.    -22.7469E+06
           16831     41.6599E+06     42.8507E+06              0.    -23.1843E+06
           16832     41.0983E+06     43.0653E+06              0.    -23.6269E+06
           16833     40.5257E+06     43.2811E+06              0.    -24.0745E+06
           16834     39.9417E+06     43.4977E+06              0.    -24.5271E+06
           16835     39.3463E+06     43.7150E+06              0.    -24.9847E+06
           16836     38.7392E+06     43.9330E+06              0.    -25.4470E+06
           16837     38.1203E+06     44.1514E+06              0.     -25.914E+06
           16838     37.4895E+06       44.37E+06              0.    -26.3855E+06
           16839     36.8465E+06     44.5887E+06              0.    -26.8615E+06
           16840     36.1913E+06     44.8072E+06              0.    -27.3416E+06
           16841     35.5237E+06     45.0254E+06              0.    -27.8259E+06
           16842     34.8434E+06      45.243E+06              0.    -28.3140E+06
           16843     34.1505E+06     45.4598E+06              0.    -28.8059E+06
           16844     33.4446E+06     45.6754E+06              0.    -29.3012E+06
           16845     32.7257E+06     45.8897E+06              0.    -29.7999E+06
           16846     31.9936E+06     46.1024E+06              0.    -30.3016E+06
           16847     31.2482E+06     46.3130E+06              0.    -30.8061E+06
           16848     30.4893E+06     46.5214E+06              0.    -31.3131E+06
           16849     29.7167E+06     46.7272E+06              0.    -31.8224E+06
           16850     28.9304E+06     46.9300E+06              0.    -32.3336E+06
           16851     28.1302E+06     47.1294E+06              0.    -32.8465E+06
           16852     27.3160E+06     47.3250E+06              0.    -33.3607E+06
           16853     26.4876E+06     47.5164E+06              0.    -33.8758E+06
           16854     25.6450E+06     47.7032E+06              0.    -34.3916E+06
           16855     24.7880E+06     47.8848E+06              0.    -34.9076E+06
           16856     23.9164E+06     48.0608E+06              0.    -35.4233E+06
           16857     23.0303E+06     48.2307E+06              0.    -35.9384E+06
           16858     22.1294E+06     48.3939E+06              0.    -36.4525E+06
           16859     21.2138E+06     48.5498E+06              0.    -36.9650E+06
           16860     20.2832E+06     48.6979E+06              0.    -37.4754E+06
           16861     19.3377E+06     48.8374E+06              0.    -37.9833E+06
           16862     18.3772E+06     48.9677E+06              0.    -38.4881E+06
           16863     17.4016E+06     49.0882E+06              0.    -38.9893E+06
           16864     16.4109E+06     49.1980E+06              0.    -39.4863E+06
           16865     15.4050E+06     49.2965E+06              0.    -39.9784E+06
           16866     14.3839E+06     49.3827E+06              0.    -40.4650E+06
           16867     13.3476E+06     49.4560E+06              0.    -40.9456E+06
           16868     12.2961E+06     49.5153E+06              0.    -41.4194E+06
           16869     11.2294E+06     49.5597E+06              0.    -41.8857E+06
           16870     10.1476E+06     49.5884E+06              0.    -42.3439E+06
           16871     9.05055E+06     49.6002E+06              0.    -42.7931E+06
           16872     7.93846E+06     49.5942E+06              0.    -43.2326E+06
           16873     6.81136E+06     49.5693E+06              0.    -43.6616E+06
           16874     5.66935E+06     49.5242E+06              0.    -44.0793E+06
           16875     4.51253E+06     49.4579E+06              0.    -44.4848E+06
           16876     3.34103E+06     49.3691E+06              0.    -44.8773E+06
           16877     2.15500E+06     49.2564E+06              0.    -45.2560E+06
           16878     954.611E+03     49.1187E+06              0.    -45.6198E+06
           16879    -259.946E+03     48.9544E+06              0.    -45.9679E+06
           16880    -1.48846E+06     48.7622E+06              0.    -46.2994E+06
           16881    -2.73068E+06     48.5405E+06              0.    -46.6132E+06
           16882    -3.98635E+06     48.2878E+06              0.    -46.9084E+06
           16883    -5.25517E+06     48.0026E+06              0.    -47.1840E+06
           16884    -6.53683E+06     47.6831E+06              0.    -47.4390E+06
           16885    -7.83098E+06     47.3276E+06              0.    -47.6723E+06
           16886    -9.13723E+06     46.9345E+06              0.    -47.8830E+06
           16887    -10.4552E+06     46.5018E+06              0.    -48.0698E+06
           16888    -11.7844E+06     46.0276E+06              0.    -48.2319E+06
           16889    -13.1244E+06     45.5102E+06              0.    -48.3680E+06
           16890    -14.4747E+06     44.9474E+06              0.    -48.4771E+06
           16891    -15.8347E+06     44.3372E+06              0.    -48.5582E+06
           16892    -17.2039E+06     43.6775E+06              0.    -48.6101E+06
           16893    -18.5816E+06     42.9662E+06              0.    -48.6318E+06
           16894    -19.9672E+06     42.2011E+06              0.    -48.6221E+06
           16895    -21.3600E+06     41.3799E+06              0.    -48.5800E+06
           16896    -22.7593E+06     40.5003E+06              0.    -48.5044E+06
           16897    -24.1643E+06     39.5600E+06              0.    -48.3942E+06
           16898    -25.5742E+06     38.5566E+06              0.    -48.2484E+06
           16899    -26.9882E+06     37.4876E+06              0.    -48.0659E+06
           16900    -28.4054E+06     36.3506E+06              0.    -47.8457E+06
           16901    -29.8247E+06     35.1431E+06              0.    -47.5867E+06
           16902    -31.2454E+06     33.8625E+06              0.    -47.2880E+06
           16903    -32.6663E+06     32.5062E+06              0.    -46.9487E+06
           16904    -34.0865E+06     31.0717E+06              0.    -46.5677E+06
           16905    -35.5048E+06     29.5564E+06              0.    -46.1441E+06
           16906    -36.9200E+06     27.9575E+06              0.    -45.6772E+06
           16907    -38.3311E+06     26.2725E+06              0.    -45.1660E+06
           16908    -39.7367E+06     24.4987E+06              0.    -44.6097E+06
           16909    -41.1357E+06     22.6334E+06              0.    -44.0075E+06
           16910    -42.5268E+06     20.6740E+06              0.    -43.3587E+06
           16911    -43.9086E+06     18.6178E+06              0.    -42.6627E+06
           16912    -45.2797E+06     16.4622E+06              0.    -41.9186E+06
           16913    -46.6388E+06     14.2045E+06              0.    -41.1261E+06
           16914    -47.9844E+06     11.8422E+06              0.    -40.2844E+06
           16915    -49.3151E+06     9.37276E+06              0.    -39.3931E+06
           16916    -50.6293E+06     6.79353E+06              0.    -38.4517E+06
           16917    -51.9255E+06     4.10209E+06              0.    -37.4597E+06
           16918    -53.2021E+06     1.29595E+06              0.    -36.4168E+06
           16919    -54.4575E+06    -1.62726E+06              0.    -35.3227E+06
           16920    -55.6901E+06    -4.66984E+06              0.    -34.1770E+06
           16921    -56.8984E+06    -7.83412E+06              0.    -32.9796E+06
           16922    -58.0805E+06    -11.1222E+06              0.    -31.7303E+06
           16923    -59.2348E+06    -14.5363E+06              0.    -30.4288E+06
           16924    -60.3597E+06    -18.0784E+06              0.    -29.0750E+06
           16925    -61.4526E+06    -21.7500E+06              0.    -27.6688E+06
           16926    -63.0538E+06    -25.9863E+06              0.    -27.0233E+06
           16927     64.8985E+06     28.4945E+06              0.    -2.11292E+06
           16928     64.9123E+06     28.6465E+06              0.    -2.10901E+06
           16929     64.8610E+06     28.7668E+06              0.    -2.08066E+06
           16930     64.8103E+06     28.8837E+06              0.    -2.05652E+06
           16931     64.7602E+06     28.9975E+06              0.    -2.03646E+06
           16932     64.7104E+06     29.1084E+06              0.    -2.02037E+06
           16933     64.6610E+06     29.2164E+06              0.    -2.00816E+06
           16934     64.6118E+06     29.3218E+06              0.    -1.99972E+06
           16935     64.5628E+06     29.4246E+06              0.    -1.99497E+06
           16936     64.5137E+06     29.5250E+06              0.    -1.99381E+06
           16937     64.4647E+06     29.6232E+06              0.    -1.99616E+06
           16938     64.4154E+06     29.7192E+06              0.    -2.00195E+06
           16939     64.3660E+06     29.8132E+06              0.    -2.01110E+06
           16940     64.3163E+06     29.9053E+06              0.    -2.02353E+06
           16941     64.2661E+06     29.9956E+06              0.    -2.03919E+06
           16942     64.2156E+06     30.0842E+06              0.    -2.05801E+06
           16943     64.1644E+06     30.1713E+06              0.    -2.07993E+06
           16944     64.1127E+06     30.2569E+06              0.    -2.10490E+06
           16945     64.0602E+06     30.3412E+06              0.    -2.13287E+06
           16946     64.0070E+06     30.4242E+06              0.    -2.16380E+06
           16947      63.953E+06     30.5061E+06              0.    -2.19763E+06
           16948     63.8980E+06     30.5869E+06              0.    -2.23433E+06
           16949     63.8421E+06     30.6667E+06              0.    -2.27386E+06
           16950     63.7851E+06     30.7457E+06              0.    -2.31619E+06
           16951     63.7270E+06     30.8239E+06              0.    -2.36129E+06
           16952     63.6677E+06     30.9014E+06              0.    -2.40913E+06
           16953     63.6072E+06     30.9782E+06              0.    -2.45969E+06
           16954     63.5453E+06     31.0546E+06              0.    -2.51294E+06
           16955     63.4821E+06     31.1305E+06              0.    -2.56886E+06
           16956     63.4174E+06     31.2060E+06              0.    -2.62745E+06
           16957     63.3511E+06     31.2811E+06              0.    -2.68868E+06
           16958     63.2833E+06     31.3561E+06              0.    -2.75255E+06
           16959     63.2138E+06     31.4309E+06              0.    -2.81905E+06
           16960     63.1427E+06     31.5057E+06              0.    -2.88816E+06
           16961     63.0697E+06     31.5804E+06              0.    -2.95990E+06
           16962     62.9949E+06     31.6551E+06              0.    -3.03425E+06
           16963     62.9182E+06     31.7300E+06              0.    -3.11122E+06
           16964     62.8395E+06     31.8051E+06              0.    -3.19081E+06
           16965     62.7587E+06     31.8804E+06              0.    -3.27302E+06
           16966     62.6759E+06      31.956E+06              0.    -3.35787E+06
           16967     62.5908E+06     32.0320E+06              0.    -3.44537E+06
           16968     62.5036E+06     32.1084E+06              0.    -3.53551E+06
           16969     62.4140E+06     32.1853E+06              0.    -3.62833E+06
           16970     62.3221E+06     32.2627E+06              0.    -3.72383E+06
           16971     62.2277E+06     32.3408E+06              0.    -3.82203E+06
           16972     62.1308E+06     32.4195E+06              0.    -3.92295E+06
           16973     62.0314E+06     32.4989E+06              0.    -4.02661E+06
           16974     61.9293E+06     32.5791E+06              0.    -4.13303E+06
           16975     61.8245E+06     32.6601E+06              0.    -4.24224E+06
           16976     61.7169E+06     32.7420E+06              0.    -4.35427E+06
           16977     61.6064E+06     32.8248E+06              0.    -4.46913E+06
           16978     61.4931E+06     32.9085E+06              0.    -4.58687E+06
           16979     61.3767E+06     32.9933E+06              0.    -4.70750E+06
           16980     61.2573E+06     33.0792E+06              0.    -4.83107E+06
           16981     61.1347E+06     33.1662E+06              0.    -4.95761E+06
           16982     61.0089E+06     33.2543E+06              0.    -5.08714E+06
           16983     60.8799E+06     33.3436E+06              0.    -5.21971E+06
           16984     60.7474E+06     33.4343E+06              0.    -5.35536E+06
           16985     60.6116E+06     33.5262E+06              0.    -5.49412E+06
           16986     60.4722E+06     33.6194E+06              0.    -5.63603E+06
           16987     60.3291E+06     33.7141E+06              0.    -5.78114E+06
           16988     60.1825E+06     33.8102E+06              0.    -5.92949E+06
           16989     60.0320E+06     33.9077E+06              0.    -6.08112E+06
           16990     59.8777E+06     34.0068E+06              0.    -6.23607E+06
           16991     59.7195E+06     34.1074E+06              0.    -6.39440E+06
           16992     59.5572E+06     34.2097E+06              0.    -6.55614E+06
           16993     59.3909E+06     34.3136E+06              0.    -6.72135E+06
           16994     59.2204E+06     34.4191E+06              0.    -6.89007E+06
           16995     59.0456E+06     34.5264E+06              0.    -7.06236E+06
           16996     58.8664E+06     34.6355E+06              0.    -7.23826E+06
           16997     58.6827E+06     34.7463E+06              0.    -7.41783E+06
           16998     58.4946E+06     34.8590E+06              0.    -7.60111E+06
           16999     58.3017E+06     34.9735E+06              0.    -7.78816E+06
           17000     58.1041E+06     35.0900E+06              0.    -7.97904E+06
           17001     57.9017E+06     35.2083E+06              0.    -8.17379E+06
           17002     57.6944E+06     35.3287E+06              0.    -8.37247E+06
           17003     57.4820E+06     35.4510E+06              0.    -8.57513E+06
           17004     57.2645E+06     35.5754E+06              0.    -8.78183E+06
           17005     57.0417E+06     35.7019E+06              0.    -8.99263E+06
           17006     56.8136E+06     35.8304E+06              0.    -9.20757E+06
           17007     56.5800E+06     35.9611E+06              0.    -9.42671E+06
           17008     56.3409E+06     36.0939E+06              0.    -9.65012E+06
           17009     56.0961E+06     36.2289E+06              0.    -9.87784E+06
           17010     55.8455E+06     36.3662E+06              0.    -10.1099E+06
           17011     55.5890E+06     36.5056E+06              0.    -10.3464E+06
           17012     55.3265E+06     36.6473E+06              0.    -10.5874E+06
           17013     55.0579E+06     36.7913E+06              0.    -10.8330E+06
           17014     54.7831E+06     36.9375E+06              0.    -11.0831E+06
           17015     54.5019E+06     37.0861E+06              0.    -11.3378E+06
           17016     54.2142E+06     37.2370E+06              0.    -11.5973E+06
           17017     53.9199E+06     37.3903E+06              0.    -11.8615E+06
           17018     53.6189E+06     37.5459E+06              0.    -12.1305E+06
           17019     53.3111E+06     37.7039E+06              0.    -12.4043E+06
           17020     52.9963E+06     37.8643E+06              0.    -12.6831E+06
           17021     52.6744E+06     38.0270E+06              0.    -12.9667E+06
           17022     52.3452E+06     38.1922E+06              0.    -13.2554E+06
           17023     52.0087E+06     38.3597E+06              0.    -13.5491E+06
           17024     51.6647E+06     38.5297E+06              0.    -13.8479E+06
           17025     51.3130E+06     38.7021E+06              0.    -14.1517E+06
           17026     50.9536E+06     38.8768E+06              0.    -14.4608E+06
           17027     50.5863E+06     39.0540E+06              0.    -14.7750E+06
           17028     50.2110E+06     39.2335E+06              0.    -15.0945E+06
           17029     49.8274E+06     39.4154E+06              0.    -15.4192E+06
           17030     49.4355E+06     39.5996E+06              0.    -15.7492E+06
           17031     49.0352E+06     39.7862E+06              0.    -16.0845E+06
           17032     48.6263E+06     39.9750E+06              0.    -16.4251E+06
           17033     48.2085E+06     40.1662E+06              0.    -16.7711E+06
           17034     47.7819E+06     40.3595E+06              0.    -17.1225E+06
           17035     47.3462E+06     40.5551E+06              0.    -17.4792E+06
           17036     46.9014E+06     40.7529E+06              0.    -17.8413E+06
           17037     46.4471E+06     40.9528E+06              0.    -18.2088E+06
           17038     45.9834E+06     41.1547E+06              0.    -18.5817E+06
           17039     45.5100E+06     41.3587E+06              0.    -18.9599E+06
           17040     45.0268E+06     41.5646E+06              0.    -19.3436E+06
           17041     44.5336E+06     41.7724E+06              0.    -19.7326E+06
           17042     44.0302E+06     41.9820E+06              0.    -20.1269E+06
           17043     43.5167E+06     42.1933E+06              0.    -20.5265E+06
           17044     42.9926E+06     42.4063E+06              0.    -20.9313E+06
           17045     42.4580E+06     42.6209E+06              0.    -21.3414E+06
           17046     41.9126E+06     42.8368E+06              0.    -21.7567E+06
           17047     41.3563E+06     43.0542E+06              0.    -22.1770E+06
           17048     40.7890E+06     43.2727E+06              0.    -22.6024E+06
           17049     40.2104E+06     43.4923E+06              0.    -23.0328E+06
           17050     39.6204E+06     43.7129E+06              0.    -23.4681E+06
           17051     39.0189E+06     43.9343E+06              0.    -23.9082E+06
           17052     38.4057E+06     44.1564E+06              0.    -24.3529E+06
           17053     37.7806E+06     44.3789E+06              0.    -24.8023E+06
           17054     37.1435E+06     44.6018E+06              0.    -25.2561E+06
           17055     36.4942E+06     44.8247E+06              0.    -25.7143E+06
           17056     35.8326E+06     45.0476E+06              0.    -26.1767E+06
           17057     35.1586E+06     45.2702E+06              0.    -26.6432E+06
           17058     34.4719E+06     45.4923E+06              0.    -27.1135E+06
           17059     33.7724E+06     45.7137E+06              0.    -27.5875E+06
           17060     33.0600E+06     45.9340E+06              0.    -28.0651E+06
           17061     32.3345E+06     46.1530E+06              0.    -28.5459E+06
           17062     31.5958E+06     46.3705E+06              0.    -29.0299E+06
           17063     30.8437E+06     46.5860E+06              0.    -29.5167E+06
           17064     30.0781E+06     46.7994E+06              0.    -30.0062E+06
           17065     29.2989E+06     47.0103E+06              0.    -30.4980E+06
           17066     28.5059E+06     47.2182E+06              0.    -30.9919E+06
           17067     27.6991E+06     47.4229E+06              0.    -31.4876E+06
           17068     26.8782E+06     47.6240E+06              0.    -31.9848E+06
           17069     26.0431E+06     47.8209E+06              0.    -32.4831E+06
           17070     25.1938E+06     48.0133E+06              0.    -32.9823E+06
           17071     24.3302E+06     48.2007E+06              0.    -33.4819E+06
           17072     23.4521E+06     48.3827E+06              0.    -33.9816E+06
           17073     22.5594E+06     48.5586E+06              0.    -34.4809E+06
           17074     21.6520E+06     48.7280E+06              0.    -34.9795E+06
           17075     20.7299E+06     48.8903E+06              0.    -35.4769E+06
           17076     19.7931E+06     49.0450E+06              0.    -35.9727E+06
           17077     18.8413E+06     49.1912E+06              0.    -36.4664E+06
           17078     17.8746E+06     49.3286E+06              0.    -36.9574E+06
           17079     16.8928E+06     49.4562E+06              0.    -37.4453E+06
           17080     15.8961E+06     49.5734E+06              0.    -37.9295E+06
           17081     14.8843E+06     49.6796E+06              0.    -38.4094E+06
           17082     13.8574E+06     49.7738E+06              0.    -38.8845E+06
           17083     12.8155E+06     49.8552E+06              0.    -39.3542E+06
           17084     11.7584E+06     49.9230E+06              0.    -39.8178E+06
           17085     10.6863E+06     49.9763E+06              0.    -40.2746E+06
           17086     9.59922E+06     50.0142E+06              0.    -40.7241E+06
           17087     8.49712E+06     50.0356E+06              0.    -41.1654E+06
           17088     7.38011E+06     50.0395E+06              0.    -41.5979E+06
           17089     6.24826E+06     50.0249E+06              0.    -42.0208E+06
           17090     5.10168E+06     49.9907E+06              0.    -42.4334E+06
           17091     3.94048E+06     49.9357E+06              0.    -42.8348E+06
           17092     2.76479E+06     49.8587E+06              0.    -43.2243E+06
           17093     1.57476E+06     49.7585E+06              0.    -43.6011E+06
           17094     370.578E+03     49.6337E+06              0.    -43.9642E+06
           17095    -847.565E+03     49.4830E+06              0.    -44.3127E+06
           17096    -2.07945E+06     49.3050E+06              0.    -44.6460E+06
           17097    -3.32484E+06     49.0983E+06              0.    -44.9629E+06
           17098    -4.58346E+06     48.8613E+06              0.    -45.2625E+06
           17099    -5.85502E+06     48.5925E+06              0.    -45.5440E+06
           17100    -7.13920E+06     48.2904E+06              0.    -45.8064E+06
           17101    -8.43565E+06     47.9531E+06              0.    -46.0486E+06
           17102    -9.74401E+06     47.5791E+06              0.    -46.2698E+06
           17103    -11.0639E+06     47.1665E+06              0.    -46.4688E+06
           17104    -12.3948E+06     46.7136E+06              0.    -46.6447E+06
           17105    -13.7363E+06     46.2184E+06              0.    -46.7964E+06
           17106    -15.0878E+06      45.679E+06              0.     -46.923E+06
           17107    -16.4490E+06     45.0935E+06              0.    -47.0233E+06
           17108    -17.8191E+06     44.4597E+06              0.    -47.0964E+06
           17109    -19.1977E+06     43.7757E+06              0.    -47.1412E+06
           17110    -20.5840E+06     43.0392E+06              0.    -47.1567E+06
           17111    -21.9773E+06     42.2481E+06              0.    -47.1417E+06
           17112    -23.3771E+06     41.4002E+06              0.    -47.0954E+06
           17113    -24.7825E+06     40.4931E+06              0.    -47.0165E+06
           17114    -26.1927E+06     39.5246E+06              0.    -46.9042E+06
           17115    -27.6069E+06     38.4922E+06              0.    -46.7574E+06
           17116    -29.0243E+06     37.3936E+06              0.    -46.5752E+06
           17117    -30.4440E+06     36.2263E+06              0.    -46.3564E+06
           17118    -31.8650E+06     34.9878E+06              0.    -46.1002E+06
           17119    -33.2863E+06     33.6756E+06              0.    -45.8056E+06
           17120    -34.7069E+06     32.2872E+06              0.    -45.4717E+06
           17121    -36.1258E+06     30.8201E+06              0.    -45.0976E+06
           17122    -37.5418E+06     29.2715E+06              0.    -44.6824E+06
           17123    -38.9538E+06     27.6390E+06              0.    -44.2254E+06
           17124    -40.3607E+06     25.9200E+06              0.    -43.7255E+06
           17125    -41.7612E+06     24.1117E+06              0.    -43.1822E+06
           17126    -43.1540E+06     22.2116E+06              0.    -42.5947E+06
           17127    -44.5380E+06     20.2171E+06              0.    -41.9622E+06
           17128    -45.9117E+06     18.1255E+06              0.    -41.2841E+06
           17129    -47.2737E+06     15.9343E+06              0.    -40.5597E+06
           17130    -48.6228E+06     13.6409E+06              0.    -39.7885E+06
           17131    -49.9574E+06     11.2428E+06              0.    -38.9700E+06
           17132    -51.2761E+06     8.73734E+06              0.    -38.1036E+06
           17133    -52.5775E+06     6.12210E+06              0.    -37.1889E+06
           17134    -53.8598E+06     3.39467E+06              0.    -36.2255E+06
           17135    -55.1217E+06     552.579E+03              0.    -35.2130E+06
           17136    -56.3615E+06    -2.40650E+06              0.    -34.1511E+06
           17137    -57.5777E+06    -5.48482E+06              0.    -33.0395E+06
           17138    -58.7685E+06    -8.68468E+06              0.    -31.8780E+06
           17139    -59.9323E+06    -12.0082E+06              0.    -30.6663E+06
           17140    -61.0676E+06    -15.4575E+06              0.    -29.4043E+06
           17141    -62.1724E+06    -19.0346E+06              0.    -28.0918E+06
           17142    -63.2454E+06    -22.7417E+06              0.    -26.7288E+06
           17143    -64.8479E+06    -27.0121E+06              0.    -26.1015E+06
           17144     64.8164E+06     28.4591E+06              0.    -2.06029E+06
           17145     64.8307E+06     28.6163E+06              0.    -2.05648E+06
           17146     64.7776E+06     28.7406E+06              0.    -2.02884E+06
           17147     64.7252E+06     28.8616E+06              0.    -2.00529E+06
           17148     64.6733E+06     28.9793E+06              0.    -1.98572E+06
           17149     64.6219E+06     29.0939E+06              0.    -1.97004E+06
           17150     64.5708E+06     29.2057E+06              0.    -1.95812E+06
           17151     64.5199E+06     29.3146E+06              0.    -1.94989E+06
           17152     64.4692E+06     29.4210E+06              0.    -1.94525E+06
           17153     64.4185E+06     29.5248E+06              0.    -1.94412E+06
           17154     64.3677E+06     29.6263E+06              0.    -1.94641E+06
           17155     64.3168E+06     29.7256E+06              0.    -1.95205E+06
           17156     64.2657E+06     29.8228E+06              0.    -1.96096E+06
           17157     64.2142E+06     29.9181E+06              0.    -1.97308E+06
           17158     64.1624E+06     30.0114E+06              0.    -1.98834E+06
           17159     64.1101E+06     30.1031E+06              0.    -2.00669E+06
           17160     64.0572E+06     30.1932E+06              0.    -2.02806E+06
           17161     64.0037E+06     30.2817E+06              0.    -2.05240E+06
           17162     63.9495E+06     30.3688E+06              0.    -2.07967E+06
           17163     63.8944E+06     30.4547E+06              0.    -2.10982E+06
           17164     63.8386E+06     30.5393E+06              0.    -2.14280E+06
           17165     63.7817E+06     30.6229E+06              0.    -2.17858E+06
           17166     63.7239E+06     30.7055E+06              0.    -2.21711E+06
           17167     63.6650E+06     30.7871E+06              0.    -2.25838E+06
           17168     63.6049E+06     30.8680E+06              0.    -2.30235E+06
           17169     63.5436E+06     30.9481E+06              0.    -2.34899E+06
           17170      63.481E+06     31.0275E+06              0.    -2.39827E+06
           17171     63.4170E+06     31.1065E+06              0.    -2.45018E+06
           17172     63.3516E+06     31.1849E+06              0.    -2.50471E+06
           17173     63.2847E+06     31.2630E+06              0.    -2.56182E+06
           17174     63.2162E+06     31.3407E+06              0.    -2.62151E+06
           17175     63.1461E+06     31.4182E+06              0.    -2.68378E+06
           17176     63.0743E+06     31.4956E+06              0.    -2.74860E+06
           17177     63.0007E+06     31.5728E+06              0.    -2.81598E+06
           17178     62.9253E+06     31.6501E+06              0.    -2.88591E+06
           17179     62.8479E+06     31.7273E+06              0.    -2.95839E+06
           17180     62.7686E+06     31.8047E+06              0.    -3.03342E+06
           17181     62.6872E+06     31.8823E+06              0.    -3.11101E+06
           17182     62.6038E+06     31.9602E+06              0.    -3.19116E+06
           17183     62.5181E+06     32.0383E+06              0.    -3.27387E+06
           17184     62.4302E+06     32.1169E+06              0.    -3.35916E+06
           17185     62.3400E+06     32.1959E+06              0.    -3.44703E+06
           17186     62.2474E+06     32.2753E+06              0.    -3.53751E+06
           17187     62.1523E+06     32.3554E+06              0.    -3.63060E+06
           17188     62.0548E+06     32.4360E+06              0.    -3.72632E+06
           17189     61.9546E+06     32.5174E+06              0.    -3.82469E+06
           17190     61.8518E+06     32.5994E+06              0.    -3.92574E+06
           17191     61.7463E+06     32.6823E+06              0.    -4.02947E+06
           17192     61.6380E+06     32.7660E+06              0.    -4.13592E+06
           17193     61.5268E+06     32.8506E+06              0.    -4.24511E+06
           17194     61.4126E+06     32.9361E+06              0.    -4.35707E+06
           17195     61.2954E+06     33.0226E+06              0.    -4.47183E+06
           17196     61.1751E+06     33.1102E+06              0.    -4.58941E+06
           17197     61.0517E+06     33.1989E+06              0.    -4.70984E+06
           17198     60.9250E+06     33.2888E+06              0.    -4.83317E+06
           17199     60.7950E+06     33.3798E+06              0.    -4.95942E+06
           17200     60.6616E+06     33.4721E+06              0.    -5.08862E+06
           17201     60.5248E+06     33.5657E+06              0.    -5.22082E+06
           17202     60.3843E+06     33.6606E+06              0.    -5.35606E+06
           17203     60.2403E+06     33.7569E+06              0.    -5.49436E+06
           17204     60.0925E+06     33.8546E+06              0.    -5.63578E+06
           17205     59.9409E+06     33.9538E+06              0.    -5.78034E+06
           17206     59.7854E+06     34.0546E+06              0.    -5.92810E+06
           17207     59.6260E+06     34.1569E+06              0.    -6.07910E+06
           17208     59.4625E+06     34.2608E+06              0.    -6.23339E+06
           17209     59.2948E+06     34.3663E+06              0.    -6.39100E+06
           17210     59.1230E+06     34.4736E+06              0.    -6.55198E+06
           17211     58.9468E+06     34.5825E+06              0.    -6.71639E+06
           17212     58.7661E+06     34.6932E+06              0.    -6.88426E+06
           17213     58.5810E+06     34.8058E+06              0.    -7.05565E+06
           17214     58.3913E+06     34.9202E+06              0.    -7.23060E+06
           17215     58.1969E+06     35.0364E+06              0.    -7.40918E+06
           17216     57.9977E+06     35.1546E+06              0.    -7.59142E+06
           17217     57.7936E+06     35.2747E+06              0.    -7.77738E+06
           17218     57.5845E+06     35.3969E+06              0.    -7.96711E+06
           17219     57.3703E+06     35.5210E+06              0.    -8.16066E+06
           17220     57.1509E+06     35.6472E+06              0.    -8.35808E+06
           17221     56.9262E+06     35.7755E+06              0.    -8.55944E+06
           17222     56.6961E+06     35.9059E+06              0.    -8.76477E+06
           17223     56.4605E+06     36.0384E+06              0.    -8.97414E+06
           17224     56.2193E+06     36.1732E+06              0.     -9.1876E+06
           17225     55.9724E+06     36.3101E+06              0.    -9.40520E+06
           17226     55.7196E+06     36.4493E+06              0.    -9.62699E+06
           17227     55.4608E+06     36.5907E+06              0.    -9.85303E+06
           17228     55.1960E+06     36.7344E+06              0.    -10.0834E+06
           17229     54.9250E+06     36.8804E+06              0.    -10.3181E+06
           17230     54.6477E+06     37.0288E+06              0.    -10.5572E+06
           17231     54.3640E+06     37.1794E+06              0.    -10.8007E+06
           17232     54.0737E+06     37.3325E+06              0.    -11.0488E+06
           17233     53.7767E+06     37.4879E+06              0.    -11.3014E+06
           17234      53.473E+06     37.6458E+06              0.    -11.5586E+06
           17235     53.1623E+06      37.806E+06              0.    -11.8205E+06
           17236     52.8446E+06     37.9687E+06              0.    -12.0871E+06
           17237     52.5198E+06     38.1337E+06              0.    -12.3585E+06
           17238     52.1876E+06     38.3013E+06              0.    -12.6346E+06
           17239     51.8480E+06     38.4712E+06              0.    -12.9156E+06
           17240     51.5008E+06     38.6436E+06              0.    -13.2014E+06
           17241     51.1459E+06     38.8185E+06              0.    -13.4922E+06
           17242     50.7831E+06     38.9957E+06              0.    -13.7880E+06
           17243     50.4124E+06     39.1755E+06              0.    -14.0887E+06
           17244     50.0335E+06     39.3576E+06              0.    -14.3945E+06
           17245     49.6464E+06     39.5421E+06              0.    -14.7053E+06
           17246     49.2509E+06     39.7291E+06              0.    -15.0213E+06
           17247     48.8468E+06     39.9184E+06              0.    -15.3423E+06
           17248     48.4341E+06     40.1100E+06              0.    -15.6685E+06
           17249     48.0125E+06     40.3040E+06              0.    -15.9999E+06
           17250     47.5819E+06     40.5003E+06              0.    -16.3364E+06
           17251     47.1422E+06     40.6988E+06              0.    -16.6782E+06
           17252     46.6932E+06     40.8996E+06              0.    -17.0251E+06
           17253     46.2348E+06     41.1025E+06              0.    -17.3772E+06
           17254     45.7667E+06     41.3076E+06              0.    -17.7346E+06
           17255     45.2890E+06     41.5147E+06              0.    -18.0971E+06
           17256     44.8013E+06     41.7238E+06              0.    -18.4649E+06
           17257     44.3036E+06     41.9349E+06              0.    -18.8378E+06
           17258     43.7957E+06     42.1478E+06              0.    -19.2159E+06
           17259     43.2775E+06     42.3625E+06              0.    -19.5992E+06
           17260     42.7487E+06     42.5789E+06              0.    -19.9875E+06
           17261     42.2092E+06     42.7969E+06              0.    -20.3810E+06
           17262     41.6590E+06     43.0165E+06              0.    -20.7794E+06
           17263     41.0977E+06     43.2374E+06              0.    -21.1828E+06
           17264     40.5253E+06     43.4596E+06              0.    -21.5912E+06
           17265     39.9416E+06      43.683E+06              0.    -22.0044E+06
           17266     39.3465E+06     43.9074E+06              0.    -22.4224E+06
           17267     38.7398E+06     44.1327E+06              0.    -22.8451E+06
           17268     38.1213E+06     44.3587E+06              0.    -23.2723E+06
           17269     37.4908E+06     44.5852E+06              0.    -23.7042E+06
           17270     36.8483E+06     44.8122E+06              0.    -24.1403E+06
           17271     36.1936E+06     45.0393E+06              0.    -24.5808E+06
           17272     35.5265E+06     45.2664E+06              0.    -25.0255E+06
           17273     34.8469E+06     45.4934E+06              0.    -25.4741E+06
           17274     34.1546E+06     45.7199E+06              0.    -25.9266E+06
           17275     33.4494E+06     45.9457E+06              0.    -26.3828E+06
           17276     32.7314E+06     46.1706E+06              0.    -26.8426E+06
           17277     32.0001E+06     46.3943E+06              0.    -27.3056E+06
           17278     31.2557E+06     46.6165E+06              0.    -27.7718E+06
           17279     30.4978E+06     46.8370E+06              0.    -28.2410E+06
           17280     29.7265E+06     47.0553E+06              0.    -28.7128E+06
           17281     28.9415E+06     47.2713E+06              0.    -29.1870E+06
           17282     28.1427E+06     47.4844E+06              0.    -29.6635E+06
           17283     27.3300E+06     47.6944E+06              0.    -30.1419E+06
           17284     26.5032E+06     47.9009E+06              0.    -30.6219E+06
           17285     25.6624E+06     48.1034E+06              0.    -31.1033E+06
           17286     24.8073E+06     48.3015E+06              0.    -31.5857E+06
           17287     23.9378E+06     48.4948E+06              0.    -32.0687E+06
           17288     23.0540E+06     48.6828E+06              0.    -32.5521E+06
           17289     22.1555E+06     48.8649E+06              0.    -33.0355E+06
           17290     21.2425E+06     49.0407E+06              0.    -33.5183E+06
           17291     20.3148E+06     49.2095E+06              0.    -34.0004E+06
           17292     19.3723E+06     49.3709E+06              0.    -34.4812E+06
           17293     18.4149E+06     49.5241E+06              0.    -34.9602E+06
           17294     17.4428E+06     49.6686E+06              0.    -35.4371E+06
           17295     16.4556E+06     49.8036E+06              0.    -35.9112E+06
           17296     15.4536E+06     49.9285E+06              0.    -36.3822E+06
           17297     14.4365E+06     50.0426E+06              0.    -36.8495E+06
           17298     13.4045E+06     50.1450E+06              0.    -37.3125E+06
           17299     12.3575E+06     50.2349E+06              0.    -37.7707E+06
           17300     11.2955E+06     50.3115E+06              0.    -38.2234E+06
           17301     10.2186E+06     50.3740E+06              0.    -38.6701E+06
           17302     9.12680E+06     50.4214E+06              0.    -39.1102E+06
           17303     8.02013E+06     50.4527E+06              0.    -39.5429E+06
           17304     6.89868E+06     50.4669E+06              0.    -39.9675E+06
           17305     5.76255E+06     50.4631E+06              0.    -40.3835E+06
           17306     4.61182E+06     50.4401E+06              0.    -40.7901E+06
           17307     3.44662E+06     50.3968E+06              0.    -41.1864E+06
           17308     2.26710E+06     50.3321E+06              0.    -41.5719E+06
           17309     1.07340E+06     50.2446E+06              0.    -41.9456E+06
           17310    -134.287E+03     50.1332E+06              0.    -42.3068E+06
           17311    -1.35577E+06     49.9965E+06              0.    -42.6547E+06
           17312    -2.59082E+06     49.8332E+06              0.    -42.9884E+06
           17313    -3.83919E+06     49.6418E+06              0.    -43.3070E+06
           17314    -5.10063E+06     49.4210E+06              0.    -43.6098E+06
           17315    -6.37482E+06     49.1691E+06              0.    -43.8957E+06
           17316    -7.66147E+06     48.8847E+06              0.    -44.1638E+06
           17317    -8.96021E+06     48.5660E+06              0.    -44.4134E+06
           17318    -10.2707E+06     48.2116E+06              0.    -44.6433E+06
           17319    -11.5925E+06     47.8195E+06              0.    -44.8527E+06
           17320    -12.9252E+06     47.3881E+06              0.    -45.0406E+06
           17321    -14.2683E+06     46.9155E+06              0.    -45.2061E+06
           17322    -15.6214E+06     46.3999E+06              0.    -45.3480E+06
           17323    -16.9839E+06     45.8393E+06              0.    -45.4656E+06
           17324    -18.3553E+06     45.2318E+06              0.    -45.5577E+06
           17325    -19.7349E+06     44.5752E+06              0.    -45.6233E+06
           17326    -21.1222E+06     43.8676E+06              0.    -45.6616E+06
           17327    -22.5165E+06     43.1068E+06              0.    -45.6714E+06
           17328    -23.9171E+06     42.2906E+06              0.    -45.6517E+06
           17329    -25.3233E+06     41.4169E+06              0.    -45.6017E+06
           17330    -26.7343E+06     40.4832E+06              0.    -45.5202E+06
           17331    -28.1493E+06     39.4875E+06              0.    -45.4064E+06
           17332    -29.5675E+06     38.4271E+06              0.    -45.2593E+06
           17333    -30.9879E+06     37.2999E+06              0.    -45.0778E+06
           17334    -32.4098E+06     36.1034E+06              0.    -44.8611E+06
           17335    -33.8320E+06     34.8351E+06              0.    -44.6082E+06
           17336    -35.2537E+06     33.4925E+06              0.    -44.3183E+06
           17337    -36.6738E+06     32.0732E+06              0.    -43.9905E+06
           17338    -38.0912E+06     30.5745E+06              0.    -43.6239E+06
           17339    -39.5049E+06     28.9941E+06              0.    -43.2176E+06
           17340    -40.9136E+06     27.3292E+06              0.    -42.7710E+06
           17341    -42.3163E+06     25.5773E+06              0.    -42.2831E+06
           17342    -43.7116E+06     23.7359E+06              0.    -41.7533E+06
           17343    -45.0984E+06     21.8023E+06              0.    -41.1809E+06
           17344    -46.4753E+06     19.7740E+06              0.    -40.5651E+06
           17345    -47.8410E+06     17.6484E+06              0.    -39.9054E+06
           17346    -49.1942E+06     15.4230E+06              0.    -39.2012E+06
           17347    -50.5335E+06     13.0953E+06              0.    -38.4519E+06
           17348    -51.8574E+06     10.6626E+06              0.    -37.6570E+06
           17349    -53.1644E+06     8.12256E+06              0.    -36.8159E+06
           17350    -54.4532E+06     5.47269E+06              0.    -35.9283E+06
           17351    -55.7222E+06     2.71062E+06              0.    -34.9938E+06
           17352    -56.9698E+06    -166.064E+03              0.    -34.0120E+06
           17353    -58.1944E+06    -3.15966E+06              0.    -32.9826E+06
           17354    -59.3945E+06    -6.27240E+06              0.    -31.9053E+06
           17355    -60.5685E+06    -9.50655E+06              0.    -30.7799E+06
           17356    -61.7146E+06    -12.8642E+06              0.    -29.6062E+06
           17357    -62.8312E+06    -16.3474E+06              0.    -28.3839E+06
           17358    -63.9167E+06    -19.9583E+06              0.    -27.1130E+06
           17359    -64.9690E+06    -23.6987E+06              0.    -25.7934E+06
           17360    -66.5718E+06    -28.0017E+06              0.    -25.1838E+06
           17361     64.7364E+06     28.4246E+06              0.    -2.00594E+06
           17362     64.7511E+06     28.5868E+06              0.    -2.00223E+06
           17363     64.6964E+06     28.7152E+06              0.    -1.97531E+06
           17364     64.6423E+06     28.8400E+06              0.    -1.95238E+06
           17365     64.5887E+06     28.9615E+06              0.    -1.93333E+06
           17366     64.5356E+06     29.0798E+06              0.    -1.91805E+06
           17367     64.4829E+06     29.1952E+06              0.    -1.90645E+06
           17368     64.4304E+06     29.3076E+06              0.    -1.89843E+06
           17369     64.3780E+06     29.4174E+06              0.    -1.89391E+06
           17370     64.3256E+06     29.5246E+06              0.    -1.89280E+06
           17371     64.2732E+06     29.6294E+06              0.    -1.89503E+06
           17372     64.2207E+06     29.7319E+06              0.    -1.90051E+06
           17373     64.1679E+06     29.8322E+06              0.    -1.90919E+06
           17374     64.1148E+06     29.9305E+06              0.    -1.92098E+06
           17375     64.0613E+06     30.0269E+06              0.    -1.93584E+06
           17376     64.0073E+06     30.1215E+06              0.    -1.95369E+06
           17377     63.9527E+06     30.2144E+06              0.    -1.97449E+06
           17378     63.8975E+06     30.3058E+06              0.    -1.99819E+06
           17379     63.8415E+06     30.3957E+06              0.    -2.02473E+06
           17380     63.7848E+06     30.4844E+06              0.    -2.05407E+06
           17381     63.7271E+06     30.5717E+06              0.    -2.08617E+06
           17382     63.6684E+06     30.6580E+06              0.    -2.12100E+06
           17383     63.6087E+06     30.7432E+06              0.    -2.15852E+06
           17384     63.5479E+06     30.8274E+06              0.    -2.19869E+06
           17385     63.4859E+06     30.9109E+06              0.    -2.24148E+06
           17386     63.4227E+06     30.9936E+06              0.    -2.28688E+06
           17387     63.3581E+06     31.0756E+06              0.    -2.33486E+06
           17388     63.2920E+06     31.1570E+06              0.    -2.38539E+06
           17389     63.2245E+06     31.2380E+06              0.    -2.43846E+06
           17390     63.1555E+06     31.3185E+06              0.    -2.49405E+06
           17391     63.0848E+06     31.3988E+06              0.    -2.55216E+06
           17392     63.0125E+06     31.4787E+06              0.    -2.61277E+06
           17393     62.9383E+06     31.5585E+06              0.    -2.67587E+06
           17394     62.8624E+06     31.6383E+06              0.    -2.74145E+06
           17395     62.7845E+06     31.7179E+06              0.    -2.80952E+06
           17396     62.7047E+06     31.7977E+06              0.    -2.88007E+06
           17397     62.6229E+06     31.8776E+06              0.    -2.95311E+06
           17398     62.5389E+06     31.9576E+06              0.    -3.02862E+06
           17399     62.4528E+06     32.0379E+06              0.    -3.10663E+06
           17400     62.3644E+06     32.1185E+06              0.    -3.18714E+06
           17401     62.2737E+06     32.1996E+06              0.    -3.27016E+06
           17402     62.1806E+06     32.2810E+06              0.    -3.35569E+06
           17403     62.0851E+06     32.3630E+06              0.    -3.44375E+06
           17404     61.9870E+06     32.4456E+06              0.    -3.53436E+06
           17405     61.8864E+06     32.5288E+06              0.    -3.62752E+06
           17406     61.7830E+06     32.6127E+06              0.    -3.72327E+06
           17407     61.6770E+06     32.6973E+06              0.    -3.82161E+06
           17408     61.5681E+06     32.7828E+06              0.    -3.92257E+06
           17409     61.4563E+06     32.8691E+06              0.    -4.02617E+06
           17410     61.3415E+06     32.9563E+06              0.    -4.13244E+06
           17411     61.2238E+06     33.0445E+06              0.    -4.24141E+06
           17412     61.1029E+06     33.1338E+06              0.    -4.35309E+06
           17413     60.9788E+06     33.2241E+06              0.    -4.46752E+06
           17414     60.8515E+06     33.3155E+06              0.    -4.58473E+06
           17415     60.7208E+06     33.4082E+06              0.    -4.70475E+06
           17416     60.5867E+06     33.5020E+06              0.    -4.82760E+06
           17417     60.4491E+06     33.5972E+06              0.    -4.95334E+06
           17418     60.3079E+06     33.6936E+06              0.    -5.08199E+06
           17419     60.1630E+06     33.7915E+06              0.    -5.21359E+06
           17420     60.0144E+06     33.8908E+06              0.    -5.34817E+06
           17421     59.8620E+06     33.9915E+06              0.    -5.48578E+06
           17422     59.7056E+06     34.0938E+06              0.    -5.62646E+06
           17423     59.5453E+06     34.1976E+06              0.    -5.77023E+06
           17424     59.3808E+06     34.3030E+06              0.    -5.91716E+06
           17425     59.2122E+06     34.4101E+06              0.    -6.06728E+06
           17426     59.0393E+06     34.5188E+06              0.    -6.22063E+06
           17427     58.8620E+06     34.6293E+06              0.    -6.37726E+06
           17428     58.6803E+06     34.7416E+06              0.    -6.53722E+06
           17429     58.4940E+06     34.8557E+06              0.    -6.70054E+06
           17430     58.3031E+06     34.9716E+06              0.    -6.86729E+06
           17431     58.1075E+06     35.0894E+06              0.     -7.0375E+06
           17432     57.9070E+06     35.2092E+06              0.    -7.21123E+06
           17433     57.7016E+06     35.3309E+06              0.    -7.38851E+06
           17434     57.4911E+06     35.4546E+06              0.    -7.56941E+06
           17435     57.2756E+06     35.5804E+06              0.    -7.75398E+06
           17436     57.0547E+06     35.7082E+06              0.    -7.94225E+06
           17437     56.8285E+06     35.8381E+06              0.    -8.13429E+06
           17438     56.5969E+06     35.9702E+06              0.    -8.33014E+06
           17439     56.3597E+06     36.1045E+06              0.    -8.52986E+06
           17440     56.1168E+06     36.2409E+06              0.     -8.7335E+06
           17441     55.8682E+06     36.3796E+06              0.    -8.94110E+06
           17442     55.6136E+06     36.5205E+06              0.    -9.15273E+06
           17443     55.3531E+06     36.6637E+06              0.    -9.36842E+06
           17444     55.0864E+06     36.8092E+06              0.    -9.58825E+06
           17445     54.8135E+06     36.9571E+06              0.    -9.81224E+06
           17446     54.5342E+06     37.1073E+06              0.    -10.0405E+06
           17447     54.2484E+06     37.2599E+06              0.    -10.2729E+06
           17448     53.9560E+06     37.4149E+06              0.    -10.5098E+06
           17449     53.6569E+06     37.5723E+06              0.    -10.7509E+06
           17450     53.3510E+06     37.7321E+06              0.    -10.9966E+06
           17451     53.0380E+06     37.8943E+06              0.    -11.2466E+06
           17452     52.7180E+06     38.0591E+06              0.    -11.5012E+06
           17453     52.3907E+06     38.2262E+06              0.    -11.7604E+06
           17454     52.0561E+06     38.3959E+06              0.    -12.0242E+06
           17455     51.7139E+06     38.5680E+06              0.    -12.2926E+06
           17456     51.3641E+06     38.7427E+06              0.    -12.5657E+06
           17457     51.0066E+06     38.9197E+06              0.    -12.8435E+06
           17458     50.6411E+06     39.0993E+06              0.    -13.1261E+06
           17459     50.2675E+06     39.2814E+06              0.    -13.4135E+06
           17460     49.8858E+06     39.4659E+06              0.    -13.7058E+06
           17461     49.4958E+06     39.6529E+06              0.    -14.0029E+06
           17462     49.0973E+06     39.8423E+06              0.    -14.3049E+06
           17463     48.6901E+06     40.0341E+06              0.    -14.6118E+06
           17464     48.2742E+06     40.2283E+06              0.    -14.9238E+06
           17465     47.8494E+06     40.4249E+06              0.    -15.2406E+06
           17466     47.4156E+06     40.6239E+06              0.    -15.5625E+06
           17467     46.9725E+06     40.8251E+06              0.    -15.8894E+06
           17468     46.5201E+06     41.0286E+06              0.    -16.2213E+06
           17469     46.0582E+06     41.2344E+06              0.    -16.5582E+06
           17470     45.5866E+06     41.4423E+06              0.    -16.9001E+06
           17471     45.1052E+06     41.6523E+06              0.    -17.2471E+06
           17472     44.6139E+06     41.8645E+06              0.    -17.5991E+06
           17473     44.1124E+06     42.0786E+06              0.    -17.9562E+06
           17474     43.6007E+06     42.2946E+06              0.    -18.3182E+06
           17475     43.0785E+06     42.5125E+06              0.    -18.6852E+06
           17476     42.5458E+06     42.7321E+06              0.    -19.0571E+06
           17477     42.0023E+06     42.9534E+06              0.    -19.4340E+06
           17478     41.4479E+06     43.1763E+06              0.    -19.8158E+06
           17479     40.8825E+06     43.4007E+06              0.    -20.2024E+06
           17480     40.3059E+06     43.6264E+06              0.    -20.5938E+06
           17481     39.7179E+06     43.8533E+06              0.    -20.9899E+06
           17482     39.1184E+06     44.0813E+06              0.    -21.3907E+06
           17483     38.5073E+06     44.3103E+06              0.    -21.7961E+06
           17484     37.8843E+06     44.5401E+06              0.    -22.2060E+06
           17485     37.2494E+06     44.7705E+06              0.    -22.6203E+06
           17486     36.6023E+06     45.0014E+06              0.    -23.0389E+06
           17487     35.9430E+06     45.2326E+06              0.    -23.4617E+06
           17488     35.2712E+06     45.4638E+06              0.    -23.8886E+06
           17489     34.5869E+06     45.6949E+06              0.    -24.3195E+06
           17490     33.8898E+06     45.9257E+06              0.    -24.7543E+06
           17491     33.1799E+06     46.1559E+06              0.    -25.1927E+06
           17492     32.4570E+06     46.3853E+06              0.    -25.6346E+06
           17493     31.7209E+06     46.6136E+06              0.    -26.0798E+06
           17494     30.9715E+06     46.8405E+06              0.    -26.5282E+06
           17495     30.2088E+06     47.0658E+06              0.    -26.9796E+06
           17496     29.4325E+06     47.2890E+06              0.    -27.4337E+06
           17497     28.6425E+06     47.5100E+06              0.    -27.8904E+06
           17498     27.8387E+06     47.7284E+06              0.    -28.3493E+06
           17499     27.0211E+06     47.9437E+06              0.    -28.8103E+06
           17500     26.1893E+06     48.1556E+06              0.    -29.2731E+06
           17501     25.3435E+06     48.3637E+06              0.    -29.7373E+06
           17502     24.4834E+06     48.5676E+06              0.    -30.2028E+06
           17503     23.6090E+06     48.7668E+06              0.    -30.6691E+06
           17504     22.7202E+06     48.9608E+06              0.    -31.1360E+06
           17505     21.8168E+06     49.1492E+06              0.    -31.6031E+06
           17506     20.8989E+06     49.3314E+06              0.    -32.0700E+06
           17507     19.9663E+06     49.5069E+06              0.    -32.5364E+06
           17508     19.0189E+06     49.6751E+06              0.    -33.0018E+06
           17509     18.0568E+06     49.8354E+06              0.    -33.4659E+06
           17510     17.0799E+06     49.9872E+06              0.    -33.9282E+06
           17511     16.0881E+06     50.1298E+06              0.    -34.3883E+06
           17512     15.0814E+06     50.2626E+06              0.    -34.8456E+06
           17513     14.0598E+06     50.3847E+06              0.    -35.2997E+06
           17514     13.0233E+06     50.4955E+06              0.    -35.7501E+06
           17515     11.9719E+06     50.5942E+06              0.    -36.1962E+06
           17516     10.9056E+06     50.6799E+06              0.    -36.6376E+06
           17517     9.82446E+06     50.7518E+06              0.    -37.0735E+06
           17518     8.72851E+06     50.8090E+06              0.    -37.5034E+06
           17519     7.61782E+06     50.8505E+06              0.    -37.9268E+06
           17520     6.49245E+06     50.8754E+06              0.    -38.3429E+06
           17521     5.35251E+06     50.8826E+06              0.    -38.7511E+06
           17522     4.19810E+06     50.8712E+06              0.    -39.1507E+06
           17523     3.02934E+06     50.8399E+06              0.    -39.5411E+06
           17524     1.84638E+06     50.7877E+06              0.    -39.9215E+06
           17525     649.382E+03     50.7134E+06              0.    -40.2912E+06
           17526    -561.477E+03     50.6157E+06              0.    -40.6495E+06
           17527    -1.78599E+06     50.4934E+06              0.    -40.9954E+06
           17528    -3.02394E+06     50.3451E+06              0.    -41.3284E+06
           17529    -4.27508E+06     50.1695E+06              0.    -41.6475E+06
           17530    -5.53913E+06     49.9651E+06              0.    -41.9519E+06
           17531    -6.81581E+06     49.7305E+06              0.    -42.2408E+06
           17532    -8.10480E+06     49.4642E+06              0.    -42.5133E+06
           17533    -9.40575E+06     49.1645E+06              0.    -42.7686E+06
           17534    -10.7183E+06     48.8299E+06              0.    -43.0057E+06
           17535    -12.0420E+06     48.4587E+06              0.    -43.2238E+06
           17536    -13.3766E+06     48.0492E+06              0.    -43.4219E+06
           17537    -14.7214E+06     47.5995E+06              0.    -43.5992E+06
           17538    -16.0761E+06     47.1079E+06              0.    -43.7546E+06
           17539    -17.4401E+06     46.5725E+06              0.    -43.8873E+06
           17540    -18.8128E+06     45.9914E+06              0.    -43.9963E+06
           17541    -20.1938E+06     45.3626E+06              0.    -44.0807E+06
           17542    -21.5824E+06     44.6840E+06              0.    -44.1394E+06
           17543    -22.9779E+06     43.9536E+06              0.    -44.1716E+06
           17544    -24.3796E+06     43.1693E+06              0.    -44.1763E+06
           17545    -25.7870E+06     42.3289E+06              0.    -44.1526E+06
           17546    -27.1991E+06     41.4302E+06              0.    -44.0994E+06
           17547    -28.6153E+06     40.4710E+06              0.    -44.0159E+06
           17548    -30.0346E+06     39.4489E+06              0.    -43.9012E+06
           17549    -31.4564E+06     38.3617E+06              0.    -43.7542E+06
           17550    -32.8796E+06     37.2070E+06              0.    -43.5741E+06
           17551    -34.3033E+06     35.9823E+06              0.    -43.3601E+06
           17552    -35.7266E+06     34.6853E+06              0.    -43.1111E+06
           17553    -37.1484E+06     33.3134E+06              0.    -42.8265E+06
           17554    -38.5678E+06     31.8643E+06              0.    -42.5052E+06
           17555    -39.9837E+06     30.3354E+06              0.    -42.1466E+06
           17556    -41.3949E+06     28.7242E+06              0.    -41.7499E+06
           17557    -42.8002E+06     27.0282E+06              0.    -41.3141E+06
           17558    -44.1986E+06     25.2448E+06              0.    -40.8387E+06
           17559    -45.5888E+06     23.3715E+06              0.    -40.3230E+06
           17560    -46.9696E+06     21.4057E+06              0.    -39.7662E+06
           17561    -48.3396E+06     19.3450E+06              0.    -39.1677E+06
           17562    -49.6975E+06     17.1867E+06              0.    -38.5269E+06
           17563    -51.0420E+06     14.9284E+06              0.    -37.8432E+06
           17564    -52.3717E+06     12.5676E+06              0.    -37.1161E+06
           17565    -53.6851E+06     10.1017E+06              0.    -36.3452E+06
           17566    -54.9809E+06     7.52845E+06              0.    -35.5299E+06
           17567    -56.2575E+06     4.84529E+06              0.    -34.6698E+06
           17568    -57.5134E+06     2.04993E+06              0.    -33.7645E+06
           17569    -58.7472E+06    -860.027E+03              0.    -32.8137E+06
           17570    -59.9571E+06    -3.88684E+06              0.    -31.8172E+06
           17571    -61.1417E+06    -7.03269E+06              0.    -30.7745E+06
           17572    -62.2993E+06    -10.2998E+06              0.    -29.6855E+06
           17573    -63.4283E+06    -13.6903E+06              0.    -28.5499E+06
           17574    -64.5269E+06    -17.2063E+06              0.    -27.3677E+06
           17575    -65.5935E+06    -20.8496E+06              0.    -26.1386E+06
           17576    -66.6263E+06    -24.6223E+06              0.    -24.8625E+06
           17577    -68.2293E+06    -28.9567E+06              0.    -24.2715E+06
           17578     64.6586E+06     28.3910E+06              0.    -1.94990E+06
           17579     64.6738E+06     28.5581E+06              0.    -1.94629E+06
           17580     64.6174E+06     28.6904E+06              0.    -1.92012E+06
           17581     64.5616E+06     28.8190E+06              0.    -1.89783E+06
           17582     64.5065E+06     28.9442E+06              0.    -1.87930E+06
           17583     64.4517E+06     29.0661E+06              0.    -1.86445E+06
           17584     64.3974E+06     29.1850E+06              0.    -1.85317E+06
           17585     64.3432E+06     29.3008E+06              0.    -1.84537E+06
           17586     64.2893E+06     29.4139E+06              0.    -1.84098E+06
           17587     64.2353E+06     29.5244E+06              0.    -1.83990E+06
           17588     64.1813E+06     29.6323E+06              0.    -1.84205E+06
           17589     64.1272E+06     29.7379E+06              0.    -1.84738E+06
           17590     64.0728E+06     29.8413E+06              0.    -1.85581E+06
           17591     64.0181E+06     29.9426E+06              0.    -1.86727E+06
           17592     63.9630E+06     30.0419E+06              0.    -1.88170E+06
           17593     63.9073E+06     30.1394E+06              0.    -1.89906E+06
           17594     63.8511E+06     30.2351E+06              0.    -1.91927E+06
           17595     63.7942E+06     30.3293E+06              0.    -1.94230E+06
           17596     63.7366E+06     30.4219E+06              0.    -1.96809E+06
           17597     63.6781E+06     30.5132E+06              0.    -1.99661E+06
           17598     63.6186E+06     30.6032E+06              0.    -2.02781E+06
           17599     63.5582E+06     30.6921E+06              0.    -2.06165E+06
           17600     63.4967E+06     30.7799E+06              0.    -2.09811E+06
           17601     63.4341E+06     30.8667E+06              0.    -2.13715E+06
           17602     63.3702E+06     30.9526E+06              0.    -2.17874E+06
           17603     63.3050E+06     31.0378E+06              0.    -2.22286E+06
           17604     63.2384E+06     31.1223E+06              0.    -2.26949E+06
           17605     63.1704E+06     31.2062E+06              0.    -2.31860E+06
           17606     63.1009E+06     31.2896E+06              0.    -2.37018E+06
           17607     63.0298E+06     31.3726E+06              0.    -2.42421E+06
           17608     62.9570E+06     31.4552E+06              0.    -2.48068E+06
           17609     62.8824E+06     31.5376E+06              0.    -2.53958E+06
           17610     62.8061E+06     31.6198E+06              0.    -2.60090E+06
           17611     62.7279E+06     31.7019E+06              0.    -2.66464E+06
           17612     62.6477E+06     31.7840E+06              0.    -2.73079E+06
           17613     62.5655E+06     31.8661E+06              0.    -2.79935E+06
           17614     62.4811E+06     31.9484E+06              0.    -2.87033E+06
           17615     62.3947E+06     32.0308E+06              0.    -2.94372E+06
           17616     62.3059E+06     32.1135E+06              0.    -3.01953E+06
           17617     62.2149E+06     32.1965E+06              0.    -3.09777E+06
           17618     62.1215E+06     32.2800E+06              0.    -3.17844E+06
           17619     62.0256E+06     32.3639E+06              0.    -3.26156E+06
           17620     61.9272E+06     32.4483E+06              0.    -3.34713E+06
           17621     61.8262E+06     32.5333E+06              0.    -3.43518E+06
           17622     61.7225E+06     32.6190E+06              0.    -3.52572E+06
           17623     61.6161E+06     32.7054E+06              0.    -3.61876E+06
           17624     61.5069E+06     32.7925E+06              0.    -3.71432E+06
           17625     61.3947E+06     32.8805E+06              0.    -3.81243E+06
           17626     61.2796E+06     32.9694E+06              0.     -3.9131E+06
           17627     61.1614E+06     33.0592E+06              0.    -4.01636E+06
           17628     61.0401E+06     33.1500E+06              0.    -4.12224E+06
           17629     60.9156E+06     33.2418E+06              0.    -4.23076E+06
           17630     60.7879E+06     33.3348E+06              0.    -4.34195E+06
           17631     60.6567E+06     33.4290E+06              0.    -4.45583E+06
           17632     60.5222E+06     33.5243E+06              0.    -4.57245E+06
           17633     60.3841E+06     33.6209E+06              0.    -4.69182E+06
           17634     60.2424E+06     33.7188E+06              0.    -4.81399E+06
           17635     60.0970E+06     33.8181E+06              0.    -4.93898E+06
           17636     59.9478E+06     33.9188E+06              0.    -5.06684E+06
           17637     59.7948E+06     34.0210E+06              0.    -5.19759E+06
           17638     59.6378E+06     34.1246E+06              0.    -5.33129E+06
           17639     59.4768E+06     34.2298E+06              0.    -5.46795E+06
           17640     59.3117E+06     34.3366E+06              0.    -5.60764E+06
           17641     59.1424E+06     34.4451E+06              0.    -5.75038E+06
           17642     58.9688E+06     34.5553E+06              0.    -5.89621E+06
           17643     58.7908E+06     34.6671E+06              0.    -6.04518E+06
           17644     58.6083E+06     34.7808E+06              0.    -6.19734E+06
           17645     58.4212E+06     34.8963E+06              0.    -6.35272E+06
           17646     58.2295E+06     35.0136E+06              0.    -6.51138E+06
           17647     58.0330E+06     35.1328E+06              0.    -6.67335E+06
           17648     57.8316E+06     35.2540E+06              0.    -6.83868E+06
           17649     57.6252E+06     35.3771E+06              0.    -7.00742E+06
           17650     57.4138E+06     35.5023E+06              0.    -7.17962E+06
           17651     57.1972E+06     35.6295E+06              0.    -7.35532E+06
           17652     56.9753E+06     35.7588E+06              0.    -7.53458E+06
           17653     56.7480E+06     35.8902E+06              0.    -7.71743E+06
           17654     56.5152E+06     36.0237E+06              0.    -7.90394E+06
           17655     56.2768E+06     36.1595E+06              0.    -8.09414E+06
           17656     56.0327E+06     36.2975E+06              0.    -8.28809E+06
           17657     55.7828E+06     36.4377E+06              0.    -8.48584E+06
           17658     55.5269E+06     36.5802E+06              0.    -8.68744E+06
           17659     55.2650E+06     36.7250E+06              0.    -8.89293E+06
           17660     54.9969E+06     36.8721E+06              0.    -9.10237E+06
           17661     54.7225E+06     37.0216E+06              0.    -9.31581E+06
           17662     54.4417E+06     37.1735E+06              0.    -9.53329E+06
           17663     54.1544E+06     37.3278E+06              0.    -9.75486E+06
           17664     53.8604E+06     37.4844E+06              0.    -9.98058E+06
           17665     53.5596E+06     37.6436E+06              0.    -10.2105E+06
           17666     53.2520E+06     37.8052E+06              0.    -10.4446E+06
           17667     52.9373E+06     37.9693E+06              0.    -10.6830E+06
           17668     52.6154E+06     38.1358E+06              0.    -10.9258E+06
           17669     52.2862E+06     38.3049E+06              0.    -11.1729E+06
           17670     51.9497E+06     38.4765E+06              0.    -11.4245E+06
           17671     51.6055E+06     38.6506E+06              0.    -11.6804E+06
           17672     51.2537E+06     38.8272E+06              0.    -11.9409E+06
           17673     50.8940E+06     39.0063E+06              0.    -12.2060E+06
           17674     50.5264E+06     39.1879E+06              0.    -12.4756E+06
           17675     50.1507E+06     39.3721E+06              0.    -12.7498E+06
           17676     49.7667E+06     39.5588E+06              0.    -13.0287E+06
           17677     49.3744E+06     39.7479E+06              0.    -13.3122E+06
           17678     48.9735E+06     39.9396E+06              0.    -13.6005E+06
           17679     48.5639E+06     40.1337E+06              0.    -13.8935E+06
           17680     48.1455E+06     40.3303E+06              0.    -14.1913E+06
           17681     47.7181E+06     40.5292E+06              0.    -14.4938E+06
           17682     47.2817E+06     40.7306E+06              0.    -14.8012E+06
           17683     46.8359E+06     40.9343E+06              0.    -15.1133E+06
           17684     46.3808E+06     41.1404E+06              0.    -15.4303E+06
           17685     45.9160E+06     41.3487E+06              0.    -15.7522E+06
           17686     45.4416E+06     41.5593E+06              0.    -16.0789E+06
           17687     44.9573E+06     41.7721E+06              0.    -16.4104E+06
           17688     44.4630E+06     41.9869E+06              0.    -16.7468E+06
           17689     43.9585E+06     42.2039E+06              0.    -17.0881E+06
           17690     43.4436E+06     42.4228E+06              0.    -17.4342E+06
           17691     42.9183E+06     42.6436E+06              0.    -17.7851E+06
           17692     42.3824E+06     42.8662E+06              0.    -18.1408E+06
           17693     41.8356E+06     43.0906E+06              0.    -18.5012E+06
           17694     41.2779E+06     43.3167E+06              0.    -18.8664E+06
           17695     40.7091E+06     43.5442E+06              0.    -19.2363E+06
           17696     40.1291E+06     43.7732E+06              0.    -19.6109E+06
           17697     39.5376E+06     44.0035E+06              0.    -19.9900E+06
           17698     38.9346E+06     44.2350E+06              0.    -20.3737E+06
           17699     38.3198E+06     44.4675E+06              0.    -20.7619E+06
           17700     37.6932E+06     44.7009E+06              0.    -21.1544E+06
           17701     37.0546E+06     44.9350E+06              0.    -21.5513E+06
           17702     36.4037E+06     45.1696E+06              0.    -21.9524E+06
           17703     35.7406E+06     45.4047E+06              0.    -22.3577E+06
           17704     35.0650E+06     45.6399E+06              0.    -22.7670E+06
           17705     34.3768E+06     45.8751E+06              0.    -23.1801E+06
           17706     33.6758E+06     46.1100E+06              0.    -23.5971E+06
           17707     32.9619E+06     46.3445E+06              0.    -24.0177E+06
           17708     32.2350E+06     46.5782E+06              0.    -24.4418E+06
           17709     31.4949E+06     46.8110E+06              0.    -24.8693E+06
           17710     30.7415E+06     47.0425E+06              0.    -25.2999E+06
           17711     29.9747E+06     47.2725E+06              0.    -25.7335E+06
           17712     29.1943E+06     47.5006E+06              0.    -26.1699E+06
           17713     28.4002E+06     47.7266E+06              0.    -26.6089E+06
           17714     27.5923E+06       47.95E+06              0.    -27.0502E+06
           17715     26.7705E+06     48.1706E+06              0.    -27.4937E+06
           17716     25.9346E+06     48.3879E+06              0.    -27.9391E+06
           17717     25.0846E+06     48.6016E+06              0.    -28.3861E+06
           17718     24.2204E+06     48.8112E+06              0.    -28.8345E+06
           17719     23.3418E+06     49.0163E+06              0.    -29.2839E+06
           17720     22.4488E+06     49.2165E+06              0.    -29.7341E+06
           17721     21.5413E+06     49.4111E+06              0.    -30.1847E+06
           17722     20.6193E+06     49.5999E+06              0.    -30.6354E+06
           17723     19.6826E+06     49.7821E+06              0.    -31.0859E+06
           17724     18.7312E+06     49.9572E+06              0.    -31.5357E+06
           17725     17.7650E+06     50.1247E+06              0.    -31.9845E+06
           17726     16.7841E+06     50.2840E+06              0.    -32.4319E+06
           17727     15.7883E+06     50.4343E+06              0.    -32.8775E+06
           17728     14.7777E+06     50.5750E+06              0.    -33.3207E+06
           17729     13.7522E+06     50.7054E+06              0.    -33.7613E+06
           17730     12.7119E+06     50.8248E+06              0.    -34.1985E+06
           17731     11.6568E+06     50.9324E+06              0.    -34.6321E+06
           17732     10.5868E+06     51.0273E+06              0.    -35.0614E+06
           17733     9.50206E+06     51.1089E+06              0.    -35.4860E+06
           17734     8.40258E+06     51.1761E+06              0.    -35.9052E+06
           17735     7.28843E+06     51.2280E+06              0.    -36.3185E+06
           17736     6.15969E+06     51.2637E+06              0.    -36.7253E+06
           17737     5.01647E+06     51.2823E+06              0.    -37.1249E+06
           17738     3.85887E+06     51.2827E+06              0.    -37.5169E+06
           17739     2.68701E+06     51.2637E+06              0.    -37.9004E+06
           17740     1.50105E+06     51.2244E+06              0.    -38.2748E+06
           17741     301.155E+03     51.1635E+06              0.    -38.6395E+06
           17742    -912.498E+03     51.0799E+06              0.    -38.9937E+06
           17743    -2.13971E+06     50.9722E+06              0.    -39.3366E+06
           17744    -3.38024E+06     50.8393E+06              0.    -39.6677E+06
           17745    -4.63386E+06     50.6797E+06              0.    -39.9860E+06
           17746    -5.90028E+06     50.4922E+06              0.    -40.2908E+06
           17747    -7.17923E+06     50.2751E+06              0.    -40.5813E+06
           17748    -8.47038E+06     50.0272E+06              0.    -40.8568E+06
           17749    -9.77340E+06     49.7468E+06              0.    -41.1163E+06
           17750    -11.0879E+06     49.4324E+06              0.    -41.3590E+06
           17751    -12.4135E+06     49.0823E+06              0.    -41.5841E+06
           17752    -13.7498E+06     48.6948E+06              0.    -41.7908E+06
           17753    -15.0964E+06     48.2684E+06              0.    -41.9780E+06
           17754    -16.4527E+06     47.8010E+06              0.    -42.1451E+06
           17755    -17.8182E+06     47.2911E+06              0.    -42.2910E+06
           17756    -19.1925E+06     46.7366E+06              0.    -42.4149E+06
           17757    -20.5749E+06     46.1356E+06              0.    -42.5158E+06
           17758    -21.9649E+06     45.4862E+06              0.    -42.5930E+06
           17759    -23.3618E+06     44.7864E+06              0.    -42.6453E+06
           17760    -24.7650E+06      44.034E+06              0.    -42.6720E+06
           17761    -26.1737E+06     43.2270E+06              0.    -42.6721E+06
           17762    -27.5873E+06     42.3633E+06              0.    -42.6448E+06
           17763    -29.0050E+06     41.4406E+06              0.    -42.5891E+06
           17764    -30.4259E+06     40.4567E+06              0.    -42.5041E+06
           17765    -31.8493E+06     39.4094E+06              0.    -42.3889E+06
           17766    -33.2742E+06     38.2962E+06              0.    -42.2427E+06
           17767    -34.6998E+06     37.1150E+06              0.    -42.0645E+06
           17768    -36.1251E+06     35.8632E+06              0.    -41.8537E+06
           17769    -37.5492E+06     34.5386E+06              0.    -41.6092E+06
           17770    -38.9711E+06     33.1386E+06              0.    -41.3303E+06
           17771    -40.3896E+06     31.6609E+06              0.    -41.0162E+06
           17772    -41.8037E+06     30.1029E+06              0.    -40.6661E+06
           17773    -43.2124E+06     28.4621E+06              0.    -40.2793E+06
           17774    -44.6144E+06     26.7362E+06              0.    -39.8551E+06
           17775    -46.0086E+06     24.9225E+06              0.    -39.3927E+06
           17776    -47.3937E+06     23.0186E+06              0.    -38.8914E+06
           17777    -48.7685E+06     21.0219E+06              0.    -38.3507E+06
           17778    -50.1317E+06     18.9300E+06              0.    -37.7699E+06
           17779    -51.4820E+06     16.7403E+06              0.    -37.1484E+06
           17780    -52.8180E+06     14.4505E+06              0.    -36.4857E+06
           17781    -54.1383E+06     12.0579E+06              0.    -35.7813E+06
           17782    -55.4416E+06     9.56023E+06              0.    -35.0347E+06
           17783    -56.7264E+06     6.95504E+06              0.    -34.2455E+06
           17784    -57.9912E+06     4.23992E+06              0.    -33.4132E+06
           17785    -59.2345E+06     1.41257E+06              0.    -32.5375E+06
           17786    -60.4548E+06    -1.52935E+06              0.    -31.6181E+06
           17787    -61.6506E+06    -4.58806E+06              0.    -30.6546E+06
           17788    -62.8201E+06    -7.76575E+06              0.    -29.6468E+06
           17789    -63.9619E+06    -11.0646E+06              0.    -28.5944E+06
           17790    -65.0743E+06    -14.4867E+06              0.    -27.4973E+06
           17791    -66.1556E+06    -18.0341E+06              0.    -26.3553E+06
           17792    -67.2042E+06    -21.7087E+06              0.    -25.1682E+06
           17793    -68.2182E+06    -25.5124E+06              0.    -23.9360E+06
           17794    -69.8218E+06    -29.8774E+06              0.    -23.3637E+06
           17795     64.5831E+06     28.3584E+06              0.    -1.89223E+06
           17796     64.5987E+06     28.5303E+06              0.    -1.88872E+06
           17797     64.5406E+06     28.6663E+06              0.    -1.86332E+06
           17798     64.4833E+06     28.7986E+06              0.    -1.84169E+06
           17799     64.4265E+06     28.9274E+06              0.    -1.82371E+06
           17800     64.3702E+06     29.0528E+06              0.    -1.80929E+06
           17801     64.3143E+06     29.1750E+06              0.    -1.79834E+06
           17802     64.2586E+06     29.2942E+06              0.    -1.79077E+06
           17803     64.2031E+06     29.4105E+06              0.    -1.78650E+06
           17804     64.1476E+06     29.5242E+06              0.    -1.78545E+06
           17805     64.0921E+06     29.6352E+06              0.    -1.78754E+06
           17806     64.0364E+06     29.7438E+06              0.    -1.79270E+06
           17807     63.9805E+06     29.8501E+06              0.    -1.80088E+06
           17808     63.9242E+06     29.9543E+06              0.    -1.81199E+06
           17809     63.8675E+06     30.0564E+06              0.    -1.82600E+06
           17810     63.8103E+06     30.1567E+06              0.    -1.84283E+06
           17811     63.7524E+06     30.2552E+06              0.    -1.86244E+06
           17812     63.6939E+06     30.3520E+06              0.    -1.88478E+06
           17813     63.6346E+06     30.4473E+06              0.    -1.90981E+06
           17814     63.5744E+06     30.5412E+06              0.    -1.93747E+06
           17815     63.5133E+06     30.6338E+06              0.    -1.96775E+06
           17816     63.4512E+06     30.7252E+06              0.    -2.00058E+06
           17817     63.3879E+06     30.8155E+06              0.    -2.03596E+06
           17818     63.3235E+06     30.9048E+06              0.    -2.07383E+06
           17819     63.2578E+06     30.9932E+06              0.    -2.11419E+06
           17820     63.1908E+06     31.0808E+06              0.    -2.15699E+06
           17821     63.1223E+06     31.1677E+06              0.    -2.20223E+06
           17822     63.0524E+06     31.2539E+06              0.    -2.24988E+06
           17823     62.9809E+06     31.3397E+06              0.    -2.29992E+06
           17824     62.9077E+06     31.4250E+06              0.    -2.35234E+06
           17825     62.8328E+06     31.5100E+06              0.    -2.40713E+06
           17826     62.7562E+06     31.5947E+06              0.    -2.46428E+06
           17827     62.6777E+06     31.6793E+06              0.    -2.52377E+06
           17828     62.5972E+06     31.7637E+06              0.    -2.58561E+06
           17829     62.5148E+06     31.8481E+06              0.    -2.64979E+06
           17830     62.4302E+06     31.9325E+06              0.    -2.71631E+06
           17831     62.3435E+06     32.0171E+06              0.    -2.78517E+06
           17832     62.2546E+06     32.1019E+06              0.    -2.85637E+06
           17833     62.1633E+06     32.1869E+06              0.    -2.92992E+06
           17834     62.0697E+06     32.2723E+06              0.    -3.00582E+06
           17835     61.9737E+06     32.3581E+06              0.    -3.08409E+06
           17836     61.8751E+06     32.4443E+06              0.    -3.16472E+06
           17837     61.7739E+06     32.5311E+06              0.    -3.24774E+06
           17838     61.6701E+06     32.6185E+06              0.    -3.33316E+06
           17839     61.5635E+06     32.7066E+06              0.    -3.42099E+06
           17840     61.4540E+06     32.7954E+06              0.    -3.51125E+06
           17841     61.3417E+06     32.8850E+06              0.    -3.60396E+06
           17842     61.2264E+06     32.9754E+06              0.    -3.69913E+06
           17843     61.1080E+06     33.0667E+06              0.    -3.79679E+06
           17844     60.9866E+06     33.1590E+06              0.    -3.89696E+06
           17845     60.8618E+06     33.2524E+06              0.    -3.99967E+06
           17846     60.7339E+06     33.3468E+06              0.    -4.10494E+06
           17847     60.6025E+06     33.4423E+06              0.    -4.21279E+06
           17848     60.4677E+06     33.5391E+06              0.    -4.32327E+06
           17849     60.3293E+06     33.6370E+06              0.    -4.43638E+06
           17850     60.1873E+06     33.7363E+06              0.    -4.55217E+06
           17851     60.0417E+06     33.8369E+06              0.    -4.67067E+06
           17852     59.8922E+06     33.9389E+06              0.    -4.79191E+06
           17853     59.7389E+06     34.0424E+06              0.    -4.91593E+06
           17854     59.5816E+06     34.1473E+06              0.    -5.04275E+06
           17855     59.4202E+06     34.2538E+06              0.    -5.17243E+06
           17856     59.2547E+06     34.3619E+06              0.    -5.30498E+06
           17857     59.0850E+06     34.4716E+06              0.    -5.44045E+06
           17858     58.9110E+06     34.5830E+06              0.    -5.57889E+06
           17859     58.7325E+06     34.6962E+06              0.    -5.72033E+06
           17860     58.5496E+06     34.8111E+06              0.    -5.86481E+06
           17861     58.3620E+06     34.9278E+06              0.    -6.01237E+06
           17862     58.1697E+06     35.0464E+06              0.    -6.16306E+06
           17863     57.9727E+06     35.1669E+06              0.    -6.31691E+06
           17864     57.7707E+06     35.2893E+06              0.    -6.47398E+06
           17865     57.5637E+06     35.4137E+06              0.    -6.63431E+06
           17866     57.3517E+06     35.5401E+06              0.    -6.79794E+06
           17867     57.1344E+06     35.6686E+06              0.    -6.96491E+06
           17868     56.9118E+06     35.7992E+06              0.    -7.13528E+06
           17869     56.6838E+06     35.9319E+06              0.    -7.30909E+06
           17870     56.4502E+06     36.0668E+06              0.    -7.48639E+06
           17871     56.2110E+06     36.2039E+06              0.    -7.66722E+06
           17872     55.9661E+06     36.3432E+06              0.    -7.85163E+06
           17873     55.7153E+06     36.4848E+06              0.    -8.03967E+06
           17874     55.4586E+06     36.6286E+06              0.    -8.23138E+06
           17875     55.1957E+06     36.7748E+06              0.    -8.42682E+06
           17876     54.9266E+06     36.9234E+06              0.    -8.62603E+06
           17877     54.6512E+06     37.0743E+06              0.    -8.82906E+06
           17878     54.3694E+06     37.2276E+06              0.    -9.03595E+06
           17879     54.0809E+06     37.3834E+06              0.    -9.24676E+06
           17880     53.7858E+06     37.5416E+06              0.    -9.46153E+06
           17881     53.4839E+06     37.7023E+06              0.    -9.68030E+06
           17882     53.1750E+06     37.8655E+06              0.    -9.90313E+06
           17883     52.8590E+06     38.0312E+06              0.    -10.1300E+06
           17884     52.5359E+06     38.1994E+06              0.    -10.3611E+06
           17885     52.2054E+06     38.3701E+06              0.    -10.5964E+06
           17886     51.8674E+06     38.5433E+06              0.    -10.8358E+06
           17887     51.5218E+06     38.7192E+06              0.    -11.0796E+06
           17888     51.1685E+06     38.8975E+06              0.    -11.3276E+06
           17889     50.8073E+06     39.0785E+06              0.    -11.5800E+06
           17890     50.4381E+06     39.2620E+06              0.    -11.8368E+06
           17891     50.0607E+06     39.4480E+06              0.    -12.0980E+06
           17892     49.6751E+06     39.6366E+06              0.    -12.3637E+06
           17893     49.2810E+06     39.8277E+06              0.    -12.6338E+06
           17894     48.8783E+06     40.0214E+06              0.    -12.9085E+06
           17895     48.4669E+06     40.2175E+06              0.    -13.1877E+06
           17896     48.0466E+06     40.4162E+06              0.    -13.4715E+06
           17897     47.6174E+06     40.6173E+06              0.    -13.7598E+06
           17898     47.1789E+06     40.8209E+06              0.    -14.0528E+06
           17899     46.7311E+06     41.0269E+06              0.    -14.3505E+06
           17900     46.2739E+06     41.2353E+06              0.    -14.6527E+06
           17901     45.8071E+06     41.4460E+06              0.    -14.9597E+06
           17902     45.3304E+06     41.6589E+06              0.    -15.2713E+06
           17903     44.8439E+06     41.8742E+06              0.    -15.5876E+06
           17904     44.3473E+06     42.0916E+06              0.    -15.9085E+06
           17905     43.8404E+06     42.3111E+06              0.    -16.2341E+06
           17906     43.3232E+06     42.5327E+06              0.    -16.5644E+06
           17907     42.7955E+06     42.7562E+06              0.    -16.8994E+06
           17908     42.2570E+06     42.9817E+06              0.    -17.2389E+06
           17909     41.7078E+06     43.2089E+06              0.    -17.5831E+06
           17910     41.1475E+06     43.4379E+06              0.    -17.9319E+06
           17911     40.5760E+06     43.6684E+06              0.    -18.2852E+06
           17912     39.9933E+06     43.9005E+06              0.    -18.6430E+06
           17913     39.3991E+06     44.1340E+06              0.    -19.0053E+06
           17914     38.7933E+06     44.3687E+06              0.    -19.3720E+06
           17915     38.1757E+06     44.6045E+06              0.    -19.7431E+06
           17916     37.5463E+06     44.8413E+06              0.    -20.1184E+06
           17917     36.9047E+06     45.0789E+06              0.    -20.4980E+06
           17918     36.2509E+06     45.3171E+06              0.    -20.8817E+06
           17919     35.5848E+06     45.5559E+06              0.    -21.2694E+06
           17920     34.9062E+06     45.7949E+06              0.    -21.6611E+06
           17921     34.2149E+06     46.0339E+06              0.    -22.0566E+06
           17922     33.5108E+06     46.2729E+06              0.    -22.4559E+06
           17923     32.7938E+06     46.5115E+06              0.    -22.8588E+06
           17924     32.0637E+06     46.7494E+06              0.    -23.2651E+06
           17925     31.3205E+06     46.9865E+06              0.    -23.6747E+06
           17926     30.5638E+06     47.2225E+06              0.    -24.0876E+06
           17927     29.7937E+06     47.4571E+06              0.    -24.5034E+06
           17928     29.0101E+06     47.6900E+06              0.    -24.9220E+06
           17929     28.2127E+06     47.9208E+06              0.    -25.3433E+06
           17930     27.4015E+06     48.1493E+06              0.    -25.7670E+06
           17931     26.5763E+06     48.3751E+06              0.    -26.1929E+06
           17932     25.7371E+06     48.5978E+06              0.    -26.6208E+06
           17933     24.8838E+06     48.8170E+06              0.    -27.0505E+06
           17934     24.0162E+06     49.0323E+06              0.    -27.4816E+06
           17935     23.1343E+06     49.2433E+06              0.    -27.9140E+06
           17936     22.2380E+06     49.4495E+06              0.    -28.3473E+06
           17937     21.3271E+06     49.6505E+06              0.    -28.7813E+06
           17938     20.4017E+06     49.8458E+06              0.    -29.2156E+06
           17939     19.4617E+06     50.0347E+06              0.    -29.6499E+06
           17940     18.5070E+06     50.2169E+06              0.    -30.0838E+06
           17941     17.5376E+06     50.3916E+06              0.    -30.5171E+06
           17942     16.5534E+06     50.5583E+06              0.    -30.9492E+06
           17943     15.5544E+06     50.7164E+06              0.    -31.3799E+06
           17944     14.5406E+06     50.8652E+06              0.    -31.8087E+06
           17945     13.5120E+06     51.0040E+06              0.    -32.2352E+06
           17946     12.4686E+06     51.1321E+06              0.    -32.6590E+06
           17947     11.4103E+06     51.2487E+06              0.    -33.0795E+06
           17948     10.3373E+06     51.3531E+06              0.    -33.4963E+06
           17949     9.24960E+06     51.4444E+06              0.    -33.9088E+06
           17950     8.14720E+06     51.5218E+06              0.    -34.3167E+06
           17951     7.03019E+06     51.5843E+06              0.    -34.7193E+06
           17952     5.89866E+06     51.6311E+06              0.    -35.1161E+06
           17953     4.75270E+06     51.6612E+06              0.    -35.5064E+06
           17954     3.59243E+06     51.6736E+06              0.    -35.8898E+06
           17955     2.41797E+06     51.6672E+06              0.    -36.2656E+06
           17956     1.22949E+06     51.6410E+06              0.    -36.6332E+06
           17957     27.1339E+03     51.5938E+06              0.    -36.9919E+06
           17958    -1.18890E+06     51.5244E+06              0.    -37.3410E+06
           17959    -2.41841E+06     51.4317E+06              0.    -37.6799E+06
           17960    -3.66117E+06     51.3143E+06              0.    -38.0079E+06
           17961    -4.91694E+06     51.1711E+06              0.    -38.3242E+06
           17962    -6.18544E+06     51.0005E+06              0.    -38.6282E+06
           17963    -7.46639E+06     50.8013E+06              0.    -38.9191E+06
           17964    -8.75948E+06     50.5720E+06              0.    -39.1960E+06
           17965    -10.0644E+06     50.3111E+06              0.    -39.4583E+06
           17966    -11.3807E+06     50.0171E+06              0.    -39.7051E+06
           17967    -12.7080E+06     49.6884E+06              0.    -39.9357E+06
           17968    -14.0460E+06     49.3233E+06              0.    -40.1492E+06
           17969    -15.3942E+06     48.9202E+06              0.    -40.3448E+06
           17970    -16.7521E+06     48.4774E+06              0.    -40.5217E+06
           17971    -18.1192E+06     47.9930E+06              0.    -40.6789E+06
           17972    -19.4950E+06     47.4652E+06              0.    -40.8158E+06
           17973    -20.8790E+06     46.8923E+06              0.    -40.9313E+06
           17974    -22.2705E+06     46.2722E+06              0.    -41.0247E+06
           17975    -23.6689E+06     45.6029E+06              0.    -41.0950E+06
           17976    -25.0737E+06     44.8826E+06              0.    -41.1415E+06
           17977     -26.484E+06     44.1091E+06              0.    -41.1632E+06
           17978    -27.8992E+06     43.2803E+06              0.    -41.1592E+06
           17979    -29.3186E+06     42.3941E+06              0.    -41.1288E+06
           17980    -30.7413E+06     41.4483E+06              0.     -41.071E+06
           17981    -32.1666E+06     40.4407E+06              0.    -40.9850E+06
           17982    -33.5937E+06      39.369E+06              0.    -40.8699E+06
           17983    -35.0215E+06     38.2310E+06              0.    -40.7250E+06
           17984    -36.4492E+06     37.0242E+06              0.    -40.5493E+06
           17985    -37.8759E+06     35.7465E+06              0.    -40.3421E+06
           17986    -39.3006E+06     34.3953E+06              0.    -40.1026E+06
           17987    -40.7222E+06     32.9683E+06              0.    -39.8301E+06
           17988    -42.1398E+06     31.4631E+06              0.    -39.5236E+06
           17989    -43.5522E+06     29.8771E+06              0.    -39.1826E+06
           17990    -44.9582E+06     28.2081E+06              0.    -38.8062E+06
           17991    -46.3568E+06     26.4534E+06              0.    -38.3939E+06
           17992    -47.7468E+06     24.6107E+06              0.    -37.9449E+06
           17993    -49.1269E+06     22.6774E+06              0.    -37.4586E+06
           17994    -50.4958E+06     20.6511E+06              0.    -36.9344E+06
           17995    -51.8524E+06     18.5293E+06              0.    -36.3717E+06
           17996    -53.1952E+06     16.3095E+06              0.    -35.7700E+06
           17997    -54.5230E+06     13.9894E+06              0.    -35.1287E+06
           17998    -55.8343E+06     11.5664E+06              0.    -34.4474E+06
           17999    -57.1277E+06     9.03815E+06              0.    -33.7255E+06
           18000    -58.4018E+06     6.40234E+06              0.    -32.9627E+06
           18001    -59.6552E+06     3.65655E+06              0.    -32.1586E+06
           18002    -60.8863E+06     798.526E+03              0.    -31.3128E+06
           18003    -62.0936E+06    -2.17406E+06              0.    -30.4250E+06
           18004    -63.2756E+06    -5.26340E+06              0.    -29.4949E+06
           18005    -64.4306E+06    -8.47165E+06              0.    -28.5222E+06
           18006    -65.5572E+06    -11.8010E+06              0.    -27.5067E+06
           18007    -66.6535E+06    -15.2534E+06              0.    -26.4483E+06
           18008    -67.7181E+06    -18.8310E+06              0.    -25.3467E+06
           18009    -68.7493E+06    -22.5357E+06              0.    -24.2018E+06
           18010    -69.7456E+06    -26.3694E+06              0.    -23.0135E+06
           18011    -71.3498E+06    -30.7639E+06              0.    -22.4599E+06
           18012     64.5098E+06     28.3267E+06              0.    -1.83296E+06
           18013     64.5258E+06     28.5033E+06              0.    -1.82956E+06
           18014     64.4662E+06     28.6429E+06              0.    -1.80496E+06
           18015     64.4073E+06     28.7788E+06              0.    -1.78400E+06
           18016     64.3490E+06     28.9111E+06              0.    -1.76658E+06
           18017     64.2912E+06     29.0399E+06              0.    -1.75261E+06
           18018     64.2338E+06     29.1654E+06              0.    -1.74200E+06
           18019     64.1766E+06     29.2878E+06              0.    -1.73466E+06
           18020     64.1196E+06     29.4073E+06              0.    -1.73052E+06
           18021     64.0626E+06     29.5239E+06              0.    -1.72950E+06
           18022     64.0056E+06     29.6380E+06              0.    -1.73152E+06
           18023     63.9484E+06     29.7495E+06              0.    -1.73652E+06
           18024     63.8909E+06     29.8587E+06              0.    -1.74444E+06
           18025     63.8331E+06     29.9657E+06              0.    -1.75520E+06
           18026     63.7749E+06     30.0706E+06              0.    -1.76876E+06
           18027     63.7161E+06     30.1735E+06              0.    -1.78506E+06
           18028     63.6568E+06     30.2747E+06              0.    -1.80406E+06
           18029     63.5966E+06     30.3741E+06              0.    -1.82569E+06
           18030     63.5357E+06     30.4720E+06              0.    -1.84993E+06
           18031     63.4740E+06     30.5684E+06              0.    -1.87672E+06
           18032     63.4112E+06     30.6634E+06              0.    -1.90604E+06
           18033     63.3474E+06     30.7573E+06              0.    -1.93784E+06
           18034     63.2824E+06     30.8500E+06              0.    -1.97210E+06
           18035     63.2163E+06     30.9417E+06              0.    -2.00878E+06
           18036     63.1488E+06     31.0324E+06              0.    -2.04787E+06
           18037     63.0800E+06     31.1224E+06              0.    -2.08932E+06
           18038     63.0097E+06     31.2116E+06              0.    -2.13314E+06
           18039     62.9379E+06     31.3002E+06              0.    -2.17928E+06
           18040     62.8645E+06     31.3883E+06              0.    -2.22775E+06
           18041     62.7894E+06     31.4759E+06              0.    -2.27852E+06
           18042     62.7125E+06     31.5631E+06              0.    -2.33158E+06
           18043     62.6338E+06     31.6501E+06              0.    -2.38692E+06
           18044     62.5532E+06     31.7369E+06              0.    -2.44454E+06
           18045     62.4706E+06     31.8236E+06              0.    -2.50443E+06
           18046     62.3859E+06     31.9102E+06              0.    -2.56659E+06
           18047     62.2991E+06     31.9969E+06              0.    -2.63101E+06
           18048     62.2101E+06     32.0838E+06              0.    -2.69769E+06
           18049     62.1188E+06     32.1708E+06              0.    -2.76665E+06
           18050     62.0251E+06     32.2581E+06              0.    -2.83788E+06
           18051     61.9290E+06     32.3457E+06              0.    -2.91138E+06
           18052     61.8304E+06     32.4338E+06              0.    -2.98718E+06
           18053     61.7292E+06     32.5223E+06              0.    -3.06527E+06
           18054     61.6253E+06     32.6114E+06              0.    -3.14566E+06
           18055     61.5187E+06     32.7011E+06              0.    -3.22838E+06
           18056     61.4093E+06     32.7915E+06              0.    -3.31344E+06
           18057     61.2969E+06     32.8826E+06              0.    -3.40084E+06
           18058     61.1816E+06     32.9746E+06              0.    -3.49061E+06
           18059     61.0632E+06     33.0674E+06              0.    -3.58278E+06
           18060     60.9417E+06     33.1611E+06              0.    -3.67735E+06
           18061     60.8170E+06     33.2558E+06              0.    -3.77435E+06
           18062     60.6890E+06     33.3516E+06              0.    -3.87380E+06
           18063     60.5576E+06     33.4485E+06              0.    -3.97574E+06
           18064     60.4228E+06     33.5465E+06              0.    -4.08017E+06
           18065     60.2844E+06     33.6458E+06              0.    -4.18714E+06
           18066     60.1424E+06     33.7463E+06              0.    -4.29667E+06
           18067     59.9967E+06     33.8481E+06              0.    -4.40879E+06
           18068     59.8472E+06     33.9514E+06              0.    -4.52353E+06
           18069     59.6938E+06     34.0560E+06              0.    -4.64091E+06
           18070     59.5364E+06     34.1622E+06              0.    -4.76099E+06
           18071     59.3749E+06     34.2698E+06              0.    -4.88378E+06
           18072     59.2093E+06     34.3790E+06              0.    -5.00933E+06
           18073     59.0395E+06     34.4899E+06              0.    -5.13766E+06
           18074     58.8653E+06     34.6025E+06              0.    -5.26883E+06
           18075     58.6867E+06     34.7167E+06              0.    -5.40285E+06
           18076     58.5036E+06     34.8327E+06              0.    -5.53978E+06
           18077     58.3158E+06     34.9506E+06              0.    -5.67965E+06
           18078     58.1233E+06     35.0703E+06              0.    -5.82250E+06
           18079     57.9260E+06     35.1919E+06              0.    -5.96838E+06
           18080     57.7238E+06     35.3154E+06              0.    -6.11732E+06
           18081     57.5166E+06     35.4409E+06              0.    -6.26937E+06
           18082     57.3042E+06     35.5685E+06              0.    -6.42456E+06
           18083     57.0866E+06     35.6981E+06              0.    -6.58295E+06
           18084     56.8637E+06     35.8298E+06              0.    -6.74458E+06
           18085     56.6353E+06     35.9636E+06              0.    -6.90948E+06
           18086     56.4014E+06     36.0996E+06              0.    -7.07771E+06
           18087     56.1618E+06     36.2379E+06              0.    -7.24931E+06
           18088     55.9164E+06     36.3784E+06              0.    -7.42433E+06
           18089     55.6651E+06     36.5211E+06              0.    -7.60281E+06
           18090     55.4079E+06     36.6662E+06              0.    -7.78479E+06
           18091     55.1445E+06     36.8136E+06              0.    -7.97033E+06
           18092     54.8748E+06     36.9634E+06              0.    -8.15947E+06
           18093     54.5988E+06     37.1156E+06              0.    -8.35224E+06
           18094     54.3164E+06     37.2702E+06              0.    -8.54871E+06
           18095     54.0273E+06     37.4272E+06              0.    -8.74891E+06
           18096     53.7315E+06     37.5867E+06              0.    -8.95289E+06
           18097     53.4288E+06     37.7488E+06              0.    -9.16070E+06
           18098     53.1192E+06     37.9133E+06              0.    -9.37237E+06
           18099     52.8024E+06     38.0804E+06              0.    -9.58795E+06
           18100     52.4785E+06     38.2500E+06              0.    -9.80749E+06
           18101     52.1471E+06     38.4222E+06              0.    -10.0310E+06
           18102     51.8082E+06     38.5969E+06              0.    -10.2586E+06
           18103     51.4617E+06     38.7742E+06              0.    -10.4903E+06
           18104     51.1075E+06     38.9542E+06              0.    -10.7260E+06
           18105     50.7453E+06     39.1367E+06              0.    -10.9660E+06
           18106     50.3750E+06     39.3218E+06              0.    -11.2101E+06
           18107     49.9966E+06     39.5095E+06              0.    -11.4584E+06
           18108     49.6098E+06     39.6997E+06              0.    -11.7111E+06
           18109     49.2146E+06     39.8926E+06              0.    -11.9680E+06
           18110     48.8107E+06     40.0881E+06              0.    -12.2292E+06
           18111     48.3981E+06     40.2861E+06              0.    -12.4948E+06
           18112     47.9765E+06     40.4866E+06              0.    -12.7648E+06
           18113     47.5459E+06     40.6896E+06              0.    -13.0391E+06
           18114     47.1061E+06     40.8952E+06              0.    -13.3180E+06
           18115     46.6569E+06     41.1032E+06              0.    -13.6012E+06
           18116     46.1982E+06     41.3136E+06              0.    -13.8889E+06
           18117     45.7299E+06     41.5264E+06              0.    -14.1811E+06
           18118     45.2518E+06     41.7416E+06              0.    -14.4778E+06
           18119     44.7637E+06     41.9591E+06              0.    -14.7790E+06
           18120     44.2654E+06     42.1788E+06              0.    -15.0846E+06
           18121     43.7570E+06     42.4006E+06              0.    -15.3948E+06
           18122     43.2380E+06     42.6246E+06              0.    -15.7094E+06
           18123     42.7086E+06     42.8507E+06              0.    -16.0286E+06
           18124     42.1683E+06     43.0787E+06              0.    -16.3521E+06
           18125     41.6172E+06     43.3086E+06              0.    -16.6802E+06
           18126     41.0551E+06     43.5402E+06              0.    -17.0127E+06
           18127     40.4818E+06     43.7736E+06              0.    -17.3495E+06
           18128     39.8971E+06     44.0085E+06              0.    -17.6908E+06
           18129     39.3009E+06     44.2449E+06              0.    -18.0363E+06
           18130     38.6931E+06     44.4827E+06              0.    -18.3862E+06
           18131     38.0735E+06     44.7216E+06              0.    -18.7403E+06
           18132     37.4419E+06     44.9616E+06              0.    -19.0985E+06
           18133     36.7982E+06     45.2025E+06              0.    -19.4608E+06
           18134     36.1423E+06     45.4442E+06              0.    -19.8272E+06
           18135     35.4740E+06     45.6864E+06              0.    -20.1975E+06
           18136     34.7931E+06     45.9290E+06              0.    -20.5717E+06
           18137     34.0995E+06     46.1718E+06              0.    -20.9497E+06
           18138     33.3932E+06     46.4145E+06              0.    -21.3313E+06
           18139     32.6738E+06     46.6571E+06              0.    -21.7165E+06
           18140     31.9414E+06     46.8991E+06              0.    -22.1051E+06
           18141     31.1957E+06     47.1404E+06              0.    -22.4970E+06
           18142     30.4367E+06     47.3808E+06              0.    -22.8920E+06
           18143     29.6641E+06     47.6198E+06              0.    -23.2900E+06
           18144     28.8780E+06     47.8573E+06              0.    -23.6909E+06
           18145     28.0781E+06     48.0929E+06              0.    -24.0945E+06
           18146     27.2644E+06     48.3263E+06              0.    -24.5005E+06
           18147     26.4368E+06     48.5572E+06              0.    -24.9088E+06
           18148     25.5951E+06     48.7852E+06              0.    -25.3191E+06
           18149     24.7392E+06     49.0098E+06              0.    -25.7314E+06
           18150     23.8691E+06     49.2308E+06              0.    -26.1452E+06
           18151     22.9846E+06     49.4476E+06              0.    -26.5604E+06
           18152     22.0857E+06     49.6599E+06              0.    -26.9767E+06
           18153     21.1724E+06     49.8671E+06              0.    -27.3938E+06
           18154     20.2444E+06     50.0689E+06              0.    -27.8115E+06
           18155     19.3019E+06     50.2646E+06              0.    -28.2294E+06
           18156     18.3446E+06     50.4537E+06              0.    -28.6472E+06
           18157     17.3727E+06     50.6356E+06              0.    -29.0646E+06
           18158     16.3860E+06     50.8099E+06              0.    -29.4812E+06
           18159     15.3845E+06     50.9758E+06              0.    -29.8967E+06
           18160     14.3682E+06     51.1327E+06              0.    -30.3107E+06
           18161     13.3372E+06     51.2799E+06              0.    -30.7228E+06
           18162     12.2913E+06     51.4168E+06              0.    -31.1325E+06
           18163     11.2307E+06     51.5426E+06              0.    -31.5395E+06
           18164     10.1553E+06     51.6565E+06              0.    -31.9432E+06
           18165     9.06529E+06     51.7577E+06              0.    -32.3433E+06
           18166     7.96060E+06     51.8453E+06              0.    -32.7392E+06
           18167     6.84134E+06     51.9186E+06              0.    -33.1305E+06
           18168     5.70760E+06     51.9766E+06              0.    -33.5166E+06
           18169     4.55948E+06     52.0184E+06              0.    -33.8970E+06
           18170     3.39709E+06     52.0430E+06              0.    -34.2710E+06
           18171     2.22057E+06     52.0493E+06              0.    -34.6383E+06
           18172     1.03006E+06     52.0363E+06              0.    -34.9981E+06
           18173    -174.271E+03     52.0030E+06              0.    -35.3499E+06
           18174    -1.39223E+06     51.9481E+06              0.    -35.6930E+06
           18175    -2.62362E+06     51.8705E+06              0.    -36.0268E+06
           18176    -3.86821E+06     51.7689E+06              0.    -36.3507E+06
           18177    -5.12575E+06     51.6421E+06              0.    -36.6640E+06
           18178    -6.39599E+06     51.4888E+06              0.    -36.9659E+06
           18179    -7.67864E+06     51.3077E+06              0.    -37.2558E+06
           18180    -8.97337E+06     51.0972E+06              0.    -37.5330E+06
           18181    -10.2799E+06     50.8560E+06              0.    -37.7967E+06
           18182    -11.5977E+06     50.5826E+06              0.    -38.0462E+06
           18183    -12.9267E+06     50.2754E+06              0.    -38.2807E+06
           18184    -14.2662E+06     49.9328E+06              0.    -38.4994E+06
           18185    -15.6158E+06     49.5533E+06              0.    -38.7017E+06
           18186    -16.9752E+06     49.1351E+06              0.    -38.8866E+06
           18187    -18.3438E+06     48.6764E+06              0.    -39.0535E+06
           18188    -19.7212E+06     48.1756E+06              0.    -39.2014E+06
           18189    -21.1066E+06     47.6307E+06              0.    -39.3295E+06
           18190    -22.4997E+06     47.0399E+06              0.    -39.4372E+06
           18191    -23.8997E+06     46.4014E+06              0.    -39.5234E+06
           18192    -25.3061E+06     45.7131E+06              0.    -39.5875E+06
           18193    -26.7182E+06     44.9730E+06              0.    -39.6285E+06
           18194    -28.1352E+06     44.1792E+06              0.    -39.6456E+06
           18195    -29.5565E+06     43.3294E+06              0.    -39.6381E+06
           18196    -30.9812E+06     42.4216E+06              0.    -39.6050E+06
           18197    -32.4087E+06     41.4536E+06              0.    -39.5457E+06
           18198    -33.8380E+06     40.4232E+06              0.    -39.4592E+06
           18199    -35.2683E+06     39.3281E+06              0.    -39.3447E+06
           18200    -36.6988E+06     38.1662E+06              0.    -39.2015E+06
           18201    -38.1284E+06     36.9350E+06              0.    -39.0288E+06
           18202    -39.5562E+06     35.6323E+06              0.    -38.8258E+06
           18203    -40.9813E+06     34.2556E+06              0.    -38.5918E+06
           18204    -42.4026E+06     32.8027E+06              0.    -38.3260E+06
           18205    -43.8190E+06     31.2711E+06              0.    -38.0277E+06
           18206    -45.2295E+06     29.6584E+06              0.    -37.6961E+06
           18207    -46.6330E+06     27.9622E+06              0.    -37.3307E+06
           18208    -48.0282E+06     26.1801E+06              0.    -36.9308E+06
           18209    -49.4139E+06     24.3095E+06              0.    -36.4957E+06
           18210    -50.7891E+06     22.3481E+06              0.    -36.0248E+06
           18211    -52.1523E+06     20.2934E+06              0.    -35.5175E+06
           18212    -53.5024E+06     18.1429E+06              0.    -34.9734E+06
           18213    -54.8380E+06     15.8943E+06              0.    -34.3918E+06
           18214    -56.1577E+06     13.5452E+06              0.    -33.7722E+06
           18215    -57.4602E+06     11.0930E+06              0.    -33.1143E+06
           18216    -58.7441E+06     8.53553E+06              0.    -32.4175E+06
           18217    -60.0079E+06     5.87038E+06              0.    -31.6815E+06
           18218    -61.2502E+06     3.09521E+06              0.    -30.9058E+06
           18219    -62.4695E+06     207.780E+03              0.    -30.0902E+06
           18220    -63.6643E+06    -2.79420E+06              0.    -29.2343E+06
           18221    -64.8330E+06    -5.91290E+06              0.    -28.3378E+06
           18222    -65.9740E+06    -9.15044E+06              0.    -27.4006E+06
           18223    -67.0859E+06    -12.5090E+06              0.    -26.4223E+06
           18224    -68.1668E+06    -15.9905E+06              0.    -25.4027E+06
           18225    -69.2153E+06    -19.5971E+06              0.    -24.3418E+06
           18226    -70.2295E+06    -23.3305E+06              0.    -23.2393E+06
           18227    -71.2074E+06    -27.1926E+06              0.    -22.0952E+06
           18228    -72.8112E+06    -31.6147E+06              0.    -21.5609E+06
           18229     64.4389E+06     28.2961E+06              0.    -1.77216E+06
           18230     64.4554E+06     28.4771E+06              0.    -1.76887E+06
           18231     64.3942E+06     28.6203E+06              0.    -1.74508E+06
           18232     64.3338E+06     28.7597E+06              0.    -1.72481E+06
           18233     64.2741E+06     28.8953E+06              0.    -1.70797E+06
           18234     64.2148E+06     29.0273E+06              0.    -1.69446E+06
           18235     64.1559E+06     29.1560E+06              0.    -1.68420E+06
           18236     64.0972E+06     29.2816E+06              0.    -1.67711E+06
           18237     64.0387E+06     29.4041E+06              0.    -1.67310E+06
           18238     63.9803E+06     29.5237E+06              0.    -1.67211E+06
           18239     63.9218E+06     29.6406E+06              0.    -1.67406E+06
           18240     63.8632E+06     29.7550E+06              0.    -1.67889E+06
           18241     63.8043E+06     29.8669E+06              0.    -1.68654E+06
           18242     63.7450E+06     29.9766E+06              0.    -1.69694E+06
           18243     63.6853E+06     30.0842E+06              0.    -1.71005E+06
           18244     63.6251E+06     30.1898E+06              0.    -1.72580E+06
           18245     63.5642E+06     30.2935E+06              0.    -1.74416E+06
           18246     63.5025E+06     30.3954E+06              0.    -1.76507E+06
           18247     63.4401E+06     30.4958E+06              0.    -1.78850E+06
           18248     63.3767E+06     30.5946E+06              0.    -1.81440E+06
           18249     63.3124E+06     30.6921E+06              0.    -1.84274E+06
           18250     63.2470E+06     30.7883E+06              0.    -1.87348E+06
           18251     63.1804E+06     30.8834E+06              0.    -1.90660E+06
           18252     63.1125E+06     30.9774E+06              0.    -1.94206E+06
           18253     63.0434E+06     31.0705E+06              0.    -1.97984E+06
           18254     62.9728E+06     31.1627E+06              0.    -2.01991E+06
           18255     62.9008E+06     31.2542E+06              0.    -2.06226E+06
           18256     62.8271E+06     31.3450E+06              0.    -2.10687E+06
           18257     62.7518E+06     31.4353E+06              0.    -2.15372E+06
           18258     62.6749E+06     31.5251E+06              0.    -2.20279E+06
           18259     62.5960E+06     31.6145E+06              0.    -2.25408E+06
           18260     62.5154E+06     31.7037E+06              0.    -2.30758E+06
           18261     62.4327E+06     31.7927E+06              0.    -2.36328E+06
           18262     62.3480E+06     31.8815E+06              0.    -2.42117E+06
           18263     62.2612E+06     31.9704E+06              0.    -2.48125E+06
           18264     62.1722E+06     32.0592E+06              0.    -2.54352E+06
           18265     62.0810E+06     32.1482E+06              0.    -2.60798E+06
           18266     61.9874E+06     32.2374E+06              0.    -2.67463E+06
           18267     61.8914E+06     32.3269E+06              0.    -2.74348E+06
           18268     61.7929E+06     32.4168E+06              0.    -2.81453E+06
           18269     61.6918E+06     32.5070E+06              0.    -2.88779E+06
           18270     61.5880E+06     32.5978E+06              0.    -2.96327E+06
           18271     61.4815E+06     32.6891E+06              0.    -3.04098E+06
           18272     61.3722E+06     32.7810E+06              0.    -3.12093E+06
           18273     61.2601E+06     32.8736E+06              0.    -3.20314E+06
           18274     61.1449E+06     32.9670E+06              0.    -3.28762E+06
           18275     61.0267E+06     33.0612E+06              0.    -3.37439E+06
           18276     60.9054E+06     33.1563E+06              0.    -3.46347E+06
           18277     60.7809E+06     33.2524E+06              0.    -3.55487E+06
           18278     60.6530E+06     33.3495E+06              0.    -3.64862E+06
           18279     60.5218E+06     33.4476E+06              0.    -3.74474E+06
           18280     60.3872E+06     33.5469E+06              0.    -3.84326E+06
           18281     60.2490E+06     33.6473E+06              0.    -3.94419E+06
           18282     60.1071E+06     33.7490E+06              0.    -4.04757E+06
           18283     59.9616E+06     33.8520E+06              0.    -4.15343E+06
           18284     59.8122E+06     33.9563E+06              0.    -4.26178E+06
           18285     59.6590E+06     34.0621E+06              0.    -4.37266E+06
           18286     59.5018E+06     34.1693E+06              0.    -4.48611E+06
           18287     59.3405E+06     34.2780E+06              0.    -4.60215E+06
           18288     59.1750E+06     34.3883E+06              0.    -4.72081E+06
           18289     59.0053E+06     34.5002E+06              0.    -4.84213E+06
           18290     58.8313E+06     34.6137E+06              0.    -4.96615E+06
           18291     58.6528E+06     34.7290E+06              0.    -5.09290E+06
           18292     58.4698E+06     34.8460E+06              0.    -5.22241E+06
           18293     58.2821E+06     34.9648E+06              0.    -5.35472E+06
           18294     58.0897E+06     35.0855E+06              0.    -5.48987E+06
           18295     57.8925E+06     35.2081E+06              0.    -5.62790E+06
           18296     57.6903E+06     35.3326E+06              0.    -5.76885E+06
           18297     57.4831E+06     35.4591E+06              0.    -5.91276E+06
           18298     57.2708E+06     35.5876E+06              0.    -6.05967E+06
           18299     57.0532E+06     35.7181E+06              0.    -6.20962E+06
           18300     56.8303E+06     35.8508E+06              0.    -6.36264E+06
           18301     56.6019E+06     35.9856E+06              0.    -6.51879E+06
           18302     56.3679E+06     36.1226E+06              0.    -6.67811E+06
           18303     56.1282E+06     36.2619E+06              0.    -6.84064E+06
           18304     55.8828E+06     36.4033E+06              0.    -7.00641E+06
           18305     55.6314E+06     36.5471E+06              0.    -7.17548E+06
           18306     55.3740E+06     36.6932E+06              0.    -7.34790E+06
           18307     55.1105E+06     36.8416E+06              0.    -7.52369E+06
           18308     54.8407E+06     36.9925E+06              0.    -7.70291E+06
           18309     54.5646E+06     37.1457E+06              0.    -7.88560E+06
           18310     54.2819E+06     37.3014E+06              0.     -8.0718E+06
           18311     53.9926E+06     37.4595E+06              0.    -8.26156E+06
           18312     53.6965E+06     37.6202E+06              0.    -8.45492E+06
           18313     53.3936E+06     37.7833E+06              0.    -8.65192E+06
           18314     53.0837E+06     37.9490E+06              0.    -8.85262E+06
           18315     52.7666E+06     38.1173E+06              0.    -9.05703E+06
           18316     52.4423E+06     38.2881E+06              0.    -9.26523E+06
           18317     52.1105E+06     38.4615E+06              0.    -9.47723E+06
           18318     51.7713E+06     38.6375E+06              0.    -9.69308E+06
           18319     51.4243E+06     38.8161E+06              0.    -9.91282E+06
           18320     51.0696E+06     38.9974E+06              0.    -10.1365E+06
           18321     50.7069E+06     39.1813E+06              0.    -10.3641E+06
           18322     50.3361E+06     39.3678E+06              0.    -10.5958E+06
           18323     49.9572E+06     39.5569E+06              0.    -10.8315E+06
           18324     49.5698E+06     39.7487E+06              0.    -11.0712E+06
           18325     49.1740E+06     39.9430E+06              0.    -11.3151E+06
           18326     48.7695E+06     40.1400E+06              0.    -11.5631E+06
           18327     48.3562E+06     40.3396E+06              0.    -11.8152E+06
           18328     47.9339E+06     40.5418E+06              0.    -12.0716E+06
           18329     47.5026E+06     40.7465E+06              0.    -12.3321E+06
           18330     47.0620E+06     40.9538E+06              0.    -12.5969E+06
           18331     46.6120E+06     41.1636E+06              0.    -12.8660E+06
           18332     46.1525E+06     41.3758E+06              0.    -13.1393E+06
           18333     45.6834E+06     41.5905E+06              0.    -13.4169E+06
           18334     45.2043E+06     41.8077E+06              0.    -13.6988E+06
           18335     44.7153E+06     42.0271E+06              0.    -13.9851E+06
           18336     44.2161E+06     42.2489E+06              0.    -14.2756E+06
           18337     43.7066E+06     42.4729E+06              0.    -14.5705E+06
           18338     43.1867E+06     42.6991E+06              0.    -14.8697E+06
           18339     42.6562E+06     42.9274E+06              0.    -15.1731E+06
           18340     42.1149E+06     43.1577E+06              0.    -15.4809E+06
           18341     41.5626E+06     43.3900E+06              0.     -15.793E+06
           18342     40.9993E+06     43.6242E+06              0.    -16.1093E+06
           18343     40.4248E+06     43.8601E+06              0.    -16.4299E+06
           18344     39.8389E+06     44.0976E+06              0.    -16.7547E+06
           18345     39.2415E+06     44.3368E+06              0.    -17.0837E+06
           18346     38.6324E+06     44.5773E+06              0.    -17.4168E+06
           18347     38.0114E+06     44.8191E+06              0.    -17.7540E+06
           18348     37.3785E+06     45.0621E+06              0.    -18.0953E+06
           18349     36.7335E+06     45.3061E+06              0.    -18.4405E+06
           18350     36.0761E+06     45.5510E+06              0.    -18.7897E+06
           18351     35.4063E+06     45.7965E+06              0.    -19.1427E+06
           18352     34.7240E+06     46.0425E+06              0.    -19.4995E+06
           18353     34.0290E+06     46.2888E+06              0.    -19.8599E+06
           18354     33.3211E+06     46.5352E+06              0.    -20.2240E+06
           18355     32.6002E+06     46.7815E+06              0.    -20.5915E+06
           18356     31.8662E+06     47.0275E+06              0.    -20.9625E+06
           18357     31.1189E+06     47.2728E+06              0.    -21.3366E+06
           18358     30.3583E+06     47.5173E+06              0.    -21.7139E+06
           18359     29.5841E+06     47.7607E+06              0.    -22.0942E+06
           18360     28.7963E+06     48.0027E+06              0.    -22.4773E+06
           18361     27.9948E+06     48.2429E+06              0.    -22.8631E+06
           18362     27.1794E+06     48.4811E+06              0.    -23.2514E+06
           18363     26.3500E+06     48.7170E+06              0.    -23.6421E+06
           18364     25.5066E+06     48.9501E+06              0.    -24.0348E+06
           18365     24.6490E+06     49.1801E+06              0.    -24.4295E+06
           18366     23.7771E+06     49.4066E+06              0.    -24.8260E+06
           18367     22.8909E+06     49.6292E+06              0.    -25.2239E+06
           18368     21.9902E+06     49.8474E+06              0.     -25.623E+06
           18369     21.0751E+06     50.0609E+06              0.    -26.0231E+06
           18370     20.1454E+06     50.2690E+06              0.    -26.4240E+06
           18371     19.2011E+06     50.4714E+06              0.    -26.8253E+06
           18372     18.2421E+06     50.6674E+06              0.    -27.2268E+06
           18373     17.2684E+06     50.8566E+06              0.    -27.6281E+06
           18374     16.2799E+06     51.0384E+06              0.    -28.0289E+06
           18375     15.2767E+06     51.2121E+06              0.    -28.4289E+06
           18376     14.2587E+06     51.3771E+06              0.    -28.8277E+06
           18377     13.2259E+06     51.5328E+06              0.    -29.2250E+06
           18378     12.1783E+06     51.6785E+06              0.    -29.6203E+06
           18379     11.1160E+06     51.8134E+06              0.    -30.0133E+06
           18380      10.039E+06     51.9369E+06              0.    -30.4035E+06
           18381     8.94729E+06     52.0480E+06              0.    -30.7906E+06
           18382     7.84097E+06     52.1461E+06              0.    -31.1740E+06
           18383     6.72010E+06     52.2302E+06              0.    -31.5534E+06
           18384     5.58476E+06     52.2995E+06              0.    -31.9281E+06
           18385     4.43507E+06     52.3531E+06              0.    -32.2978E+06
           18386     3.27114E+06     52.3899E+06              0.    -32.6619E+06
           18387     2.09310E+06     52.4091E+06              0.    -33.0198E+06
           18388     901.103E+03     52.4095E+06              0.    -33.3711E+06
           18389    -304.689E+03     52.3901E+06              0.    -33.7151E+06
           18390    -1.52409E+06     52.3498E+06              0.    -34.0513E+06
           18391    -2.75689E+06     52.2875E+06              0.    -34.3790E+06
           18392    -4.00287E+06     52.2018E+06              0.    -34.6978E+06
           18393    -5.26178E+06     52.0917E+06              0.    -35.0068E+06
           18394    -6.53337E+06     51.9558E+06              0.    -35.3056E+06
           18395    -7.81734E+06     51.7928E+06              0.    -35.5933E+06
           18396    -9.11339E+06     51.6013E+06              0.    -35.8694E+06
           18397    -10.4212E+06     51.3800E+06              0.    -36.1332E+06
           18398    -11.7404E+06     51.1273E+06              0.    -36.3840E+06
           18399    -13.0706E+06     50.8418E+06              0.    -36.6210E+06
           18400    -14.4114E+06     50.5219E+06              0.    -36.8435E+06
           18401    -15.7624E+06     50.1660E+06              0.    -37.0508E+06
           18402    -17.1231E+06     49.7724E+06              0.    -37.2422E+06
           18403    -18.4931E+06     49.3396E+06              0.    -37.4168E+06
           18404    -19.8718E+06     48.8657E+06              0.     -37.574E+06
           18405    -21.2587E+06     48.3490E+06              0.    -37.7129E+06
           18406    -22.6533E+06     47.7877E+06              0.    -37.8329E+06
           18407    -24.0549E+06     47.1799E+06              0.    -37.9330E+06
           18408    -25.4629E+06     46.5236E+06              0.    -38.0125E+06
           18409    -26.8767E+06     45.8169E+06              0.    -38.0707E+06
           18410    -28.2956E+06     45.0579E+06              0.    -38.1067E+06
           18411    -29.7189E+06     44.2445E+06              0.    -38.1198E+06
           18412    -31.1458E+06     43.3745E+06              0.    -38.1091E+06
           18413    -32.5755E+06     42.4460E+06              0.    -38.0739E+06
           18414    -34.0073E+06     41.4567E+06              0.    -38.0134E+06
           18415    -35.4404E+06     40.4044E+06              0.    -37.9269E+06
           18416    -36.8737E+06     39.2870E+06              0.    -37.8135E+06
           18417    -38.3065E+06     38.1021E+06              0.    -37.6726E+06
           18418    -39.7378E+06     36.8475E+06              0.    -37.5033E+06
           18419    -41.1666E+06     35.5208E+06              0.    -37.3050E+06
           18420    -42.5919E+06     34.1198E+06              0.    -37.0769E+06
           18421    -44.0127E+06     32.6421E+06              0.    -36.8183E+06
           18422    -45.4279E+06     31.0853E+06              0.    -36.5285E+06
           18423    -46.8365E+06     29.4470E+06              0.    -36.2070E+06
           18424    -48.2373E+06     27.7248E+06              0.    -35.8530E+06
           18425    -49.6291E+06     25.9163E+06              0.    -35.4658E+06
           18426    -51.0108E+06     24.0191E+06              0.    -35.0450E+06
           18427    -52.3811E+06     22.0307E+06              0.    -34.5900E+06
           18428    -53.7387E+06     19.9488E+06              0.    -34.1001E+06
           18429    -55.0824E+06     17.7710E+06              0.    -33.5748E+06
           18430    -56.4110E+06     15.4948E+06              0.    -33.0137E+06
           18431    -57.7229E+06     13.1179E+06              0.    -32.4163E+06
           18432    -59.0169E+06     10.6379E+06              0.    -31.7821E+06
           18433    -60.2915E+06     8.05239E+06              0.    -31.1107E+06
           18434    -61.5454E+06     5.35917E+06              0.    -30.4018E+06
           18435    -62.7770E+06     2.55588E+06              0.    -29.6549E+06
           18436    -63.9849E+06    -359.682E+03              0.    -28.8697E+06
           18437    -65.1677E+06    -3.38979E+06              0.    -28.0460E+06
           18438    -66.3236E+06    -6.53660E+06              0.    -27.1835E+06
           18439    -67.4512E+06    -9.80218E+06              0.    -26.2818E+06
           18440    -68.5489E+06    -13.1887E+06              0.    -25.3409E+06
           18441    -69.6150E+06    -16.6981E+06              0.    -24.3605E+06
           18442    -70.6480E+06    -20.3324E+06              0.    -23.3404E+06
           18443    -71.6462E+06    -24.0936E+06              0.    -22.2805E+06
           18444    -72.6083E+06    -27.9836E+06              0.    -21.1808E+06
           18445    -74.2131E+06    -32.4330E+06              0.    -20.6658E+06
           18446     64.3705E+06     28.2665E+06              0.    -1.70987E+06
           18447     64.3873E+06     28.4518E+06              0.    -1.70669E+06
           18448     64.3247E+06     28.5985E+06              0.    -1.68374E+06
           18449     64.2628E+06     28.7412E+06              0.    -1.66418E+06
           18450     64.2016E+06     28.8800E+06              0.    -1.64793E+06
           18451     64.1409E+06     29.0152E+06              0.    -1.63489E+06
           18452     64.0806E+06     29.1470E+06              0.    -1.62499E+06
           18453     64.0206E+06     29.2755E+06              0.    -1.61814E+06
           18454     63.9607E+06     29.4010E+06              0.    -1.61427E+06
           18455     63.9009E+06     29.5235E+06              0.    -1.61331E+06
           18456     63.8410E+06     29.6432E+06              0.    -1.61519E+06
           18457     63.7809E+06     29.7603E+06              0.    -1.61985E+06
           18458     63.7206E+06     29.8749E+06              0.    -1.62723E+06
           18459     63.6599E+06     29.9872E+06              0.    -1.63726E+06
           18460     63.5988E+06     30.0974E+06              0.    -1.64990E+06
           18461     63.5371E+06     30.2055E+06              0.    -1.66510E+06
           18462     63.4747E+06     30.3117E+06              0.    -1.68281E+06
           18463     63.4116E+06     30.4161E+06              0.    -1.70298E+06
           18464     63.3477E+06     30.5188E+06              0.    -1.72558E+06
           18465     63.2828E+06     30.6200E+06              0.    -1.75057E+06
           18466     63.2170E+06     30.7198E+06              0.    -1.77790E+06
           18467     63.1500E+06     30.8183E+06              0.    -1.80756E+06
           18468     63.0818E+06     30.9156E+06              0.    -1.83950E+06
           18469     63.0124E+06     31.0119E+06              0.    -1.87371E+06
           18470     62.9416E+06     31.1072E+06              0.    -1.91016E+06
           18471     62.8693E+06     31.2016E+06              0.    -1.94882E+06
           18472     62.7955E+06     31.2952E+06              0.    -1.98967E+06
           18473     62.7202E+06     31.3882E+06              0.    -2.03270E+06
           18474     62.6431E+06     31.4807E+06              0.    -2.07789E+06
           18475     62.5643E+06     31.5726E+06              0.    -2.12523E+06
           18476     62.4836E+06     31.6642E+06              0.    -2.17471E+06
           18477     62.4010E+06     31.7555E+06              0.    -2.22632E+06
           18478     62.3164E+06     31.8465E+06              0.    -2.28005E+06
           18479     62.2297E+06     31.9375E+06              0.    -2.33589E+06
           18480     62.1408E+06     32.0284E+06              0.    -2.39385E+06
           18481     62.0497E+06     32.1194E+06              0.    -2.45392E+06
           18482     61.9563E+06     32.2105E+06              0.    -2.51610E+06
           18483     61.8605E+06     32.3018E+06              0.    -2.58039E+06
           18484     61.7622E+06     32.3934E+06              0.    -2.64680E+06
           18485     61.6614E+06     32.4853E+06              0.    -2.71534E+06
           18486     61.5579E+06     32.5777E+06              0.    -2.78601E+06
           18487     61.4517E+06     32.6706E+06              0.    -2.85882E+06
           18488     61.3427E+06     32.7640E+06              0.    -2.93378E+06
           18489     61.2308E+06     32.8581E+06              0.    -3.01090E+06
           18490     61.1160E+06     32.9529E+06              0.    -3.09019E+06
           18491     60.9981E+06     33.0485E+06              0.    -3.17168E+06
           18492     60.8771E+06     33.1449E+06              0.    -3.25538E+06
           18493     60.7530E+06     33.2423E+06              0.    -3.34130E+06
           18494     60.6255E+06     33.3406E+06              0.    -3.42946E+06
           18495     60.4947E+06     33.4399E+06              0.    -3.51988E+06
           18496     60.3604E+06     33.5403E+06              0.    -3.61260E+06
           18497     60.2225E+06     33.6419E+06              0.    -3.70762E+06
           18498     60.0811E+06     33.7446E+06              0.    -3.80497E+06
           18499     59.9359E+06     33.8487E+06              0.    -3.90468E+06
           18500     59.7870E+06     33.9541E+06              0.    -4.00677E+06
           18501     59.6341E+06     34.0608E+06              0.    -4.11127E+06
           18502     59.4773E+06     34.1690E+06              0.    -4.21822E+06
           18503     59.3164E+06     34.2787E+06              0.    -4.32763E+06
           18504     59.1513E+06     34.3899E+06              0.    -4.43954E+06
           18505     58.9820E+06     34.5027E+06              0.    -4.55398E+06
           18506     58.8084E+06     34.6171E+06              0.    -4.67098E+06
           18507     58.6302E+06     34.7333E+06              0.    -4.79058E+06
           18508     58.4476E+06     34.8511E+06              0.    -4.91281E+06
           18509     58.2603E+06     34.9708E+06              0.    -5.03770E+06
           18510     58.0683E+06     35.0923E+06              0.    -5.16530E+06
           18511     57.8714E+06     35.2157E+06              0.    -5.29563E+06
           18512     57.6696E+06     35.3411E+06              0.    -5.42873E+06
           18513     57.4628E+06     35.4684E+06              0.    -5.56465E+06
           18514     57.2508E+06     35.5977E+06              0.    -5.70341E+06
           18515     57.0335E+06     35.7291E+06              0.    -5.84507E+06
           18516     56.8109E+06     35.8626E+06              0.    -5.98965E+06
           18517     56.5828E+06     35.9982E+06              0.    -6.13720E+06
           18518     56.3491E+06     36.1361E+06              0.    -6.28775E+06
           18519     56.1098E+06     36.2761E+06              0.    -6.44136E+06
           18520     55.8646E+06     36.4184E+06              0.    -6.59806E+06
           18521     55.6135E+06     36.5630E+06              0.    -6.75788E+06
           18522     55.3564E+06     36.7099E+06              0.    -6.92088E+06
           18523     55.0931E+06     36.8592E+06              0.    -7.08710E+06
           18524     54.8235E+06     37.0109E+06              0.    -7.25657E+06
           18525     54.5476E+06     37.1651E+06              0.    -7.42933E+06
           18526     54.2651E+06     37.3216E+06              0.    -7.60544E+06
           18527     53.9760E+06     37.4807E+06              0.    -7.78493E+06
           18528     53.6801E+06     37.6422E+06              0.    -7.96785E+06
           18529     53.3773E+06     37.8064E+06              0.    -8.15423E+06
           18530     53.0675E+06     37.9730E+06              0.    -8.34411E+06
           18531     52.7506E+06     38.1422E+06              0.    -8.53754E+06
           18532     52.4263E+06     38.3141E+06              0.    -8.73456E+06
           18533     52.0947E+06     38.4885E+06              0.    -8.93520E+06
           18534     51.7555E+06     38.6656E+06              0.    -9.13952E+06
           18535     51.4086E+06     38.8453E+06              0.    -9.34753E+06
           18536     51.0539E+06     39.0276E+06              0.    -9.55929E+06
           18537     50.6912E+06     39.2127E+06              0.    -9.77482E+06
           18538     50.3204E+06     39.4003E+06              0.    -9.99417E+06
           18539     49.9414E+06     39.5907E+06              0.    -10.2174E+06
           18540     49.5540E+06     39.7837E+06              0.    -10.4444E+06
           18541     49.1581E+06     39.9793E+06              0.    -10.6754E+06
           18542     48.7535E+06     40.1777E+06              0.    -10.9104E+06
           18543     48.3401E+06     40.3786E+06              0.    -11.1493E+06
           18544     47.9177E+06     40.5822E+06              0.    -11.3922E+06
           18545     47.4862E+06     40.7884E+06              0.    -11.6391E+06
           18546     47.0455E+06     40.9971E+06              0.    -11.8901E+06
           18547     46.5953E+06     41.2085E+06              0.    -12.1451E+06
           18548     46.1356E+06     41.4223E+06              0.    -12.4043E+06
           18549     45.6661E+06     41.6387E+06              0.    -12.6675E+06
           18550     45.1868E+06     41.8575E+06              0.    -12.9348E+06
           18551     44.6975E+06     42.0788E+06              0.    -13.2063E+06
           18552     44.1980E+06     42.3024E+06              0.    -13.4819E+06
           18553     43.6881E+06     42.5283E+06              0.    -13.7617E+06
           18554     43.1678E+06     42.7564E+06              0.    -14.0456E+06
           18555     42.6369E+06     42.9867E+06              0.    -14.3336E+06
           18556     42.0952E+06     43.2191E+06              0.    -14.6257E+06
           18557     41.5425E+06     43.4536E+06              0.    -14.9220E+06
           18558     40.9787E+06       43.69E+06              0.    -15.2224E+06
           18559     40.4037E+06     43.9282E+06              0.    -15.5268E+06
           18560     39.8173E+06     44.1682E+06              0.    -15.8353E+06
           18561     39.2193E+06     44.4098E+06              0.    -16.1479E+06
           18562     38.6096E+06     44.6529E+06              0.    -16.4644E+06
           18563     37.9881E+06     44.8975E+06              0.    -16.7849E+06
           18564     37.3545E+06     45.1432E+06              0.    -17.1093E+06
           18565     36.7088E+06     45.3901E+06              0.    -17.4376E+06
           18566     36.0508E+06     45.6379E+06              0.    -17.7697E+06
           18567     35.3804E+06     45.8865E+06              0.    -18.1055E+06
           18568     34.6973E+06     46.1357E+06              0.    -18.4450E+06
           18569     34.0015E+06     46.3854E+06              0.    -18.7880E+06
           18570     33.2929E+06     46.6352E+06              0.    -19.1346E+06
           18571     32.5712E+06     46.8851E+06              0.    -19.4846E+06
           18572     31.8364E+06     47.1347E+06              0.    -19.8379E+06
           18573     31.0883E+06     47.3839E+06              0.    -20.1944E+06
           18574     30.3268E+06     47.6324E+06              0.    -20.5540E+06
           18575     29.5518E+06     47.8799E+06              0.    -20.9166E+06
           18576     28.7632E+06     48.1262E+06              0.    -21.2820E+06
           18577     27.9607E+06     48.3709E+06              0.    -21.6500E+06
           18578     27.1444E+06     48.6138E+06              0.    -22.0206E+06
           18579     26.3142E+06     48.8544E+06              0.    -22.3936E+06
           18580     25.4698E+06     49.0926E+06              0.    -22.7687E+06
           18581     24.6112E+06     49.3278E+06              0.    -23.1458E+06
           18582     23.7384E+06     49.5597E+06              0.    -23.5248E+06
           18583     22.8512E+06     49.7879E+06              0.    -23.9053E+06
           18584     21.9496E+06     50.0120E+06              0.    -24.2872E+06
           18585     21.0335E+06     50.2316E+06              0.    -24.6702E+06
           18586     20.1028E+06     50.4461E+06              0.    -25.0541E+06
           18587     19.1575E+06     50.6551E+06              0.    -25.4386E+06
           18588     18.1975E+06      50.858E+06              0.    -25.8235E+06
           18589     17.2228E+06     51.0544E+06              0.    -26.2085E+06
           18590     16.2333E+06     51.2436E+06              0.    -26.5932E+06
           18591     15.2291E+06     51.4250E+06              0.    -26.9774E+06
           18592     14.2101E+06     51.5982E+06              0.    -27.3607E+06
           18593     13.1763E+06     51.7623E+06              0.    -27.7429E+06
           18594     12.1278E+06     51.9168E+06              0.    -28.1234E+06
           18595     11.0645E+06     52.0609E+06              0.    -28.5020E+06
           18596     9.98647E+06     52.1939E+06              0.    -28.8783E+06
           18597     8.89378E+06     52.3150E+06              0.    -29.2519E+06
           18598     7.78648E+06     52.4235E+06              0.    -29.6223E+06
           18599     6.66465E+06     52.5185E+06              0.    -29.9892E+06
           18600     5.52836E+06     52.5991E+06              0.    -30.3520E+06
           18601     4.37772E+06     52.6645E+06              0.    -30.7103E+06
           18602     3.21284E+06     52.7137E+06              0.    -31.0637E+06
           18603     2.03387E+06     52.7457E+06              0.    -31.4116E+06
           18604     840.943E+03     52.7596E+06              0.    -31.7535E+06
           18605    -365.769E+03     52.7543E+06              0.    -32.0889E+06
           18606    -1.58609E+06     52.7287E+06              0.    -32.4173E+06
           18607    -2.81980E+06     52.6816E+06              0.    -32.7381E+06
           18608    -4.06669E+06     52.6120E+06              0.    -33.0506E+06
           18609    -5.32652E+06     52.5187E+06              0.    -33.3545E+06
           18610    -6.59902E+06     52.4003E+06              0.    -33.6489E+06
           18611    -7.88392E+06     52.2555E+06              0.    -33.9334E+06
           18612    -9.18091E+06     52.0831E+06              0.    -34.2072E+06
           18613    -10.4897E+06     51.8817E+06              0.    -34.4698E+06
           18614    -11.8098E+06     51.6499E+06              0.    -34.7205E+06
           18615    -13.1410E+06     51.3861E+06              0.    -34.9586E+06
           18616    -14.4829E+06     51.0889E+06              0.    -35.1834E+06
           18617    -15.8349E+06     50.7567E+06              0.    -35.3942E+06
           18618    -17.1968E+06     50.3880E+06              0.    -35.5904E+06
           18619    -18.5679E+06     49.9810E+06              0.    -35.7712E+06
           18620    -19.9479E+06     49.5341E+06              0.    -35.9360E+06
           18621    -21.3361E+06     49.0456E+06              0.    -36.0839E+06
           18622    -22.7321E+06     48.5137E+06              0.    -36.2142E+06
           18623    -24.1352E+06     47.9365E+06              0.    -36.3263E+06
           18624    -25.5448E+06     47.3122E+06              0.    -36.4193E+06
           18625    -26.9603E+06     46.6390E+06              0.    -36.4926E+06
           18626    -28.3811E+06     45.9147E+06              0.    -36.5453E+06
           18627    -29.8064E+06     45.1375E+06              0.    -36.5767E+06
           18628    -31.2355E+06     44.3053E+06              0.    -36.5861E+06
           18629    -32.6676E+06     43.4160E+06              0.    -36.5727E+06
           18630    -34.1020E+06     42.4676E+06              0.    -36.5359E+06
           18631    -35.5378E+06     41.4579E+06              0.    -36.4747E+06
           18632    -36.9742E+06     40.3847E+06              0.    -36.3886E+06
           18633    -38.4103E+06     39.2458E+06              0.    -36.2767E+06
           18634    -39.8451E+06     38.0390E+06              0.    -36.1385E+06
           18635    -41.2778E+06     36.7619E+06              0.    -35.9731E+06
           18636    -42.7074E+06     35.4124E+06              0.    -35.7798E+06
           18637    -44.1328E+06     33.9881E+06              0.    -35.5581E+06
           18638    -45.5531E+06     32.4866E+06              0.    -35.3072E+06
           18639    -46.9671E+06     30.9057E+06              0.    -35.0265E+06
           18640    -48.3737E+06     29.2429E+06              0.    -34.7153E+06
           18641    -49.7718E+06     27.4958E+06              0.    -34.3731E+06
           18642    -51.1603E+06     25.6622E+06              0.    -33.9992E+06
           18643    -52.5379E+06     23.7395E+06              0.    -33.5931E+06
           18644    -53.9034E+06     21.7255E+06              0.    -33.1542E+06
           18645    -55.2556E+06     19.6176E+06              0.    -32.6820E+06
           18646    -56.5932E+06     17.4136E+06              0.    -32.1761E+06
           18647    -57.9149E+06     15.1111E+06              0.    -31.6358E+06
           18648    -59.2193E+06     12.7077E+06              0.    -31.0609E+06
           18649    -60.5050E+06     10.2010E+06              0.    -30.4507E+06
           18650    -61.7708E+06     7.58876E+06              0.    -29.8051E+06
           18651    -63.0150E+06     4.86873E+06              0.    -29.1235E+06
           18652    -64.2364E+06     2.03857E+06              0.    -28.4057E+06
           18653    -65.4334E+06    -903.876E+03              0.    -27.6513E+06
           18654    -66.6045E+06    -3.96087E+06              0.    -26.8600E+06
           18655    -67.7481E+06    -7.13454E+06              0.    -26.0316E+06
           18656    -68.8628E+06    -10.4269E+06              0.    -25.1659E+06
           18657    -69.9469E+06    -13.8402E+06              0.    -24.2625E+06
           18658    -70.9988E+06    -17.3763E+06              0.    -23.3214E+06
           18659    -72.0170E+06    -21.0372E+06              0.    -22.3424E+06
           18660    -72.9995E+06    -24.8247E+06              0.    -21.3253E+06
           18661    -73.9445E+06    -28.7405E+06              0.    -20.2700E+06
           18662    -75.5487E+06    -33.2155E+06              0.    -19.7748E+06
           18663     64.3045E+06     28.2380E+06              0.    -1.64615E+06
           18664     64.3217E+06     28.4275E+06              0.    -1.64309E+06
           18665     64.2577E+06     28.5774E+06              0.    -1.62099E+06
           18666     64.1944E+06     28.7233E+06              0.    -1.60215E+06
           18667     64.1318E+06     28.8653E+06              0.    -1.58650E+06
           18668     64.0697E+06     29.0036E+06              0.    -1.57395E+06
           18669     64.0081E+06     29.1383E+06              0.    -1.56442E+06
           18670     63.9467E+06     29.2697E+06              0.    -1.55782E+06
           18671     63.8854E+06     29.3980E+06              0.    -1.55409E+06
           18672     63.8243E+06     29.5232E+06              0.    -1.55317E+06
           18673     63.7630E+06     29.6457E+06              0.    -1.55497E+06
           18674     63.7016E+06     29.7654E+06              0.    -1.55946E+06
           18675     63.6400E+06     29.8826E+06              0.    -1.56655E+06
           18676     63.5779E+06     29.9975E+06              0.    -1.57621E+06
           18677     63.5154E+06     30.1101E+06              0.    -1.58838E+06
           18678     63.4523E+06     30.2206E+06              0.    -1.60300E+06
           18679     63.3886E+06     30.3292E+06              0.    -1.62005E+06
           18680     63.3240E+06     30.4359E+06              0.    -1.63947E+06
           18681     63.2587E+06     30.5410E+06              0.    -1.66122E+06
           18682     63.1924E+06     30.6444E+06              0.    -1.68527E+06
           18683      63.125E+06     30.7465E+06              0.    -1.71158E+06
           18684     63.0565E+06     30.8472E+06              0.    -1.74013E+06
           18685     62.9868E+06     30.9467E+06              0.    -1.77088E+06
           18686     62.9158E+06     31.0451E+06              0.    -1.80380E+06
           18687     62.8434E+06     31.1425E+06              0.    -1.83888E+06
           18688     62.7695E+06     31.2391E+06              0.    -1.87609E+06
           18689     62.6941E+06     31.3348E+06              0.    -1.91542E+06
           18690     62.6171E+06     31.4299E+06              0.    -1.95684E+06
           18691     62.5383E+06     31.5244E+06              0.    -2.00034E+06
           18692     62.4577E+06     31.6184E+06              0.    -2.04591E+06
           18693     62.3752E+06     31.7120E+06              0.    -2.09353E+06
           18694     62.2908E+06     31.8053E+06              0.    -2.14321E+06
           18695     62.2043E+06     31.8984E+06              0.    -2.19492E+06
           18696     62.1156E+06     31.9914E+06              0.    -2.24868E+06
           18697     62.0248E+06     32.0844E+06              0.    -2.30446E+06
           18698     61.9317E+06     32.1774E+06              0.    -2.36228E+06
           18699     61.8362E+06     32.2705E+06              0.    -2.42213E+06
           18700     61.7382E+06     32.3638E+06              0.    -2.48401E+06
           18701     61.6378E+06     32.4575E+06              0.    -2.54794E+06
           18702     61.5347E+06     32.5514E+06              0.    -2.61391E+06
           18703     61.4289E+06     32.6459E+06              0.    -2.68192E+06
           18704     61.3203E+06     32.7408E+06              0.    -2.75200E+06
           18705     61.2089E+06     32.8363E+06              0.    -2.82415E+06
           18706     61.0946E+06     32.9325E+06              0.    -2.89837E+06
           18707     60.9772E+06     33.0294E+06              0.    -2.97470E+06
           18708     60.8567E+06     33.1270E+06              0.    -3.05312E+06
           18709     60.7330E+06     33.2256E+06              0.    -3.13368E+06
           18710     60.6061E+06     33.3251E+06              0.    -3.21637E+06
           18711     60.4758E+06     33.4255E+06              0.    -3.30122E+06
           18712     60.3421E+06     33.5270E+06              0.    -3.38825E+06
           18713     60.2048E+06     33.6296E+06              0.    -3.47748E+06
           18714     60.0639E+06     33.7334E+06              0.    -3.56893E+06
           18715     59.9194E+06     33.8384E+06              0.    -3.66262E+06
           18716     59.7710E+06     33.9447E+06              0.    -3.75858E+06
           18717     59.6187E+06     34.0524E+06              0.    -3.85683E+06
           18718     59.4625E+06     34.1614E+06              0.    -3.95740E+06
           18719     59.3022E+06     34.2720E+06              0.    -4.06031E+06
           18720     59.1378E+06     34.3840E+06              0.    -4.16560E+06
           18721     58.9691E+06     34.4976E+06              0.    -4.27330E+06
           18722     58.7961E+06     34.6129E+06              0.    -4.38343E+06
           18723     58.6186E+06     34.7298E+06              0.    -4.49602E+06
           18724     58.4366E+06     34.8484E+06              0.    -4.61110E+06
           18725     58.2499E+06     34.9688E+06              0.    -4.72872E+06
           18726     58.0585E+06     35.0911E+06              0.    -4.84890E+06
           18727     57.8623E+06     35.2152E+06              0.    -4.97168E+06
           18728     57.6611E+06     35.3412E+06              0.    -5.09708E+06
           18729     57.4549E+06     35.4692E+06              0.    -5.22516E+06
           18730     57.2435E+06     35.5992E+06              0.    -5.35593E+06
           18731     57.0269E+06     35.7313E+06              0.    -5.48944E+06
           18732     56.8049E+06     35.8654E+06              0.    -5.62573E+06
           18733     56.5775E+06     36.0018E+06              0.    -5.76484E+06
           18734     56.3444E+06     36.1402E+06              0.    -5.90680E+06
           18735     56.1057E+06     36.2810E+06              0.    -6.05165E+06
           18736     55.8611E+06     36.4239E+06              0.    -6.19942E+06
           18737     55.6106E+06     36.5692E+06              0.    -6.35017E+06
           18738     55.3541E+06     36.7168E+06              0.    -6.50393E+06
           18739     55.0914E+06     36.8668E+06              0.    -6.66073E+06
           18740     54.8225E+06     37.0192E+06              0.    -6.82063E+06
           18741     54.5471E+06     37.1740E+06              0.    -6.98365E+06
           18742     54.2652E+06     37.3313E+06              0.    -7.14984E+06
           18743     53.9767E+06     37.4911E+06              0.    -7.31924E+06
           18744     53.6814E+06     37.6534E+06              0.    -7.49188E+06
           18745     53.3791E+06     37.8182E+06              0.    -7.66782E+06
           18746     53.0699E+06     37.9856E+06              0.    -7.84708E+06
           18747     52.7535E+06     38.1556E+06              0.    -8.02970E+06
           18748     52.4298E+06     38.3283E+06              0.    -8.21574E+06
           18749     52.0987E+06     38.5036E+06              0.    -8.40521E+06
           18750     51.7600E+06     38.6815E+06              0.    -8.59817E+06
           18751     51.4136E+06     38.8621E+06              0.    -8.79465E+06
           18752     51.0594E+06     39.0453E+06              0.    -8.99468E+06
           18753     50.6972E+06     39.2313E+06              0.    -9.19830E+06
           18754     50.3269E+06     39.4199E+06              0.    -9.40554E+06
           18755     49.9484E+06     39.6112E+06              0.    -9.61645E+06
           18756     49.5614E+06     39.8053E+06              0.    -9.83104E+06
           18757     49.1659E+06     40.0020E+06              0.    -10.0494E+06
           18758     48.7618E+06     40.2014E+06              0.    -10.2714E+06
           18759     48.3488E+06     40.4035E+06              0.    -10.4973E+06
           18760     47.9268E+06     40.6082E+06              0.    -10.7269E+06
           18761     47.4957E+06     40.8156E+06              0.    -10.9604E+06
           18762     47.0553E+06     41.0257E+06              0.    -11.1978E+06
           18763     46.6055E+06     41.2383E+06              0.    -11.4390E+06
           18764     46.1461E+06     41.4536E+06              0.    -11.6841E+06
           18765     45.6770E+06     41.6713E+06              0.    -11.9332E+06
           18766     45.1980E+06     41.8916E+06              0.    -12.1862E+06
           18767     44.7089E+06     42.1144E+06              0.    -12.4431E+06
           18768     44.2097E+06     42.3396E+06              0.    -12.7039E+06
           18769     43.7002E+06     42.5671E+06              0.    -12.9687E+06
           18770     43.1801E+06     42.7970E+06              0.    -13.2375E+06
           18771     42.6494E+06     43.0291E+06              0.    -13.5103E+06
           18772     42.1079E+06     43.2634E+06              0.    -13.7869E+06
           18773     41.5554E+06     43.4998E+06              0.    -14.0676E+06
           18774     40.9918E+06     43.7381E+06              0.    -14.3522E+06
           18775     40.4170E+06     43.9785E+06              0.    -14.6407E+06
           18776     39.8307E+06     44.2206E+06              0.    -14.9331E+06
           18777     39.2329E+06     44.4645E+06              0.    -15.2293E+06
           18778     38.6233E+06     44.7100E+06              0.    -15.5295E+06
           18779     38.0019E+06     44.9569E+06              0.    -15.8334E+06
           18780     37.3684E+06     45.2052E+06              0.    -16.1411E+06
           18781     36.7228E+06     45.4547E+06              0.    -16.4525E+06
           18782     36.0648E+06     45.7053E+06              0.    -16.7677E+06
           18783     35.3944E+06     45.9568E+06              0.    -17.0864E+06
           18784     34.7114E+06     46.2090E+06              0.    -17.4087E+06
           18785     34.0156E+06     46.4617E+06              0.    -17.7345E+06
           18786     33.3070E+06     46.7148E+06              0.    -18.0637E+06
           18787     32.5853E+06     46.9680E+06              0.    -18.3963E+06
           18788     31.8504E+06     47.2212E+06              0.    -18.7321E+06
           18789     31.1023E+06     47.4740E+06              0.    -19.0710E+06
           18790     30.3407E+06     47.7263E+06              0.    -19.4130E+06
           18791     29.5656E+06     47.9778E+06              0.    -19.7578E+06
           18792     28.7768E+06     48.2281E+06              0.    -20.1055E+06
           18793     27.9743E+06     48.4771E+06              0.    -20.4559E+06
           18794     27.1579E+06     48.7245E+06              0.    -20.8088E+06
           18795     26.3275E+06     48.9698E+06              0.    -21.1640E+06
           18796     25.4829E+06     49.2128E+06              0.    -21.5215E+06
           18797     24.6242E+06     49.4530E+06              0.    -21.8810E+06
           18798     23.7512E+06     49.6902E+06              0.    -22.2424E+06
           18799     22.8638E+06     49.9240E+06              0.    -22.6055E+06
           18800     21.9620E+06     50.1538E+06              0.    -22.9700E+06
           18801     21.0457E+06     50.3793E+06              0.    -23.3358E+06
           18802     20.1148E+06     50.6000E+06              0.    -23.7026E+06
           18803     19.1693E+06     50.8155E+06              0.    -24.0702E+06
           18804     18.2090E+06     51.0252E+06              0.    -24.4383E+06
           18805     17.2341E+06     51.2286E+06              0.    -24.8068E+06
           18806     16.2444E+06     51.4252E+06              0.    -25.1752E+06
           18807     15.2399E+06     51.6144E+06              0.    -25.5433E+06
           18808     14.2207E+06     51.7955E+06              0.    -25.9109E+06
           18809     13.1866E+06     51.9681E+06              0.    -26.2775E+06
           18810     12.1378E+06     52.1313E+06              0.    -26.6429E+06
           18811     11.0742E+06     52.2845E+06              0.    -27.0068E+06
           18812     9.99591E+06     52.4270E+06              0.    -27.3687E+06
           18813     8.90293E+06     52.5581E+06              0.    -27.7283E+06
           18814     7.79534E+06     52.6770E+06              0.    -28.0852E+06
           18815     6.67320E+06     52.7828E+06              0.    -28.4391E+06
           18816     5.53661E+06     52.8748E+06              0.    -28.7894E+06
           18817     4.38566E+06     52.9520E+06              0.    -29.1358E+06
           18818     3.22047E+06     53.0135E+06              0.    -29.4778E+06
           18819     2.04116E+06     53.0585E+06              0.    -29.8150E+06
           18820     847.891E+03     53.0859E+06              0.    -30.1468E+06
           18821    -359.174E+03     53.0946E+06              0.    -30.4728E+06
           18822    -1.57986E+06     53.0837E+06              0.    -30.7925E+06
           18823    -2.81395E+06     53.0521E+06              0.    -31.1054E+06
           18824    -4.06125E+06     52.9985E+06              0.    -31.4109E+06
           18825    -5.32151E+06     52.9219E+06              0.    -31.7085E+06
           18826    -6.59446E+06     52.8211E+06              0.    -31.9976E+06
           18827    -7.87984E+06     52.6946E+06              0.    -32.2777E+06
           18828    -9.17734E+06     52.5414E+06              0.    -32.5481E+06
           18829    -10.4866E+06     52.3600E+06              0.    -32.8083E+06
           18830    -11.8074E+06     52.1489E+06              0.    -33.0576E+06
           18831    -13.1393E+06     51.9070E+06              0.    -33.2954E+06
           18832    -14.4818E+06     51.6325E+06              0.    -33.5211E+06
           18833    -15.8347E+06     51.3241E+06              0.    -33.7340E+06
           18834    -17.1973E+06     50.9801E+06              0.    -33.9335E+06
           18835    -18.5694E+06     50.5990E+06              0.    -34.1189E+06
           18836    -19.9504E+06     50.1792E+06              0.    -34.2895E+06
           18837    -21.3397E+06     49.7188E+06              0.    -34.4447E+06
           18838    -22.7369E+06     49.2163E+06              0.    -34.5836E+06
           18839    -24.1414E+06     48.6697E+06              0.    -34.7058E+06
           18840    -25.5525E+06     48.0774E+06              0.    -34.8103E+06
           18841    -26.9696E+06     47.4373E+06              0.    -34.8966E+06
           18842    -28.3922E+06     46.7477E+06              0.    -34.9640E+06
           18843    -29.8194E+06     46.0066E+06              0.    -35.0116E+06
           18844    -31.2507E+06     45.2120E+06              0.    -35.0389E+06
           18845    -32.6852E+06     44.3618E+06              0.    -35.0451E+06
           18846    -34.1222E+06     43.4541E+06              0.    -35.0294E+06
           18847    -35.5608E+06     42.4867E+06              0.    -34.9912E+06
           18848    -37.0003E+06     41.4574E+06              0.    -34.9298E+06
           18849    -38.4398E+06     40.3642E+06              0.    -34.8446E+06
           18850    -39.8784E+06     39.2048E+06              0.    -34.7347E+06
           18851    -41.3152E+06     37.9770E+06              0.    -34.5995E+06
           18852    -42.7491E+06     36.6786E+06              0.    -34.4384E+06
           18853    -44.1793E+06     35.3072E+06              0.    -34.2507E+06
           18854    -45.6047E+06     33.8606E+06              0.    -34.0358E+06
           18855    -47.0243E+06     32.3365E+06              0.    -33.7929E+06
           18856    -48.4369E+06     30.7326E+06              0.    -33.5216E+06
           18857    -49.8416E+06     29.0464E+06              0.    -33.2213E+06
           18858    -51.2370E+06     27.2756E+06              0.    -32.8912E+06
           18859    -52.6222E+06     25.4180E+06              0.    -32.5310E+06
           18860    -53.9958E+06     23.4710E+06              0.    -32.1399E+06
           18861    -55.3568E+06     21.4324E+06              0.    -31.7176E+06
           18862    -56.7037E+06     19.2998E+06              0.    -31.2635E+06
           18863    -58.0353E+06     17.0709E+06              0.    -30.7772E+06
           18864    -59.3504E+06     14.7432E+06              0.    -30.2581E+06
           18865    -60.6475E+06     12.3145E+06              0.    -29.7060E+06
           18866    -61.9253E+06      9.7824E+06              0.    -29.1202E+06
           18867    -63.1825E+06     7.14468E+06              0.    -28.5006E+06
           18868    -64.4175E+06     4.39907E+06              0.    -27.8467E+06
           18869    -65.6290E+06     1.54329E+06              0.    -27.1582E+06
           18870    -66.8154E+06    -1.42481E+06              0.    -26.4348E+06
           18871    -67.9754E+06    -4.50746E+06              0.    -25.6762E+06
           18872    -69.1073E+06    -7.70676E+06              0.    -24.8822E+06
           18873    -70.2095E+06    -11.0248E+06              0.    -24.0525E+06
           18874    -71.2806E+06    -14.4636E+06              0.    -23.1870E+06
           18875    -72.3190E+06    -18.0251E+06              0.    -22.2854E+06
           18876    -73.3229E+06    -21.7114E+06              0.    -21.3476E+06
           18877    -74.2908E+06    -25.5242E+06              0.    -20.3735E+06
           18878    -75.2214E+06    -29.4656E+06              0.    -19.3629E+06
           18879    -76.8267E+06    -33.9659E+06              0.    -18.8876E+06
           18880     64.2411E+06     28.2105E+06              0.    -1.58104E+06
           18881     64.2586E+06     28.4040E+06              0.    -1.57810E+06
           18882     64.1932E+06     28.5572E+06              0.    -1.55687E+06
           18883     64.1286E+06     28.7061E+06              0.    -1.53878E+06
           18884     64.0647E+06     28.8511E+06              0.    -1.52375E+06
           18885     64.0013E+06     28.9923E+06              0.    -1.51169E+06
           18886     63.9383E+06     29.1299E+06              0.    -1.50253E+06
           18887     63.8756E+06     29.2641E+06              0.    -1.49620E+06
           18888     63.8131E+06     29.3951E+06              0.    -1.49261E+06
           18889     63.7506E+06     29.5230E+06              0.    -1.49172E+06
           18890     63.6881E+06     29.6480E+06              0.    -1.49345E+06
           18891     63.6254E+06     29.7703E+06              0.    -1.49776E+06
           18892     63.5624E+06     29.8900E+06              0.    -1.50457E+06
           18893     63.4991E+06     30.0073E+06              0.    -1.51384E+06
           18894     63.4352E+06     30.1223E+06              0.    -1.52552E+06
           18895     63.3708E+06     30.2351E+06              0.    -1.53957E+06
           18896     63.3057E+06     30.3460E+06              0.    -1.55594E+06
           18897     63.2398E+06     30.4550E+06              0.    -1.57458E+06
           18898     63.1731E+06     30.5623E+06              0.    -1.59547E+06
           18899     63.1054E+06     30.6679E+06              0.    -1.61856E+06
           18900     63.0366E+06     30.7721E+06              0.    -1.64383E+06
           18901     62.9666E+06     30.8750E+06              0.    -1.67124E+06
           18902     62.8955E+06     30.9766E+06              0.    -1.70077E+06
           18903     62.8230E+06     31.0771E+06              0.    -1.73239E+06
           18904     62.7490E+06     31.1765E+06              0.    -1.76608E+06
           18905     62.6736E+06     31.2751E+06              0.    -1.80181E+06
           18906     62.5966E+06     31.3729E+06              0.    -1.83957E+06
           18907     62.5179E+06     31.4699E+06              0.    -1.87935E+06
           18908     62.4375E+06     31.5664E+06              0.    -1.92112E+06
           18909     62.3552E+06     31.6624E+06              0.    -1.96488E+06
           18910     62.2710E+06     31.7580E+06              0.    -2.01061E+06
           18911     62.1848E+06     31.8533E+06              0.    -2.05831E+06
           18912     62.0965E+06     31.9483E+06              0.    -2.10798E+06
           18913     62.0060E+06     32.0433E+06              0.    -2.15959E+06
           18914     61.9132E+06     32.1382E+06              0.    -2.21316E+06
           18915     61.8182E+06     32.2331E+06              0.    -2.26868E+06
           18916     61.7207E+06     32.3282E+06              0.    -2.32615E+06
           18917     61.6207E+06     32.4235E+06              0.    -2.38558E+06
           18918     61.5181E+06     32.5190E+06              0.    -2.44696E+06
           18919     61.4128E+06     32.6150E+06              0.    -2.51030E+06
           18920     61.3048E+06     32.7114E+06              0.    -2.57562E+06
           18921     61.1940E+06     32.8083E+06              0.    -2.64291E+06
           18922     61.0803E+06     32.9058E+06              0.    -2.71218E+06
           18923     60.9635E+06     33.0039E+06              0.    -2.78346E+06
           18924     60.8437E+06     33.1028E+06              0.    -2.85674E+06
           18925     60.7207E+06     33.2025E+06              0.    -2.93205E+06
           18926     60.5945E+06     33.3031E+06              0.    -3.00939E+06
           18927     60.4649E+06     33.4046E+06              0.    -3.08879E+06
           18928     60.3319E+06     33.5072E+06              0.    -3.17026E+06
           18929     60.1954E+06     33.6108E+06              0.    -3.25383E+06
           18930     60.0553E+06     33.7155E+06              0.    -3.33950E+06
           18931     59.9114E+06     33.8214E+06              0.    -3.42730E+06
           18932     59.7639E+06     33.9286E+06              0.    -3.51726E+06
           18933     59.6124E+06     34.0370E+06              0.    -3.60939E+06
           18934     59.4570E+06     34.1469E+06              0.    -3.70372E+06
           18935     59.2976E+06     34.2582E+06              0.    -3.80028E+06
           18936     59.1339E+06     34.3710E+06              0.    -3.89908E+06
           18937     58.9661E+06     34.4853E+06              0.    -4.00017E+06
           18938     58.7939E+06     34.6012E+06              0.    -4.10356E+06
           18939     58.6173E+06     34.7188E+06              0.    -4.20929E+06
           18940     58.4362E+06     34.8381E+06              0.    -4.31738E+06
           18941     58.2504E+06     34.9591E+06              0.    -4.42787E+06
           18942     58.0599E+06     35.0819E+06              0.    -4.54078E+06
           18943     57.8646E+06     35.2066E+06              0.    -4.65615E+06
           18944     57.6643E+06     35.3332E+06              0.    -4.77401E+06
           18945     57.4590E+06     35.4618E+06              0.    -4.89440E+06
           18946     57.2485E+06     35.5924E+06              0.    -5.01734E+06
           18947     57.0328E+06     35.7250E+06              0.    -5.14287E+06
           18948     56.8118E+06     35.8597E+06              0.    -5.27103E+06
           18949     56.5852E+06     35.9965E+06              0.    -5.40186E+06
           18950     56.3531E+06     36.1355E+06              0.    -5.53538E+06
           18951     56.1153E+06     36.2767E+06              0.    -5.67164E+06
           18952     55.8717E+06     36.4202E+06              0.    -5.81067E+06
           18953     55.6221E+06     36.5660E+06              0.    -5.95251E+06
           18954     55.3666E+06     36.7141E+06              0.    -6.09720E+06
           18955     55.1048E+06     36.8646E+06              0.    -6.24477E+06
           18956     54.8368E+06     37.0175E+06              0.    -6.39526E+06
           18957     54.5624E+06     37.1729E+06              0.    -6.54871E+06
           18958     54.2815E+06     37.3307E+06              0.    -6.70516E+06
           18959     53.9939E+06     37.4910E+06              0.    -6.86465E+06
           18960     53.6995E+06     37.6538E+06              0.    -7.02721E+06
           18961     53.3983E+06     37.8193E+06              0.    -7.19289E+06
           18962     53.0900E+06     37.9873E+06              0.    -7.36171E+06
           18963     52.7745E+06     38.1579E+06              0.    -7.53372E+06
           18964     52.4518E+06     38.3311E+06              0.    -7.70896E+06
           18965     52.1216E+06     38.5070E+06              0.    -7.88746E+06
           18966     51.7839E+06     38.6856E+06              0.    -8.06926E+06
           18967     51.4384E+06     38.8668E+06              0.    -8.25439E+06
           18968     51.0852E+06     39.0508E+06              0.    -8.44289E+06
           18969     50.7239E+06     39.2375E+06              0.    -8.63480E+06
           18970     50.3546E+06     39.4268E+06              0.    -8.83014E+06
           18971     49.9769E+06     39.6189E+06              0.    -9.02895E+06
           18972     49.5909E+06     39.8138E+06              0.    -9.23127E+06
           18973     49.1964E+06     40.0113E+06              0.    -9.43712E+06
           18974     48.7931E+06     40.2116E+06              0.    -9.64653E+06
           18975     48.3811E+06     40.4146E+06              0.    -9.85953E+06
           18976     47.9600E+06     40.6203E+06              0.    -10.0762E+06
           18977     47.5298E+06     40.8287E+06              0.    -10.2964E+06
           18978     47.0903E+06     41.0398E+06              0.    -10.5203E+06
           18979     46.6414E+06     41.2535E+06              0.    -10.7480E+06
           18980     46.1829E+06     41.4699E+06              0.    -10.9793E+06
           18981     45.7147E+06     41.6889E+06              0.    -11.2143E+06
           18982     45.2366E+06     41.9104E+06              0.    -11.4531E+06
           18983     44.7484E+06     42.1344E+06              0.    -11.6957E+06
           18984     44.2501E+06     42.3610E+06              0.     -11.942E+06
           18985     43.7414E+06     42.5899E+06              0.    -12.1921E+06
           18986     43.2222E+06     42.8213E+06              0.    -12.4460E+06
           18987     42.6923E+06     43.0549E+06              0.    -12.7036E+06
           18988     42.1517E+06     43.2908E+06              0.    -12.9650E+06
           18989     41.6000E+06     43.5289E+06              0.    -13.2302E+06
           18990     41.0373E+06     43.7690E+06              0.    -13.4992E+06
           18991     40.4632E+06     44.0112E+06              0.    -13.7719E+06
           18992     39.8778E+06     44.2553E+06              0.    -14.0484E+06
           18993     39.2807E+06     44.5011E+06              0.    -14.3286E+06
           18994     38.6720E+06     44.7487E+06              0.    -14.6124E+06
           18995     38.0513E+06     44.9979E+06              0.    -14.9000E+06
           18996     37.4186E+06     45.2485E+06              0.    -15.1911E+06
           18997     36.7738E+06     45.5004E+06              0.    -15.4859E+06
           18998     36.1166E+06     45.7535E+06              0.    -15.7842E+06
           18999     35.4469E+06     46.0076E+06              0.    -16.0861E+06
           19000     34.7646E+06     46.2625E+06              0.    -16.3913E+06
           19001     34.0695E+06     46.5181E+06              0.    -16.7000E+06
           19002     33.3616E+06     46.7742E+06              0.    -17.0119E+06
           19003     32.6406E+06     47.0306E+06              0.    -17.3271E+06
           19004     31.9065E+06     47.2870E+06              0.    -17.6455E+06
           19005     31.1590E+06     47.5433E+06              0.    -17.9669E+06
           19006     30.3981E+06     47.7992E+06              0.    -18.2913E+06
           19007     29.6237E+06     48.0544E+06              0.    -18.6186E+06
           19008     28.8356E+06     48.3087E+06              0.    -18.9487E+06
           19009     28.0337E+06     48.5618E+06              0.    -19.2814E+06
           19010     27.2179E+06     48.8134E+06              0.    -19.6166E+06
           19011     26.3881E+06     49.0632E+06              0.    -19.9541E+06
           19012     25.5442E+06     49.3108E+06              0.    -20.2940E+06
           19013     24.6861E+06     49.5560E+06              0.    -20.6359E+06
           19014     23.8136E+06     49.7982E+06              0.    -20.9797E+06
           19015     22.9269E+06     50.0373E+06              0.    -21.3252E+06
           19016     22.0256E+06     50.2727E+06              0.    -21.6723E+06
           19017     21.1099E+06     50.5040E+06              0.    -22.0207E+06
           19018     20.1795E+06     50.7308E+06              0.    -22.3703E+06
           19019     19.2345E+06     50.9527E+06              0.    -22.7209E+06
           19020     18.2748E+06     51.1690E+06              0.    -23.0721E+06
           19021     17.3004E+06     51.3794E+06              0.    -23.4238E+06
           19022     16.3112E+06     51.5832E+06              0.    -23.7757E+06
           19023     15.3072E+06     51.7800E+06              0.    -24.1276E+06
           19024     14.2884E+06     51.9690E+06              0.    -24.4791E+06
           19025     13.2548E+06     52.1498E+06              0.    -24.8300E+06
           19026     12.2065E+06     52.3217E+06              0.    -25.1799E+06
           19027     11.1433E+06     52.4840E+06              0.    -25.5287E+06
           19028     10.0655E+06     52.6360E+06              0.    -25.8758E+06
           19029      8.9729E+06     52.7769E+06              0.    -26.2210E+06
           19030     7.86571E+06     52.9061E+06              0.    -26.5640E+06
           19031     6.74395E+06     53.0227E+06              0.    -26.9043E+06
           19032     5.60772E+06     53.1260E+06              0.    -27.2416E+06
           19033     4.45711E+06     53.2150E+06              0.    -27.5755E+06
           19034     3.29224E+06     53.2889E+06              0.    -27.9055E+06
           19035     2.11323E+06     53.3467E+06              0.    -28.2313E+06
           19036     920.227E+03     53.3875E+06              0.    -28.5523E+06
           19037    -286.598E+03     53.4104E+06              0.    -28.8682E+06
           19038    -1.50707E+06     53.4142E+06              0.    -29.1785E+06
           19039    -2.74099E+06     53.3979E+06              0.    -29.4826E+06
           19040    -3.98815E+06     53.3604E+06              0.    -29.7802E+06
           19041    -5.24831E+06     53.3006E+06              0.    -30.0706E+06
           19042    -6.52121E+06     53.2172E+06              0.    -30.3534E+06
           19043    -7.80659E+06     53.1091E+06              0.    -30.6280E+06
           19044    -9.10414E+06     52.9750E+06              0.    -30.8939E+06
           19045    -10.4136E+06     52.8135E+06              0.    -31.1505E+06
           19046    -11.7345E+06     52.6234E+06              0.    -31.3972E+06
           19047    -13.0666E+06     52.4032E+06              0.    -31.6335E+06
           19048    -14.4095E+06     52.1515E+06              0.    -31.8587E+06
           19049    -15.7628E+06     51.8668E+06              0.    -32.0723E+06
           19050    -17.1260E+06     51.5476E+06              0.    -32.2736E+06
           19051    -18.4987E+06     51.1923E+06              0.    -32.4620E+06
           19052    -19.8804E+06     50.7994E+06              0.    -32.6369E+06
           19053    -21.2706E+06     50.3671E+06              0.    -32.7976E+06
           19054    -22.6688E+06     49.8939E+06              0.    -32.9434E+06
           19055    -24.0744E+06     49.3779E+06              0.    -33.0738E+06
           19056    -25.4868E+06     48.8173E+06              0.    -33.1881E+06
           19057    -26.9054E+06     48.2104E+06              0.    -33.2855E+06
           19058    -28.3296E+06     47.5554E+06              0.    -33.3655E+06
           19059    -29.7587E+06     46.8502E+06              0.    -33.4273E+06
           19060    -31.1921E+06     46.0929E+06              0.    -33.4702E+06
           19061    -32.6289E+06     45.2817E+06              0.    -33.4937E+06
           19062    -34.0684E+06     44.4144E+06              0.    -33.4970E+06
           19063    -35.5099E+06     43.4890E+06              0.    -33.4795E+06
           19064    -36.9525E+06     42.5034E+06              0.    -33.4404E+06
           19065    -38.3954E+06     41.4555E+06              0.    -33.3792E+06
           19066    -39.8377E+06     40.3432E+06              0.    -33.2951E+06
           19067    -41.2786E+06     39.1643E+06              0.    -33.1876E+06
           19068    -42.7170E+06     37.9165E+06              0.    -33.0560E+06
           19069    -44.1520E+06     36.5976E+06              0.    -32.8996E+06
           19070    -45.5827E+06     35.2054E+06              0.    -32.7178E+06
           19071    -47.0079E+06     33.7376E+06              0.    -32.5100E+06
           19072    -48.4267E+06     32.1919E+06              0.    -32.2757E+06
           19073    -49.8380E+06     30.5660E+06              0.    -32.0142E+06
           19074    -51.2407E+06     28.8576E+06              0.    -31.7250E+06
           19075    -52.6336E+06     27.0643E+06              0.    -31.4075E+06
           19076    -54.0155E+06     25.1838E+06              0.    -31.0612E+06
           19077    -55.3853E+06     23.2137E+06              0.    -30.6856E+06
           19078    -56.7417E+06     21.1517E+06              0.    -30.2803E+06
           19079    -58.0835E+06     18.9956E+06              0.    -29.8446E+06
           19080    -59.4094E+06     16.7428E+06              0.    -29.3782E+06
           19081    -60.7180E+06     14.3912E+06              0.    -28.8807E+06
           19082    -62.0081E+06     11.9384E+06              0.    -28.3516E+06
           19083    -63.2783E+06     9.38217E+06              0.    -27.7906E+06
           19084    -64.5273E+06     6.72016E+06              0.    -27.1972E+06
           19085    -65.7534E+06     3.95020E+06              0.    -26.5712E+06
           19086    -66.9554E+06     1.07002E+06              0.    -25.9123E+06
           19087    -68.1318E+06    -1.92251E+06              0.    -25.2202E+06
           19088    -69.2811E+06    -5.02959E+06              0.    -24.4945E+06
           19089    -70.4017E+06    -8.25331E+06              0.    -23.7351E+06
           19090    -71.4921E+06    -11.5957E+06              0.    -22.9417E+06
           19091    -72.5508E+06    -15.0588E+06              0.    -22.1142E+06
           19092    -73.5760E+06    -18.6446E+06              0.    -21.2523E+06
           19093    -74.5664E+06    -22.3551E+06              0.    -20.3559E+06
           19094    -75.5201E+06    -26.1920E+06              0.    -19.4248E+06
           19095    -76.4353E+06    -30.1571E+06              0.    -18.4589E+06
           19096    -78.0403E+06    -34.6808E+06              0.    -18.0036E+06
           19097     64.1802E+06     28.1842E+06              0.    -1.51461E+06
           19098     64.1981E+06     28.3816E+06              0.    -1.51179E+06
           19099     64.1314E+06     28.5377E+06              0.    -1.49145E+06
           19100     64.0656E+06     28.6897E+06              0.    -1.47412E+06
           19101     64.0003E+06     28.8375E+06              0.    -1.45972E+06
           19102     63.9357E+06     28.9816E+06              0.    -1.44817E+06
           19103     63.8714E+06     29.1219E+06              0.    -1.43939E+06
           19104     63.8075E+06     29.2588E+06              0.    -1.43332E+06
           19105     63.7437E+06     29.3923E+06              0.    -1.42988E+06
           19106     63.6800E+06     29.5228E+06              0.    -1.42903E+06
           19107     63.6162E+06     29.6503E+06              0.    -1.43068E+06
           19108     63.5523E+06     29.7750E+06              0.    -1.43480E+06
           19109     63.4880E+06     29.8971E+06              0.    -1.44133E+06
           19110     63.4234E+06     30.0167E+06              0.    -1.45021E+06
           19111     63.3583E+06     30.1340E+06              0.    -1.46139E+06
           19112     63.2926E+06     30.2491E+06              0.    -1.47485E+06
           19113     63.2262E+06     30.3621E+06              0.    -1.49052E+06
           19114     63.1590E+06     30.4733E+06              0.    -1.50838E+06
           19115     63.0910E+06     30.5827E+06              0.    -1.52839E+06
           19116     63.0219E+06     30.6905E+06              0.    -1.55051E+06
           19117     62.9518E+06     30.7967E+06              0.    -1.57471E+06
           19118     62.8804E+06     30.9016E+06              0.    -1.60097E+06
           19119     62.8079E+06     31.0052E+06              0.    -1.62925E+06
           19120     62.7339E+06     31.1077E+06              0.    -1.65953E+06
           19121     62.6585E+06     31.2092E+06              0.     -1.6918E+06
           19122     62.5816E+06     31.3097E+06              0.    -1.72603E+06
           19123     62.5031E+06     31.4094E+06              0.    -1.76220E+06
           19124     62.4229E+06     31.5084E+06              0.    -1.80029E+06
           19125     62.3408E+06     31.6067E+06              0.    -1.84031E+06
           19126     62.2569E+06     31.7046E+06              0.    -1.88222E+06
           19127     62.1710E+06     31.8021E+06              0.    -1.92602E+06
           19128     62.0831E+06     31.8993E+06              0.    -1.97171E+06
           19129     61.9931E+06     31.9962E+06              0.    -2.01928E+06
           19130     61.9008E+06     32.0930E+06              0.    -2.06872E+06
           19131     61.8062E+06     32.1898E+06              0.    -2.12002E+06
           19132     61.7093E+06     32.2866E+06              0.    -2.17320E+06
           19133     61.6099E+06     32.3835E+06              0.    -2.22825E+06
           19134     61.5079E+06     32.4807E+06              0.    -2.28516E+06
           19135     61.4033E+06     32.5781E+06              0.    -2.34395E+06
           19136      61.296E+06     32.6759E+06              0.    -2.40462E+06
           19137     61.1859E+06     32.7742E+06              0.    -2.46718E+06
           19138     61.0729E+06     32.8730E+06              0.    -2.53163E+06
           19139     60.9569E+06     32.9724E+06              0.    -2.59798E+06
           19140     60.8379E+06     33.0725E+06              0.    -2.66624E+06
           19141     60.7157E+06     33.1733E+06              0.    -2.73643E+06
           19142     60.5903E+06     33.2749E+06              0.    -2.80855E+06
           19143     60.4616E+06     33.3775E+06              0.    -2.88263E+06
           19144     60.3295E+06     33.4810E+06              0.    -2.95867E+06
           19145     60.1939E+06     33.5855E+06              0.    -3.03670E+06
           19146     60.0547E+06     33.6911E+06              0.    -3.11672E+06
           19147     59.9118E+06     33.7978E+06              0.    -3.19877E+06
           19148     59.7652E+06     33.9058E+06              0.    -3.28286E+06
           19149     59.6148E+06     34.0150E+06              0.    -3.36901E+06
           19150     59.4604E+06     34.1256E+06              0.    -3.45724E+06
           19151     59.3019E+06     34.2375E+06              0.    -3.54758E+06
           19152     59.1394E+06     34.3510E+06              0.    -3.64004E+06
           19153     58.9726E+06     34.4659E+06              0.    -3.73467E+06
           19154     58.8015E+06     34.5824E+06              0.    -3.83147E+06
           19155     58.6259E+06     34.7005E+06              0.    -3.93048E+06
           19156     58.4459E+06     34.8204E+06              0.    -4.03172E+06
           19157     58.2612E+06     34.9419E+06              0.    -4.13523E+06
           19158     58.0719E+06     35.0652E+06              0.    -4.24103E+06
           19159     57.8777E+06     35.1904E+06              0.    -4.34915E+06
           19160     57.6786E+06     35.3174E+06              0.    -4.45962E+06
           19161     57.4744E+06     35.4464E+06              0.    -4.57247E+06
           19162     57.2652E+06     35.5774E+06              0.    -4.68774E+06
           19163     57.0506E+06     35.7104E+06              0.    -4.80546E+06
           19164     56.8308E+06     35.8455E+06              0.    -4.92566E+06
           19165     56.6055E+06     35.9827E+06              0.    -5.04837E+06
           19166     56.3746E+06     36.1221E+06              0.    -5.17362E+06
           19167     56.1380E+06     36.2637E+06              0.    -5.30146E+06
           19168     55.8956E+06     36.4076E+06              0.    -5.43192E+06
           19169     55.6474E+06     36.5537E+06              0.    -5.56502E+06
           19170     55.3931E+06     36.7022E+06              0.    -5.70081E+06
           19171     55.1326E+06     36.8530E+06              0.    -5.83933E+06
           19172     54.8659E+06     37.0063E+06              0.    -5.98060E+06
           19173     54.5927E+06     37.1620E+06              0.    -6.12467E+06
           19174     54.3131E+06     37.3202E+06              0.    -6.27157E+06
           19175     54.0268E+06     37.4808E+06              0.    -6.42133E+06
           19176     53.7338E+06     37.6441E+06              0.    -6.57400E+06
           19177     53.4338E+06     37.8099E+06              0.    -6.72961E+06
           19178     53.1269E+06     37.9783E+06              0.    -6.88819E+06
           19179     52.8128E+06     38.1493E+06              0.    -7.04978E+06
           19180     52.4914E+06     38.3230E+06              0.    -7.21442E+06
           19181     52.1626E+06     38.4993E+06              0.    -7.38214E+06
           19182     51.8262E+06     38.6783E+06              0.    -7.55298E+06
           19183     51.4821E+06     38.8600E+06              0.    -7.72697E+06
           19184     51.1302E+06     39.0445E+06              0.    -7.90415E+06
           19185     50.7704E+06     39.2317E+06              0.    -8.08454E+06
           19186     50.4024E+06     39.4216E+06              0.    -8.26819E+06
           19187     50.0262E+06     39.6142E+06              0.    -8.45512E+06
           19188     49.6416E+06     39.8097E+06              0.    -8.64536E+06
           19189     49.2484E+06     40.0079E+06              0.    -8.83895E+06
           19190     48.8466E+06     40.2088E+06              0.    -9.03591E+06
           19191     48.4359E+06     40.4125E+06              0.    -9.23628E+06
           19192     48.0162E+06     40.6189E+06              0.    -9.44007E+06
           19193     47.5875E+06     40.8281E+06              0.    -9.64731E+06
           19194     47.1494E+06     41.0400E+06              0.    -9.85803E+06
           19195     46.7019E+06     41.2546E+06              0.    -10.0722E+06
           19196     46.2449E+06     41.4718E+06              0.    -10.2900E+06
           19197     45.7781E+06     41.6917E+06              0.    -10.5113E+06
           19198     45.3014E+06     41.9142E+06              0.    -10.7361E+06
           19199     44.8147E+06     42.1393E+06              0.    -10.9645E+06
           19200     44.3178E+06     42.3670E+06              0.    -11.1965E+06
           19201     43.8105E+06     42.5971E+06              0.    -11.4320E+06
           19202     43.2928E+06     42.8297E+06              0.    -11.6712E+06
           19203     42.7643E+06     43.0646E+06              0.    -11.9139E+06
           19204     42.2251E+06     43.3019E+06              0.    -12.1603E+06
           19205     41.6749E+06     43.5414E+06              0.    -12.4103E+06
           19206     41.1136E+06     43.7831E+06              0.    -12.6638E+06
           19207     40.5410E+06     44.0268E+06              0.    -12.9210E+06
           19208     39.9570E+06     44.2726E+06              0.    -13.1817E+06
           19209     39.3614E+06     44.5202E+06              0.    -13.4460E+06
           19210     38.7541E+06     44.7697E+06              0.    -13.7138E+06
           19211     38.1349E+06     45.0208E+06              0.    -13.9851E+06
           19212     37.5036E+06     45.2734E+06              0.    -14.2599E+06
           19213     36.8602E+06     45.5275E+06              0.    -14.5382E+06
           19214     36.2045E+06     45.7829E+06              0.    -14.8198E+06
           19215     35.5362E+06     46.0394E+06              0.    -15.1049E+06
           19216     34.8554E+06     46.2968E+06              0.    -15.3933E+06
           19217     34.1617E+06     46.5551E+06              0.    -15.6849E+06
           19218     33.4552E+06     46.8139E+06              0.    -15.9797E+06
           19219     32.7356E+06     47.0732E+06              0.    -16.2777E+06
           19220     32.0029E+06     47.3327E+06              0.    -16.5788E+06
           19221     31.2568E+06     47.5921E+06              0.    -16.8828E+06
           19222     30.4974E+06     47.8514E+06              0.    -17.1898E+06
           19223     29.7243E+06     48.1101E+06              0.    -17.4995E+06
           19224     28.9376E+06     48.3681E+06              0.    -17.8120E+06
           19225     28.1371E+06     48.6251E+06              0.    -18.1271E+06
           19226     27.3227E+06     48.8807E+06              0.    -18.4447E+06
           19227     26.4943E+06     49.1348E+06              0.    -18.7646E+06
           19228     25.6517E+06     49.3869E+06              0.    -19.0868E+06
           19229     24.7950E+06     49.6367E+06              0.    -19.4110E+06
           19230     23.9239E+06     49.8839E+06              0.    -19.7372E+06
           19231     23.0385E+06     50.1281E+06              0.    -20.0652E+06
           19232     22.1386E+06     50.3689E+06              0.    -20.3948E+06
           19233     21.2241E+06     50.6058E+06              0.    -20.7259E+06
           19234     20.2951E+06     50.8385E+06              0.    -21.0582E+06
           19235     19.3513E+06     51.0666E+06              0.    -21.3915E+06
           19236     18.3929E+06     51.2894E+06              0.    -21.7257E+06
           19237     17.4198E+06     51.5065E+06              0.    -22.0605E+06
           19238     16.4318E+06     51.7175E+06              0.    -22.3957E+06
           19239     15.4291E+06     51.9217E+06              0.    -22.7311E+06
           19240     14.4115E+06     52.1185E+06              0.    -23.0663E+06
           19241     13.3792E+06     52.3075E+06              0.    -23.4012E+06
           19242     12.3320E+06     52.4879E+06              0.    -23.7354E+06
           19243     11.2700E+06     52.6591E+06              0.    -24.0687E+06
           19244     10.1933E+06     52.8204E+06              0.    -24.4007E+06
           19245     9.10185E+06     52.9711E+06              0.    -24.7311E+06
           19246     7.99576E+06     53.1106E+06              0.    -25.0597E+06
           19247     6.87507E+06     53.2379E+06              0.    -25.3861E+06
           19248     5.73988E+06     53.3523E+06              0.    -25.7098E+06
           19249     4.59028E+06     53.4530E+06              0.    -26.0306E+06
           19250     3.42639E+06     53.5392E+06              0.    -26.3481E+06
           19251     2.24832E+06     53.6098E+06              0.    -26.6618E+06
           19252     1.05622E+06     53.6641E+06              0.    -26.9714E+06
           19253    -149.744E+03     53.7009E+06              0.    -27.2765E+06
           19254    -1.36940E+06     53.7194E+06              0.    -27.5765E+06
           19255    -2.60256E+06     53.7184E+06              0.    -27.8712E+06
           19256    -3.84901E+06     53.6969E+06              0.    -28.1599E+06
           19257    -5.10852E+06     53.6538E+06              0.    -28.4422E+06
           19258    -6.38084E+06     53.5879E+06              0.    -28.7177E+06
           19259    -7.66570E+06     53.4981E+06              0.    -28.9859E+06
           19260    -8.96281E+06     53.3830E+06              0.    -29.2462E+06
           19261    -10.2719E+06     53.2415E+06              0.    -29.4981E+06
           19262    -11.5925E+06     53.0721E+06              0.    -29.7410E+06
           19263    -12.9244E+06     52.8737E+06              0.    -29.9745E+06
           19264    -14.2673E+06     52.6446E+06              0.    -30.1980E+06
           19265    -15.6205E+06     52.3836E+06              0.    -30.4109E+06
           19266    -16.9839E+06     52.0891E+06              0.    -30.6126E+06
           19267    -18.3569E+06     51.7595E+06              0.    -30.8026E+06
           19268    -19.7390E+06     51.3935E+06              0.    -30.9802E+06
           19269    -21.1297E+06     50.9892E+06              0.    -31.1449E+06
           19270    -22.5286E+06     50.5451E+06              0.    -31.2960E+06
           19271    -23.9351E+06     50.0595E+06              0.    -31.4329E+06
           19272    -25.3486E+06     49.5306E+06              0.     -31.555E+06
           19273    -26.7685E+06     48.9567E+06              0.    -31.6617E+06
           19274    -28.1941E+06     48.3360E+06              0.    -31.7523E+06
           19275    -29.6249E+06     47.6665E+06              0.    -31.8263E+06
           19276    -31.0602E+06     46.9465E+06              0.    -31.8829E+06
           19277    -32.4992E+06     46.1739E+06              0.    -31.9215E+06
           19278    -33.9411E+06     45.3467E+06              0.    -31.9416E+06
           19279    -35.3854E+06     44.4631E+06              0.    -31.9424E+06
           19280    -36.8310E+06     43.5209E+06              0.    -31.9233E+06
           19281    -38.2773E+06     42.5180E+06              0.    -31.8838E+06
           19282    -39.7233E+06     41.4524E+06              0.    -31.8231E+06
           19283    -41.1682E+06     40.3219E+06              0.    -31.7407E+06
           19284    -42.6111E+06     39.1244E+06              0.    -31.6359E+06
           19285    -44.0510E+06     37.8575E+06              0.    -31.5081E+06
           19286    -45.4869E+06     36.5193E+06              0.    -31.3568E+06
           19287    -46.9179E+06     35.1073E+06              0.    -31.1813E+06
           19288    -48.3430E+06     33.6193E+06              0.    -30.9811E+06
           19289    -49.7610E+06     32.0531E+06              0.    -30.7556E+06
           19290    -51.1709E+06     30.4063E+06              0.    -30.5043E+06
           19291    -52.5716E+06     28.6767E+06              0.    -30.2266E+06
           19292    -53.9619E+06     26.8619E+06              0.    -29.9221E+06
           19293    -55.3406E+06     24.9597E+06              0.    -29.5901E+06
           19294    -56.7066E+06     22.9676E+06              0.    -29.2303E+06
           19295    -58.0587E+06     20.8835E+06              0.    -28.8422E+06
           19296    -59.3956E+06     18.7049E+06              0.    -28.4253E+06
           19297    -60.7159E+06     16.4296E+06              0.    -27.9792E+06
           19298    -62.0184E+06     14.0552E+06              0.    -27.5034E+06
           19299    -63.3018E+06     11.5796E+06              0.    -26.9977E+06
           19300    -64.5647E+06     9.00033E+06              0.    -26.4617E+06
           19301    -65.8057E+06     6.31525E+06              0.    -25.8949E+06
           19302    -67.0234E+06     3.52214E+06              0.    -25.2971E+06
           19303    -68.2164E+06     618.770E+03              0.    -24.6680E+06
           19304    -69.3831E+06    -2.39698E+06              0.    -24.0074E+06
           19305    -70.5221E+06    -5.52729E+06              0.    -23.3148E+06
           19306    -71.6320E+06    -8.77422E+06              0.    -22.5902E+06
           19307    -72.7111E+06    -12.1398E+06              0.    -21.8333E+06
           19308    -73.7578E+06    -15.6261E+06              0.    -21.0440E+06
           19309    -74.7707E+06    -19.2349E+06              0.    -20.2219E+06
           19310    -75.7480E+06    -22.9684E+06              0.    -19.3671E+06
           19311    -76.6881E+06    -26.8283E+06              0.    -18.4793E+06
           19312    -77.5894E+06    -30.8164E+06              0.    -17.5584E+06
           19313    -79.1945E+06    -35.3625E+06              0.    -17.1235E+06
           19314     64.1220E+06     28.1590E+06              0.    -1.44691E+06
           19315     64.1402E+06     28.3600E+06              0.    -1.44422E+06
           19316     64.0723E+06     28.5191E+06              0.    -1.42479E+06
           19317     64.0052E+06     28.6739E+06              0.    -1.40823E+06
           19318     63.9388E+06     28.8245E+06              0.    -1.39447E+06
           19319     63.8729E+06     28.9712E+06              0.    -1.38343E+06
           19320     63.8074E+06     29.1142E+06              0.    -1.37504E+06
           19321     63.7423E+06     29.2536E+06              0.    -1.36924E+06
           19322     63.6773E+06     29.3897E+06              0.    -1.36596E+06
           19323     63.6124E+06     29.5226E+06              0.    -1.36514E+06
           19324     63.5474E+06     29.6525E+06              0.    -1.36672E+06
           19325     63.4823E+06     29.7795E+06              0.    -1.37065E+06
           19326     63.4169E+06     29.9038E+06              0.    -1.37688E+06
           19327     63.3511E+06     30.0257E+06              0.    -1.38536E+06
           19328     63.2847E+06     30.1451E+06              0.    -1.39604E+06
           19329     63.2178E+06     30.2624E+06              0.    -1.40889E+06
           19330     63.1502E+06     30.3776E+06              0.    -1.42386E+06
           19331     63.0818E+06     30.4908E+06              0.    -1.44092E+06
           19332     63.0124E+06     30.6022E+06              0.    -1.46003E+06
           19333     62.9421E+06     30.7120E+06              0.    -1.48116E+06
           19334     62.8706E+06     30.8203E+06              0.    -1.50428E+06
           19335     62.7980E+06     30.9271E+06              0.    -1.52935E+06
           19336     62.7240E+06     31.0326E+06              0.    -1.55637E+06
           19337     62.6487E+06     31.1370E+06              0.    -1.58529E+06
           19338     62.5720E+06     31.2403E+06              0.    -1.61611E+06
           19339     62.4936E+06     31.3427E+06              0.    -1.64881E+06
           19340     62.4136E+06     31.4443E+06              0.    -1.68335E+06
           19341     62.3319E+06     31.5451E+06              0.    -1.71974E+06
           19342     62.2484E+06     31.6453E+06              0.    -1.75796E+06
           19343     62.1629E+06     31.7450E+06              0.    -1.79799E+06
           19344     62.0754E+06     31.8443E+06              0.    -1.83983E+06
           19345     61.9859E+06     31.9432E+06              0.    -1.88347E+06
           19346     61.8942E+06     32.0420E+06              0.    -1.92890E+06
           19347     61.8002E+06     32.1405E+06              0.    -1.97612E+06
           19348     61.7039E+06     32.2391E+06              0.    -2.02513E+06
           19349     61.6052E+06     32.3377E+06              0.    -2.07592E+06
           19350     61.5039E+06     32.4364E+06              0.    -2.12850E+06
           19351     61.4001E+06     32.5354E+06              0.    -2.18286E+06
           19352     61.2935E+06     32.6346E+06              0.    -2.23901E+06
           19353     61.1842E+06     32.7342E+06              0.    -2.29696E+06
           19354     61.0721E+06     32.8343E+06              0.    -2.35670E+06
           19355     60.9570E+06     32.9349E+06              0.    -2.41826E+06
           19356     60.8389E+06     33.0361E+06              0.    -2.48163E+06
           19357     60.7177E+06     33.1380E+06              0.    -2.54682E+06
           19358     60.5933E+06     33.2407E+06              0.    -2.61386E+06
           19359     60.4656E+06     33.3442E+06              0.    -2.68274E+06
           19360     60.3345E+06     33.4486E+06              0.    -2.75349E+06
           19361     60.1999E+06     33.5540E+06              0.    -2.82611E+06
           19362     60.0618E+06     33.6604E+06              0.    -2.90063E+06
           19363     59.9201E+06     33.7679E+06              0.    -2.97706E+06
           19364     59.7746E+06     33.8766E+06              0.    -3.05542E+06
           19365     59.6254E+06     33.9865E+06              0.    -3.13572E+06
           19366     59.4721E+06     34.0977E+06              0.    -3.21799E+06
           19367     59.3149E+06     34.2102E+06              0.    -3.30226E+06
           19368     59.1536E+06     34.3242E+06              0.    -3.38853E+06
           19369     58.9881E+06     34.4397E+06              0.    -3.47683E+06
           19370     58.8182E+06     34.5567E+06              0.    -3.56719E+06
           19371     58.6440E+06     34.6753E+06              0.    -3.65963E+06
           19372     58.4653E+06     34.7955E+06              0.    -3.75418E+06
           19373     58.2820E+06     34.9175E+06              0.    -3.85086E+06
           19374     58.0940E+06     35.0412E+06              0.    -3.94971E+06
           19375     57.9011E+06     35.1667E+06              0.    -4.05073E+06
           19376     57.7034E+06     35.2941E+06              0.    -4.15398E+06
           19377     57.5007E+06     35.4234E+06              0.    -4.25946E+06
           19378     57.2929E+06     35.5547E+06              0.    -4.36723E+06
           19379     57.0798E+06     35.6880E+06              0.    -4.47729E+06
           19380     56.8614E+06     35.8233E+06              0.    -4.58969E+06
           19381     56.6376E+06     35.9608E+06              0.    -4.70446E+06
           19382     56.4082E+06     36.1004E+06              0.    -4.82162E+06
           19383     56.1732E+06     36.2422E+06              0.    -4.94121E+06
           19384     55.9323E+06     36.3863E+06              0.    -5.06327E+06
           19385     55.6856E+06     36.5327E+06              0.    -5.18782E+06
           19386     55.4329E+06     36.6813E+06              0.    -5.31490E+06
           19387     55.1740E+06     36.8324E+06              0.    -5.44455E+06
           19388     54.9089E+06     36.9858E+06              0.    -5.57679E+06
           19389     54.6374E+06     37.1417E+06              0.    -5.71166E+06
           19390     54.3594E+06     37.3001E+06              0.    -5.84919E+06
           19391     54.0747E+06     37.4610E+06              0.    -5.98943E+06
           19392     53.7834E+06     37.6244E+06              0.    -6.13240E+06
           19393     53.4851E+06     37.7904E+06              0.    -6.27813E+06
           19394     53.1798E+06     37.9590E+06              0.    -6.42667E+06
           19395     52.8674E+06     38.1303E+06              0.    -6.57804E+06
           19396     52.5478E+06     38.3042E+06              0.    -6.73229E+06
           19397     52.2207E+06     38.4807E+06              0.    -6.88943E+06
           19398     51.8861E+06     38.6600E+06              0.    -7.04952E+06
           19399     51.5438E+06     38.8420E+06              0.    -7.21258E+06
           19400     51.1937E+06     39.0268E+06              0.    -7.37863E+06
           19401     50.8356E+06     39.2143E+06              0.    -7.54773E+06
           19402     50.4695E+06     39.4045E+06              0.    -7.71989E+06
           19403     50.0951E+06     39.5975E+06              0.    -7.89515E+06
           19404     49.7123E+06     39.7933E+06              0.    -8.07353E+06
           19405     49.3210E+06     39.9919E+06              0.    -8.25508E+06
           19406     48.9210E+06     40.1933E+06              0.    -8.43981E+06
           19407     48.5122E+06     40.3975E+06              0.    -8.62775E+06
           19408     48.0945E+06     40.6044E+06              0.    -8.81893E+06
           19409     47.6676E+06     40.8141E+06              0.    -9.01337E+06
           19410     47.2315E+06     41.0266E+06              0.    -9.21110E+06
           19411     46.7859E+06     41.2418E+06              0.    -9.41214E+06
           19412     46.3308E+06     41.4597E+06              0.    -9.61650E+06
           19413     45.8659E+06     41.6803E+06              0.    -9.82422E+06
           19414     45.3912E+06     41.9036E+06              0.    -10.0353E+06
           19415     44.9065E+06     42.1295E+06              0.    -10.2498E+06
           19416     44.4116E+06     42.3580E+06              0.    -10.4676E+06
           19417     43.9063E+06     42.5891E+06              0.    -10.6889E+06
           19418     43.3905E+06     42.8227E+06              0.    -10.9135E+06
           19419     42.8641E+06     43.0587E+06              0.    -11.1416E+06
           19420     42.3269E+06     43.2970E+06              0.    -11.3731E+06
           19421     41.7788E+06     43.5377E+06              0.    -11.6081E+06
           19422     41.2195E+06     43.7807E+06              0.    -11.8464E+06
           19423     40.6490E+06     44.0258E+06              0.    -12.0882E+06
           19424     40.0670E+06     44.2730E+06              0.    -12.3334E+06
           19425     39.4735E+06     44.5221E+06              0.    -12.5819E+06
           19426     38.8683E+06     44.7732E+06              0.    -12.8339E+06
           19427     38.2511E+06     45.0260E+06              0.    -13.0892E+06
           19428     37.6220E+06     45.2805E+06              0.    -13.3478E+06
           19429     36.9806E+06     45.5365E+06              0.    -13.6097E+06
           19430     36.3270E+06     45.7938E+06              0.    -13.8749E+06
           19431     35.6608E+06     46.0525E+06              0.    -14.1434E+06
           19432     34.9821E+06     46.3122E+06              0.    -14.4150E+06
           19433     34.2906E+06     46.5728E+06              0.    -14.6898E+06
           19434     33.5861E+06     46.8342E+06              0.    -14.9677E+06
           19435     32.8687E+06     47.0961E+06              0.    -15.2486E+06
           19436     32.1381E+06     47.3584E+06              0.    -15.5324E+06
           19437     31.3941E+06     47.6208E+06              0.    -15.8192E+06
           19438     30.6368E+06     47.8832E+06              0.    -16.1088E+06
           19439     29.8659E+06     48.1452E+06              0.    -16.4012E+06
           19440     29.0813E+06     48.4067E+06              0.    -16.6961E+06
           19441     28.2829E+06     48.6673E+06              0.    -16.9937E+06
           19442     27.4706E+06     48.9268E+06              0.    -17.2937E+06
           19443     26.6442E+06     49.1849E+06              0.    -17.5960E+06
           19444     25.8038E+06     49.4412E+06              0.    -17.9006E+06
           19445     24.9491E+06     49.6955E+06              0.    -18.2073E+06
           19446     24.0802E+06     49.9474E+06              0.    -18.5159E+06
           19447     23.1968E+06     50.1965E+06              0.    -18.8263E+06
           19448     22.2990E+06     50.4424E+06              0.    -19.1384E+06
           19449     21.3866E+06     50.6848E+06              0.    -19.4520E+06
           19450     20.4596E+06     50.9233E+06              0.    -19.7669E+06
           19451     19.5180E+06     51.1573E+06              0.    -20.0830E+06
           19452     18.5616E+06     51.3864E+06              0.    -20.4000E+06
           19453     17.5904E+06     51.6101E+06              0.    -20.7178E+06
           19454     16.6045E+06      51.828E+06              0.    -21.0361E+06
           19455     15.6037E+06     52.0395E+06              0.    -21.3548E+06
           19456     14.5881E+06     52.2439E+06              0.    -21.6735E+06
           19457     13.5577E+06     52.4409E+06              0.    -21.9921E+06
           19458     12.5125E+06     52.6296E+06              0.    -22.3103E+06
           19459     11.4524E+06     52.8096E+06              0.    -22.6278E+06
           19460     10.3775E+06     52.9801E+06              0.    -22.9444E+06
           19461     9.28794E+06     53.1405E+06              0.    -23.2597E+06
           19462     8.18365E+06     53.2900E+06              0.    -23.5735E+06
           19463     7.06474E+06     53.4279E+06              0.    -23.8854E+06
           19464     5.93128E+06     53.5534E+06              0.    -24.1952E+06
           19465     4.78337E+06     53.6657E+06              0.    -24.5024E+06
           19466     3.62113E+06     53.7640E+06              0.    -24.8068E+06
           19467     2.44466E+06     53.8474E+06              0.    -25.1079E+06
           19468     1.25412E+06     53.9149E+06              0.    -25.4055E+06
           19469     49.6490E+03     53.9656E+06              0.    -25.6990E+06
           19470    -1.16857E+06     53.9986E+06              0.    -25.9881E+06
           19471    -2.40036E+06     54.0129E+06              0.    -26.2725E+06
           19472     -3.6455E+06     54.0073E+06              0.    -26.5516E+06
           19473    -4.90377E+06     53.9808E+06              0.    -26.8250E+06
           19474    -6.17494E+06     53.9323E+06              0.    -27.0923E+06
           19475    -7.45873E+06     53.8606E+06              0.    -27.3531E+06
           19476    -8.75486E+06     53.7645E+06              0.    -27.6067E+06
           19477    -10.0630E+06     53.6428E+06              0.    -27.8529E+06
           19478    -11.3829E+06     53.4942E+06              0.    -28.0909E+06
           19479    -12.7142E+06     53.3173E+06              0.    -28.3205E+06
           19480    -14.0564E+06     53.1108E+06              0.    -28.5410E+06
           19481    -15.4093E+06     52.8733E+06              0.    -28.7519E+06
           19482    -16.7724E+06     52.6034E+06              0.    -28.9527E+06
           19483    -18.1452E+06     52.2995E+06              0.    -29.1428E+06
           19484    -19.5273E+06     51.9601E+06              0.    -29.3216E+06
           19485    -20.9183E+06     51.5837E+06              0.    -29.4887E+06
           19486    -22.3176E+06     51.1686E+06              0.    -29.6434E+06
           19487    -23.7246E+06     50.7133E+06              0.    -29.7852E+06
           19488    -25.1388E+06     50.2159E+06              0.    -29.9135E+06
           19489    -26.5597E+06     49.6748E+06              0.    -30.0277E+06
           19490    -27.9866E+06     49.0882E+06              0.    -30.1271E+06
           19491    -29.4188E+06     48.4542E+06              0.    -30.2113E+06
           19492    -30.8558E+06     47.7710E+06              0.    -30.2795E+06
           19493    -32.2967E+06     47.0368E+06              0.    -30.3313E+06
           19494     -33.741E+06     46.2496E+06              0.    -30.3660E+06
           19495    -35.1878E+06     45.4074E+06              0.    -30.3829E+06
           19496    -36.6363E+06     44.5082E+06              0.    -30.3816E+06
           19497    -38.0859E+06     43.5500E+06              0.    -30.3614E+06
           19498    -39.5355E+06     42.5307E+06              0.    -30.3217E+06
           19499    -40.9844E+06     41.4483E+06              0.    -30.2619E+06
           19500    -42.4316E+06     40.3005E+06              0.    -30.1814E+06
           19501    -43.8763E+06     39.0853E+06              0.    -30.0797E+06
           19502    -45.3176E+06     37.8004E+06              0.    -29.9562E+06
           19503    -46.7543E+06     36.4436E+06              0.    -29.8103E+06
           19504    -48.1855E+06     35.0128E+06              0.    -29.6415E+06
           19505    -49.6103E+06     33.5057E+06              0.    -29.4492E+06
           19506    -51.0274E+06     31.9200E+06              0.    -29.2329E+06
           19507    -52.4359E+06     30.2535E+06              0.    -28.9921E+06
           19508    -53.8346E+06     28.5038E+06              0.    -28.7263E+06
           19509    -55.2224E+06     26.6687E+06              0.    -28.4350E+06
           19510    -56.5981E+06     24.7458E+06              0.    -28.1178E+06
           19511    -57.9605E+06     22.7329E+06              0.    -27.7740E+06
           19512    -59.3084E+06     20.6277E+06              0.    -27.4035E+06
           19513    -60.6405E+06     18.4279E+06              0.    -27.0056E+06
           19514    -61.9555E+06     16.1312E+06              0.    -26.5800E+06
           19515    -63.2521E+06     13.7353E+06              0.    -26.1264E+06
           19516    -64.5291E+06     11.2380E+06              0.    -25.6444E+06
           19517    -65.7850E+06     8.63692E+06              0.    -25.1335E+06
           19518    -67.0184E+06     5.92995E+06              0.    -24.5936E+06
           19519     -68.228E+06     3.11491E+06              0.    -24.0243E+06
           19520    -69.4123E+06     189.539E+03              0.    -23.4252E+06
           19521    -70.5699E+06    -2.84823E+06              0.    -22.7962E+06
           19522    -71.6992E+06    -6.00057E+06              0.    -22.1371E+06
           19523    -72.7988E+06    -9.26952E+06              0.    -21.4475E+06
           19524    -73.8670E+06    -12.6571E+06              0.    -20.7273E+06
           19525    -74.9025E+06    -16.1653E+06              0.    -19.9763E+06
           19526    -75.9035E+06    -19.7961E+06              0.    -19.1943E+06
           19527    -76.8685E+06    -23.5514E+06              0.    -18.3811E+06
           19528    -77.7958E+06    -27.4331E+06              0.    -17.5368E+06
           19529    -78.6836E+06    -31.4428E+06              0.    -16.6611E+06
           19530    -80.2888E+06    -36.0104E+06              0.    -16.2468E+06
           19531     64.0665E+06     28.1350E+06              0.    -1.37800E+06
           19532     64.0850E+06     28.3395E+06              0.    -1.37543E+06
           19533     64.0159E+06     28.5014E+06              0.    -1.35692E+06
           19534     63.9476E+06     28.6589E+06              0.    -1.34115E+06
           19535     63.8800E+06     28.8121E+06              0.    -1.32805E+06
           19536     63.8130E+06     28.9614E+06              0.    -1.31753E+06
           19537     63.7464E+06     29.1069E+06              0.    -1.30954E+06
           19538     63.6801E+06     29.2487E+06              0.    -1.30401E+06
           19539     63.6140E+06     29.3872E+06              0.    -1.30089E+06
           19540     63.5480E+06     29.5224E+06              0.    -1.30010E+06
           19541     63.4819E+06     29.6545E+06              0.    -1.30161E+06
           19542     63.4156E+06     29.7838E+06              0.    -1.30535E+06
           19543     63.3490E+06     29.9103E+06              0.    -1.31128E+06
           19544     63.2820E+06     30.0343E+06              0.    -1.31935E+06
           19545     63.2146E+06     30.1558E+06              0.    -1.32953E+06
           19546     63.1465E+06     30.2751E+06              0.    -1.34176E+06
           19547     63.0777E+06     30.3923E+06              0.    -1.35602E+06
           19548     63.0080E+06     30.5075E+06              0.    -1.37226E+06
           19549     62.9375E+06     30.6209E+06              0.    -1.39046E+06
           19550     62.8659E+06     30.7326E+06              0.    -1.41057E+06
           19551     62.7932E+06     30.8427E+06              0.    -1.43259E+06
           19552     62.7193E+06     30.9514E+06              0.    -1.45647E+06
           19553     62.6441E+06     31.0588E+06              0.    -1.48219E+06
           19554     62.5675E+06     31.1650E+06              0.    -1.50973E+06
           19555     62.4894E+06     31.2701E+06              0.    -1.53908E+06
           19556     62.4097E+06     31.3742E+06              0.    -1.57021E+06
           19557     62.3283E+06     31.4776E+06              0.    -1.60311E+06
           19558     62.2452E+06     31.5801E+06              0.    -1.63776E+06
           19559     62.1602E+06     31.6821E+06              0.    -1.67415E+06
           19560     62.0732E+06     31.7835E+06              0.    -1.71227E+06
           19561     61.9842E+06     31.8845E+06              0.    -1.75211E+06
           19562     61.8932E+06     31.9852E+06              0.    -1.79367E+06
           19563     61.7999E+06     32.0856E+06              0.    -1.83693E+06
           19564     61.7043E+06     32.1859E+06              0.    -1.88189E+06
           19565     61.6063E+06     32.2862E+06              0.    -1.92856E+06
           19566     61.5058E+06     32.3865E+06              0.    -1.97692E+06
           19567     61.4028E+06     32.4869E+06              0.    -2.02698E+06
           19568     61.2972E+06     32.5875E+06              0.    -2.07874E+06
           19569     61.1888E+06     32.6885E+06              0.    -2.13221E+06
           19570     61.0776E+06     32.7898E+06              0.    -2.18739E+06
           19571     60.9636E+06     32.8916E+06              0.    -2.24428E+06
           19572     60.8465E+06     32.9939E+06              0.    -2.30289E+06
           19573     60.7264E+06     33.0969E+06              0.    -2.36323E+06
           19574     60.6031E+06     33.2005E+06              0.    -2.42530E+06
           19575     60.4765E+06     33.3050E+06              0.    -2.48913E+06
           19576     60.3466E+06     33.4102E+06              0.    -2.55472E+06
           19577     60.2133E+06     33.5164E+06              0.    -2.62208E+06
           19578     60.0764E+06     33.6236E+06              0.    -2.69123E+06
           19579     59.9360E+06     33.7318E+06              0.    -2.76218E+06
           19580     59.7918E+06     33.8411E+06              0.    -2.83495E+06
           19581     59.6438E+06     33.9516E+06              0.    -2.90955E+06
           19582     59.4920E+06     34.0634E+06              0.    -2.98601E+06
           19583     59.3361E+06     34.1765E+06              0.    -3.06434E+06
           19584     59.1762E+06     34.2910E+06              0.    -3.14457E+06
           19585     59.0121E+06     34.4069E+06              0.    -3.22670E+06
           19586     58.8438E+06     34.5243E+06              0.    -3.31078E+06
           19587     58.6710E+06     34.6433E+06              0.    -3.39680E+06
           19588     58.4939E+06     34.7639E+06              0.    -3.48481E+06
           19589     58.3121E+06     34.8861E+06              0.    -3.57483E+06
           19590     58.1256E+06     35.0101E+06              0.    -3.66687E+06
           19591     57.9344E+06     35.1359E+06              0.    -3.76097E+06
           19592     57.7383E+06     35.2635E+06              0.    -3.85714E+06
           19593     57.5373E+06     35.3930E+06              0.    -3.95543E+06
           19594     57.3311E+06     35.5245E+06              0.    -4.05585E+06
           19595     57.1197E+06     35.6579E+06              0.    -4.15844E+06
           19596     56.9031E+06     35.7934E+06              0.    -4.26321E+06
           19597     56.6810E+06     35.9310E+06              0.    -4.37021E+06
           19598     56.4534E+06     36.0707E+06              0.    -4.47946E+06
           19599     56.2201E+06     36.2126E+06              0.    -4.59098E+06
           19600     55.9811E+06     36.3568E+06              0.    -4.70482E+06
           19601     55.7362E+06     36.5032E+06              0.    -4.82101E+06
           19602     55.4853E+06     36.6519E+06              0.    -4.93956E+06
           19603     55.2284E+06     36.8030E+06              0.    -5.06052E+06
           19604     54.9651E+06     36.9565E+06              0.    -5.18392E+06
           19605     54.6956E+06     37.1125E+06              0.    -5.30978E+06
           19606     54.4195E+06     37.2709E+06              0.    -5.43815E+06
           19607     54.1369E+06     37.4318E+06              0.    -5.56905E+06
           19608     53.8475E+06     37.5952E+06              0.    -5.70252E+06
           19609     53.5513E+06     37.7613E+06              0.    -5.83858E+06
           19610     53.2480E+06     37.9299E+06              0.    -5.97728E+06
           19611     52.9377E+06     38.1012E+06              0.    -6.11864E+06
           19612     52.6201E+06     38.2752E+06              0.    -6.26269E+06
           19613     52.2952E+06     38.4518E+06              0.    -6.40948E+06
           19614     51.9627E+06     38.6312E+06              0.    -6.55902E+06
           19615     51.6225E+06     38.8132E+06              0.    -6.71135E+06
           19616     51.2746E+06     38.9981E+06              0.    -6.86651E+06
           19617     50.9187E+06     39.1857E+06              0.    -7.02452E+06
           19618     50.5548E+06     39.3761E+06              0.    -7.18541E+06
           19619     50.1827E+06     39.5692E+06              0.    -7.34922E+06
           19620     49.8021E+06     39.7652E+06              0.    -7.51597E+06
           19621     49.4131E+06     39.9640E+06              0.    -7.68569E+06
           19622     49.0155E+06     40.1656E+06              0.    -7.85841E+06
           19623      48.609E+06     40.3700E+06              0.    -8.03415E+06
           19624     48.1936E+06     40.5773E+06              0.    -8.21294E+06
           19625     47.7691E+06     40.7873E+06              0.    -8.39481E+06
           19626     47.3353E+06     41.0001E+06              0.    -8.57977E+06
           19627     46.8922E+06     41.2157E+06              0.    -8.76786E+06
           19628     46.4395E+06     41.4341E+06              0.    -8.95908E+06
           19629     45.9771E+06     41.6552E+06              0.    -9.15347E+06
           19630     45.5049E+06     41.8790E+06              0.    -9.35103E+06
           19631     45.0226E+06     42.1055E+06              0.    -9.55178E+06
           19632     44.5302E+06     42.3346E+06              0.    -9.75574E+06
           19633     44.0275E+06     42.5664E+06              0.    -9.96292E+06
           19634     43.5143E+06     42.8007E+06              0.    -10.1733E+06
           19635     42.9904E+06     43.0375E+06              0.    -10.3870E+06
           19636     42.4558E+06     43.2767E+06              0.    -10.6038E+06
           19637     41.9103E+06     43.5184E+06              0.    -10.8240E+06
           19638     41.3536E+06     43.7624E+06              0.    -11.0473E+06
           19639     40.7857E+06     44.0086E+06              0.    -11.2739E+06
           19640     40.2064E+06     44.2569E+06              0.    -11.5038E+06
           19641     39.6156E+06     44.5074E+06              0.    -11.7368E+06
           19642      39.013E+06     44.7598E+06              0.    -11.9731E+06
           19643     38.3986E+06     45.0140E+06              0.    -12.2126E+06
           19644     37.7721E+06     45.2700E+06              0.    -12.4552E+06
           19645     37.1335E+06     45.5277E+06              0.    -12.7010E+06
           19646     36.4826E+06     45.7869E+06              0.    -12.9499E+06
           19647     35.8192E+06     46.0474E+06              0.    -13.2020E+06
           19648     35.1432E+06     46.3091E+06              0.    -13.4570E+06
           19649     34.4545E+06     46.5718E+06              0.    -13.7151E+06
           19650     33.7528E+06     46.8355E+06              0.    -13.9762E+06
           19651     33.0382E+06     47.0998E+06              0.    -14.2402E+06
           19652     32.3103E+06     47.3647E+06              0.    -14.5070E+06
           19653     31.5692E+06     47.6298E+06              0.    -14.7766E+06
           19654     30.8147E+06     47.8950E+06              0.    -15.0490E+06
           19655     30.0466E+06     48.1601E+06              0.    -15.3240E+06
           19656     29.2648E+06     48.4247E+06              0.    -15.6017E+06
           19657     28.4692E+06     48.6888E+06              0.    -15.8818E+06
           19658     27.6598E+06     48.9518E+06              0.    -16.1643E+06
           19659     26.8363E+06     49.2137E+06              0.    -16.4491E+06
           19660     25.9987E+06     49.4741E+06              0.    -16.7361E+06
           19661     25.1468E+06     49.7326E+06              0.    -17.0252E+06
           19662     24.2807E+06     49.9889E+06              0.    -17.3162E+06
           19663     23.4002E+06     50.2427E+06              0.    -17.6091E+06
           19664     22.5051E+06     50.4936E+06              0.    -17.9036E+06
           19665     21.5956E+06     50.7412E+06              0.    -18.1997E+06
           19666     20.6714E+06     50.9851E+06              0.    -18.4972E+06
           19667     19.7325E+06     51.2249E+06              0.    -18.7960E+06
           19668     18.7789E+06     51.4601E+06              0.    -19.0957E+06
           19669     17.8105E+06     51.6902E+06              0.    -19.3964E+06
           19670     16.8273E+06     51.9148E+06              0.    -19.6977E+06
           19671     15.8293E+06     52.1333E+06              0.    -19.9995E+06
           19672     14.8164E+06     52.3452E+06              0.    -20.3016E+06
           19673     13.7887E+06     52.5500E+06              0.    -20.6037E+06
           19674     12.7460E+06     52.7469E+06              0.    -20.9056E+06
           19675     11.6886E+06     52.9355E+06              0.    -21.2071E+06
           19676     10.6163E+06     53.1150E+06              0.    -21.5079E+06
           19677     9.52930E+06     53.2849E+06              0.    -21.8078E+06
           19678     8.42753E+06     53.4443E+06              0.    -22.1065E+06
           19679      7.3111E+06     53.5926E+06              0.    -22.4036E+06
           19680     6.18008E+06     53.7290E+06              0.    -22.6989E+06
           19681     5.03456E+06     53.8528E+06              0.    -22.9921E+06
           19682     3.87465E+06      53.963E+06              0.    -23.2829E+06
           19683     2.70047E+06     54.0589E+06              0.    -23.5709E+06
           19684     1.51214E+06     54.1395E+06              0.    -23.8557E+06
           19685     309.829E+03     54.2040E+06              0.    -24.1371E+06
           19686    -906.309E+03     54.2514E+06              0.    -24.4147E+06
           19687    -2.13609E+06     54.2808E+06              0.    -24.6880E+06
           19688     -3.3793E+06     54.2909E+06              0.    -24.9567E+06
           19689    -4.63573E+06     54.2810E+06              0.    -25.2204E+06
           19690    -5.90514E+06     54.2497E+06              0.    -25.4787E+06
           19691    -7.18728E+06     54.1960E+06              0.    -25.7311E+06
           19692    -8.48187E+06     54.1188E+06              0.    -25.9772E+06
           19693    -9.78861E+06     54.0167E+06              0.    -26.2165E+06
           19694    -11.1072E+06     53.8886E+06              0.    -26.4487E+06
           19695    -12.4373E+06     53.7332E+06              0.    -26.6732E+06
           19696    -13.7785E+06     53.5491E+06              0.    -26.8895E+06
           19697    -15.1305E+06     53.3350E+06              0.    -27.0972E+06
           19698    -16.4928E+06     53.0895E+06              0.    -27.2957E+06
           19699    -17.8650E+06     52.8110E+06              0.    -27.4846E+06
           19700    -19.2468E+06     52.4982E+06              0.    -27.6633E+06
           19701    -20.6375E+06     52.1495E+06              0.    -27.8313E+06
           19702    -22.0367E+06     51.7632E+06              0.    -27.9881E+06
           19703    -23.4439E+06     51.3379E+06              0.    -28.1332E+06
           19704    -24.8586E+06     50.8718E+06              0.    -28.2659E+06
           19705    -26.2801E+06     50.3632E+06              0.    -28.3858E+06
           19706    -27.7079E+06     49.8105E+06              0.    -28.4923E+06
           19707    -29.1413E+06     49.2117E+06              0.    -28.5848E+06
           19708    -30.5797E+06     48.5653E+06              0.    -28.6628E+06
           19709    -32.0224E+06     47.8691E+06              0.    -28.7257E+06
           19710    -33.4686E+06     47.1215E+06              0.    -28.7729E+06
           19711    -34.9178E+06     46.3203E+06              0.    -28.8039E+06
           19712    -36.3690E+06     45.4638E+06              0.    -28.8182E+06
           19713    -37.8216E+06     44.5499E+06              0.    -28.8150E+06
           19714    -39.2747E+06     43.5765E+06              0.    -28.7940E+06
           19715    -40.7274E+06     42.5417E+06              0.    -28.7544E+06
           19716    -42.1789E+06     41.4433E+06              0.    -28.6959E+06
           19717    -43.6283E+06     40.2791E+06              0.    -28.6177E+06
           19718    -45.0747E+06     39.0471E+06              0.    -28.5194E+06
           19719    -46.5171E+06     37.7452E+06              0.    -28.4005E+06
           19720    -47.9544E+06     36.3710E+06              0.    -28.2604E+06
           19721    -49.3858E+06     34.9224E+06              0.    -28.0986E+06
           19722    -50.8102E+06     33.3971E+06              0.    -27.9145E+06
           19723    -52.2265E+06     31.7930E+06              0.    -27.7078E+06
           19724    -53.6336E+06     30.1077E+06              0.    -27.4779E+06
           19725    -55.0304E+06     28.3390E+06              0.    -27.2242E+06
           19726    -56.4157E+06     26.4846E+06              0.    -26.9465E+06
           19727    -57.7884E+06     24.5423E+06              0.    -26.6442E+06
           19728    -59.1473E+06     22.5097E+06              0.    -26.3169E+06
           19729    -60.4911E+06     20.3846E+06              0.    -25.9642E+06
           19730    -61.8187E+06     18.1647E+06              0.    -25.5856E+06
           19731    -63.1286E+06     15.8478E+06              0.    -25.1809E+06
           19732    -64.4196E+06     13.4315E+06              0.    -24.7497E+06
           19733    -65.6904E+06     10.9136E+06              0.    -24.2915E+06
           19734    -66.9396E+06     8.29196E+06              0.    -23.8062E+06
           19735    -68.1659E+06     5.56430E+06              0.    -23.2933E+06
           19736    -69.3678E+06     2.72850E+06              0.    -22.7526E+06
           19737    -70.5438E+06    -217.674E+03              0.    -22.1838E+06
           19738    -71.6927E+06    -3.27627E+06              0.    -21.5868E+06
           19739    -72.8127E+06    -6.44946E+06              0.    -20.9612E+06
           19740    -73.9025E+06    -9.73926E+06              0.    -20.3068E+06
           19741    -74.9605E+06    -13.1476E+06              0.    -19.6234E+06
           19742    -75.9853E+06    -16.6767E+06              0.    -18.9109E+06
           19743     -76.975E+06    -20.3282E+06              0.    -18.1691E+06
           19744    -77.9282E+06    -24.1042E+06              0.    -17.3979E+06
           19745    -78.8434E+06    -28.0065E+06              0.    -16.5971E+06
           19746    -79.7189E+06    -32.0370E+06              0.    -15.7665E+06
           19747    -81.3246E+06    -36.6250E+06              0.    -15.3727E+06
           19748     64.0137E+06     28.1121E+06              0.    -1.30793E+06
           19749     64.0326E+06       28.32E+06              0.    -1.30549E+06
           19750     63.9623E+06     28.4845E+06              0.    -1.28793E+06
           19751     63.8929E+06     28.6446E+06              0.    -1.27296E+06
           19752     63.8242E+06     28.8003E+06              0.    -1.26051E+06
           19753     63.7561E+06     28.9520E+06              0.    -1.25053E+06
           19754     63.6884E+06     29.0999E+06              0.    -1.24295E+06
           19755      63.621E+06     29.2441E+06              0.    -1.23770E+06
           19756     63.5538E+06     29.3848E+06              0.    -1.23473E+06
           19757     63.4867E+06     29.5222E+06              0.    -1.23398E+06
           19758     63.4195E+06     29.6565E+06              0.    -1.23541E+06
           19759     63.3521E+06     29.7878E+06              0.    -1.23896E+06
           19760     63.2845E+06     29.9164E+06              0.    -1.24459E+06
           19761     63.2164E+06     30.0424E+06              0.    -1.25225E+06
           19762     63.1479E+06     30.1659E+06              0.    -1.26190E+06
           19763     63.0787E+06     30.2872E+06              0.    -1.27351E+06
           19764     63.0087E+06     30.4063E+06              0.    -1.28704E+06
           19765     62.9380E+06     30.5234E+06              0.    -1.30245E+06
           19766     62.8663E+06     30.6386E+06              0.    -1.31972E+06
           19767     62.7935E+06     30.7521E+06              0.    -1.33881E+06
           19768     62.7196E+06     30.8640E+06              0.    -1.35970E+06
           19769     62.6445E+06     30.9745E+06              0.    -1.38237E+06
           19770     62.5681E+06     31.0836E+06              0.    -1.40678E+06
           19771     62.4903E+06     31.1915E+06              0.    -1.43292E+06
           19772     62.4109E+06     31.2984E+06              0.    -1.46077E+06
           19773     62.3299E+06     31.4042E+06              0.    -1.49031E+06
           19774     62.2472E+06     31.5092E+06              0.    -1.52153E+06
           19775     62.1627E+06     31.6135E+06              0.    -1.55442E+06
           19776     62.0763E+06     31.7171E+06              0.    -1.58895E+06
           19777     61.9880E+06     31.8201E+06              0.    -1.62513E+06
           19778     61.8976E+06     31.9228E+06              0.    -1.66294E+06
           19779     61.8050E+06     32.0250E+06              0.    -1.70237E+06
           19780     61.7102E+06     32.1271E+06              0.    -1.74343E+06
           19781     61.6130E+06     32.2290E+06              0.    -1.78610E+06
           19782     61.5135E+06     32.3309E+06              0.    -1.83038E+06
           19783     61.4114E+06     32.4328E+06              0.    -1.87628E+06
           19784     61.3067E+06     32.5349E+06              0.    -1.92379E+06
           19785     61.1994E+06     32.6371E+06              0.    -1.97291E+06
           19786     61.0893E+06     32.7397E+06              0.    -2.02365E+06
           19787     60.9763E+06     32.8426E+06              0.    -2.07601E+06
           19788     60.8604E+06     32.9461E+06              0.    -2.13000E+06
           19789     60.7414E+06     33.0500E+06              0.    -2.18562E+06
           19790     60.6194E+06     33.1547E+06              0.    -2.24288E+06
           19791     60.4941E+06     33.2600E+06              0.    -2.30178E+06
           19792     60.3655E+06     33.3661E+06              0.    -2.36235E+06
           19793     60.2335E+06     33.4730E+06              0.    -2.42459E+06
           19794     60.0980E+06     33.5809E+06              0.    -2.48851E+06
           19795     59.9590E+06     33.6897E+06              0.    -2.55413E+06
           19796     59.8163E+06     33.7997E+06              0.    -2.62146E+06
           19797     59.6698E+06     33.9108E+06              0.    -2.69051E+06
           19798     59.5195E+06     34.0230E+06              0.    -2.76130E+06
           19799     59.3652E+06     34.1366E+06              0.    -2.83385E+06
           19800     59.2069E+06     34.2514E+06              0.    -2.90818E+06
           19801     59.0444E+06     34.3677E+06              0.    -2.98430E+06
           19802     58.8777E+06     34.4855E+06              0.    -3.06224E+06
           19803     58.7066E+06     34.6047E+06              0.    -3.14201E+06
           19804     58.5311E+06     34.7256E+06              0.    -3.22364E+06
           19805     58.3511E+06     34.8480E+06              0.    -3.30715E+06
           19806     58.1665E+06     34.9722E+06              0.    -3.39255E+06
           19807     57.9771E+06     35.0981E+06              0.    -3.47989E+06
           19808     57.7828E+06     35.2259E+06              0.    -3.56917E+06
           19809     57.5836E+06     35.3555E+06              0.    -3.66042E+06
           19810     57.3793E+06     35.4870E+06              0.    -3.75367E+06
           19811     57.1699E+06     35.6205E+06              0.    -3.84895E+06
           19812     56.9552E+06     35.7560E+06              0.    -3.94628E+06
           19813     56.7351E+06     35.8936E+06              0.    -4.04568E+06
           19814     56.5095E+06     36.0333E+06              0.    -4.14719E+06
           19815     56.2783E+06     36.1752E+06              0.    -4.25084E+06
           19816     56.0414E+06     36.3192E+06              0.    -4.35665E+06
           19817     55.7986E+06     36.4656E+06              0.    -4.46465E+06
           19818     55.5498E+06     36.6143E+06              0.    -4.57486E+06
           19819     55.2950E+06     36.7653E+06              0.    -4.68733E+06
           19820     55.0340E+06     36.9187E+06              0.    -4.80208E+06
           19821     54.7667E+06     37.0745E+06              0.    -4.91914E+06
           19822     54.4929E+06     37.2328E+06              0.    -5.03854E+06
           19823     54.2125E+06     37.3936E+06              0.    -5.16030E+06
           19824     53.9254E+06     37.5569E+06              0.    -5.28447E+06
           19825     53.6316E+06     37.7228E+06              0.    -5.41107E+06
           19826     53.3307E+06     37.8913E+06              0.    -5.54013E+06
           19827     53.0228E+06     38.0625E+06              0.    -5.67169E+06
           19828     52.7076E+06     38.2363E+06              0.    -5.80577E+06
           19829     52.3851E+06     38.4128E+06              0.    -5.94240E+06
           19830     52.0551E+06     38.5921E+06              0.    -6.08162E+06
           19831     51.7175E+06     38.7741E+06              0.    -6.22345E+06
           19832     51.3721E+06     38.9588E+06              0.    -6.36792E+06
           19833     51.0188E+06     39.1463E+06              0.    -6.51507E+06
           19834     50.6575E+06     39.3366E+06              0.    -6.66492E+06
           19835     50.2880E+06     39.5298E+06              0.     -6.8175E+06
           19836     49.9102E+06     39.7257E+06              0.    -6.97284E+06
           19837     49.5239E+06     39.9245E+06              0.    -7.13096E+06
           19838     49.1289E+06     40.1262E+06              0.    -7.29190E+06
           19839     48.7252E+06     40.3306E+06              0.    -7.45567E+06
           19840     48.3126E+06     40.5379E+06              0.    -7.62231E+06
           19841     47.8909E+06     40.7480E+06              0.    -7.79183E+06
           19842       47.46E+06     40.9610E+06              0.    -7.96427E+06
           19843     47.0197E+06     41.1768E+06              0.    -8.13963E+06
           19844     46.5699E+06     41.3954E+06              0.    -8.31795E+06
           19845     46.1105E+06     41.6167E+06              0.    -8.49923E+06
           19846     45.6412E+06     41.8408E+06              0.    -8.68351E+06
           19847     45.1619E+06     42.0677E+06              0.    -8.87079E+06
           19848     44.6725E+06     42.2972E+06              0.    -9.06108E+06
           19849     44.1728E+06     42.5294E+06              0.    -9.25441E+06
           19850     43.6627E+06     42.7642E+06              0.    -9.45079E+06
           19851     43.1420E+06     43.0016E+06              0.    -9.65021E+06
           19852     42.6105E+06     43.2414E+06              0.    -9.85269E+06
           19853     42.0681E+06     43.4838E+06              0.    -10.0582E+06
           19854     41.5146E+06     43.7285E+06              0.    -10.2668E+06
           19855     40.9499E+06     43.9756E+06              0.    -10.4785E+06
           19856     40.3738E+06     44.2249E+06              0.    -10.6932E+06
           19857     39.7862E+06     44.4763E+06              0.    -10.9110E+06
           19858     39.1869E+06     44.7298E+06              0.    -11.1318E+06
           19859     38.5758E+06     44.9853E+06              0.    -11.3557E+06
           19860     37.9526E+06     45.2426E+06              0.    -11.5826E+06
           19861     37.3174E+06     45.5017E+06              0.    -11.8124E+06
           19862     36.6698E+06     45.7623E+06              0.    -12.0453E+06
           19863     36.0098E+06     46.0244E+06              0.    -12.2810E+06
           19864     35.3372E+06     46.2879E+06              0.    -12.5197E+06
           19865     34.6519E+06     46.5525E+06              0.    -12.7613E+06
           19866     33.9537E+06     46.8182E+06              0.    -13.0057E+06
           19867     33.2425E+06     47.0847E+06              0.    -13.2529E+06
           19868     32.5181E+06     47.3518E+06              0.    -13.5029E+06
           19869     31.7805E+06     47.6194E+06              0.    -13.7556E+06
           19870     31.0294E+06     47.8872E+06              0.    -14.0108E+06
           19871     30.2648E+06     48.1550E+06              0.    -14.2687E+06
           19872     29.4865E+06     48.4227E+06              0.    -14.5291E+06
           19873     28.6945E+06     48.6898E+06              0.    -14.7918E+06
           19874     27.8886E+06     48.9562E+06              0.    -15.0569E+06
           19875     27.0686E+06     49.2216E+06              0.    -15.3243E+06
           19876     26.2345E+06     49.4857E+06              0.    -15.5938E+06
           19877     25.3863E+06     49.7482E+06              0.    -15.8654E+06
           19878     24.5237E+06     50.0087E+06              0.    -16.1389E+06
           19879     23.6467E+06      50.267E+06              0.    -16.4142E+06
           19880     22.7552E+06     50.5226E+06              0.    -16.6913E+06
           19881     21.8492E+06     50.7752E+06              0.    -16.9699E+06
           19882     20.9285E+06     51.0243E+06              0.    -17.2499E+06
           19883     19.9931E+06     51.2697E+06              0.    -17.5313E+06
           19884     19.0430E+06     51.5107E+06              0.    -17.8137E+06
           19885     18.0782E+06     51.7470E+06              0.    -18.0972E+06
           19886     17.0984E+06     51.9781E+06              0.    -18.3814E+06
           19887     16.1039E+06     52.2034E+06              0.    -18.6662E+06
           19888     15.0944E+06     52.4225E+06              0.    -18.9514E+06
           19889     14.0701E+06     52.6348E+06              0.    -19.2369E+06
           19890     13.0309E+06     52.8397E+06              0.    -19.5223E+06
           19891     11.9768E+06     53.0367E+06              0.    -19.8076E+06
           19892     10.9078E+06     53.2250E+06              0.    -20.0924E+06
           19893     9.82408E+06     53.4041E+06              0.    -20.3765E+06
           19894     8.72556E+06     53.5732E+06              0.    -20.6596E+06
           19895     7.61232E+06     53.7317E+06              0.    -20.9416E+06
           19896     6.48445E+06     53.8789E+06              0.    -21.2221E+06
           19897     5.34203E+06     54.0138E+06              0.    -21.5008E+06
           19898     4.18515E+06     54.1358E+06              0.    -21.7775E+06
           19899     3.01393E+06     54.2441E+06              0.    -22.0518E+06
           19900     1.82851E+06     54.3377E+06              0.    -22.3235E+06
           19901     629.024E+03     54.4158E+06              0.    -22.5921E+06
           19902    -584.364E+03     54.4774E+06              0.    -22.8575E+06
           19903    -1.81148E+06     54.5216E+06              0.    -23.1191E+06
           19904    -3.05212E+06     54.5473E+06              0.    -23.3767E+06
           19905    -4.30608E+06     54.5536E+06              0.    -23.6299E+06
           19906    -5.57312E+06     54.5394E+06              0.    -23.8783E+06
           19907    -6.85300E+06     54.5036E+06              0.    -24.1215E+06
           19908    -8.14545E+06     54.4450E+06              0.    -24.3591E+06
           19909    -9.45017E+06     54.3624E+06              0.    -24.5908E+06
           19910    -10.7669E+06     54.2547E+06              0.    -24.8159E+06
           19911    -12.0952E+06     54.1206E+06              0.    -25.0343E+06
           19912    -13.4348E+06     53.9587E+06              0.    -25.2453E+06
           19913    -14.7854E+06     53.7678E+06              0.    -25.4486E+06
           19914    -16.1465E+06     53.5464E+06              0.    -25.6437E+06
           19915    -17.5176E+06     53.2932E+06              0.    -25.8300E+06
           19916    -18.8985E+06     53.0067E+06              0.    -26.0072E+06
           19917    -20.2885E+06     52.6854E+06              0.    -26.1748E+06
           19918    -21.6873E+06     52.3278E+06              0.    -26.3322E+06
           19919    -23.0943E+06     51.9322E+06              0.    -26.4790E+06
           19920    -24.5090E+06     51.4971E+06              0.    -26.6146E+06
           19921    -25.9307E+06     51.0208E+06              0.    -26.7386E+06
           19922    -27.3590E+06     50.5017E+06              0.    -26.8504E+06
           19923    -28.7932E+06     49.9379E+06              0.    -26.9494E+06
           19924    -30.2327E+06     49.3277E+06              0.    -27.0353E+06
           19925    -31.6768E+06     48.6693E+06              0.    -27.1074E+06
           19926    -33.1248E+06     47.9609E+06              0.    -27.1652E+06
           19927    -34.5761E+06     47.2005E+06              0.    -27.2082E+06
           19928    -36.0298E+06     46.3863E+06              0.    -27.2358E+06
           19929    -37.4851E+06     45.5162E+06              0.    -27.2476E+06
           19930    -38.9414E+06     44.5884E+06              0.    -27.2430E+06
           19931    -40.3978E+06     43.6007E+06              0.    -27.2214E+06
           19932    -41.8533E+06     42.5511E+06              0.    -27.1824E+06
           19933    -43.3073E+06     41.4376E+06              0.    -27.1253E+06
           19934    -44.7586E+06     40.2580E+06              0.    -27.0498E+06
           19935    -46.2064E+06     39.0102E+06              0.    -26.9553E+06
           19936    -47.6498E+06     37.6921E+06              0.    -26.8413E+06
           19937    -49.0878E+06     36.3014E+06              0.    -26.7073E+06
           19938    -50.5192E+06     34.8360E+06              0.    -26.5528E+06
           19939    -51.9432E+06     33.2936E+06              0.    -26.3773E+06
           19940    -53.3586E+06     31.6721E+06              0.    -26.1804E+06
           19941    -54.7643E+06     29.9691E+06              0.    -25.9616E+06
           19942    -56.1592E+06     28.1825E+06              0.    -25.7205E+06
           19943    -57.5422E+06     26.3100E+06              0.    -25.4566E+06
           19944    -58.9120E+06     24.3493E+06              0.    -25.1695E+06
           19945    -60.2675E+06     22.2981E+06              0.    -24.8589E+06
           19946    -61.6075E+06     20.1542E+06              0.    -24.5243E+06
           19947    -62.9306E+06     17.9154E+06              0.    -24.1654E+06
           19948    -64.2357E+06     15.5793E+06              0.    -23.7818E+06
           19949    -65.5214E+06     13.1438E+06              0.    -23.3731E+06
           19950    -66.7863E+06     10.6066E+06              0.    -22.9391E+06
           19951    -68.0292E+06     7.96549E+06              0.    -22.4795E+06
           19952    -69.2486E+06     5.21831E+06              0.    -21.9939E+06
           19953    -70.4432E+06     2.36293E+06              0.    -21.4821E+06
           19954    -71.6115E+06    -602.870E+03              0.    -20.9438E+06
           19955    -72.7520E+06    -3.68112E+06              0.    -20.3789E+06
           19956    -73.8633E+06    -6.87398E+06              0.    -19.7870E+06
           19957    -74.9439E+06    -10.1834E+06              0.    -19.1680E+06
           19958    -75.9922E+06    -13.6115E+06              0.    -18.5216E+06
           19959    -77.0066E+06    -17.1602E+06              0.    -17.8478E+06
           19960    -77.9857E+06    -20.8313E+06              0.    -17.1464E+06
           19961    -78.9278E+06    -24.6268E+06              0.    -16.4172E+06
           19962    -79.8312E+06    -28.5486E+06              0.    -15.6601E+06
           19963    -80.6939E+06    -32.5981E+06              0.    -14.8749E+06
           19964    -82.2988E+06    -37.2047E+06              0.    -14.5021E+06
           19965     63.9637E+06     28.0905E+06              0.    -1.23677E+06
           19966     63.9828E+06     28.3015E+06              0.    -1.23446E+06
           19967     63.9115E+06     28.4685E+06              0.    -1.21785E+06
           19968     63.8410E+06     28.6310E+06              0.    -1.20369E+06
           19969     63.7713E+06     28.7891E+06              0.    -1.19193E+06
           19970     63.7021E+06     28.9432E+06              0.    -1.18249E+06
           19971     63.6334E+06     29.0932E+06              0.    -1.17531E+06
           19972     63.5650E+06     29.2396E+06              0.    -1.17035E+06
           19973     63.4968E+06     29.3825E+06              0.    -1.16754E+06
           19974     63.4286E+06     29.5220E+06              0.    -1.16683E+06
           19975     63.3604E+06     29.6583E+06              0.    -1.16818E+06
           19976     63.2920E+06     29.7917E+06              0.    -1.17153E+06
           19977     63.2234E+06     29.9222E+06              0.    -1.17685E+06
           19978     63.1543E+06     30.0501E+06              0.    -1.18409E+06
           19979     63.0846E+06     30.1755E+06              0.    -1.19322E+06
           19980     63.0144E+06     30.2986E+06              0.    -1.20420E+06
           19981     62.9434E+06     30.4195E+06              0.    -1.21699E+06
           19982     62.8716E+06     30.5384E+06              0.    -1.23156E+06
           19983     62.7988E+06     30.6554E+06              0.    -1.24788E+06
           19984     62.7249E+06     30.7706E+06              0.    -1.26594E+06
           19985     62.6500E+06     30.8842E+06              0.    -1.28569E+06
           19986     62.5737E+06     30.9964E+06              0.    -1.30711E+06
           19987     62.4961E+06     31.1071E+06              0.    -1.33019E+06
           19988     62.4171E+06     31.2167E+06              0.    -1.35491E+06
           19989     62.3365E+06     31.3251E+06              0.    -1.38124E+06
           19990     62.2543E+06     31.4326E+06              0.    -1.40917E+06
           19991     62.1703E+06     31.5392E+06              0.    -1.43869E+06
           19992     62.0846E+06     31.6450E+06              0.    -1.46978E+06
           19993     61.9969E+06     31.7502E+06              0.    -1.50243E+06
           19994     61.9072E+06     31.8548E+06              0.    -1.53664E+06
           19995     61.8154E+06     31.9590E+06              0.    -1.57238E+06
           19996     61.7215E+06     32.0628E+06              0.    -1.60967E+06
           19997     61.6252E+06     32.1664E+06              0.    -1.64848E+06
           19998     61.5266E+06     32.2699E+06              0.    -1.68882E+06
           19999     61.4256E+06     32.3733E+06              0.    -1.73069E+06
           20000     61.3220E+06     32.4767E+06              0.    -1.77409E+06
           20001     61.2157E+06     32.5803E+06              0.    -1.81900E+06
           20002     61.1068E+06     32.6841E+06              0.    -1.86544E+06
           20003     60.9950E+06     32.7882E+06              0.    -1.91341E+06
           20004     60.8803E+06     32.8927E+06              0.    -1.96292E+06
           20005     60.7627E+06     32.9977E+06              0.    -2.01396E+06
           20006     60.6419E+06     33.1032E+06              0.    -2.06654E+06
           20007     60.5180E+06     33.2094E+06              0.    -2.12067E+06
           20008     60.3909E+06     33.3163E+06              0.    -2.17637E+06
           20009     60.2603E+06     33.4239E+06              0.    -2.23363E+06
           20010     60.1264E+06     33.5325E+06              0.    -2.29247E+06
           20011     59.9889E+06     33.6419E+06              0.    -2.35290E+06
           20012     59.8478E+06     33.7524E+06              0.    -2.41493E+06
           20013     59.7029E+06     33.8640E+06              0.    -2.47858E+06
           20014     59.5542E+06     33.9767E+06              0.    -2.54386E+06
           20015     59.4017E+06     34.0906E+06              0.    -2.61078E+06
           20016     59.2451E+06     34.2059E+06              0.    -2.67937E+06
           20017     59.0844E+06     34.3224E+06              0.    -2.74964E+06
           20018     58.9195E+06     34.4404E+06              0.    -2.82160E+06
           20019     58.7503E+06     34.5599E+06              0.    -2.89527E+06
           20020     58.5767E+06     34.6809E+06              0.    -2.97068E+06
           20021     58.3986E+06     34.8035E+06              0.    -3.04785E+06
           20022     58.2159E+06     34.9278E+06              0.    -3.12678E+06
           20023     58.0285E+06     35.0537E+06              0.    -3.20752E+06
           20024     57.8363E+06     35.1815E+06              0.    -3.29007E+06
           20025     57.6392E+06     35.3111E+06              0.    -3.37447E+06
           20026     57.4370E+06     35.4426E+06              0.    -3.46072E+06
           20027     57.2298E+06     35.5760E+06              0.    -3.54887E+06
           20028     57.0172E+06     35.7114E+06              0.    -3.63893E+06
           20029     56.7993E+06     35.8489E+06              0.    -3.73092E+06
           20030     56.5760E+06     35.9885E+06              0.    -3.82488E+06
           20031     56.3471E+06     36.1302E+06              0.    -3.92083E+06
           20032     56.1125E+06     36.2741E+06              0.    -4.01880E+06
           20033     55.8721E+06     36.4202E+06              0.    -4.11880E+06
           20034     55.6257E+06     36.5687E+06              0.    -4.22088E+06
           20035     55.3733E+06     36.7194E+06              0.    -4.32505E+06
           20036     55.1148E+06     36.8726E+06              0.    -4.43135E+06
           20037     54.8499E+06     37.0282E+06              0.    -4.53979E+06
           20038     54.5787E+06     37.1862E+06              0.    -4.65042E+06
           20039     54.3009E+06     37.3467E+06              0.    -4.76326E+06
           20040     54.0165E+06     37.5097E+06              0.    -4.87834E+06
           20041     53.7252E+06     37.6754E+06              0.    -4.99569E+06
           20042     53.4271E+06     37.8436E+06              0.    -5.11533E+06
           20043     53.1219E+06     38.0145E+06              0.    -5.23729E+06
           20044     52.8095E+06     38.1880E+06              0.    -5.36161E+06
           20045     52.4898E+06     38.3642E+06              0.    -5.48831E+06
           20046     52.1626E+06     38.5432E+06              0.    -5.61742E+06
           20047     51.8279E+06     38.7249E+06              0.    -5.74897E+06
           20048     51.4854E+06     38.9093E+06              0.    -5.88299E+06
           20049     51.1350E+06     39.0966E+06              0.    -6.01950E+06
           20050     50.7767E+06     39.2867E+06              0.    -6.15853E+06
           20051     50.4102E+06     39.4796E+06              0.    -6.30012E+06
           20052     50.0354E+06     39.6753E+06              0.    -6.44428E+06
           20053     49.6522E+06     39.8739E+06              0.    -6.59104E+06
           20054     49.2604E+06     40.0753E+06              0.    -6.74043E+06
           20055     48.8598E+06     40.2796E+06              0.    -6.89247E+06
           20056     48.4504E+06     40.4868E+06              0.    -7.04719E+06
           20057     48.0320E+06     40.6968E+06              0.    -7.20461E+06
           20058     47.6044E+06     40.9097E+06              0.    -7.36475E+06
           20059     47.1674E+06     41.1254E+06              0.    -7.52764E+06
           20060     46.7210E+06     41.3440E+06              0.    -7.69328E+06
           20061     46.2649E+06     41.5654E+06              0.    -7.86171E+06
           20062     45.7990E+06     41.7895E+06              0.    -8.03294E+06
           20063     45.3232E+06     42.0165E+06              0.    -8.20699E+06
           20064     44.8373E+06     42.2462E+06              0.    -8.38387E+06
           20065     44.3412E+06     42.4786E+06              0.    -8.56359E+06
           20066     43.8346E+06     42.7136E+06              0.    -8.74617E+06
           20067     43.3175E+06     42.9514E+06              0.    -8.93161E+06
           20068     42.7896E+06     43.1916E+06              0.    -9.11993E+06
           20069     42.2509E+06     43.4344E+06              0.    -9.31113E+06
           20070     41.7011E+06     43.6797E+06              0.    -9.50521E+06
           20071     41.1402E+06     43.9273E+06              0.    -9.70217E+06
           20072     40.5679E+06     44.1773E+06              0.    -9.90202E+06
           20073     39.9841E+06     44.4295E+06              0.    -10.1047E+06
           20074     39.3886E+06     44.6838E+06              0.    -10.3103E+06
           20075     38.7813E+06     44.9402E+06              0.    -10.5188E+06
           20076     38.1621E+06     45.1986E+06              0.    -10.7301E+06
           20077     37.5308E+06     45.4588E+06              0.    -10.9443E+06
           20078     36.8872E+06     45.7207E+06              0.    -11.1612E+06
           20079     36.2311E+06     45.9842E+06              0.    -11.3810E+06
           20080     35.5625E+06     46.2491E+06              0.    -11.6035E+06
           20081     34.8813E+06     46.5154E+06              0.    -11.8288E+06
           20082     34.1871E+06     46.7828E+06              0.    -12.0567E+06
           20083     33.4800E+06     47.0511E+06              0.    -12.2874E+06
           20084     32.7597E+06     47.3203E+06              0.    -12.5206E+06
           20085     32.0262E+06     47.5900E+06              0.    -12.7565E+06
           20086     31.2793E+06     47.8602E+06              0.    -12.9948E+06
           20087     30.5189E+06     48.1305E+06              0.    -13.2356E+06
           20088     29.7448E+06     48.4008E+06              0.    -13.4789E+06
           20089     28.9570E+06     48.6708E+06              0.    -13.7244E+06
           20090     28.1552E+06     48.9403E+06              0.    -13.9723E+06
           20091     27.3395E+06     49.2090E+06              0.    -14.2223E+06
           20092     26.5097E+06     49.4766E+06              0.    -14.4744E+06
           20093     25.6657E+06     49.7428E+06              0.    -14.7285E+06
           20094     24.8073E+06     50.0072E+06              0.    -14.9846E+06
           20095     23.9346E+06     50.2697E+06              0.    -15.2424E+06
           20096     23.0473E+06     50.5297E+06              0.    -15.5020E+06
           20097     22.1456E+06     50.7870E+06              0.    -15.7631E+06
           20098     21.2292E+06     51.0411E+06              0.    -16.0257E+06
           20099     20.2980E+06     51.2917E+06              0.    -16.2896E+06
           20100     19.3522E+06     51.5383E+06              0.    -16.5547E+06
           20101     18.3915E+06     51.7805E+06              0.    -16.8208E+06
           20102     17.4160E+06     52.0178E+06              0.    -17.0878E+06
           20103     16.4256E+06     52.2498E+06              0.    -17.3556E+06
           20104     15.4204E+06     52.4758E+06              0.    -17.6238E+06
           20105     14.4002E+06     52.6954E+06              0.    -17.8925E+06
           20106     13.3651E+06     52.9080E+06              0.    -18.1613E+06
           20107     12.3151E+06     53.1131E+06              0.    -18.4300E+06
           20108     11.2502E+06     53.3100E+06              0.    -18.6986E+06
           20109     10.1704E+06     53.4981E+06              0.    -18.9666E+06
           20110     9.07587E+06     53.6767E+06              0.    -19.2340E+06
           20111     7.96655E+06     53.8452E+06              0.    -19.5005E+06
           20112     6.84254E+06     54.0028E+06              0.    -19.7658E+06
           20113     5.70392E+06     54.1488E+06              0.    -20.0296E+06
           20114     4.55078E+06     54.2824E+06              0.    -20.2918E+06
           20115     3.38324E+06     54.4027E+06              0.    -20.5520E+06
           20116     2.20141E+06     54.5090E+06              0.    -20.8099E+06
           20117     1.00544E+06     54.6005E+06              0.    -21.0653E+06
           20118    -204.519E+03     54.6761E+06              0.    -21.3178E+06
           20119    -1.42829E+06     54.7349E+06              0.    -21.5672E+06
           20120    -2.66570E+06     54.7760E+06              0.    -21.8130E+06
           20121    -3.91653E+06     54.7984E+06              0.    -22.0550E+06
           20122    -5.18056E+06     54.8010E+06              0.    -22.2927E+06
           20123    -6.45754E+06     54.7828E+06              0.    -22.5259E+06
           20124    -7.74723E+06     54.7426E+06              0.    -22.7542E+06
           20125    -9.04933E+06     54.6793E+06              0.    -22.9772E+06
           20126    -10.3635E+06     54.5917E+06              0.    -23.1944E+06
           20127    -11.6896E+06     54.4786E+06              0.    -23.4056E+06
           20128    -13.0270E+06     54.3387E+06              0.    -23.6103E+06
           20129    -14.3756E+06     54.1707E+06              0.    -23.8080E+06
           20130    -15.7349E+06     53.9733E+06              0.    -23.9984E+06
           20131    -17.1044E+06     53.7451E+06              0.    -24.1811E+06
           20132    -18.4839E+06     53.4847E+06              0.    -24.3555E+06
           20133    -19.8728E+06     53.1905E+06              0.    -24.5212E+06
           20134    -21.2706E+06     52.8612E+06              0.    -24.6778E+06
           20135    -22.6769E+06     52.4951E+06              0.    -24.8249E+06
           20136    -24.0911E+06     52.0907E+06              0.    -24.9618E+06
           20137    -25.5127E+06     51.6464E+06              0.    -25.0882E+06
           20138    -26.9411E+06     51.1605E+06              0.    -25.2037E+06
           20139    -28.3757E+06     50.6314E+06              0.    -25.3076E+06
           20140    -29.8159E+06     50.0572E+06              0.    -25.3995E+06
           20141    -31.2610E+06     49.4362E+06              0.    -25.4790E+06
           20142    -32.7104E+06     48.7666E+06              0.    -25.5454E+06
           20143    -34.1634E+06     48.0466E+06              0.    -25.5984E+06
           20144    -35.6192E+06     47.2742E+06              0.    -25.6375E+06
           20145    -37.0771E+06     46.4476E+06              0.    -25.6621E+06
           20146    -38.5363E+06     45.5648E+06              0.    -25.6717E+06
           20147    -39.9960E+06     44.6238E+06              0.    -25.6658E+06
           20148    -41.4554E+06     43.6226E+06              0.    -25.6440E+06
           20149    -42.9135E+06     42.5591E+06              0.    -25.6058E+06
           20150    -44.3696E+06     41.4314E+06              0.    -25.5506E+06
           20151    -45.8228E+06     40.2373E+06              0.    -25.4781E+06
           20152    -47.2719E+06     38.9746E+06              0.    -25.3876E+06
           20153    -48.7162E+06     37.6412E+06              0.    -25.2788E+06
           20154    -50.1546E+06     36.2350E+06              0.    -25.1511E+06
           20155    -51.5861E+06     34.7538E+06              0.    -25.0042E+06
           20156    -53.0096E+06     33.1953E+06              0.    -24.8376E+06
           20157    -54.4241E+06     31.5575E+06              0.    -24.6508E+06
           20158    -55.8284E+06     29.8379E+06              0.    -24.4435E+06
           20159    -57.2215E+06     28.0344E+06              0.    -24.2151E+06
           20160    -58.6022E+06     26.1448E+06              0.    -23.9654E+06
           20161    -59.9693E+06     24.1668E+06              0.    -23.6938E+06
           20162    -61.3216E+06     22.0981E+06              0.    -23.4001E+06
           20163    -62.6578E+06     19.9366E+06              0.    -23.0839E+06
           20164    -63.9768E+06     17.6799E+06              0.    -22.7449E+06
           20165    -65.2773E+06     15.3259E+06              0.    -22.3826E+06
           20166    -66.5579E+06     12.8723E+06              0.    -21.9968E+06
           20167    -67.8173E+06     10.3169E+06              0.    -21.5872E+06
           20168    -69.0542E+06     7.65753E+06              0.    -21.1535E+06
           20169    -70.2671E+06     4.89200E+06              0.    -20.6954E+06
           20170    -71.4547E+06     2.01820E+06              0.    -20.2127E+06
           20171    -72.6156E+06    -966.051E+03              0.    -19.7051E+06
           20172    -73.7483E+06    -4.06279E+06              0.    -19.1724E+06
           20173    -74.8513E+06    -7.27414E+06              0.    -18.6144E+06
           20174    -75.9232E+06    -10.6021E+06              0.    -18.0310E+06
           20175    -76.9623E+06    -14.0487E+06              0.    -17.4219E+06
           20176    -77.9672E+06    -17.6158E+06              0.    -16.7869E+06
           20177    -78.9362E+06    -21.3054E+06              0.    -16.1260E+06
           20178    -79.8678E+06    -25.1193E+06              0.    -15.4390E+06
           20179    -80.7604E+06    -29.0595E+06              0.    -14.7257E+06
           20180    -81.6126E+06    -33.1277E+06              0.    -13.9861E+06
           20181    -83.2183E+06    -37.7527E+06              0.    -13.6344E+06
           20182     63.9165E+06     28.0700E+06              0.    -1.16457E+06
           20183     63.9359E+06     28.2840E+06              0.    -1.16239E+06
           20184     63.8636E+06     28.4534E+06              0.    -1.14675E+06
           20185     63.7921E+06     28.6182E+06              0.    -1.13342E+06
           20186     63.7214E+06     28.7786E+06              0.    -1.12234E+06
           20187     63.6512E+06     28.9348E+06              0.    -1.11345E+06
           20188     63.5815E+06     29.0870E+06              0.    -1.10669E+06
           20189     63.5122E+06     29.2354E+06              0.    -1.10202E+06
           20190     63.4430E+06     29.3803E+06              0.    -1.09937E+06
           20191     63.3739E+06     29.5218E+06              0.    -1.09870E+06
           20192     63.3047E+06     29.6600E+06              0.    -1.09997E+06
           20193     63.2353E+06     29.7953E+06              0.    -1.10313E+06
           20194     63.1657E+06     29.9277E+06              0.    -1.10813E+06
           20195     63.0956E+06     30.0574E+06              0.    -1.11495E+06
           20196     63.0250E+06     30.1846E+06              0.    -1.12354E+06
           20197     62.9538E+06     30.3094E+06              0.    -1.13388E+06
           20198     62.8818E+06     30.4320E+06              0.    -1.14592E+06
           20199     62.8089E+06     30.5526E+06              0.    -1.15964E+06
           20200     62.7351E+06     30.6712E+06              0.    -1.17501E+06
           20201     62.6602E+06     30.7881E+06              0.    -1.19200E+06
           20202     62.5842E+06     30.9033E+06              0.    -1.21060E+06
           20203     62.5069E+06     31.0170E+06              0.    -1.23077E+06
           20204     62.4282E+06     31.1293E+06              0.    -1.25250E+06
           20205     62.3480E+06     31.2404E+06              0.    -1.27577E+06
           20206     62.2663E+06     31.3504E+06              0.    -1.30056E+06
           20207     62.1829E+06     31.4594E+06              0.    -1.32686E+06
           20208     62.0978E+06     31.5675E+06              0.    -1.35465E+06
           20209     62.0109E+06     31.6748E+06              0.    -1.38392E+06
           20210     61.9219E+06     31.7814E+06              0.    -1.41466E+06
           20211      61.831E+06     31.8875E+06              0.    -1.44687E+06
           20212     61.7379E+06     31.9932E+06              0.    -1.48052E+06
           20213     61.6427E+06     32.0985E+06              0.    -1.51563E+06
           20214     61.5451E+06     32.2035E+06              0.    -1.55217E+06
           20215     61.4451E+06     32.3084E+06              0.    -1.59015E+06
           20216     61.3426E+06     32.4132E+06              0.    -1.62957E+06
           20217     61.2376E+06     32.5181E+06              0.    -1.67042E+06
           20218     61.1298E+06     32.6232E+06              0.    -1.71271E+06
           20219     61.0194E+06     32.7284E+06              0.    -1.75644E+06
           20220     60.9060E+06     32.8340E+06              0.    -1.80160E+06
           20221     60.7898E+06     32.9399E+06              0.    -1.84820E+06
           20222     60.6705E+06     33.0464E+06              0.    -1.89626E+06
           20223     60.5480E+06     33.1534E+06              0.    -1.94576E+06
           20224     60.4224E+06      33.261E+06              0.    -1.99672E+06
           20225     60.2935E+06     33.3694E+06              0.    -2.04916E+06
           20226     60.1611E+06     33.4785E+06              0.    -2.10306E+06
           20227     60.0253E+06     33.5886E+06              0.    -2.15846E+06
           20228     59.8859E+06     33.6995E+06              0.    -2.21535E+06
           20229     59.7428E+06     33.8116E+06              0.    -2.27375E+06
           20230     59.5960E+06     33.9247E+06              0.    -2.33367E+06
           20231     59.4452E+06     34.0389E+06              0.    -2.39512E+06
           20232     59.2905E+06     34.1544E+06              0.    -2.45813E+06
           20233     59.1318E+06     34.2712E+06              0.    -2.52269E+06
           20234     58.9689E+06     34.3894E+06              0.    -2.58884E+06
           20235     58.8017E+06     34.5090E+06              0.    -2.65658E+06
           20236     58.6302E+06     34.6301E+06              0.    -2.72594E+06
           20237     58.4542E+06     34.7527E+06              0.    -2.79693E+06
           20238     58.2736E+06     34.8770E+06              0.    -2.86957E+06
           20239     58.0884E+06     35.0030E+06              0.    -2.94387E+06
           20240     57.8984E+06     35.1307E+06              0.    -3.01987E+06
           20241     57.7036E+06     35.2602E+06              0.    -3.09758E+06
           20242     57.5037E+06     35.3915E+06              0.    -3.17702E+06
           20243     57.2988E+06     35.5248E+06              0.    -3.25822E+06
           20244     57.0886E+06     35.6600E+06              0.    -3.34119E+06
           20245     56.8732E+06     35.7972E+06              0.    -3.42596E+06
           20246     56.6523E+06     35.9365E+06              0.    -3.51255E+06
           20247     56.4259E+06     36.0780E+06              0.    -3.60099E+06
           20248     56.1939E+06     36.2216E+06              0.    -3.69130E+06
           20249     55.9561E+06     36.3674E+06              0.    -3.78351E+06
           20250     55.7124E+06     36.5155E+06              0.    -3.87764E+06
           20251     55.4627E+06     36.6659E+06              0.    -3.97371E+06
           20252     55.2068E+06     36.8187E+06              0.    -4.07176E+06
           20253     54.9448E+06     36.9738E+06              0.    -4.17181E+06
           20254     54.6763E+06     37.1314E+06              0.    -4.27387E+06
           20255     54.4014E+06     37.2915E+06              0.    -4.37799E+06
           20256     54.1198E+06     37.4542E+06              0.    -4.48419E+06
           20257     53.8315E+06     37.6193E+06              0.    -4.59249E+06
           20258     53.5364E+06     37.7871E+06              0.    -4.70293E+06
           20259     53.2342E+06     37.9575E+06              0.    -4.81552E+06
           20260     52.9249E+06     38.1306E+06              0.    -4.93030E+06
           20261     52.6083E+06     38.3064E+06              0.    -5.04729E+06
           20262     52.2843E+06     38.4849E+06              0.    -5.16652E+06
           20263     51.9527E+06     38.6661E+06              0.    -5.28801E+06
           20264     51.6135E+06     38.8501E+06              0.    -5.41180E+06
           20265     51.2665E+06     39.0369E+06              0.    -5.53791E+06
           20266     50.9114E+06     39.2266E+06              0.    -5.66636E+06
           20267     50.5483E+06     39.4190E+06              0.    -5.79718E+06
           20268     50.1770E+06     39.6143E+06              0.    -5.93040E+06
           20269     49.7972E+06     39.8125E+06              0.    -6.06604E+06
           20270     49.4089E+06     40.0136E+06              0.    -6.20412E+06
           20271     49.0119E+06     40.2175E+06              0.    -6.34468E+06
           20272     48.6061E+06     40.4243E+06              0.    -6.48772E+06
           20273     48.1913E+06     40.6340E+06              0.    -6.63328E+06
           20274     47.7674E+06     40.8466E+06              0.    -6.78138E+06
           20275     47.3342E+06     41.0621E+06              0.    -6.93203E+06
           20276     46.8915E+06     41.2804E+06              0.    -7.08526E+06
           20277     46.4393E+06     41.5016E+06              0.    -7.24108E+06
           20278     45.9773E+06     41.7256E+06              0.    -7.39951E+06
           20279     45.5054E+06     41.9524E+06              0.    -7.56058E+06
           20280     45.0235E+06     42.1821E+06              0.    -7.72428E+06
           20281     44.5313E+06     42.4144E+06              0.    -7.89065E+06
           20282     44.0288E+06     42.6496E+06              0.    -8.05968E+06
           20283     43.5158E+06     42.8873E+06              0.    -8.23140E+06
           20284     42.9920E+06     43.1278E+06              0.    -8.40580E+06
           20285     42.4575E+06     43.3708E+06              0.    -8.58290E+06
           20286     41.9119E+06     43.6163E+06              0.    -8.76270E+06
           20287     41.3553E+06     43.8643E+06              0.    -8.94520E+06
           20288     40.7873E+06     44.1147E+06              0.    -9.13041E+06
           20289     40.2078E+06     44.3674E+06              0.    -9.31832E+06
           20290     39.6167E+06     44.6223E+06              0.    -9.50893E+06
           20291     39.0139E+06     44.8794E+06              0.    -9.70223E+06
           20292     38.3991E+06     45.1385E+06              0.    -9.89821E+06
           20293     37.7723E+06     45.3996E+06              0.    -10.0969E+06
           20294     37.1332E+06     45.6625E+06              0.    -10.2982E+06
           20295     36.4817E+06     45.9270E+06              0.    -10.5021E+06
           20296     35.8178E+06     46.1932E+06              0.    -10.7087E+06
           20297     35.1411E+06     46.4608E+06              0.    -10.9178E+06
           20298     34.4516E+06     46.7296E+06              0.    -11.1296E+06
           20299     33.7492E+06     46.9996E+06              0.    -11.3438E+06
           20300     33.0337E+06     47.2705E+06              0.    -11.5605E+06
           20301     32.3050E+06     47.5421E+06              0.    -11.7797E+06
           20302     31.5628E+06     47.8144E+06              0.    -12.0013E+06
           20303     30.8072E+06     48.0869E+06              0.    -12.2253E+06
           20304     30.0380E+06     48.3596E+06              0.    -12.4515E+06
           20305     29.2550E+06     48.6322E+06              0.    -12.6800E+06
           20306     28.4582E+06     48.9045E+06              0.    -12.9107E+06
           20307     27.6473E+06     49.1762E+06              0.    -13.1435E+06
           20308     26.8224E+06     49.4469E+06              0.    -13.3783E+06
           20309     25.9833E+06     49.7165E+06              0.    -13.6151E+06
           20310     25.1299E+06     49.9847E+06              0.    -13.8538E+06
           20311     24.2621E+06      50.251E+06              0.    -14.0942E+06
           20312     23.3798E+06     50.5152E+06              0.    -14.3363E+06
           20313     22.4830E+06     50.7769E+06              0.    -14.5800E+06
           20314     21.5716E+06     51.0358E+06              0.    -14.8252E+06
           20315     20.6454E+06     51.2913E+06              0.    -15.0716E+06
           20316     19.7045E+06     51.5433E+06              0.    -15.3194E+06
           20317     18.7488E+06     51.7911E+06              0.    -15.5682E+06
           20318     17.7782E+06     52.0343E+06              0.    -15.8179E+06
           20319     16.7927E+06     52.2726E+06              0.    -16.0685E+06
           20320     15.7924E+06     52.5053E+06              0.    -16.3197E+06
           20321     14.7770E+06     52.7319E+06              0.    -16.5713E+06
           20322     13.7468E+06     52.9520E+06              0.    -16.8233E+06
           20323     12.7016E+06     53.1650E+06              0.    -17.0754E+06
           20324     11.6415E+06     53.3702E+06              0.    -17.3275E+06
           20325     10.5665E+06     53.5670E+06              0.    -17.5793E+06
           20326     9.47660E+06     53.7548E+06              0.    -17.8306E+06
           20327     8.37192E+06     53.9330E+06              0.    -18.0813E+06
           20328     7.25249E+06     54.1008E+06              0.    -18.3310E+06
           20329     6.11839E+06     54.2575E+06              0.    -18.5797E+06
           20330     4.96971E+06     54.4024E+06              0.    -18.8269E+06
           20331     3.80655E+06     54.5346E+06              0.    -19.0726E+06
           20332     2.62902E+06     54.6534E+06              0.    -19.3163E+06
           20333     1.43727E+06     54.7579E+06              0.    -19.5579E+06
           20334     231.432E+03     54.8472E+06              0.    -19.7971E+06
           20335    -988.318E+03     54.9204E+06              0.    -20.0335E+06
           20336    -2.22180E+06     54.9766E+06              0.    -20.2669E+06
           20337    -3.46883E+06     55.0148E+06              0.    -20.4970E+06
           20338    -4.72918E+06     55.0340E+06              0.    -20.7234E+06
           20339    -6.00261E+06     55.0331E+06              0.    -20.9458E+06
           20340    -7.28889E+06     55.0111E+06              0.    -21.1639E+06
           20341    -8.58772E+06     54.9668E+06              0.    -21.3774E+06
           20342    -9.89883E+06     54.8991E+06              0.    -21.5858E+06
           20343    -11.2219E+06     54.8067E+06              0.    -21.7889E+06
           20344    -12.5566E+06     54.6885E+06              0.    -21.9862E+06
           20345    -13.9026E+06     54.5432E+06              0.    -22.1773E+06
           20346    -15.2595E+06     54.3694E+06              0.    -22.3619E+06
           20347    -16.6269E+06     54.1659E+06              0.    -22.5396E+06
           20348    -18.0044E+06     53.9312E+06              0.    -22.7100E+06
           20349    -19.3916E+06     53.6639E+06              0.    -22.8726E+06
           20350    -20.7879E+06     53.3626E+06              0.    -23.0271E+06
           20351    -22.1930E+06     53.0257E+06              0.    -23.1729E+06
           20352    -23.6062E+06     52.6517E+06              0.    -23.3098E+06
           20353    -25.0271E+06     52.2390E+06              0.    -23.4371E+06
           20354    -26.4552E+06     51.7860E+06              0.    -23.5546E+06
           20355    -27.8897E+06     51.2911E+06              0.    -23.6617E+06
           20356    -29.3302E+06     50.7525E+06              0.    -23.7580E+06
           20357    -30.7759E+06     50.1685E+06              0.    -23.8430E+06
           20358    -32.2263E+06     49.5373E+06              0.    -23.9163E+06
           20359    -33.6806E+06     48.8572E+06              0.    -23.9774E+06
           20360    -35.1382E+06     48.1263E+06              0.    -24.0259E+06
           20361    -36.5982E+06     47.3426E+06              0.    -24.0612E+06
           20362    -38.0600E+06     46.5044E+06              0.    -24.0830E+06
           20363    -39.5227E+06     45.6096E+06              0.    -24.0907E+06
           20364    -40.9855E+06     44.6562E+06              0.    -24.0839E+06
           20365    -42.4477E+06     43.6424E+06              0.    -24.0622E+06
           20366    -43.9082E+06     42.5659E+06              0.    -24.0250E+06
           20367    -45.3663E+06     41.4249E+06              0.    -23.9720E+06
           20368    -46.8210E+06     40.2170E+06              0.    -23.9026E+06
           20369    -48.2714E+06     38.9404E+06              0.    -23.8165E+06
           20370    -49.7165E+06     37.5928E+06              0.    -23.7132E+06
           20371    -51.1552E+06     36.1720E+06              0.    -23.5922E+06
           20372    -52.5867E+06     34.6760E+06              0.    -23.4532E+06
           20373    -54.0097E+06     33.1024E+06              0.    -23.2957E+06
           20374    -55.4233E+06     31.4492E+06              0.    -23.1193E+06
           20375    -56.8263E+06     29.7140E+06              0.    -22.9236E+06
           20376    -58.2176E+06     27.8948E+06              0.    -22.7083E+06
           20377    -59.5961E+06     25.9891E+06              0.    -22.4730E+06
           20378    -60.9606E+06     23.9949E+06              0.    -22.2172E+06
           20379    -62.3098E+06     21.9099E+06              0.    -21.9407E+06
           20380    -63.6426E+06     19.7318E+06              0.    -21.6431E+06
           20381    -64.9577E+06     17.4584E+06              0.    -21.3242E+06
           20382    -66.2537E+06     15.0876E+06              0.    -20.9834E+06
           20383    -67.5295E+06     12.6170E+06              0.    -20.6207E+06
           20384    -68.7837E+06     10.0446E+06              0.    -20.2357E+06
           20385    -70.0149E+06     7.36812E+06              0.    -19.8281E+06
           20386    -71.2218E+06     4.58539E+06              0.    -19.3977E+06
           20387    -72.4029E+06     1.69434E+06              0.    -18.9443E+06
           20388    -73.5568E+06    -1.30721E+06              0.    -18.4676E+06
           20389    -74.6821E+06    -4.42128E+06              0.    -17.9674E+06
           20390    -75.7774E+06    -7.64998E+06              0.    -17.4435E+06
           20391    -76.8410E+06    -10.9953E+06              0.    -16.8957E+06
           20392    -77.8715E+06    -14.4592E+06              0.    -16.3239E+06
           20393    -78.8673E+06    -18.0436E+06              0.    -15.7280E+06
           20394    -79.8269E+06    -21.7505E+06              0.    -15.1077E+06
           20395    -80.7487E+06    -25.5817E+06              0.    -14.4630E+06
           20396    -81.6309E+06    -29.5390E+06              0.    -13.7937E+06
           20397    -82.4715E+06    -33.6239E+06              0.    -13.0998E+06
           20398    -84.0764E+06    -38.2655E+06              0.    -12.7693E+06
           20399     63.8722E+06     28.0508E+06              0.    -1.09139E+06
           20400     63.8918E+06     28.2676E+06              0.    -1.08935E+06
           20401     63.8185E+06     28.4393E+06              0.    -1.07469E+06
           20402     63.7461E+06     28.6062E+06              0.    -1.06220E+06
           20403     63.6745E+06     28.7687E+06              0.    -1.05181E+06
           20404     63.6034E+06     28.9269E+06              0.    -1.04348E+06
           20405     63.5328E+06     29.0811E+06              0.    -1.03715E+06
           20406     63.4625E+06     29.2315E+06              0.    -1.03276E+06
           20407     63.3924E+06     29.3783E+06              0.    -1.03028E+06
           20408     63.3224E+06     29.5216E+06              0.    -1.02965E+06
           20409     63.2523E+06     29.6617E+06              0.    -1.03084E+06
           20410     63.1821E+06     29.7987E+06              0.    -1.03380E+06
           20411     63.1115E+06     29.9328E+06              0.    -1.03849E+06
           20412     63.0405E+06     30.0642E+06              0.    -1.04488E+06
           20413     62.9690E+06     30.1931E+06              0.    -1.05293E+06
           20414     62.8968E+06     30.3195E+06              0.    -1.06261E+06
           20415     62.8239E+06     30.4438E+06              0.    -1.07389E+06
           20416     62.7501E+06     30.5659E+06              0.    -1.08675E+06
           20417     62.6753E+06     30.6861E+06              0.    -1.10115E+06
           20418     62.5994E+06     30.8045E+06              0.    -1.11708E+06
           20419     62.5224E+06     30.9212E+06              0.    -1.13450E+06
           20420     62.4441E+06     31.0364E+06              0.    -1.15340E+06
           20421     62.3644E+06     31.1502E+06              0.    -1.17377E+06
           20422     62.2832E+06     31.2628E+06              0.    -1.19557E+06
           20423     62.2004E+06     31.3742E+06              0.    -1.21880E+06
           20424     62.1159E+06     31.4845E+06              0.    -1.24344E+06
           20425     62.0297E+06     31.5940E+06              0.    -1.26949E+06
           20426     61.9416E+06     31.7027E+06              0.    -1.29692E+06
           20427     61.8515E+06     31.8108E+06              0.    -1.32572E+06
           20428     61.7594E+06     31.9182E+06              0.    -1.35590E+06
           20429     61.6651E+06     32.0253E+06              0.    -1.38743E+06
           20430     61.5686E+06     32.1319E+06              0.    -1.42033E+06
           20431     61.4698E+06     32.2383E+06              0.    -1.45457E+06
           20432     61.3685E+06     32.3446E+06              0.    -1.49016E+06
           20433     61.2647E+06     32.4508E+06              0.    -1.52710E+06
           20434     61.1583E+06     32.5571E+06              0.    -1.56538E+06
           20435     61.0492E+06     32.6634E+06              0.    -1.60500E+06
           20436     60.9372E+06     32.7700E+06              0.    -1.64597E+06
           20437     60.8225E+06     32.8770E+06              0.    -1.68829E+06
           20438     60.7047E+06     32.9843E+06              0.    -1.73196E+06
           20439     60.5838E+06     33.0921E+06              0.    -1.77699E+06
           20440     60.4598E+06     33.2005E+06              0.    -1.82337E+06
           20441     60.3326E+06     33.3095E+06              0.    -1.87113E+06
           20442     60.2020E+06     33.4192E+06              0.    -1.92026E+06
           20443     60.0679E+06     33.5298E+06              0.    -1.97077E+06
           20444     59.9304E+06     33.6413E+06              0.    -2.02267E+06
           20445     59.7892E+06     33.7537E+06              0.    -2.07598E+06
           20446     59.6442E+06     33.8671E+06              0.    -2.13070E+06
           20447     59.4955E+06     33.9816E+06              0.    -2.18684E+06
           20448     59.3428E+06     34.0974E+06              0.    -2.24442E+06
           20449     59.1861E+06     34.2143E+06              0.    -2.30345E+06
           20450     59.0254E+06     34.3326E+06              0.    -2.36395E+06
           20451     58.8603E+06     34.4523E+06              0.    -2.42592E+06
           20452     58.6910E+06     34.5734E+06              0.    -2.48940E+06
           20453     58.5173E+06     34.6960E+06              0.    -2.55438E+06
           20454     58.3391E+06     34.8202E+06              0.    -2.62089E+06
           20455     58.1562E+06     34.9461E+06              0.    -2.68894E+06
           20456     57.9686E+06     35.0736E+06              0.    -2.75856E+06
           20457     57.7762E+06     35.2029E+06              0.    -2.82977E+06
           20458     57.5788E+06     35.3340E+06              0.    -2.90257E+06
           20459     57.3765E+06     35.4670E+06              0.    -2.97700E+06
           20460     57.1689E+06     35.6019E+06              0.    -3.05307E+06
           20461     56.9561E+06     35.7389E+06              0.    -3.13080E+06
           20462     56.7379E+06     35.8778E+06              0.    -3.21022E+06
           20463     56.5143E+06     36.0188E+06              0.    -3.29134E+06
           20464     56.2850E+06     36.1620E+06              0.    -3.37419E+06
           20465     56.0500E+06     36.3074E+06              0.    -3.45880E+06
           20466     55.8092E+06     36.4550E+06              0.    -3.54518E+06
           20467     55.5624E+06     36.6049E+06              0.    -3.63336E+06
           20468     55.3095E+06     36.7572E+06              0.    -3.72336E+06
           20469     55.0505E+06     36.9118E+06              0.    -3.81521E+06
           20470     54.7851E+06     37.0689E+06              0.    -3.90892E+06
           20471     54.5133E+06     37.2284E+06              0.    -4.00454E+06
           20472     54.2349E+06     37.3905E+06              0.    -4.10207E+06
           20473     53.9498E+06     37.5551E+06              0.    -4.20155E+06
           20474     53.6579E+06     37.7222E+06              0.    -4.30299E+06
           20475     53.3590E+06     37.8920E+06              0.    -4.40643E+06
           20476     53.0531E+06     38.0645E+06              0.    -4.51190E+06
           20477     52.7399E+06     38.2396E+06              0.    -4.61940E+06
           20478     52.4194E+06     38.4175E+06              0.    -4.72898E+06
           20479     52.0913E+06     38.5981E+06              0.    -4.84065E+06
           20480     51.7557E+06     38.7815E+06              0.    -4.95444E+06
           20481     51.4122E+06     38.9677E+06              0.    -5.07038E+06
           20482     51.0609E+06     39.1567E+06              0.    -5.18849E+06
           20483     50.7015E+06     39.3486E+06              0.    -5.30879E+06
           20484     50.3339E+06     39.5433E+06              0.    -5.43131E+06
           20485     49.9580E+06     39.7409E+06              0.    -5.55607E+06
           20486     49.5736E+06     39.9413E+06              0.    -5.68309E+06
           20487     49.1805E+06     40.1447E+06              0.    -5.81240E+06
           20488     48.7787E+06     40.3510E+06              0.    -5.94402E+06
           20489     48.3679E+06     40.5602E+06              0.    -6.07797E+06
           20490     47.9481E+06     40.7722E+06              0.    -6.21427E+06
           20491     47.5190E+06     40.9872E+06              0.    -6.35294E+06
           20492     47.0805E+06     41.2051E+06              0.    -6.49400E+06
           20493     46.6325E+06     41.4259E+06              0.    -6.63747E+06
           20494     46.1748E+06     41.6495E+06              0.    -6.78337E+06
           20495     45.7073E+06     41.8760E+06              0.    -6.93171E+06
           20496     45.2298E+06     42.1053E+06              0.    -7.08250E+06
           20497     44.7421E+06     42.3375E+06              0.    -7.23576E+06
           20498     44.2441E+06     42.5724E+06              0.    -7.39151E+06
           20499     43.7356E+06     42.8100E+06              0.    -7.54975E+06
           20500     43.2165E+06     43.0503E+06              0.    -7.71050E+06
           20501     42.6866E+06     43.2933E+06              0.    -7.87375E+06
           20502     42.1458E+06     43.5389E+06              0.    -8.03952E+06
           20503     41.5938E+06     43.7870E+06              0.    -8.20782E+06
           20504     41.0306E+06     44.0375E+06              0.    -8.37864E+06
           20505     40.4560E+06     44.2905E+06              0.    -8.55198E+06
           20506     39.8699E+06     44.5457E+06              0.    -8.72785E+06
           20507     39.2720E+06     44.8032E+06              0.    -8.90623E+06
           20508     38.6622E+06     45.0628E+06              0.    -9.08713E+06
           20509     38.0404E+06     45.3245E+06              0.    -9.27053E+06
           20510     37.4064E+06     45.5881E+06              0.    -9.45642E+06
           20511     36.7601E+06     45.8535E+06              0.    -9.64478E+06
           20512     36.1013E+06     46.1206E+06              0.    -9.83561E+06
           20513     35.4299E+06     46.3892E+06              0.    -10.0289E+06
           20514     34.7457E+06     46.6593E+06              0.    -10.2245E+06
           20515     34.0486E+06     46.9306E+06              0.    -10.4226E+06
           20516     33.3384E+06     47.2029E+06              0.    -10.6230E+06
           20517     32.6150E+06     47.4762E+06              0.    -10.8258E+06
           20518     31.8783E+06     47.7502E+06              0.    -11.0308E+06
           20519     31.1282E+06     48.0247E+06              0.    -11.2380E+06
           20520     30.3644E+06     48.2995E+06              0.    -11.4475E+06
           20521     29.5869E+06     48.5744E+06              0.    -11.6591E+06
           20522     28.7956E+06     48.8492E+06              0.    -11.8728E+06
           20523     27.9903E+06     49.1235E+06              0.    -12.0885E+06
           20524      27.171E+06     49.3972E+06              0.    -12.3061E+06
           20525     26.3375E+06     49.6700E+06              0.    -12.5257E+06
           20526     25.4897E+06     49.9414E+06              0.    -12.7471E+06
           20527     24.6275E+06     50.2114E+06              0.    -12.9702E+06
           20528     23.7509E+06     50.4794E+06              0.    -13.1949E+06
           20529     22.8597E+06     50.7453E+06              0.    -13.4212E+06
           20530     21.9539E+06     51.0085E+06              0.    -13.6489E+06
           20531     21.0334E+06     51.2688E+06              0.    -13.8780E+06
           20532     20.0982E+06     51.5258E+06              0.    -14.1084E+06
           20533     19.1481E+06     51.7789E+06              0.    -14.3398E+06
           20534     18.1832E+06     52.0278E+06              0.    -14.5723E+06
           20535     17.2033E+06     52.2721E+06              0.    -14.8056E+06
           20536     16.2086E+06     52.5111E+06              0.    -15.0396E+06
           20537     15.1988E+06     52.7446E+06              0.    -15.2743E+06
           20538     14.1742E+06     52.9718E+06              0.    -15.5093E+06
           20539     13.1345E+06     53.1923E+06              0.    -15.7446E+06
           20540     12.0799E+06     53.4055E+06              0.    -15.9800E+06
           20541     11.0103E+06     53.6108E+06              0.    -16.2153E+06
           20542     9.92588E+06     53.8075E+06              0.    -16.4504E+06
           20543     8.82656E+06     53.9951E+06              0.    -16.6850E+06
           20544     7.71244E+06     54.1728E+06              0.    -16.9189E+06
           20545     6.58359E+06     54.3399E+06              0.    -17.1520E+06
           20546     5.44008E+06     54.4958E+06              0.    -17.3840E+06
           20547     4.28202E+06     54.6396E+06              0.    -17.6147E+06
           20548     3.10951E+06     54.7705E+06              0.    -17.8438E+06
           20549     1.92268E+06     54.8878E+06              0.    -18.0711E+06
           20550     721.676E+03     54.9906E+06              0.    -18.2964E+06
           20551    -493.350E+03     55.0779E+06              0.    -18.5194E+06
           20552    -1.72222E+06     55.1489E+06              0.    -18.7398E+06
           20553    -2.96475E+06     55.2026E+06              0.    -18.9573E+06
           20554    -4.22073E+06     55.2380E+06              0.    -19.1717E+06
           20555    -5.48994E+06     55.2542E+06              0.    -19.3826E+06
           20556    -6.77213E+06     55.2500E+06              0.    -19.5898E+06
           20557    -8.06704E+06     55.2244E+06              0.    -19.7929E+06
           20558    -9.37439E+06     55.1762E+06              0.    -19.9917E+06
           20559    -10.6939E+06     55.1043E+06              0.    -20.1857E+06
           20560    -12.0252E+06     55.0075E+06              0.    -20.3746E+06
           20561    -13.3680E+06     54.8845E+06              0.    -20.5582E+06
           20562    -14.7219E+06     54.7340E+06              0.    -20.7360E+06
           20563    -16.0865E+06     54.5548E+06              0.    -20.9076E+06
           20564    -17.4615E+06     54.3456E+06              0.    -21.0728E+06
           20565    -18.8463E+06     54.1048E+06              0.    -21.2310E+06
           20566    -20.2406E+06     53.8311E+06              0.    -21.3820E+06
           20567    -21.6439E+06     53.5230E+06              0.    -21.5254E+06
           20568    -23.0557E+06     53.1790E+06              0.    -21.6607E+06
           20569    -24.4754E+06     52.7975E+06              0.    -21.7875E+06
           20570    -25.9025E+06     52.3771E+06              0.    -21.9055E+06
           20571    -27.3365E+06     51.9160E+06              0.    -22.0142E+06
           20572    -28.7768E+06     51.4125E+06              0.    -22.1132E+06
           20573    -30.2226E+06     50.8651E+06              0.    -22.2021E+06
           20574    -31.6735E+06     50.2720E+06              0.    -22.2804E+06
           20575    -33.1287E+06     49.6313E+06              0.    -22.3478E+06
           20576    -34.5876E+06     48.9413E+06              0.    -22.4038E+06
           20577    -36.0493E+06     48.2001E+06              0.    -22.4479E+06
           20578    -37.5133E+06     47.4060E+06              0.    -22.4798E+06
           20579    -38.9786E+06     46.5568E+06              0.    -22.4990E+06
           20580    -40.4446E+06     45.6508E+06              0.    -22.5051E+06
           20581    -41.9103E+06     44.6860E+06              0.    -22.4977E+06
           20582    -43.3750E+06     43.6602E+06              0.    -22.4762E+06
           20583    -44.8377E+06     42.5716E+06              0.    -22.4404E+06
           20584    -46.2976E+06     41.4181E+06              0.    -22.3897E+06
           20585    -47.7537E+06     40.1975E+06              0.    -22.3238E+06
           20586    -49.2052E+06     38.9078E+06              0.    -22.2423E+06
           20587    -50.6509E+06     37.5469E+06              0.    -22.1447E+06
           20588    -52.0900E+06     36.1125E+06              0.    -22.0307E+06
           20589    -53.5213E+06     34.6026E+06              0.    -21.8998E+06
           20590    -54.9438E+06      33.015E+06              0.    -21.7517E+06
           20591    -56.3565E+06     31.3474E+06              0.    -21.5859E+06
           20592    -57.7583E+06     29.5977E+06              0.    -21.4022E+06
           20593    -59.1479E+06     27.7637E+06              0.    -21.2002E+06
           20594    -60.5243E+06     25.8431E+06              0.    -20.9795E+06
           20595    -61.8863E+06     23.8338E+06              0.    -20.7397E+06
           20596    -63.2326E+06     21.7335E+06              0.    -20.4806E+06
           20597    -64.5621E+06     19.5399E+06              0.    -20.2019E+06
           20598    -65.8735E+06     17.2510E+06              0.    -19.9032E+06
           20599    -67.1654E+06     14.8645E+06              0.    -19.5843E+06
           20600    -68.4367E+06     12.3781E+06              0.    -19.2449E+06
           20601    -69.6860E+06     9.78976E+06              0.    -18.8847E+06
           20602    -70.9118E+06     7.09727E+06              0.    -18.5034E+06
           20603    -72.1130E+06     4.29849E+06              0.    -18.1009E+06
           20604    -73.2880E+06     1.39133E+06              0.    -17.6769E+06
           20605    -74.4354E+06    -1.62636E+06              0.    -17.2312E+06
           20606    -75.5538E+06    -4.75660E+06              0.    -16.7636E+06
           20607    -76.6417E+06    -8.00149E+06              0.    -16.2739E+06
           20608    -77.6977E+06    -11.3630E+06              0.    -15.7620E+06
           20609    -78.7201E+06    -14.8431E+06              0.    -15.2278E+06
           20610    -79.7075E+06    -18.4437E+06              0.    -14.6709E+06
           20611    -80.6583E+06    -22.1667E+06              0.    -14.0914E+06
           20612    -81.5709E+06    -26.0140E+06              0.    -13.4891E+06
           20613    -82.4437E+06    -29.9874E+06              0.    -12.8640E+06
           20614    -83.2752E+06    -34.0888E+06              0.    -12.2158E+06
           20615    -84.8809E+06    -38.7467E+06              0.    -11.9067E+06
           20616     63.8308E+06     28.0329E+06              0.    -1.01730E+06
           20617     63.8507E+06     28.2523E+06              0.    -1.01540E+06
           20618     63.7765E+06     28.4260E+06              0.    -1.00173E+06
           20619     63.7032E+06     28.5949E+06              0.    -990.086E+03
           20620     63.6306E+06     28.7594E+06              0.    -980.405E+03
           20621     63.5587E+06     28.9195E+06              0.    -972.638E+03
           20622     63.4872E+06     29.0756E+06              0.    -966.734E+03
           20623     63.4161E+06     29.2278E+06              0.    -962.647E+03
           20624     63.3452E+06     29.3764E+06              0.    -960.332E+03
           20625     63.2743E+06     29.5214E+06              0.    -959.747E+03
           20626     63.2034E+06     29.6632E+06              0.    -960.851E+03
           20627     63.1323E+06     29.8019E+06              0.    -963.607E+03
           20628     63.0608E+06     29.9376E+06              0.    -967.979E+03
           20629     62.9890E+06     30.0706E+06              0.    -973.932E+03
           20630     62.9166E+06     30.2010E+06              0.    -981.435E+03
           20631     62.8436E+06     30.3290E+06              0.    -990.459E+03
           20632     62.7697E+06     30.4547E+06              0.    -1.00097E+06
           20633     62.6950E+06     30.5783E+06              0.    -1.01296E+06
           20634     62.6194E+06     30.7000E+06              0.    -1.02638E+06
           20635     62.5426E+06     30.8198E+06              0.    -1.04122E+06
           20636     62.4646E+06     30.9379E+06              0.    -1.05746E+06
           20637     62.3854E+06     31.0545E+06              0.    -1.07508E+06
           20638     62.3047E+06     31.1697E+06              0.    -1.09406E+06
           20639     62.2225E+06     31.2836E+06              0.    -1.11438E+06
           20640     62.1388E+06     31.3963E+06              0.    -1.13603E+06
           20641     62.0533E+06     31.5081E+06              0.    -1.15900E+06
           20642     61.9660E+06     31.6189E+06              0.    -1.18327E+06
           20643     61.8769E+06     31.7289E+06              0.    -1.20883E+06
           20644     61.7857E+06     31.8382E+06              0.    -1.23568E+06
           20645     61.6925E+06     31.9470E+06              0.    -1.26380E+06
           20646     61.5971E+06     32.0553E+06              0.    -1.29320E+06
           20647     61.4994E+06     32.1632E+06              0.    -1.32385E+06
           20648     61.3994E+06     32.2709E+06              0.    -1.35577E+06
           20649     61.2969E+06     32.3784E+06              0.    -1.38894E+06
           20650     61.1919E+06     32.4859E+06              0.    -1.42336E+06
           20651     61.0842E+06     32.5934E+06              0.    -1.45904E+06
           20652     60.9738E+06     32.7011E+06              0.    -1.49597E+06
           20653     60.8605E+06     32.8090E+06              0.    -1.53415E+06
           20654     60.7443E+06     32.9171E+06              0.    -1.57359E+06
           20655     60.6252E+06     33.0257E+06              0.    -1.61429E+06
           20656     60.5029E+06     33.1348E+06              0.    -1.65626E+06
           20657     60.3774E+06     33.2445E+06              0.    -1.69949E+06
           20658     60.2486E+06     33.3548E+06              0.    -1.74399E+06
           20659     60.1165E+06     33.4659E+06              0.    -1.78978E+06
           20660     59.9808E+06     33.5777E+06              0.    -1.83685E+06
           20661     59.8416E+06     33.6905E+06              0.    -1.88522E+06
           20662     59.6988E+06     33.8042E+06              0.    -1.93490E+06
           20663     59.5521E+06     33.9190E+06              0.    -1.98590E+06
           20664     59.4016E+06     34.0349E+06              0.    -2.03822E+06
           20665     59.2471E+06     34.1520E+06              0.    -2.09188E+06
           20666     59.0886E+06     34.2703E+06              0.    -2.14689E+06
           20667     58.9259E+06     34.3900E+06              0.    -2.20327E+06
           20668     58.7589E+06     34.5111E+06              0.    -2.26103E+06
           20669     58.5876E+06     34.6336E+06              0.    -2.32017E+06
           20670     58.4118E+06     34.7577E+06              0.    -2.38073E+06
           20671     58.2315E+06     34.8833E+06              0.    -2.44271E+06
           20672     58.0465E+06     35.0106E+06              0.    -2.50613E+06
           20673     57.8567E+06     35.1396E+06              0.    -2.57101E+06
           20674     57.6620E+06     35.2704E+06              0.    -2.63736E+06
           20675     57.4623E+06     35.4031E+06              0.    -2.70520E+06
           20676     57.2575E+06     35.5376E+06              0.    -2.77456E+06
           20677     57.0476E+06     35.6741E+06              0.    -2.84544E+06
           20678     56.8323E+06     35.8126E+06              0.    -2.91788E+06
           20679     56.6115E+06     35.9531E+06              0.    -2.99188E+06
           20680     56.3852E+06     36.0957E+06              0.    -3.06747E+06
           20681     56.1533E+06     36.2406E+06              0.    -3.14467E+06
           20682     55.9155E+06     36.3876E+06              0.    -3.22351E+06
           20683     55.6719E+06     36.5369E+06              0.    -3.30400E+06
           20684     55.4222E+06     36.6885E+06              0.    -3.38616E+06
           20685     55.1664E+06     36.8425E+06              0.    -3.47002E+06
           20686     54.9044E+06     36.9989E+06              0.    -3.55559E+06
           20687     54.6359E+06     37.1577E+06              0.    -3.64291E+06
           20688     54.3609E+06     37.3190E+06              0.    -3.73200E+06
           20689     54.0793E+06     37.4829E+06              0.    -3.82287E+06
           20690     53.7909E+06     37.6493E+06              0.    -3.91555E+06
           20691     53.4956E+06     37.8184E+06              0.    -4.01007E+06
           20692     53.1933E+06     37.9901E+06              0.    -4.10644E+06
           20693     52.8838E+06     38.1644E+06              0.    -4.20470E+06
           20694     52.5671E+06     38.3415E+06              0.    -4.30485E+06
           20695     52.2428E+06     38.5213E+06              0.    -4.40694E+06
           20696     51.9111E+06     38.7039E+06              0.    -4.51097E+06
           20697     51.5715E+06     38.8893E+06              0.    -4.61698E+06
           20698     51.2242E+06     39.0775E+06              0.    -4.72498E+06
           20699     50.8688E+06     39.2686E+06              0.    -4.83501E+06
           20700     50.5054E+06     39.4625E+06              0.    -4.94707E+06
           20701     50.1336E+06     39.6593E+06              0.     -5.0612E+06
           20702     49.7534E+06     39.8590E+06              0.    -5.17741E+06
           20703     49.3646E+06     40.0617E+06              0.    -5.29573E+06
           20704     48.9671E+06     40.2672E+06              0.    -5.41618E+06
           20705     48.5608E+06     40.4756E+06              0.    -5.53878E+06
           20706     48.1454E+06     40.6870E+06              0.    -5.66354E+06
           20707     47.7208E+06     40.9013E+06              0.    -5.79049E+06
           20708     47.2870E+06     41.1186E+06              0.    -5.91964E+06
           20709     46.8436E+06     41.3387E+06              0.    -6.05102E+06
           20710     46.3906E+06     41.5618E+06              0.    -6.18464E+06
           20711     45.9279E+06     41.7877E+06              0.    -6.32051E+06
           20712     45.4551E+06     42.0165E+06              0.    -6.45865E+06
           20713     44.9723E+06     42.2481E+06              0.    -6.59908E+06
           20714     44.4793E+06     42.4826E+06              0.    -6.74180E+06
           20715     43.9758E+06     42.7198E+06              0.    -6.88683E+06
           20716     43.4618E+06     42.9598E+06              0.    -7.03418E+06
           20717     42.9370E+06     43.2025E+06              0.    -7.18386E+06
           20718     42.4013E+06     43.4479E+06              0.    -7.33587E+06
           20719     41.8546E+06     43.6958E+06              0.    -7.49021E+06
           20720     41.2968E+06     43.9463E+06              0.    -7.64690E+06
           20721     40.7275E+06     44.1992E+06              0.    -7.80594E+06
           20722     40.1468E+06     44.4546E+06              0.    -7.96732E+06
           20723     39.5543E+06     44.7122E+06              0.    -8.13104E+06
           20724     38.9501E+06     44.9721E+06              0.    -8.29710E+06
           20725     38.3339E+06     45.2341E+06              0.    -8.46549E+06
           20726     37.7055E+06     45.4981E+06              0.    -8.63620E+06
           20727     37.0649E+06     45.7641E+06              0.    -8.80923E+06
           20728     36.4118E+06     46.0318E+06              0.    -8.98455E+06
           20729     35.7462E+06     46.3013E+06              0.    -9.16215E+06
           20730     35.0678E+06     46.5722E+06              0.    -9.34201E+06
           20731     34.3766E+06     46.8445E+06              0.    -9.52412E+06
           20732     33.6723E+06     47.1181E+06              0.    -9.70843E+06
           20733     32.9549E+06     47.3927E+06              0.    -9.89492E+06
           20734     32.2242E+06     47.6682E+06              0.    -10.0836E+06
           20735     31.4801E+06     47.9443E+06              0.    -10.2743E+06
           20736     30.7225E+06     48.2210E+06              0.    -10.4672E+06
           20737     29.9511E+06     48.4979E+06              0.    -10.6620E+06
           20738     29.1660E+06     48.7748E+06              0.    -10.8589E+06
           20739     28.3669E+06     49.0516E+06              0.    -11.0576E+06
           20740     27.5538E+06     49.3278E+06              0.    -11.2583E+06
           20741     26.7265E+06     49.6034E+06              0.    -11.4607E+06
           20742     25.8850E+06     49.8780E+06              0.    -11.6649E+06
           20743     25.0291E+06     50.1512E+06              0.    -11.8708E+06
           20744     24.1588E+06     50.4228E+06              0.    -12.0783E+06
           20745     23.2739E+06     50.6925E+06              0.    -12.2872E+06
           20746     22.3745E+06     50.9598E+06              0.    -12.4977E+06
           20747     21.4603E+06     51.2245E+06              0.    -12.7094E+06
           20748     20.5314E+06     51.4861E+06              0.    -12.9224E+06
           20749     19.5877E+06     51.7443E+06              0.    -13.1365E+06
           20750     18.6291E+06     51.9986E+06              0.    -13.3517E+06
           20751     17.6556E+06     52.2485E+06              0.    -13.5677E+06
           20752     16.6672E+06     52.4936E+06              0.    -13.7845E+06
           20753     15.6637E+06     52.7335E+06              0.    -14.0020E+06
           20754     14.6453E+06     52.9676E+06              0.    -14.2200E+06
           20755     13.6119E+06     53.1953E+06              0.    -14.4384E+06
           20756     12.5635E+06     53.4162E+06              0.    -14.6570E+06
           20757     11.5002E+06     53.6296E+06              0.    -14.8757E+06
           20758     10.4218E+06     53.8349E+06              0.    -15.0943E+06
           20759     9.32861E+06     54.0316E+06              0.    -15.3126E+06
           20760     8.22052E+06     54.2189E+06              0.    -15.5304E+06
           20761     7.09763E+06     54.3961E+06              0.    -15.7476E+06
           20762     5.96002E+06     54.5627E+06              0.    -15.9640E+06
           20763     4.80778E+06     54.7177E+06              0.    -16.1794E+06
           20764     3.64101E+06     54.8605E+06              0.    -16.3935E+06
           20765     2.45983E+06     54.9902E+06              0.    -16.6061E+06
           20766     1.26438E+06     55.1060E+06              0.    -16.8170E+06
           20767     54.7888E+03     55.2071E+06              0.    -17.0261E+06
           20768    -1.16876E+06     55.2926E+06              0.    -17.2329E+06
           20769    -2.40609E+06     55.3615E+06              0.    -17.4373E+06
           20770    -3.65700E+06     55.4129E+06              0.    -17.6390E+06
           20771    -4.92129E+06     55.4457E+06              0.    -17.8378E+06
           20772    -6.19870E+06     55.4590E+06              0.    -18.0334E+06
           20773    -7.48900E+06     55.4517E+06              0.    -18.2254E+06
           20774    -8.79192E+06     55.4227E+06              0.    -18.4136E+06
           20775    -10.1071E+06     55.3709E+06              0.    -18.5977E+06
           20776    -11.4344E+06     55.2951E+06              0.    -18.7774E+06
           20777    -12.7733E+06     55.1941E+06              0.    -18.9524E+06
           20778    -14.1236E+06     55.0666E+06              0.    -19.1223E+06
           20779    -15.4848E+06     54.9114E+06              0.    -19.2868E+06
           20780    -16.8566E+06     54.7271E+06              0.    -19.4456E+06
           20781    -18.2385E+06     54.5124E+06              0.    -19.5984E+06
           20782    -19.6302E+06     54.2660E+06              0.    -19.7447E+06
           20783    -21.0311E+06     53.9863E+06              0.    -19.8843E+06
           20784    -22.4408E+06     53.6718E+06              0.    -20.0167E+06
           20785    -23.8587E+06     53.3212E+06              0.    -20.1416E+06
           20786    -25.2844E+06     52.9328E+06              0.    -20.2586E+06
           20787    -26.7173E+06     52.5051E+06              0.    -20.3674E+06
           20788    -28.1568E+06     52.0364E+06              0.    -20.4675E+06
           20789    -29.6023E+06     51.5251E+06              0.    -20.5586E+06
           20790    -31.0531E+06     50.9694E+06              0.    -20.6403E+06
           20791    -32.5087E+06     50.3677E+06              0.    -20.7121E+06
           20792    -33.9684E+06     49.7182E+06              0.    -20.7738E+06
           20793    -35.4314E+06     49.0190E+06              0.    -20.8249E+06
           20794    -36.8970E+06     48.2684E+06              0.    -20.8650E+06
           20795    -38.3645E+06     47.4644E+06              0.    -20.8936E+06
           20796    -39.8331E+06     46.6051E+06              0.    -20.9105E+06
           20797    -41.3020E+06     45.6887E+06              0.    -20.9152E+06
           20798    -42.7704E+06     44.7131E+06              0.    -20.9073E+06
           20799    -44.2374E+06     43.6763E+06              0.    -20.8864E+06
           20800    -45.7021E+06     42.5764E+06              0.    -20.8521E+06
           20801    -47.1636E+06     41.4113E+06              0.    -20.8041E+06
           20802    -48.6211E+06     40.1788E+06              0.    -20.7419E+06
           20803    -50.0735E+06     38.8770E+06              0.    -20.6652E+06
           20804    -51.5198E+06     37.5036E+06              0.    -20.5736E+06
           20805    -52.9591E+06     36.0567E+06              0.    -20.4667E+06
           20806    -54.3903E+06     34.5339E+06              0.    -20.3442E+06
           20807    -55.8123E+06     32.9331E+06              0.    -20.2057E+06
           20808    -57.2242E+06     31.2523E+06              0.    -20.0509E+06
           20809    -58.6247E+06     29.4891E+06              0.    -19.8793E+06
           20810    -60.0127E+06     27.6413E+06              0.    -19.6908E+06
           20811    -61.3871E+06     25.7069E+06              0.    -19.4849E+06
           20812    -62.7467E+06     23.6835E+06              0.    -19.2614E+06
           20813    -64.0903E+06     21.5689E+06              0.    -19.0200E+06
           20814    -65.4167E+06     19.3611E+06              0.    -18.7603E+06
           20815    -66.7246E+06     17.0576E+06              0.    -18.4822E+06
           20816    -68.0127E+06     14.6565E+06              0.    -18.1852E+06
           20817    -69.2798E+06     12.1555E+06              0.    -17.8692E+06
           20818    -70.5244E+06     9.55236E+06              0.    -17.5340E+06
           20819    -71.7453E+06     6.84502E+06              0.    -17.1793E+06
           20820    -72.9411E+06     4.03132E+06              0.    -16.8048E+06
           20821    -74.1104E+06     1.10920E+06              0.    -16.4104E+06
           20822    -75.2518E+06    -1.92350E+06              0.    -15.9959E+06
           20823    -76.3637E+06    -5.06877E+06              0.    -15.5611E+06
           20824    -77.4448E+06    -8.32869E+06              0.    -15.1058E+06
           20825    -78.4936E+06    -11.7052E+06              0.    -14.6299E+06
           20826    -79.5085E+06    -15.2004E+06              0.    -14.1332E+06
           20827    -80.4881E+06    -18.8160E+06              0.    -13.6156E+06
           20828    -81.4306E+06    -22.5540E+06              0.    -13.0770E+06
           20829    -82.3346E+06    -26.4163E+06              0.    -12.5172E+06
           20830    -83.1984E+06    -30.4047E+06              0.    -11.9362E+06
           20831    -84.0202E+06    -34.5208E+06              0.    -11.3338E+06
           20832    -85.6256E+06    -39.1933E+06              0.    -11.0461E+06
           20833     63.7923E+06     28.0162E+06              0.    -942.359E+03
           20834     63.8124E+06     28.2380E+06              0.    -940.597E+03
           20835     63.7373E+06     28.4137E+06              0.    -927.936E+03
           20836     63.6632E+06     28.5845E+06              0.    -917.146E+03
           20837     63.5899E+06     28.7508E+06              0.    -908.178E+03
           20838     63.5172E+06     28.9127E+06              0.    -900.982E+03
           20839     63.4449E+06     29.0705E+06              0.    -895.512E+03
           20840     63.3730E+06     29.2244E+06              0.    -891.726E+03
           20841     63.3013E+06     29.3746E+06              0.    -889.581E+03
           20842     63.2296E+06     29.5213E+06              0.    -889.038E+03
           20843     63.1579E+06     29.6646E+06              0.    -890.059E+03
           20844     63.0860E+06     29.8048E+06              0.    -892.611E+03
           20845     63.0138E+06     29.9421E+06              0.    -896.660E+03
           20846     62.9411E+06     30.0765E+06              0.    -902.173E+03
           20847     62.8679E+06     30.2084E+06              0.    -909.123E+03
           20848     62.7941E+06     30.3378E+06              0.     -917.48E+03
           20849     62.7195E+06     30.4649E+06              0.    -927.220E+03
           20850     62.6439E+06     30.5899E+06              0.    -938.317E+03
           20851     62.5674E+06     30.7129E+06              0.    -950.750E+03
           20852     62.4898E+06     30.8340E+06              0.    -964.496E+03
           20853     62.4110E+06     30.9535E+06              0.    -979.538E+03
           20854     62.3308E+06     31.0713E+06              0.    -995.856E+03
           20855     62.2493E+06     31.1878E+06              0.    -1.01343E+06
           20856     62.1662E+06     31.3030E+06              0.    -1.03226E+06
           20857     62.0815E+06     31.4170E+06              0.    -1.05231E+06
           20858     61.9951E+06     31.5299E+06              0.    -1.07358E+06
           20859     61.9069E+06     31.6419E+06              0.    -1.09607E+06
           20860     61.8167E+06     31.7532E+06              0.    -1.11974E+06
           20861     61.7246E+06     31.8637E+06              0.    -1.14461E+06
           20862     61.6303E+06     31.9737E+06              0.    -1.17066E+06
           20863     61.5339E+06     32.0832E+06              0.    -1.19788E+06
           20864     61.4351E+06     32.1923E+06              0.    -1.22628E+06
           20865     61.3340E+06     32.3011E+06              0.    -1.25584E+06
           20866     61.2304E+06     32.4099E+06              0.    -1.28656E+06
           20867     61.1242E+06     32.5185E+06              0.    -1.31845E+06
           20868     61.0153E+06     32.6272E+06              0.    -1.35149E+06
           20869     60.9037E+06     32.7360E+06              0.    -1.38570E+06
           20870     60.7892E+06     32.8451E+06              0.    -1.42106E+06
           20871     60.6718E+06     32.9545E+06              0.    -1.45759E+06
           20872     60.5513E+06     33.0643E+06              0.    -1.49529E+06
           20873     60.4277E+06     33.1745E+06              0.    -1.53416E+06
           20874     60.3008E+06     33.2854E+06              0.    -1.57420E+06
           20875     60.1706E+06     33.3969E+06              0.    -1.61542E+06
           20876     60.0370E+06     33.5092E+06              0.    -1.65782E+06
           20877     59.8999E+06     33.6223E+06              0.    -1.70142E+06
           20878     59.7592E+06     33.7363E+06              0.    -1.74622E+06
           20879     59.6147E+06     33.8512E+06              0.    -1.79223E+06
           20880     59.4665E+06     33.9672E+06              0.    -1.83946E+06
           20881     59.3143E+06     34.0844E+06              0.    -1.88792E+06
           20882     59.1582E+06     34.2027E+06              0.    -1.93762E+06
           20883     58.9979E+06     34.3224E+06              0.    -1.98857E+06
           20884     58.8335E+06     34.4433E+06              0.    -2.04079E+06
           20885     58.6647E+06     34.5657E+06              0.    -2.09428E+06
           20886     58.4915E+06     34.6895E+06              0.    -2.14906E+06
           20887     58.3138E+06     34.8149E+06              0.    -2.20514E+06
           20888     58.1315E+06     34.9419E+06              0.    -2.26254E+06
           20889     57.9445E+06     35.0706E+06              0.    -2.32128E+06
           20890     57.7527E+06     35.2010E+06              0.    -2.38136E+06
           20891     57.5559E+06     35.3332E+06              0.    -2.44281E+06
           20892     57.3540E+06     35.4672E+06              0.    -2.50564E+06
           20893     57.1471E+06     35.6032E+06              0.    -2.56987E+06
           20894     56.9348E+06     35.7411E+06              0.    -2.63551E+06
           20895     56.7172E+06     35.8810E+06              0.    -2.70259E+06
           20896     56.4941E+06     36.0230E+06              0.    -2.77112E+06
           20897     56.2653E+06     36.1672E+06              0.    -2.84112E+06
           20898     56.0309E+06     36.3135E+06              0.    -2.91262E+06
           20899     55.7906E+06     36.4621E+06              0.    -2.98562E+06
           20900     55.5444E+06     36.6130E+06              0.    -3.06015E+06
           20901     55.2920E+06     36.7662E+06              0.    -3.13624E+06
           20902     55.0335E+06     36.9218E+06              0.    -3.21389E+06
           20903     54.7686E+06     37.0798E+06              0.    -3.29313E+06
           20904     54.4973E+06     37.2402E+06              0.    -3.37399E+06
           20905     54.2194E+06     37.4032E+06              0.    -3.45648E+06
           20906     53.9348E+06     37.5688E+06              0.    -3.54062E+06
           20907     53.6433E+06     37.7369E+06              0.    -3.62644E+06
           20908     53.3449E+06     37.9077E+06              0.    -3.71396E+06
           20909     53.0394E+06     38.0811E+06              0.    -3.80319E+06
           20910     52.7266E+06     38.2573E+06              0.    -3.89417E+06
           20911     52.4065E+06     38.4361E+06              0.     -3.9869E+06
           20912     52.0789E+06     38.6178E+06              0.    -4.08142E+06
           20913     51.7436E+06     38.8022E+06              0.    -4.17774E+06
           20914     51.4005E+06     38.9895E+06              0.    -4.27589E+06
           20915     51.0495E+06     39.1796E+06              0.    -4.37588E+06
           20916     50.6905E+06     39.3725E+06              0.    -4.47774E+06
           20917     50.3232E+06     39.5684E+06              0.    -4.58149E+06
           20918     49.9475E+06     39.7671E+06              0.    -4.68715E+06
           20919     49.5634E+06     39.9688E+06              0.    -4.79473E+06
           20920     49.1706E+06     40.1734E+06              0.    -4.90427E+06
           20921     48.7690E+06     40.3809E+06              0.    -5.01577E+06
           20922     48.3584E+06     40.5914E+06              0.    -5.12926E+06
           20923     47.9387E+06     40.8049E+06              0.    -5.24475E+06
           20924     47.5098E+06     41.0212E+06              0.    -5.36226E+06
           20925     47.0715E+06     41.2405E+06              0.    -5.48182E+06
           20926     46.6236E+06     41.4628E+06              0.    -5.60342E+06
           20927     46.1660E+06     41.6879E+06              0.     -5.7271E+06
           20928     45.6985E+06     41.9160E+06              0.    -5.85286E+06
           20929     45.2210E+06     42.1469E+06              0.    -5.98072E+06
           20930     44.7333E+06     42.3807E+06              0.    -6.11069E+06
           20931     44.2352E+06     42.6174E+06              0.    -6.24278E+06
           20932     43.7267E+06     42.8568E+06              0.    -6.37701E+06
           20933     43.2075E+06     43.0990E+06              0.    -6.51337E+06
           20934     42.6774E+06     43.3438E+06              0.    -6.65188E+06
           20935     42.1365E+06     43.5914E+06              0.    -6.79255E+06
           20936     41.5843E+06     43.8415E+06              0.    -6.93538E+06
           20937     41.0209E+06     44.0942E+06              0.    -7.08038E+06
           20938     40.4461E+06     44.3494E+06              0.    -7.22753E+06
           20939     39.8596E+06     44.6069E+06              0.    -7.37685E+06
           20940     39.2614E+06     44.8668E+06              0.    -7.52834E+06
           20941     38.6512E+06     45.1288E+06              0.    -7.68198E+06
           20942     38.0290E+06     45.3931E+06              0.    -7.83777E+06
           20943     37.3946E+06     45.6593E+06              0.    -7.99571E+06
           20944     36.7478E+06     45.9274E+06              0.    -8.15577E+06
           20945     36.0885E+06     46.1973E+06              0.    -8.31796E+06
           20946     35.4165E+06     46.4689E+06              0.    -8.48225E+06
           20947     34.7317E+06     46.7420E+06              0.    -8.64862E+06
           20948     34.0340E+06     47.0164E+06              0.    -8.81706E+06
           20949     33.3231E+06     47.2921E+06              0.    -8.98753E+06
           20950     32.5990E+06     47.5687E+06              0.    -9.16002E+06
           20951     31.8615E+06     47.8463E+06              0.    -9.33449E+06
           20952     31.1106E+06     48.1244E+06              0.    -9.51090E+06
           20953     30.3459E+06     48.4030E+06              0.    -9.68922E+06
           20954     29.5676E+06     48.6819E+06              0.    -9.86940E+06
           20955     28.7753E+06     48.9607E+06              0.    -10.0514E+06
           20956     27.9690E+06     49.2393E+06              0.    -10.2352E+06
           20957     27.1486E+06     49.5174E+06              0.    -10.4207E+06
           20958     26.3140E+06     49.7947E+06              0.    -10.6079E+06
           20959     25.4651E+06     50.0709E+06              0.    -10.7966E+06
           20960     24.6017E+06     50.3458E+06              0.    -10.9869E+06
           20961     23.7239E+06     50.6189E+06              0.    -11.1787E+06
           20962     22.8314E+06     50.8900E+06              0.    -11.3719E+06
           20963     21.9243E+06     51.1588E+06              0.    -11.5663E+06
           20964     21.0024E+06     51.4248E+06              0.    -11.7620E+06
           20965     20.0657E+06     51.6876E+06              0.    -11.9588E+06
           20966     19.1142E+06     51.9469E+06              0.    -12.1567E+06
           20967     18.1477E+06     52.2022E+06              0.    -12.3554E+06
           20968     17.1663E+06     52.4531E+06              0.    -12.5550E+06
           20969     16.1698E+06     52.6990E+06              0.    -12.7553E+06
           20970     15.1584E+06     52.9396E+06              0.    -12.9562E+06
           20971     14.1320E+06     53.1742E+06              0.    -13.1576E+06
           20972     13.0905E+06     53.4024E+06              0.    -13.3593E+06
           20973     12.0341E+06     53.6236E+06              0.    -13.5612E+06
           20974     10.9626E+06     53.8372E+06              0.    -13.7631E+06
           20975     9.87619E+06     54.0426E+06              0.    -13.9649E+06
           20976     8.77485E+06     54.2391E+06              0.    -14.1664E+06
           20977     7.65866E+06     54.4262E+06              0.    -14.3675E+06
           20978     6.52767E+06     54.6030E+06              0.    -14.5680E+06
           20979     5.38198E+06     54.7689E+06              0.    -14.7677E+06
           20980     4.22167E+06     54.9232E+06              0.    -14.9665E+06
           20981     3.04686E+06     55.0650E+06              0.    -15.1640E+06
           20982     1.85768E+06     55.1936E+06              0.    -15.3602E+06
           20983     654.256E+03     55.3081E+06              0.    -15.5548E+06
           20984    -563.249E+03     55.4076E+06              0.    -15.7475E+06
           20985    -1.79466E+06     55.4913E+06              0.    -15.9383E+06
           20986    -3.03979E+06     55.5582E+06              0.    -16.1268E+06
           20987    -4.29844E+06     55.6074E+06              0.    -16.3128E+06
           20988    -5.57037E+06     55.6379E+06              0.    -16.4960E+06
           20989    -6.85536E+06     55.6485E+06              0.    -16.6762E+06
           20990    -8.15314E+06     55.6383E+06              0.    -16.8532E+06
           20991    -9.46342E+06     55.6062E+06              0.    -17.0266E+06
           20992    -10.7859E+06     55.5510E+06              0.    -17.1961E+06
           20993    -12.1203E+06     55.4715E+06              0.    -17.3616E+06
           20994    -13.4662E+06     55.3666E+06              0.    -17.5227E+06
           20995    -14.8234E+06     55.2349E+06              0.    -17.6791E+06
           20996    -16.1913E+06     55.0753E+06              0.    -17.8305E+06
           20997    -17.5697E+06     54.8863E+06              0.    -17.9766E+06
           20998    -18.9581E+06     54.6666E+06              0.    -18.1171E+06
           20999    -20.3560E+06     54.4148E+06              0.    -18.2516E+06
           21000    -21.7630E+06     54.1296E+06              0.    -18.3798E+06
           21001    -23.1785E+06     53.8093E+06              0.    -18.5015E+06
           21002    -24.6021E+06     53.4525E+06              0.    -18.6161E+06
           21003    -26.0333E+06     53.0577E+06              0.    -18.7235E+06
           21004    -27.4715E+06     52.6232E+06              0.    -18.8232E+06
           21005    -28.9160E+06     52.1475E+06              0.    -18.9150E+06
           21006    -30.3663E+06     51.6288E+06              0.    -18.9984E+06
           21007    -31.8217E+06     51.0656E+06              0.    -19.0730E+06
           21008    -33.2817E+06     50.4559E+06              0.    -19.1386E+06
           21009    -34.7454E+06     49.7982E+06              0.    -19.1948E+06
           21010    -36.2122E+06     49.0905E+06              0.    -19.2412E+06
           21011    -37.6814E+06     48.3310E+06              0.    -19.2774E+06
           21012    -39.1522E+06     47.5179E+06              0.    -19.3030E+06
           21013    -40.6238E+06     46.6493E+06              0.    -19.3178E+06
           21014    -42.0953E+06     45.7232E+06              0.    -19.3213E+06
           21015    -43.5661E+06     44.7377E+06              0.    -19.3132E+06
           21016    -45.0352E+06     43.6907E+06              0.    -19.2931E+06
           21017    -46.5017E+06     42.5803E+06              0.    -19.2606E+06
           21018    -47.9647E+06     41.4045E+06              0.    -19.2154E+06
           21019    -49.4233E+06     40.1610E+06              0.    -19.1572E+06
           21020    -50.8765E+06     38.8480E+06              0.    -19.0855E+06
           21021    -52.3233E+06     37.4632E+06              0.    -19.0001E+06
           21022    -53.7628E+06     36.0045E+06              0.    -18.9006E+06
           21023    -55.1938E+06     34.4698E+06              0.    -18.7867E+06
           21024    -56.6154E+06     32.8570E+06              0.    -18.6580E+06
           21025    -58.0264E+06     31.1638E+06              0.    -18.5143E+06
           21026    -59.4257E+06     29.3881E+06              0.    -18.3551E+06
           21027    -60.8123E+06     27.5277E+06              0.    -18.1803E+06
           21028    -62.1848E+06     25.5804E+06              0.    -17.9895E+06
           21029    -63.5422E+06     23.5440E+06              0.    -17.7825E+06
           21030    -64.8833E+06     21.4163E+06              0.    -17.5588E+06
           21031    -66.2068E+06     19.1952E+06              0.    -17.3184E+06
           21032    -67.5114E+06     16.8784E+06              0.    -17.0609E+06
           21033    -68.7960E+06     14.4638E+06              0.    -16.7861E+06
           21034    -70.0591E+06     11.9492E+06              0.    -16.4938E+06
           21035    -71.2995E+06     9.33243E+06              0.    -16.1837E+06
           21036    -72.5158E+06     6.61137E+06              0.    -15.8556E+06
           21037    -73.7066E+06     3.78389E+06              0.    -15.5094E+06
           21038    -74.8706E+06     847.940E+03              0.    -15.1447E+06
           21039    -76.0063E+06    -2.19862E+06              0.    -14.7616E+06
           21040    -77.1123E+06    -5.35778E+06              0.    -14.3597E+06
           21041    -78.1871E+06    -8.63161E+06              0.    -13.9389E+06
           21042    -79.2292E+06    -12.0221E+06              0.    -13.4991E+06
           21043    -80.2372E+06    -15.5311E+06              0.    -13.0402E+06
           21044    -81.2094E+06    -19.1607E+06              0.    -12.5620E+06
           21045    -82.1443E+06    -22.9126E+06              0.    -12.0643E+06
           21046    -83.0403E+06    -26.7887E+06              0.    -11.5472E+06
           21047    -83.8958E+06    -30.7909E+06              0.    -11.0105E+06
           21048    -84.7091E+06    -34.9209E+06              0.    -10.4540E+06
           21049    -86.3143E+06    -39.6069E+06              0.    -10.1881E+06
           21050     63.7567E+06     28.0008E+06              0.    -866.627E+03
           21051     63.7770E+06     28.2249E+06              0.    -865.006E+03
           21052     63.7012E+06     28.4023E+06              0.    -853.362E+03
           21053     63.6264E+06     28.5748E+06              0.    -843.439E+03
           21054     63.5523E+06     28.7428E+06              0.    -835.190E+03
           21055     63.4788E+06     28.9064E+06              0.    -828.572E+03
           21056     63.4058E+06     29.0658E+06              0.    -823.541E+03
           21057     63.3332E+06     29.2212E+06              0.    -820.058E+03
           21058     63.2607E+06     29.3729E+06              0.    -818.085E+03
           21059     63.1883E+06     29.5211E+06              0.    -817.585E+03
           21060     63.1159E+06     29.6659E+06              0.    -818.524E+03
           21061     63.0433E+06     29.8075E+06              0.    -820.870E+03
           21062     62.9703E+06     29.9462E+06              0.    -824.592E+03
           21063     62.8969E+06     30.0820E+06              0.    -829.661E+03
           21064     62.8230E+06     30.2152E+06              0.    -836.051E+03
           21065     62.7484E+06     30.3459E+06              0.    -843.736E+03
           21066     62.6730E+06     30.4743E+06              0.    -852.692E+03
           21067     62.5968E+06     30.6006E+06              0.    -862.896E+03
           21068     62.5195E+06     30.7248E+06              0.    -874.328E+03
           21069     62.4411E+06     30.8471E+06              0.    -886.969E+03
           21070     62.3614E+06     30.9678E+06              0.    -900.800E+03
           21071     62.2805E+06     31.0869E+06              0.    -915.806E+03
           21072     62.1981E+06     31.2045E+06              0.    -931.969E+03
           21073     62.1142E+06     31.3208E+06              0.    -949.278E+03
           21074     62.0286E+06     31.4360E+06              0.    -967.719E+03
           21075     61.9414E+06     31.5501E+06              0.    -987.280E+03
           21076     61.8523E+06     31.6632E+06              0.    -1.00795E+06
           21077     61.7612E+06     31.7756E+06              0.    -1.02973E+06
           21078     61.6681E+06     31.8872E+06              0.    -1.05259E+06
           21079     61.5729E+06     31.9983E+06              0.    -1.07655E+06
           21080     61.4755E+06     32.1089E+06              0.    -1.10158E+06
           21081     61.3758E+06     32.2191E+06              0.    -1.12769E+06
           21082     61.2736E+06     32.3291E+06              0.    -1.15487E+06
           21083     61.1690E+06     32.4389E+06              0.    -1.18312E+06
           21084     61.0617E+06     32.5486E+06              0.    -1.21244E+06
           21085     60.9518E+06     32.6584E+06              0.    -1.24283E+06
           21086     60.8390E+06     32.7683E+06              0.    -1.27428E+06
           21087     60.7234E+06     32.8785E+06              0.    -1.30680E+06
           21088     60.6048E+06     32.9889E+06              0.    -1.34039E+06
           21089     60.4831E+06     33.0998E+06              0.    -1.37505E+06
           21090     60.3582E+06     33.2112E+06              0.    -1.41079E+06
           21091     60.2301E+06     33.3232E+06              0.    -1.44761E+06
           21092     60.0986E+06     33.4358E+06              0.    -1.48551E+06
           21093     59.9637E+06     33.5492E+06              0.    -1.52450E+06
           21094     59.8252E+06     33.6634E+06              0.    -1.56460E+06
           21095     59.6831E+06     33.7785E+06              0.    -1.60579E+06
           21096     59.5372E+06     33.8946E+06              0.    -1.64810E+06
           21097     59.3875E+06     34.0118E+06              0.    -1.69152E+06
           21098     59.2338E+06     34.1301E+06              0.    -1.73608E+06
           21099     59.0761E+06     34.2496E+06              0.    -1.78178E+06
           21100     58.9143E+06     34.3704E+06              0.    -1.82863E+06
           21101     58.7482E+06     34.4925E+06              0.    -1.87663E+06
           21102     58.5777E+06     34.6161E+06              0.    -1.92582E+06
           21103     58.4028E+06     34.7412E+06              0.    -1.97618E+06
           21104     58.2234E+06     34.8678E+06              0.    -2.02775E+06
           21105     58.0393E+06     34.9960E+06              0.    -2.08053E+06
           21106     57.8504E+06     35.1259E+06              0.    -2.13453E+06
           21107     57.6567E+06     35.2576E+06              0.    -2.18977E+06
           21108     57.4579E+06     35.3911E+06              0.    -2.24627E+06
           21109     57.2541E+06     35.5264E+06              0.    -2.30404E+06
           21110     57.0451E+06     35.6637E+06              0.    -2.36309E+06
           21111     56.8308E+06     35.8029E+06              0.    -2.42344E+06
           21112     56.6110E+06     35.9442E+06              0.    -2.48512E+06
           21113     56.3857E+06     36.0876E+06              0.    -2.54812E+06
           21114     56.1547E+06     36.2331E+06              0.    -2.61248E+06
           21115     55.9180E+06     36.3809E+06              0.    -2.67821E+06
           21116     55.6753E+06     36.5309E+06              0.    -2.74533E+06
           21117     55.4267E+06     36.6832E+06              0.    -2.81385E+06
           21118     55.1719E+06     36.8378E+06              0.    -2.88380E+06
           21119     54.9108E+06     36.9949E+06              0.    -2.95519E+06
           21120     54.6434E+06     37.1544E+06              0.    -3.02804E+06
           21121     54.3694E+06     37.3164E+06              0.    -3.10237E+06
           21122     54.0888E+06     37.4809E+06              0.    -3.17820E+06
           21123     53.8014E+06     37.6480E+06              0.    -3.25555E+06
           21124     53.5071E+06     37.8177E+06              0.    -3.33445E+06
           21125     53.2058E+06     37.9901E+06              0.    -3.41490E+06
           21126     52.8974E+06     38.1651E+06              0.    -3.49693E+06
           21127     52.5816E+06     38.3429E+06              0.    -3.58055E+06
           21128     52.2584E+06     38.5235E+06              0.    -3.66580E+06
           21129     51.9276E+06     38.7068E+06              0.    -3.75268E+06
           21130     51.5891E+06     38.8929E+06              0.    -3.84122E+06
           21131     51.2427E+06     39.0819E+06              0.    -3.93144E+06
           21132     50.8884E+06     39.2737E+06              0.    -4.02335E+06
           21133     50.5258E+06     39.4684E+06              0.    -4.11698E+06
           21134     50.1551E+06     39.6661E+06              0.    -4.21234E+06
           21135     49.7758E+06     39.8666E+06              0.    -4.30945E+06
           21136     49.3880E+06     40.0701E+06              0.    -4.40833E+06
           21137     48.9915E+06     40.2765E+06              0.    -4.50901E+06
           21138     48.5861E+06     40.4859E+06              0.    -4.61149E+06
           21139     48.1717E+06     40.6982E+06              0.    -4.71579E+06
           21140     47.7480E+06     40.9136E+06              0.    -4.82193E+06
           21141     47.3151E+06     41.1318E+06              0.    -4.92993E+06
           21142     46.8726E+06     41.3530E+06              0.     -5.0398E+06
           21143     46.4206E+06     41.5772E+06              0.    -5.15156E+06
           21144     45.9587E+06     41.8043E+06              0.    -5.26521E+06
           21145     45.4869E+06     42.0343E+06              0.    -5.38078E+06
           21146     45.0049E+06     42.2672E+06              0.    -5.49827E+06
           21147     44.5127E+06     42.5030E+06              0.    -5.61770E+06
           21148     44.0101E+06     42.7416E+06              0.    -5.73908E+06
           21149     43.4969E+06     42.9831E+06              0.    -5.86241E+06
           21150     42.9729E+06     43.2273E+06              0.    -5.98771E+06
           21151     42.4380E+06     43.4742E+06              0.    -6.11498E+06
           21152     41.8921E+06     43.7237E+06              0.    -6.24422E+06
           21153     41.3350E+06     43.9759E+06              0.    -6.37545E+06
           21154     40.7665E+06     44.2306E+06              0.    -6.50866E+06
           21155     40.1865E+06     44.4878E+06              0.    -6.64385E+06
           21156     39.5947E+06     44.7474E+06              0.    -6.78103E+06
           21157     38.9912E+06     45.0093E+06              0.    -6.92019E+06
           21158     38.3756E+06     45.2734E+06              0.    -7.06132E+06
           21159     37.7479E+06     45.5396E+06              0.    -7.20443E+06
           21160     37.1079E+06     45.8079E+06              0.    -7.34951E+06
           21161     36.4554E+06     46.0780E+06              0.    -7.49653E+06
           21162     35.7903E+06     46.3499E+06              0.    -7.64550E+06
           21163     35.1125E+06     46.6235E+06              0.    -7.79639E+06
           21164     34.4218E+06     46.8985E+06              0.    -7.94919E+06
           21165     33.7180E+06     47.1749E+06              0.    -8.10388E+06
           21166     33.0011E+06     47.4525E+06              0.    -8.26043E+06
           21167     32.2708E+06     47.7310E+06              0.    -8.41883E+06
           21168     31.5271E+06     48.0104E+06              0.    -8.57903E+06
           21169     30.7698E+06     48.2904E+06              0.    -8.74102E+06
           21170     29.9988E+06     48.5709E+06              0.    -8.90475E+06
           21171     29.2139E+06     48.8515E+06              0.    -9.07018E+06
           21172     28.4151E+06     49.1320E+06              0.    -9.23729E+06
           21173     27.6022E+06     49.4123E+06              0.    -9.40601E+06
           21174     26.7752E+06     49.6920E+06              0.    -9.57630E+06
           21175     25.9338E+06     49.9709E+06              0.    -9.74811E+06
           21176     25.0781E+06     50.2487E+06              0.    -9.92138E+06
           21177     24.2078E+06     50.5250E+06              0.    -10.0960E+06
           21178     23.3230E+06     50.7996E+06              0.    -10.2720E+06
           21179     22.4236E+06     51.0720E+06              0.    -10.4493E+06
           21180     21.5094E+06     51.3421E+06              0.    -10.6278E+06
           21181     20.5804E+06     51.6092E+06              0.    -10.8073E+06
           21182     19.6366E+06     51.8732E+06              0.    -10.9879E+06
           21183     18.6778E+06     52.1335E+06              0.    -11.1694E+06
           21184     17.7041E+06     52.3897E+06              0.    -11.3518E+06
           21185     16.7154E+06     52.6414E+06              0.    -11.5349E+06
           21186     15.7116E+06     52.8881E+06              0.    -11.7187E+06
           21187     14.6929E+06     53.1293E+06              0.    -11.9029E+06
           21188     13.6590E+06     53.3645E+06              0.    -12.0876E+06
           21189     12.6102E+06     53.5931E+06              0.    -12.2726E+06
           21190     11.5463E+06     53.8146E+06              0.    -12.4577E+06
           21191     10.4674E+06     54.0283E+06              0.    -12.6429E+06
           21192     9.37355E+06     54.2338E+06              0.    -12.8279E+06
           21193     8.26477E+06     54.4302E+06              0.    -13.0126E+06
           21194     7.14114E+06     54.6169E+06              0.    -13.1970E+06
           21195     6.00272E+06     54.7934E+06              0.    -13.3808E+06
           21196     4.84960E+06     54.9587E+06              0.    -13.5638E+06
           21197     3.68190E+06     55.1122E+06              0.    -13.7459E+06
           21198     2.49972E+06     55.2532E+06              0.    -13.9269E+06
           21199     1.30319E+06     55.3807E+06              0.    -14.1067E+06
           21200     92.4579E+03     55.4939E+06              0.    -14.2849E+06
           21201    -1.13231E+06     55.5920E+06              0.    -14.4615E+06
           21202    -2.37093E+06     55.6741E+06              0.    -14.6362E+06
           21203    -3.62321E+06     55.7392E+06              0.    -14.8088E+06
           21204    -4.88894E+06     55.7863E+06              0.    -14.9791E+06
           21205    -6.16790E+06     55.8145E+06              0.    -15.1468E+06
           21206    -7.45982E+06     55.8227E+06              0.    -15.3118E+06
           21207    -8.76444E+06     55.8098E+06              0.    -15.4737E+06
           21208    -10.0815E+06     55.7748E+06              0.    -15.6324E+06
           21209    -11.4106E+06     55.7164E+06              0.    -15.7875E+06
           21210    -12.7516E+06     55.6336E+06              0.    -15.9389E+06
           21211    -14.1039E+06     55.5251E+06              0.    -16.0862E+06
           21212    -15.4674E+06     55.3895E+06              0.    -16.2292E+06
           21213    -16.8415E+06     55.2258E+06              0.    -16.3676E+06
           21214    -18.2259E+06     55.0324E+06              0.    -16.5011E+06
           21215    -19.6201E+06     54.8081E+06              0.    -16.6294E+06
           21216    -21.0237E+06     54.5515E+06              0.    -16.7523E+06
           21217    -22.4362E+06     54.2611E+06              0.    -16.8693E+06
           21218    -23.8572E+06     53.9354E+06              0.    -16.9803E+06
           21219    -25.2860E+06     53.5730E+06              0.    -17.0849E+06
           21220    -26.7222E+06     53.1722E+06              0.    -17.1828E+06
           21221    -28.1651E+06     52.7315E+06              0.    -17.2737E+06
           21222    -29.6142E+06     52.2493E+06              0.    -17.3572E+06
           21223    -31.0689E+06     51.7239E+06              0.     -17.433E+06
           21224    -32.5286E+06     51.1536E+06              0.    -17.5008E+06
           21225    -33.9924E+06     50.5367E+06              0.    -17.5603E+06
           21226    -35.4599E+06     49.8713E+06              0.    -17.6112E+06
           21227    -36.9301E+06     49.1558E+06              0.    -17.6530E+06
           21228    -38.4025E+06     48.3882E+06              0.    -17.6855E+06
           21229    -39.8763E+06     47.5668E+06              0.    -17.7084E+06
           21230    -41.3506E+06     46.6895E+06              0.    -17.7212E+06
           21231    -42.8246E+06     45.7545E+06              0.    -17.7238E+06
           21232    -44.2975E+06     44.7599E+06              0.    -17.7156E+06
           21233    -45.7685E+06     43.7035E+06              0.    -17.6965E+06
           21234    -47.2366E+06     42.5835E+06              0.    -17.6660E+06
           21235    -48.7009E+06     41.3978E+06              0.    -17.6239E+06
           21236    -50.1606E+06     40.1443E+06              0.    -17.5698E+06
           21237    -51.6145E+06     38.8209E+06              0.    -17.5034E+06
           21238    -53.0618E+06     37.4256E+06              0.    -17.4244E+06
           21239    -54.5014E+06     35.9562E+06              0.    -17.3325E+06
           21240    -55.9323E+06     34.4106E+06              0.    -17.2274E+06
           21241    -57.3533E+06     32.7866E+06              0.    -17.1087E+06
           21242    -58.7635E+06     31.0821E+06              0.    -16.9763E+06
           21243    -60.1618E+06     29.2949E+06              0.    -16.8297E+06
           21244    -61.5469E+06     27.4229E+06              0.    -16.6688E+06
           21245    -62.9177E+06     25.4638E+06              0.    -16.4932E+06
           21246    -64.2731E+06     23.4155E+06              0.    -16.3028E+06
           21247    -65.6118E+06     21.2758E+06              0.    -16.0972E+06
           21248    -66.9326E+06     19.0424E+06              0.    -15.8762E+06
           21249    -68.2342E+06     16.7134E+06              0.    -15.6396E+06
           21250    -69.5154E+06     14.2864E+06              0.    -15.3871E+06
           21251    -70.7749E+06     11.7593E+06              0.    -15.1186E+06
           21252    -72.0114E+06     9.13001E+06              0.    -14.8338E+06
           21253    -73.2234E+06     6.39634E+06              0.    -14.5325E+06
           21254    -74.4097E+06     3.55621E+06              0.    -14.2146E+06
           21255    -75.5687E+06     607.563E+03              0.    -13.8799E+06
           21256    -76.6993E+06    -2.45173E+06              0.    -13.5282E+06
           21257    -77.7998E+06    -5.62364E+06              0.    -13.1593E+06
           21258    -78.8688E+06    -8.91025E+06              0.    -12.7732E+06
           21259    -79.9048E+06    -12.3135E+06              0.    -12.3696E+06
           21260    -80.9063E+06    -15.8353E+06              0.    -11.9485E+06
           21261    -81.8718E+06    -19.4776E+06              0.    -11.5098E+06
           21262    -82.7997E+06    -23.2423E+06              0.    -11.0533E+06
           21263    -83.6884E+06    -27.1312E+06              0.    -10.5789E+06
           21264    -84.5363E+06    -31.1461E+06              0.    -10.0865E+06
           21265    -85.3417E+06    -35.2888E+06              0.    -9.57617E+06
           21266    -86.9471E+06    -39.9874E+06              0.    -9.33191E+06
           21267     63.7242E+06     27.9867E+06              0.    -790.170E+03
           21268     63.7447E+06     28.2128E+06              0.    -788.690E+03
           21269     63.6682E+06     28.3919E+06              0.    -778.073E+03
           21270     63.5926E+06     28.5660E+06              0.    -769.025E+03
           21271     63.5179E+06     28.7355E+06              0.    -761.504E+03
           21272     63.4437E+06     28.9006E+06              0.    -755.469E+03
           21273     63.3700E+06     29.0615E+06              0.    -750.882E+03
           21274     63.2967E+06     29.2183E+06              0.    -747.706E+03
           21275     63.2236E+06     29.3714E+06              0.    -745.905E+03
           21276     63.1506E+06     29.5210E+06              0.    -745.449E+03
           21277     63.0774E+06     29.6671E+06              0.    -746.304E+03
           21278     63.0042E+06     29.8100E+06              0.    -748.443E+03
           21279     62.9305E+06     29.9500E+06              0.    -751.835E+03
           21280     62.8565E+06     30.0870E+06              0.    -756.457E+03
           21281     62.7819E+06     30.2214E+06              0.    -762.282E+03
           21282     62.7066E+06     30.3534E+06              0.    -769.288E+03
           21283     62.6305E+06     30.4829E+06              0.    -777.453E+03
           21284     62.5535E+06     30.6103E+06              0.    -786.756E+03
           21285     62.4755E+06     30.7357E+06              0.    -797.178E+03
           21286     62.3964E+06     30.8592E+06              0.    -808.703E+03
           21287     62.3161E+06     30.9809E+06              0.    -821.313E+03
           21288     62.2344E+06     31.1011E+06              0.    -834.993E+03
           21289     62.1512E+06     31.2198E+06              0.    -849.729E+03
           21290     62.0666E+06     31.3372E+06              0.    -865.510E+03
           21291     61.9802E+06     31.4534E+06              0.    -882.322E+03
           21292     61.8922E+06     31.5685E+06              0.    -900.156E+03
           21293     61.8022E+06     31.6827E+06              0.    -919.003E+03
           21294     61.7104E+06     31.7961E+06              0.    -938.854E+03
           21295     61.6164E+06     31.9088E+06              0.    -959.701E+03
           21296     61.5204E+06     32.0209E+06              0.    -981.539E+03
           21297     61.4221E+06     32.1325E+06              0.    -1.00436E+06
           21298     61.3214E+06     32.2437E+06              0.    -1.02817E+06
           21299     61.2183E+06     32.3546E+06              0.    -1.05295E+06
           21300     61.1127E+06     32.4654E+06              0.    -1.07870E+06
           21301     61.0045E+06     32.5762E+06              0.    -1.10543E+06
           21302     60.8935E+06     32.6870E+06              0.    -1.13314E+06
           21303     60.7798E+06     32.7979E+06              0.    -1.16181E+06
           21304     60.6631E+06     32.9090E+06              0.    -1.19146E+06
           21305     60.5434E+06     33.0205E+06              0.    -1.22208E+06
           21306     60.4206E+06     33.1324E+06              0.    -1.25368E+06
           21307     60.2946E+06     33.2448E+06              0.    -1.28626E+06
           21308     60.1654E+06     33.3577E+06              0.    -1.31983E+06
           21309     60.0327E+06     33.4714E+06              0.    -1.35438E+06
           21310     59.8965E+06     33.5858E+06              0.    -1.38993E+06
           21311     59.7568E+06     33.7010E+06              0.    -1.42648E+06
           21312     59.6134E+06     33.8172E+06              0.    -1.46404E+06
           21313     59.4662E+06     33.9343E+06              0.    -1.50260E+06
           21314     59.3151E+06     34.0525E+06              0.    -1.54219E+06
           21315     59.1601E+06     34.1719E+06              0.    -1.58281E+06
           21316     59.0010E+06     34.2925E+06              0.    -1.62447E+06
           21317     58.8376E+06     34.4143E+06              0.    -1.66718E+06
           21318     58.6700E+06     34.5376E+06              0.    -1.71095E+06
           21319     58.4981E+06     34.6622E+06              0.    -1.75578E+06
           21320     58.3216E+06     34.7884E+06              0.    -1.80170E+06
           21321     58.1406E+06     34.9162E+06              0.    -1.84871E+06
           21322     57.9548E+06     35.0455E+06              0.    -1.89682E+06
           21323     57.7642E+06     35.1766E+06              0.    -1.94605E+06
           21324     57.5688E+06     35.3094E+06              0.    -1.99641E+06
           21325     57.3682E+06     35.4441E+06              0.    -2.04791E+06
           21326     57.1626E+06     35.5806E+06              0.    -2.10057E+06
           21327     56.9517E+06     35.7191E+06              0.    -2.15440E+06
           21328     56.7355E+06     35.8595E+06              0.    -2.20941E+06
           21329     56.5137E+06     36.0021E+06              0.    -2.26563E+06
           21330     56.2864E+06     36.1467E+06              0.    -2.32307E+06
           21331     56.0534E+06     36.2935E+06              0.    -2.38173E+06
           21332     55.8146E+06     36.4425E+06              0.    -2.44165E+06
           21333     55.5698E+06     36.5938E+06              0.    -2.50282E+06
           21334     55.3189E+06     36.7475E+06              0.    -2.56528E+06
           21335     55.0618E+06     36.9034E+06              0.    -2.62904E+06
           21336     54.7985E+06     37.0619E+06              0.    -2.69411E+06
           21337     54.5287E+06     37.2227E+06              0.    -2.76052E+06
           21338     54.2523E+06     37.3861E+06              0.    -2.82827E+06
           21339     53.9692E+06     37.5520E+06              0.    -2.89739E+06
           21340     53.6793E+06     37.7206E+06              0.    -2.96789E+06
           21341     53.3824E+06     37.8917E+06              0.    -3.03980E+06
           21342     53.0785E+06     38.0655E+06              0.    -3.11313E+06
           21343     52.7673E+06     38.2421E+06              0.    -3.18789E+06
           21344     52.4488E+06     38.4213E+06              0.    -3.26411E+06
           21345     52.1227E+06     38.6034E+06              0.    -3.34180E+06
           21346     51.7891E+06     38.7882E+06              0.    -3.42099E+06
           21347     51.4476E+06     38.9759E+06              0.    -3.50168E+06
           21348     51.0982E+06     39.1665E+06              0.    -3.58390E+06
           21349     50.7408E+06     39.3599E+06              0.    -3.66767E+06
           21350     50.3752E+06     39.5562E+06              0.    -3.75299E+06
           21351     50.0012E+06     39.7555E+06              0.    -3.83990E+06
           21352     49.6187E+06     39.9576E+06              0.    -3.92840E+06
           21353     49.2275E+06     40.1628E+06              0.    -4.01851E+06
           21354     48.8276E+06     40.3709E+06              0.    -4.11026E+06
           21355     48.4187E+06     40.5820E+06              0.    -4.20364E+06
           21356     48.0007E+06     40.7960E+06              0.    -4.29869E+06
           21357     47.5735E+06     41.0130E+06              0.    -4.39541E+06
           21358     47.1369E+06     41.2330E+06              0.    -4.49382E+06
           21359     46.6907E+06     41.4560E+06              0.    -4.59394E+06
           21360     46.2347E+06     41.6820E+06              0.    -4.69577E+06
           21361     45.7690E+06     41.9108E+06              0.    -4.79933E+06
           21362     45.2932E+06     42.1426E+06              0.    -4.90463E+06
           21363     44.8072E+06     42.3774E+06              0.    -5.01168E+06
           21364     44.3108E+06     42.6150E+06              0.    -5.12049E+06
           21365      43.804E+06     42.8554E+06              0.    -5.23108E+06
           21366     43.2865E+06     43.0986E+06              0.    -5.34344E+06
           21367     42.7582E+06     43.3447E+06              0.    -5.45759E+06
           21368     42.2189E+06     43.5934E+06              0.    -5.57354E+06
           21369     41.6685E+06     43.8448E+06              0.    -5.69128E+06
           21370     41.1068E+06     44.0989E+06              0.    -5.81082E+06
           21371     40.5336E+06     44.3554E+06              0.    -5.93217E+06
           21372     39.9489E+06     44.6145E+06              0.    -6.05532E+06
           21373     39.3524E+06     44.8759E+06              0.    -6.18028E+06
           21374     38.7439E+06     45.1397E+06              0.    -6.30704E+06
           21375     38.1234E+06     45.4056E+06              0.    -6.43559E+06
           21376     37.4906E+06     45.6737E+06              0.    -6.56594E+06
           21377     36.8455E+06     45.9438E+06              0.    -6.69807E+06
           21378     36.1879E+06     46.2158E+06              0.    -6.83198E+06
           21379     35.5175E+06     46.4895E+06              0.    -6.96765E+06
           21380     34.8344E+06     46.7649E+06              0.    -7.10506E+06
           21381     34.1382E+06     47.0417E+06              0.    -7.24421E+06
           21382     33.4290E+06     47.3199E+06              0.    -7.38508E+06
           21383     32.7065E+06     47.5992E+06              0.    -7.52764E+06
           21384     31.9706E+06     47.8795E+06              0.    -7.67186E+06
           21385     31.2211E+06     48.1606E+06              0.    -7.81774E+06
           21386     30.4581E+06     48.4423E+06              0.    -7.96522E+06
           21387     29.6812E+06     48.7244E+06              0.    -8.11429E+06
           21388     28.8904E+06     49.0066E+06              0.    -8.26491E+06
           21389     28.0857E+06     49.2887E+06              0.    -8.41703E+06
           21390     27.2667E+06     49.5705E+06              0.    -8.57062E+06
           21391     26.4336E+06     49.8517E+06              0.    -8.72564E+06
           21392     25.5860E+06     50.1321E+06              0.    -8.88203E+06
           21393     24.7241E+06     50.4112E+06              0.    -9.03974E+06
           21394     23.8476E+06     50.6889E+06              0.    -9.19871E+06
           21395     22.9564E+06     50.9647E+06              0.    -9.35889E+06
           21396     22.0506E+06     51.2384E+06              0.    -9.52022E+06
           21397     21.1299E+06     51.5096E+06              0.    -9.68261E+06
           21398     20.1945E+06     51.7778E+06              0.    -9.84600E+06
           21399     19.2441E+06     52.0428E+06              0.    -10.0103E+06
           21400     18.2788E+06     52.3041E+06              0.    -10.1755E+06
           21401     17.2984E+06     52.5611E+06              0.    -10.3414E+06
           21402     16.3031E+06     52.8136E+06              0.    -10.5080E+06
           21403     15.2927E+06     53.0610E+06              0.    -10.6751E+06
           21404     14.2672E+06     53.3027E+06              0.    -10.8427E+06
           21405     13.2267E+06     53.5384E+06              0.    -11.0107E+06
           21406     12.1710E+06     53.7674E+06              0.    -11.1789E+06
           21407     11.1004E+06     53.9891E+06              0.    -11.3473E+06
           21408     10.0147E+06     54.2030E+06              0.    -11.5156E+06
           21409     8.91409E+06     54.4084E+06              0.    -11.6839E+06
           21410     7.79853E+06     54.6047E+06              0.    -11.8519E+06
           21411     6.66812E+06     54.7912E+06              0.    -12.0195E+06
           21412     5.52293E+06     54.9672E+06              0.    -12.1865E+06
           21413     4.36305E+06     55.1320E+06              0.    -12.3529E+06
           21414     3.18860E+06     55.2849E+06              0.    -12.5184E+06
           21415     1.99970E+06     55.4250E+06              0.    -12.6829E+06
           21416     796.488E+03     55.5515E+06              0.    -12.8462E+06
           21417    -420.893E+03     55.6636E+06              0.    -13.0082E+06
           21418    -1.65227E+06     55.7603E+06              0.    -13.1686E+06
           21419    -2.89745E+06     55.8409E+06              0.    -13.3273E+06
           21420    -4.15625E+06     55.9043E+06              0.    -13.4840E+06
           21421    -5.42843E+06     55.9496E+06              0.    -13.6387E+06
           21422    -6.71376E+06     55.9757E+06              0.    -13.7910E+06
           21423    -8.01199E+06     55.9816E+06              0.    -13.9408E+06
           21424    -9.32284E+06     55.9663E+06              0.    -14.0878E+06
           21425    -10.6460E+06     55.9286E+06              0.    -14.2318E+06
           21426    -11.9812E+06     55.8674E+06              0.    -14.3725E+06
           21427    -13.3281E+06     55.7814E+06              0.    -14.5099E+06
           21428    -14.6863E+06     55.6696E+06              0.    -14.6435E+06
           21429    -16.0554E+06     55.5305E+06              0.    -14.7732E+06
           21430    -17.4352E+06     55.3630E+06              0.    -14.8987E+06
           21431    -18.8250E+06     55.1656E+06              0.    -15.0197E+06
           21432    -20.2246E+06     54.9371E+06              0.    -15.1359E+06
           21433    -21.6334E+06     54.6760E+06              0.    -15.2472E+06
           21434    -23.0509E+06     54.3809E+06              0.    -15.3533E+06
           21435    -24.4768E+06     54.0503E+06              0.    -15.4537E+06
           21436    -25.9103E+06     53.6827E+06              0.    -15.5484E+06
           21437    -27.3510E+06     53.2765E+06              0.    -15.6369E+06
           21438    -28.7983E+06     52.8301E+06              0.    -15.7191E+06
           21439    -30.2516E+06     52.3420E+06              0.    -15.7945E+06
           21440    -31.7103E+06     51.8104E+06              0.    -15.8629E+06
           21441    -33.1736E+06     51.2336E+06              0.    -15.9241E+06
           21442    -34.6411E+06     50.6100E+06              0.    -15.9777E+06
           21443    -36.1119E+06     49.9378E+06              0.    -16.0234E+06
           21444    -37.5853E+06     49.2151E+06              0.    -16.0609E+06
           21445    -39.0606E+06     48.4402E+06              0.    -16.0899E+06
           21446    -40.5370E+06     47.6111E+06              0.    -16.1101E+06
           21447    -42.0137E+06     46.7259E+06              0.    -16.1212E+06
           21448    -43.4900E+06     45.7828E+06              0.    -16.1229E+06
           21449    -44.9649E+06     44.7798E+06              0.    -16.1149E+06
           21450    -46.4375E+06     43.7149E+06              0.    -16.0969E+06
           21451    -47.9071E+06     42.5861E+06              0.    -16.0686E+06
           21452    -49.3726E+06     41.3914E+06              0.    -16.0298E+06
           21453    -50.8331E+06     40.1287E+06              0.    -15.9800E+06
           21454    -52.2877E+06     38.7959E+06              0.    -15.9191E+06
           21455    -53.7353E+06     37.3909E+06              0.    -15.8467E+06
           21456    -55.1750E+06     35.9117E+06              0.    -15.7625E+06
           21457    -56.6057E+06     34.3562E+06              0.    -15.6664E+06
           21458    -58.0263E+06     32.7220E+06              0.    -15.5579E+06
           21459    -59.4358E+06     31.0072E+06              0.    -15.4370E+06
           21460    -60.8330E+06     29.2096E+06              0.    -15.3032E+06
           21461    -62.2168E+06     27.3269E+06              0.    -15.1563E+06
           21462    -63.5860E+06     25.3571E+06              0.    -14.9962E+06
           21463    -64.9395E+06     23.2979E+06              0.    -14.8225E+06
           21464    -66.2760E+06     21.1472E+06              0.    -14.6351E+06
           21465    -67.5944E+06     18.9028E+06              0.    -14.4337E+06
           21466    -68.8933E+06     16.5625E+06              0.    -14.2181E+06
           21467    -70.1715E+06     14.1243E+06              0.    -13.9881E+06
           21468    -71.4276E+06     11.5858E+06              0.    -13.7435E+06
           21469    -72.6604E+06     8.94512E+06              0.    -13.4842E+06
           21470    -73.8686E+06     6.19996E+06              0.    -13.2099E+06
           21471    -75.0506E+06     3.34830E+06              0.    -12.9205E+06
           21472    -76.2053E+06     388.072E+03              0.    -12.6158E+06
           21473    -77.3310E+06    -2.68283E+06              0.    -12.2956E+06
           21474    -78.4265E+06    -5.86637E+06              0.    -11.9599E+06
           21475    -79.4902E+06    -9.16462E+06              0.    -11.6086E+06
           21476    -80.5206E+06    -12.5795E+06              0.    -11.2413E+06
           21477    -81.5162E+06    -16.1130E+06              0.    -10.8582E+06
           21478    -82.4756E+06    -19.7670E+06              0.    -10.4590E+06
           21479    -83.3970E+06    -23.5433E+06              0.    -10.0437E+06
           21480    -84.2790E+06    -27.4438E+06              0.    -9.61215E+06
           21481    -85.1199E+06    -31.4703E+06              0.    -9.16429E+06
           21482    -85.9180E+06    -35.6245E+06              0.    -8.70003E+06
           21483    -87.5232E+06    -40.3344E+06              0.    -8.47762E+06
           21484     63.6946E+06     27.9739E+06              0.    -713.050E+03
           21485     63.7153E+06     28.2019E+06              0.    -711.715E+03
           21486     63.6382E+06     28.3824E+06              0.    -702.134E+03
           21487      63.562E+06     28.5580E+06              0.    -693.968E+03
           21488     63.4866E+06     28.7289E+06              0.    -687.181E+03
           21489     63.4118E+06     28.8953E+06              0.    -681.734E+03
           21490     63.3376E+06     29.0575E+06              0.    -677.594E+03
           21491     63.2636E+06     29.2157E+06              0.    -674.727E+03
           21492     63.1899E+06     29.3701E+06              0.    -673.103E+03
           21493     63.1163E+06     29.5208E+06              0.    -672.690E+03
           21494     63.0426E+06     29.6682E+06              0.    -673.462E+03
           21495     62.9687E+06     29.8123E+06              0.    -675.390E+03
           21496     62.8944E+06     29.9534E+06              0.    -678.452E+03
           21497     62.8198E+06     30.0916E+06              0.    -682.621E+03
           21498     62.7446E+06     30.2271E+06              0.    -687.878E+03
           21499     62.6686E+06     30.3601E+06              0.    -694.199E+03
           21500     62.5919E+06     30.4907E+06              0.    -701.566E+03
           21501     62.5143E+06     30.6192E+06              0.    -709.960E+03
           21502     62.4357E+06     30.7456E+06              0.    -719.365E+03
           21503     62.3559E+06     30.8701E+06              0.    -729.764E+03
           21504     62.2749E+06     30.9929E+06              0.    -741.142E+03
           21505     62.1925E+06     31.1140E+06              0.    -753.486E+03
           21506     62.1087E+06     31.2337E+06              0.    -766.783E+03
           21507     62.0234E+06     31.3521E+06              0.    -781.022E+03
           21508     61.9363E+06     31.4692E+06              0.    -796.192E+03
           21509     61.8475E+06     31.5853E+06              0.    -812.285E+03
           21510     61.7569E+06     31.7004E+06              0.    -829.290E+03
           21511     61.6642E+06     31.8147E+06              0.    -847.202E+03
           21512     61.5695E+06     31.9283E+06              0.    -866.013E+03
           21513     61.4727E+06     32.0413E+06              0.    -885.718E+03
           21514     61.3736E+06     32.1538E+06              0.    -906.312E+03
           21515     61.2721E+06     32.2660E+06              0.    -927.791E+03
           21516     61.1682E+06     32.3778E+06              0.    -950.153E+03
           21517     61.0617E+06     32.4896E+06              0.    -973.393E+03
           21518     60.9526E+06     32.6012E+06              0.    -997.512E+03
           21519     60.8407E+06     32.7129E+06              0.    -1.02251E+06
           21520     60.7260E+06     32.8247E+06              0.    -1.04838E+06
           21521     60.6084E+06     32.9368E+06              0.    -1.07513E+06
           21522     60.4878E+06     33.0491E+06              0.    -1.10277E+06
           21523     60.3640E+06     33.1619E+06              0.    -1.13128E+06
           21524     60.2370E+06     33.2752E+06              0.    -1.16068E+06
           21525     60.1066E+06     33.3891E+06              0.    -1.19096E+06
           21526     59.9729E+06     33.5037E+06              0.    -1.22214E+06
           21527     59.8356E+06      33.619E+06              0.    -1.25422E+06
           21528     59.6948E+06     33.7352E+06              0.    -1.28719E+06
           21529     59.5502E+06     33.8522E+06              0.    -1.32108E+06
           21530     59.4018E+06     33.9703E+06              0.    -1.35588E+06
           21531     59.2495E+06     34.0895E+06              0.    -1.39160E+06
           21532     59.0932E+06     34.2098E+06              0.    -1.42825E+06
           21533     58.9328E+06     34.3314E+06              0.    -1.46584E+06
           21534     58.7681E+06     34.4542E+06              0.    -1.50437E+06
           21535     58.5992E+06     34.5785E+06              0.    -1.54386E+06
           21536     58.4258E+06     34.7041E+06              0.    -1.58432E+06
           21537     58.2479E+06     34.8313E+06              0.    -1.62574E+06
           21538     58.0654E+06     34.9600E+06              0.    -1.66816E+06
           21539     57.8782E+06     35.0904E+06              0.    -1.71157E+06
           21540     57.6861E+06     35.2226E+06              0.    -1.75598E+06
           21541     57.4890E+06     35.3564E+06              0.    -1.80142E+06
           21542     57.2869E+06     35.4921E+06              0.    -1.84788E+06
           21543     57.0796E+06     35.6298E+06              0.    -1.89539E+06
           21544     56.8670E+06     35.7693E+06              0.    -1.94396E+06
           21545     56.6490E+06     35.9109E+06              0.    -1.99360E+06
           21546     56.4255E+06     36.0546E+06              0.    -2.04432E+06
           21547     56.1964E+06     36.2003E+06              0.    -2.09613E+06
           21548     55.9615E+06     36.3483E+06              0.    -2.14906E+06
           21549     55.7208E+06     36.4985E+06              0.    -2.20312E+06
           21550     55.4740E+06     36.6510E+06              0.    -2.25831E+06
           21551     55.2211E+06     36.8058E+06              0.    -2.31466E+06
           21552     54.9620E+06     36.9630E+06              0.    -2.37218E+06
           21553     54.6966E+06     37.1226E+06              0.    -2.43088E+06
           21554     54.4246E+06     37.2847E+06              0.    -2.49079E+06
           21555     54.1460E+06     37.4493E+06              0.    -2.55191E+06
           21556     53.8607E+06     37.6166E+06              0.    -2.61427E+06
           21557     53.5685E+06     37.7864E+06              0.    -2.67787E+06
           21558     53.2693E+06     37.9588E+06              0.    -2.74274E+06
           21559     52.9630E+06     38.1340E+06              0.    -2.80889E+06
           21560     52.6493E+06     38.3118E+06              0.    -2.87633E+06
           21561     52.3283E+06     38.4925E+06              0.    -2.94509E+06
           21562     51.9997E+06     38.6759E+06              0.    -3.01517E+06
           21563     51.6634E+06     38.8621E+06              0.    -3.08660E+06
           21564     51.3193E+06     39.0512E+06              0.    -3.15939E+06
           21565     50.9672E+06     39.2432E+06              0.    -3.23356E+06
           21566     50.6070E+06     39.4380E+06              0.    -3.30911E+06
           21567     50.2385E+06     39.6358E+06              0.    -3.38608E+06
           21568     49.8616E+06     39.8365E+06              0.    -3.46447E+06
           21569     49.4761E+06     40.0402E+06              0.    -3.54430E+06
           21570     49.0820E+06     40.2469E+06              0.    -3.62558E+06
           21571     48.6789E+06     40.4565E+06              0.    -3.70833E+06
           21572     48.2669E+06     40.6691E+06              0.    -3.79256E+06
           21573     47.8457E+06     40.8847E+06              0.    -3.87828E+06
           21574     47.4152E+06     41.1033E+06              0.    -3.96552E+06
           21575     46.9752E+06     41.3248E+06              0.    -4.05428E+06
           21576     46.5256E+06     41.5494E+06              0.    -4.14457E+06
           21577     46.0662E+06     41.7769E+06              0.    -4.23641E+06
           21578     45.5969E+06     42.0074E+06              0.    -4.32980E+06
           21579     45.1175E+06     42.2409E+06              0.    -4.42477E+06
           21580     44.6279E+06     42.4772E+06              0.    -4.52131E+06
           21581     44.1278E+06     42.7164E+06              0.    -4.61944E+06
           21582     43.6171E+06     42.9585E+06              0.    -4.71916E+06
           21583     43.0958E+06     43.2034E+06              0.    -4.82049E+06
           21584     42.5635E+06     43.4511E+06              0.    -4.92343E+06
           21585     42.0202E+06     43.7015E+06              0.    -5.02798E+06
           21586     41.4658E+06     43.9546E+06              0.    -5.13415E+06
           21587     40.8999E+06     44.2103E+06              0.    -5.24194E+06
           21588     40.3225E+06     44.4686E+06              0.    -5.35135E+06
           21589     39.7335E+06     44.7293E+06              0.    -5.46239E+06
           21590     39.1326E+06     44.9924E+06              0.    -5.57505E+06
           21591     38.5197E+06     45.2579E+06              0.    -5.68934E+06
           21592     37.8947E+06     45.5255E+06              0.    -5.80524E+06
           21593     37.2574E+06     45.7953E+06              0.    -5.92275E+06
           21594     36.6077E+06     46.0670E+06              0.    -6.04187E+06
           21595     35.9453E+06     46.3407E+06              0.    -6.16259E+06
           21596     35.2702E+06     46.6160E+06              0.    -6.28489E+06
           21597     34.5822E+06     46.8930E+06              0.    -6.40876E+06
           21598     33.8812E+06     47.1715E+06              0.    -6.53419E+06
           21599     33.1669E+06     47.4513E+06              0.    -6.66116E+06
           21600     32.4394E+06     47.7322E+06              0.    -6.78966E+06
           21601     31.6984E+06     48.0140E+06              0.    -6.91965E+06
           21602     30.9438E+06     48.2967E+06              0.    -7.05113E+06
           21603     30.1755E+06     48.5799E+06              0.    -7.18405E+06
           21604     29.3934E+06     48.8634E+06              0.    -7.31839E+06
           21605     28.5973E+06     49.1471E+06              0.    -7.45412E+06
           21606     27.7871E+06     49.4307E+06              0.    -7.59121E+06
           21607     26.9627E+06     49.7139E+06              0.    -7.72961E+06
           21608     26.1240E+06     49.9964E+06              0.    -7.86929E+06
           21609     25.2709E+06     50.2780E+06              0.    -8.01020E+06
           21610     24.4033E+06     50.5585E+06              0.    -8.15230E+06
           21611     23.5211E+06     50.8373E+06              0.    -8.29553E+06
           21612     22.6242E+06     51.1143E+06              0.    -8.43983E+06
           21613     21.7126E+06     51.3891E+06              0.    -8.58516E+06
           21614     20.7861E+06     51.6613E+06              0.    -8.73145E+06
           21615     19.8448E+06     51.9306E+06              0.    -8.87863E+06
           21616     18.8885E+06     52.1964E+06              0.    -9.02664E+06
           21617     17.9172E+06     52.4585E+06              0.    -9.17539E+06
           21618     16.9309E+06     52.7164E+06              0.    -9.32481E+06
           21619     15.9296E+06     52.9695E+06              0.    -9.47483E+06
           21620     14.9131E+06     53.2175E+06              0.    -9.62534E+06
           21621     13.8816E+06     53.4597E+06              0.    -9.77627E+06
           21622     12.8350E+06     53.6958E+06              0.    -9.92751E+06
           21623     11.7733E+06     53.9251E+06              0.    -10.0790E+06
           21624     10.6965E+06     54.1470E+06              0.    -10.2305E+06
           21625     9.60473E+06     54.3610E+06              0.    -10.3821E+06
           21626     8.49796E+06     54.5664E+06              0.    -10.5335E+06
           21627     7.37627E+06     54.7626E+06              0.    -10.6847E+06
           21628     6.23973E+06     54.9489E+06              0.    -10.8356E+06
           21629     5.08843E+06     55.1246E+06              0.    -10.9859E+06
           21630     3.92245E+06     55.2889E+06              0.    -11.1356E+06
           21631     2.74192E+06     55.4411E+06              0.    -11.2845E+06
           21632     1.54695E+06     55.5804E+06              0.    -11.4325E+06
           21633     337.701E+03     55.7060E+06              0.    -11.5795E+06
           21634    -885.684E+03     55.8170E+06              0.    -11.7251E+06
           21635    -2.12302E+06     55.9126E+06              0.    -11.8694E+06
           21636    -3.37413E+06     55.9918E+06              0.    -12.0121E+06
           21637    -4.63879E+06     56.0536E+06              0.    -12.1531E+06
           21638    -5.91679E+06     56.0972E+06              0.    -12.2922E+06
           21639    -7.20788E+06     56.1214E+06              0.    -12.4291E+06
           21640    -8.51179E+06     56.1253E+06              0.    -12.5637E+06
           21641    -9.82826E+06     56.1077E+06              0.    -12.6958E+06
           21642    -11.1570E+06     56.0676E+06              0.    -12.8252E+06
           21643    -12.4976E+06     56.0038E+06              0.    -12.9517E+06
           21644    -13.8498E+06     55.9150E+06              0.    -13.0751E+06
           21645    -15.2133E+06     55.8001E+06              0.    -13.1951E+06
           21646    -16.5876E+06     55.6579E+06              0.    -13.3116E+06
           21647    -17.9724E+06     55.4869E+06              0.    -13.4242E+06
           21648    -19.3671E+06     55.2860E+06              0.    -13.5329E+06
           21649    -20.7715E+06     55.0536E+06              0.    -13.6372E+06
           21650    -22.1850E+06     54.7885E+06              0.    -13.7371E+06
           21651    -23.6071E+06     54.4891E+06              0.    -13.8322E+06
           21652    -25.0373E+06     54.1540E+06              0.    -13.9222E+06
           21653    -26.4750E+06     53.7817E+06              0.    -14.0071E+06
           21654    -27.9198E+06     53.3705E+06              0.    -14.0864E+06
           21655    -29.3710E+06     52.9190E+06              0.    -14.1599E+06
           21656    -30.8281E+06     52.4255E+06              0.    -14.2274E+06
           21657    -32.2903E+06     51.8883E+06              0.    -14.2886E+06
           21658    -33.7571E+06     51.3058E+06              0.    -14.3433E+06
           21659    -35.2277E+06     50.6762E+06              0.    -14.3910E+06
           21660    -36.7015E+06     49.9976E+06              0.    -14.4317E+06
           21661    -38.1778E+06     49.2685E+06              0.    -14.4650E+06
           21662    -39.6557E+06     48.4868E+06              0.    -14.4907E+06
           21663    -41.1345E+06     47.6508E+06              0.    -14.5084E+06
           21664    -42.6134E+06     46.7585E+06              0.    -14.5180E+06
           21665    -44.0916E+06     45.8081E+06              0.    -14.5190E+06
           21666    -45.5682E+06     44.7976E+06              0.    -14.5114E+06
           21667    -47.0424E+06     43.7249E+06              0.    -14.4947E+06
           21668    -48.5132E+06     42.5882E+06              0.    -14.4688E+06
           21669    -49.9797E+06     41.3853E+06              0.    -14.4333E+06
           21670    -51.4411E+06     40.1143E+06              0.    -14.3880E+06
           21671    -52.8962E+06     38.7730E+06              0.    -14.3327E+06
           21672    -54.3442E+06     37.3594E+06              0.    -14.2671E+06
           21673    -55.7840E+06     35.8713E+06              0.    -14.1909E+06
           21674    -57.2144E+06     34.3067E+06              0.    -14.1039E+06
           21675    -58.6346E+06     32.6634E+06              0.    -14.0058E+06
           21676    -60.0434E+06     30.9393E+06              0.    -13.8965E+06
           21677    -61.4397E+06     29.1322E+06              0.    -13.7756E+06
           21678    -62.8223E+06     27.2400E+06              0.    -13.6430E+06
           21679    -64.1900E+06     25.2604E+06              0.    -13.4985E+06
           21680    -65.5418E+06     23.1914E+06              0.    -13.3418E+06
           21681    -66.8763E+06     21.0308E+06              0.    -13.1727E+06
           21682    -68.1924E+06     18.7764E+06              0.    -12.9910E+06
           21683    -69.4888E+06     16.4260E+06              0.    -12.7966E+06
           21684    -70.7642E+06     13.9775E+06              0.    -12.5892E+06
           21685    -72.0174E+06     11.4288E+06              0.    -12.3687E+06
           21686    -73.2469E+06     8.77778E+06              0.    -12.1349E+06
           21687    -74.4515E+06     6.02224E+06              0.    -11.8877E+06
           21688    -75.6298E+06     3.16016E+06              0.    -11.6268E+06
           21689    -76.7803E+06     189.472E+03              0.    -11.3523E+06
           21690    -77.9018E+06    -2.89192E+06              0.    -11.0639E+06
           21691    -78.9927E+06    -6.08597E+06              0.    -10.7614E+06
           21692    -80.0516E+06    -9.39474E+06              0.    -10.4449E+06
           21693    -81.0769E+06    -12.8202E+06              0.    -10.1141E+06
           21694    -82.0673E+06    -16.3642E+06              0.    -9.76904E+06
           21695    -83.0211E+06    -20.0287E+06              0.    -9.40952E+06
           21696    -83.9367E+06    -23.8155E+06              0.    -9.03549E+06
           21697    -84.8126E+06    -27.7265E+06              0.    -8.64686E+06
           21698    -85.6472E+06    -31.7635E+06              0.    -8.24356E+06
           21699    -86.4388E+06    -35.9282E+06              0.    -7.82552E+06
           21700    -88.0440E+06    -40.6485E+06              0.    -7.62511E+06
           21701     63.6681E+06     27.9624E+06              0.    -635.334E+03
           21702     63.6890E+06     28.1921E+06              0.    -634.144E+03
           21703     63.6113E+06     28.3739E+06              0.    -625.606E+03
           21704     63.5345E+06     28.5508E+06              0.    -618.331E+03
           21705     63.4586E+06     28.7229E+06              0.    -612.283E+03
           21706     63.3833E+06     28.8906E+06              0.    -607.429E+03
           21707     63.3084E+06     29.0540E+06              0.    -603.740E+03
           21708     63.2340E+06     29.2133E+06              0.    -601.186E+03
           21709     63.1597E+06     29.3689E+06              0.    -599.737E+03
           21710     63.0855E+06     29.5207E+06              0.    -599.369E+03
           21711     63.0113E+06     29.6691E+06              0.    -600.056E+03
           21712     62.9368E+06     29.8143E+06              0.    -601.774E+03
           21713     62.8621E+06     29.9564E+06              0.    -604.502E+03
           21714     62.7868E+06     30.0957E+06              0.    -608.216E+03
           21715     62.7111E+06     30.2322E+06              0.    -612.899E+03
           21716     62.6346E+06     30.3661E+06              0.    -618.531E+03
           21717     62.5573E+06     30.4977E+06              0.    -625.094E+03
           21718     62.4792E+06     30.6271E+06              0.    -632.573E+03
           21719     62.3999E+06     30.7545E+06              0.    -640.952E+03
           21720     62.3196E+06     30.8799E+06              0.    -650.217E+03
           21721     62.2380E+06     31.0035E+06              0.    -660.354E+03
           21722     62.1550E+06     31.1256E+06              0.    -671.352E+03
           21723     62.0706E+06     31.2462E+06              0.    -683.199E+03
           21724     61.9846E+06     31.3654E+06              0.    -695.885E+03
           21725     61.8969E+06     31.4834E+06              0.    -709.401E+03
           21726     61.8075E+06     31.6003E+06              0.    -723.738E+03
           21727     61.7162E+06     31.7163E+06              0.    -738.890E+03
           21728     61.6229E+06     31.8314E+06              0.    -754.848E+03
           21729     61.5275E+06     31.9459E+06              0.    -771.607E+03
           21730     61.4299E+06     32.0597E+06              0.    -789.164E+03
           21731     61.3301E+06     32.1730E+06              0.    -807.512E+03
           21732     61.2279E+06     32.2860E+06              0.    -826.648E+03
           21733     61.1232E+06     32.3987E+06              0.    -846.571E+03
           21734     61.0160E+06     32.5112E+06              0.    -867.277E+03
           21735     60.9060E+06     32.6236E+06              0.    -888.765E+03
           21736     60.7934E+06     32.7361E+06              0.    -911.035E+03
           21737     60.6778E+06     32.8488E+06              0.    -934.087E+03
           21738     60.5594E+06     32.9616E+06              0.    -957.921E+03
           21739     60.4378E+06     33.0748E+06              0.    -982.539E+03
           21740     60.3131E+06     33.1884E+06              0.    -1.00794E+06
           21741     60.1852E+06     33.3025E+06              0.    -1.03413E+06
           21742     60.0539E+06     33.4172E+06              0.    -1.06112E+06
           21743     59.9192E+06     33.5326E+06              0.    -1.08889E+06
           21744     59.7810E+06     33.6488E+06              0.    -1.11747E+06
           21745     59.6391E+06     33.7658E+06              0.    -1.14685E+06
           21746     59.4935E+06     33.8837E+06              0.    -1.17704E+06
           21747     59.3440E+06     34.0027E+06              0.    -1.20804E+06
           21748     59.1906E+06     34.1227E+06              0.    -1.23987E+06
           21749     59.0332E+06     34.2439E+06              0.    -1.27252E+06
           21750     58.8716E+06     34.3663E+06              0.    -1.30600E+06
           21751     58.7058E+06     34.4900E+06              0.    -1.34033E+06
           21752     58.5356E+06     34.6151E+06              0.    -1.37551E+06
           21753     58.3610E+06     34.7417E+06              0.    -1.41155E+06
           21754     58.1819E+06     34.8698E+06              0.    -1.44846E+06
           21755     57.9980E+06     34.9994E+06              0.    -1.48625E+06
           21756     57.8094E+06     35.1307E+06              0.    -1.52492E+06
           21757     57.6160E+06     35.2638E+06              0.    -1.56449E+06
           21758     57.4175E+06     35.3986E+06              0.    -1.60496E+06
           21759     57.2139E+06     35.5353E+06              0.    -1.64636E+06
           21760     57.0052E+06     35.6739E+06              0.    -1.68868E+06
           21761     56.7911E+06     35.8144E+06              0.    -1.73195E+06
           21762     56.5715E+06     35.9570E+06              0.    -1.77617E+06
           21763     56.3464E+06     36.1016E+06              0.    -1.82135E+06
           21764     56.1157E+06     36.2484E+06              0.    -1.86751E+06
           21765     55.8791E+06     36.3974E+06              0.    -1.91466E+06
           21766     55.6366E+06     36.5486E+06              0.    -1.96281E+06
           21767     55.3881E+06     36.7022E+06              0.    -2.01198E+06
           21768     55.1335E+06     36.8581E+06              0.    -2.06218E+06
           21769     54.8725E+06     37.0163E+06              0.    -2.11341E+06
           21770     54.6052E+06     37.1771E+06              0.    -2.16571E+06
           21771     54.3313E+06     37.3403E+06              0.    -2.21907E+06
           21772     54.0508E+06     37.5061E+06              0.    -2.27352E+06
           21773     53.7634E+06     37.6744E+06              0.    -2.32906E+06
           21774     53.4692E+06     37.8454E+06              0.    -2.38572E+06
           21775     53.1679E+06      38.019E+06              0.    -2.44350E+06
           21776     52.8594E+06     38.1953E+06              0.    -2.50242E+06
           21777     52.5436E+06     38.3744E+06              0.    -2.56249E+06
           21778     52.2203E+06     38.5563E+06              0.    -2.62374E+06
           21779     51.8894E+06     38.7409E+06              0.    -2.68616E+06
           21780     51.5507E+06     38.9284E+06              0.    -2.74978E+06
           21781     51.2042E+06     39.1187E+06              0.    -2.81462E+06
           21782     50.8497E+06     39.3120E+06              0.    -2.88068E+06
           21783     50.4870E+06     39.5081E+06              0.    -2.94798E+06
           21784     50.1159E+06     39.7072E+06              0.    -3.01653E+06
           21785     49.7364E+06     39.9092E+06              0.    -3.08635E+06
           21786     49.3483E+06     40.1142E+06              0.    -3.15744E+06
           21787     48.9514E+06     40.3222E+06              0.    -3.22983E+06
           21788     48.5456E+06     40.5332E+06              0.    -3.30353E+06
           21789     48.1308E+06     40.7472E+06              0.    -3.37855E+06
           21790     47.7067E+06     40.9642E+06              0.    -3.45490E+06
           21791     47.2733E+06     41.1842E+06              0.    -3.53259E+06
           21792     46.8303E+06     41.4072E+06              0.    -3.61163E+06
           21793     46.3776E+06     41.6331E+06              0.    -3.69204E+06
           21794     45.9151E+06     41.8621E+06              0.    -3.77383E+06
           21795     45.4427E+06     42.0940E+06              0.    -3.85700E+06
           21796     44.9600E+06     42.3289E+06              0.    -3.94157E+06
           21797     44.4671E+06     42.5667E+06              0.    -4.02754E+06
           21798     43.9637E+06     42.8074E+06              0.    -4.11492E+06
           21799     43.4496E+06     43.0510E+06              0.    -4.20372E+06
           21800     42.9248E+06     43.2974E+06              0.    -4.29395E+06
           21801     42.3890E+06     43.5466E+06              0.    -4.38560E+06
           21802     41.8421E+06     43.7985E+06              0.    -4.47870E+06
           21803     41.2840E+06     44.0531E+06              0.    -4.57323E+06
           21804     40.7144E+06     44.3103E+06              0.    -4.66920E+06
           21805     40.1333E+06     44.5700E+06              0.    -4.76662E+06
           21806     39.5404E+06     44.8323E+06              0.    -4.86548E+06
           21807     38.9356E+06     45.0969E+06              0.    -4.96579E+06
           21808     38.3188E+06     45.3638E+06              0.    -5.06754E+06
           21809     37.6897E+06     45.6330E+06              0.    -5.17072E+06
           21810     37.0483E+06     45.9042E+06              0.    -5.27534E+06
           21811     36.3944E+06     46.1775E+06              0.    -5.38138E+06
           21812     35.7279E+06     46.4526E+06              0.    -5.48884E+06
           21813     35.0485E+06     46.7294E+06              0.    -5.59771E+06
           21814     34.3562E+06     47.0079E+06              0.    -5.70798E+06
           21815     33.6507E+06     47.2878E+06              0.    -5.81963E+06
           21816     32.9321E+06     47.5690E+06              0.    -5.93265E+06
           21817     32.2000E+06     47.8513E+06              0.    -6.04702E+06
           21818     31.4545E+06     48.1346E+06              0.    -6.16272E+06
           21819     30.6953E+06     48.4186E+06              0.    -6.27973E+06
           21820     29.9223E+06     48.7031E+06              0.    -6.39803E+06
           21821     29.1354E+06     48.9880E+06              0.    -6.51759E+06
           21822     28.3345E+06     49.2730E+06              0.    -6.63838E+06
           21823     27.5195E+06     49.5578E+06              0.    -6.76038E+06
           21824     26.6902E+06     49.8423E+06              0.    -6.88354E+06
           21825     25.8466E+06     50.1260E+06              0.    -7.00783E+06
           21826     24.9885E+06     50.4088E+06              0.    -7.13321E+06
           21827     24.1158E+06     50.6904E+06              0.    -7.25964E+06
           21828     23.2286E+06     50.9703E+06              0.    -7.38707E+06
           21829     22.3266E+06     51.2483E+06              0.    -7.51546E+06
           21830     21.4098E+06     51.5241E+06              0.    -7.64475E+06
           21831     20.4781E+06     51.7972E+06              0.    -7.77489E+06
           21832     19.5315E+06     52.0673E+06              0.    -7.90581E+06
           21833     18.5700E+06     52.3340E+06              0.    -8.03747E+06
           21834     17.5934E+06     52.5968E+06              0.    -8.16978E+06
           21835     16.6017E+06     52.8554E+06              0.    -8.30268E+06
           21836     15.5950E+06     53.1091E+06              0.    -8.43610E+06
           21837     14.5732E+06     53.3576E+06              0.    -8.56996E+06
           21838     13.5362E+06     53.6003E+06              0.    -8.70418E+06
           21839     12.4842E+06     53.8367E+06              0.    -8.83867E+06
           21840      11.417E+06     54.0663E+06              0.    -8.97334E+06
           21841     10.3348E+06     54.2884E+06              0.    -9.10810E+06
           21842     9.23752E+06     54.5025E+06              0.    -9.24285E+06
           21843     8.12529E+06     54.7079E+06              0.    -9.37748E+06
           21844     6.99812E+06     54.9040E+06              0.    -9.51189E+06
           21845     5.85612E+06     55.0900E+06              0.    -9.64597E+06
           21846     4.69935E+06     55.2654E+06              0.    -9.77959E+06
           21847     3.52792E+06     55.4292E+06              0.    -9.91264E+06
           21848     2.34195E+06     55.5809E+06              0.    -10.0450E+06
           21849     1.14157E+06     55.7195E+06              0.    -10.1765E+06
           21850    -73.0704E+03     55.8443E+06              0.    -10.3070E+06
           21851    -1.30181E+06     55.9543E+06              0.    -10.4365E+06
           21852    -2.54448E+06     56.0488E+06              0.    -10.5647E+06
           21853    -3.80087E+06     56.1267E+06              0.    -10.6914E+06
           21854    -5.07077E+06     56.1872E+06              0.    -10.8166E+06
           21855    -6.35396E+06     56.2292E+06              0.    -10.9401E+06
           21856    -7.65018E+06     56.2518E+06              0.    -11.0617E+06
           21857    -8.95917E+06     56.2538E+06              0.    -11.1813E+06
           21858    -10.2806E+06     56.2342E+06              0.    -11.2986E+06
           21859    -11.6143E+06     56.1919E+06              0.    -11.4134E+06
           21860    -12.9598E+06     56.1257E+06              0.    -11.5257E+06
           21861    -14.3168E+06     56.0344E+06              0.    -11.6352E+06
           21862    -15.6849E+06     55.9168E+06              0.    -11.7417E+06
           21863    -17.0638E+06     55.7717E+06              0.    -11.8450E+06
           21864    -18.4531E+06     55.5977E+06              0.    -11.9449E+06
           21865    -19.8522E+06     55.3935E+06              0.    -12.0412E+06
           21866    -21.2609E+06     55.1577E+06              0.    -12.1338E+06
           21867    -22.6785E+06     54.8889E+06              0.    -12.2223E+06
           21868    -24.1046E+06     54.5857E+06              0.    -12.3065E+06
           21869    -25.5387E+06     54.2466E+06              0.    -12.3863E+06
           21870    -26.9803E+06     53.8700E+06              0.    -12.4615E+06
           21871    -28.4287E+06     53.4545E+06              0.    -12.5317E+06
           21872    -29.8834E+06     52.9984E+06              0.    -12.5967E+06
           21873    -31.3438E+06     52.5001E+06              0.    -12.6564E+06
           21874    -32.8092E+06     51.9579E+06              0.    -12.7105E+06
           21875    -34.2789E+06     51.3701E+06              0.    -12.7587E+06
           21876    -35.7524E+06     50.7351E+06              0.    -12.8009E+06
           21877    -37.2289E+06     50.0510E+06              0.    -12.8367E+06
           21878    -38.7076E+06     49.3160E+06              0.    -12.8660E+06
           21879    -40.1878E+06     48.5284E+06              0.    -12.8884E+06
           21880    -41.6688E+06     47.6862E+06              0.    -12.9038E+06
           21881    -43.1496E+06     46.7875E+06              0.    -12.9119E+06
           21882    -44.6295E+06     45.8305E+06              0.    -12.9125E+06
           21883    -46.1077E+06     44.8132E+06              0.    -12.9053E+06
           21884    -47.5832E+06     43.7336E+06              0.    -12.8901E+06
           21885    -49.0551E+06     42.5898E+06              0.    -12.8667E+06
           21886    -50.5226E+06     41.3796E+06              0.    -12.8348E+06
           21887    -51.9846E+06     40.1012E+06              0.    -12.7942E+06
           21888    -53.4403E+06     38.7523E+06              0.    -12.7446E+06
           21889    -54.8885E+06     37.3309E+06              0.    -12.6859E+06
           21890    -56.3283E+06     35.8349E+06              0.    -12.6178E+06
           21891    -57.7586E+06     34.2623E+06              0.    -12.5401E+06
           21892    -59.1784E+06     32.6108E+06              0.    -12.4526E+06
           21893    -60.5866E+06     30.8784E+06              0.    -12.3550E+06
           21894    -61.9819E+06     29.0628E+06              0.    -12.2472E+06
           21895    -63.3634E+06     27.1620E+06              0.    -12.1290E+06
           21896    -64.7299E+06     25.1738E+06              0.    -12.0002E+06
           21897    -66.0801E+06     23.0960E+06              0.    -11.8605E+06
           21898    -67.4129E+06     20.9265E+06              0.    -11.7099E+06
           21899    -68.7269E+06     18.6631E+06              0.    -11.5481E+06
           21900    -70.0211E+06     16.3037E+06              0.    -11.3749E+06
           21901     -71.294E+06     13.8461E+06              0.    -11.1903E+06
           21902    -72.5444E+06     11.2883E+06              0.    -10.9940E+06
           21903    -73.7710E+06       8.628E+06              0.    -10.7859E+06
           21904    -74.9724E+06     5.86320E+06              0.    -10.5658E+06
           21905    -76.1473E+06     2.99180E+06              0.    -10.3337E+06
           21906    -77.2943E+06     11.7671E+03              0.    -10.0894E+06
           21907    -78.4119E+06    -3.07899E+06              0.    -9.83278E+06
           21908    -79.4987E+06    -6.28244E+06              0.    -9.56372E+06
           21909    -80.5532E+06    -9.60061E+06              0.    -9.28212E+06
           21910    -81.5741E+06    -13.0355E+06              0.    -8.98789E+06
           21911    -82.5596E+06    -16.5889E+06              0.    -8.68093E+06
           21912    -83.5085E+06    -20.2628E+06              0.    -8.36115E+06
           21913    -84.4189E+06    -24.0590E+06              0.    -8.02848E+06
           21914    -85.2894E+06    -27.9794E+06              0.    -7.68285E+06
           21915    -86.1184E+06    -32.0258E+06              0.    -7.32418E+06
           21916    -86.9042E+06    -36.1999E+06              0.    -6.95241E+06
           21917    -88.5094E+06    -40.9294E+06              0.    -6.77403E+06
           21918     63.6447E+06     27.9522E+06              0.    -557.085E+03
           21919     63.6657E+06     28.1834E+06              0.    -556.042E+03
           21920     63.5875E+06     28.3664E+06              0.    -548.556E+03
           21921     63.5102E+06     28.5444E+06              0.    -542.176E+03
           21922     63.4338E+06     28.7177E+06              0.    -536.872E+03
           21923      63.358E+06     28.8864E+06              0.    -532.617E+03
           21924     63.2827E+06     29.0509E+06              0.    -529.381E+03
           21925     63.2077E+06     29.2113E+06              0.    -527.141E+03
           21926     63.1330E+06     29.3678E+06              0.    -525.871E+03
           21927     63.0583E+06     29.5206E+06              0.    -525.548E+03
           21928     62.9836E+06     29.6700E+06              0.    -526.150E+03
           21929     62.9087E+06     29.8161E+06              0.    -527.656E+03
           21930     62.8334E+06     29.9591E+06              0.    -530.047E+03
           21931     62.7577E+06     30.0993E+06              0.    -533.304E+03
           21932     62.6815E+06     30.2367E+06              0.    -537.409E+03
           21933     62.6045E+06     30.3715E+06              0.    -542.347E+03
           21934     62.5267E+06     30.5039E+06              0.    -548.102E+03
           21935     62.4481E+06     30.6342E+06              0.    -554.659E+03
           21936     62.3683E+06     30.7623E+06              0.    -562.005E+03
           21937     62.2875E+06     30.8885E+06              0.    -570.128E+03
           21938     62.2053E+06     31.0130E+06              0.    -579.016E+03
           21939     62.1218E+06     31.1358E+06              0.    -588.659E+03
           21940     62.0369E+06     31.2572E+06              0.    -599.046E+03
           21941     61.9503E+06     31.3772E+06              0.    -610.169E+03
           21942     61.8621E+06     31.4959E+06              0.    -622.020E+03
           21943     61.7721E+06     31.6136E+06              0.    -634.591E+03
           21944     61.6802E+06     31.7303E+06              0.    -647.875E+03
           21945     61.5863E+06     31.8462E+06              0.    -661.867E+03
           21946     61.4903E+06     31.9614E+06              0.    -676.562E+03
           21947     61.3921E+06     32.0759E+06              0.    -691.955E+03
           21948     61.2916E+06     32.1900E+06              0.    -708.042E+03
           21949     61.1888E+06     32.3036E+06              0.    -724.820E+03
           21950     61.0834E+06     32.4170E+06              0.    -742.288E+03
           21951     60.9755E+06     32.5303E+06              0.    -760.442E+03
           21952     60.8649E+06     32.6435E+06              0.    -779.283E+03
           21953     60.7515E+06     32.7567E+06              0.    -798.809E+03
           21954     60.6352E+06     32.8700E+06              0.    -819.020E+03
           21955     60.5160E+06     32.9836E+06              0.    -839.917E+03
           21956     60.3937E+06     33.0975E+06              0.    -861.501E+03
           21957     60.2682E+06     33.2118E+06              0.    -883.774E+03
           21958     60.1395E+06     33.3267E+06              0.    -906.737E+03
           21959     60.0074E+06     33.4421E+06              0.    -930.395E+03
           21960     59.8718E+06     33.5582E+06              0.    -954.749E+03
           21961     59.7327E+06     33.6751E+06              0.    -979.803E+03
           21962     59.5899E+06     33.7929E+06              0.    -1.00556E+06
           21963     59.4433E+06     33.9115E+06              0.    -1.03203E+06
           21964     59.2929E+06     34.0312E+06              0.    -1.05921E+06
           21965     59.1385E+06     34.1520E+06              0.    -1.08711E+06
           21966     58.9801E+06     34.2740E+06              0.    -1.11574E+06
           21967     58.8175E+06     34.3971E+06              0.    -1.14510E+06
           21968     58.6507E+06     34.5216E+06              0.    -1.17520E+06
           21969     58.4794E+06     34.6475E+06              0.    -1.20604E+06
           21970     58.3037E+06     34.7749E+06              0.    -1.23764E+06
           21971     58.1234E+06     34.9038E+06              0.    -1.27000E+06
           21972     57.9384E+06     35.0342E+06              0.    -1.30312E+06
           21973     57.7486E+06     35.1664E+06              0.    -1.33703E+06
           21974     57.5540E+06     35.3002E+06              0.    -1.37172E+06
           21975     57.3542E+06     35.4359E+06              0.    -1.40721E+06
           21976     57.1494E+06     35.5734E+06              0.    -1.44350E+06
           21977     56.9393E+06     35.7128E+06              0.    -1.48060E+06
           21978     56.7239E+06     35.8543E+06              0.    -1.51853E+06
           21979     56.5030E+06     35.9977E+06              0.     -1.5573E+06
           21980     56.2765E+06     36.1432E+06              0.    -1.59691E+06
           21981     56.0443E+06     36.2909E+06              0.    -1.63738E+06
           21982     55.8062E+06     36.4408E+06              0.    -1.67871E+06
           21983     55.5622E+06     36.5930E+06              0.    -1.72093E+06
           21984     55.3122E+06     36.7474E+06              0.    -1.76403E+06
           21985     55.0560E+06     36.9043E+06              0.    -1.80804E+06
           21986     54.7934E+06     37.0635E+06              0.    -1.85295E+06
           21987     54.5244E+06     37.2252E+06              0.    -1.89880E+06
           21988     54.2488E+06     37.3894E+06              0.    -1.94558E+06
           21989     53.9665E+06     37.5562E+06              0.    -1.99331E+06
           21990     53.6774E+06     37.7256E+06              0.    -2.04200E+06
           21991     53.3814E+06     37.8975E+06              0.    -2.09166E+06
           21992     53.0782E+06     38.0722E+06              0.    -2.14232E+06
           21993     52.7678E+06     38.2496E+06              0.    -2.19397E+06
           21994     52.4500E+06     38.4297E+06              0.    -2.24663E+06
           21995     52.1248E+06     38.6126E+06              0.    -2.30031E+06
           21996     51.7918E+06     38.7984E+06              0.    -2.35504E+06
           21997     51.4511E+06     38.9870E+06              0.    -2.41081E+06
           21998     51.1025E+06     39.1784E+06              0.    -2.46764E+06
           21999     50.7458E+06     39.3728E+06              0.    -2.52554E+06
           22000     50.3809E+06     39.5701E+06              0.    -2.58453E+06
           22001     50.0076E+06     39.7703E+06              0.    -2.64462E+06
           22002     49.6258E+06     39.9735E+06              0.    -2.70582E+06
           22003     49.2353E+06     40.1797E+06              0.    -2.76814E+06
           22004     48.8360E+06     40.3889E+06              0.    -2.83159E+06
           22005     48.4278E+06     40.6011E+06              0.    -2.89619E+06
           22006     48.0104E+06     40.8162E+06              0.    -2.96194E+06
           22007     47.5838E+06     41.0345E+06              0.    -3.02885E+06
           22008     47.1478E+06     41.2557E+06              0.    -3.09695E+06
           22009     46.7022E+06     41.4799E+06              0.    -3.16623E+06
           22010     46.2468E+06     41.7071E+06              0.    -3.23670E+06
           22011     45.7816E+06     41.9374E+06              0.    -3.30838E+06
           22012     45.3063E+06     42.1706E+06              0.    -3.38128E+06
           22013     44.8208E+06     42.4067E+06              0.    -3.45539E+06
           22014     44.3250E+06     42.6458E+06              0.    -3.53074E+06
           22015     43.8186E+06     42.8878E+06              0.    -3.60732E+06
           22016     43.3015E+06     43.1327E+06              0.    -3.68514E+06
           22017     42.7736E+06     43.3804E+06              0.    -3.76421E+06
           22018     42.2347E+06     43.6309E+06              0.    -3.84453E+06
           22019     41.6847E+06     43.8841E+06              0.    -3.92611E+06
           22020     41.1233E+06     44.1400E+06              0.    -4.00895E+06
           22021     40.5505E+06     44.3986E+06              0.    -4.09305E+06
           22022     39.9660E+06     44.6597E+06              0.    -4.17842E+06
           22023     39.3697E+06     44.9232E+06              0.    -4.26505E+06
           22024     38.7615E+06     45.1892E+06              0.    -4.35294E+06
           22025     38.1412E+06     45.4574E+06              0.    -4.44209E+06
           22026     37.5086E+06     45.7279E+06              0.    -4.53250E+06
           22027     36.8636E+06     46.0005E+06              0.    -4.62416E+06
           22028     36.2060E+06     46.2750E+06              0.    -4.71707E+06
           22029     35.5357E+06     46.5515E+06              0.    -4.81122E+06
           22030     34.8526E+06     46.8296E+06              0.    -4.90661E+06
           22031     34.1564E+06     47.1094E+06              0.    -5.00321E+06
           22032     33.4471E+06     47.3905E+06              0.    -5.10102E+06
           22033     32.7245E+06      47.673E+06              0.    -5.20003E+06
           22034     31.9885E+06     47.9566E+06              0.    -5.30023E+06
           22035     31.2389E+06     48.2411E+06              0.    -5.40158E+06
           22036     30.4757E+06     48.5263E+06              0.    -5.50408E+06
           22037     29.6985E+06     48.8120E+06              0.    -5.60771E+06
           22038     28.9075E+06     49.0981E+06              0.    -5.71243E+06
           22039     28.1024E+06     49.3842E+06              0.    -5.81823E+06
           22040     27.2831E+06     49.6702E+06              0.    -5.92509E+06
           22041     26.4495E+06     49.9557E+06              0.    -6.03295E+06
           22042     25.6015E+06     50.2405E+06              0.    -6.14181E+06
           22043     24.7390E+06     50.5243E+06              0.    -6.25162E+06
           22044     23.8619E+06     50.8068E+06              0.    -6.36234E+06
           22045     22.9701E+06     51.0877E+06              0.    -6.47393E+06
           22046     22.0636E+06     51.3667E+06              0.    -6.58636E+06
           22047     21.1422E+06     51.6433E+06              0.    -6.69957E+06
           22048     20.2060E+06     51.9173E+06              0.    -6.81353E+06
           22049     19.2548E+06     52.1881E+06              0.    -6.92816E+06
           22050     18.2886E+06     52.4555E+06              0.    -7.04343E+06
           22051     17.3073E+06     52.7190E+06              0.    -7.15927E+06
           22052     16.3109E+06     52.9781E+06              0.    -7.27562E+06
           22053     15.2995E+06     53.2323E+06              0.    -7.39242E+06
           22054     14.2729E+06     53.4813E+06              0.    -7.50960E+06
           22055     13.2312E+06     53.7244E+06              0.    -7.62709E+06
           22056     12.1743E+06     53.9611E+06              0.    -7.74481E+06
           22057     11.1024E+06     54.1909E+06              0.    -7.86268E+06
           22058     10.0153E+06     54.4132E+06              0.    -7.98062E+06
           22059     8.91324E+06     54.6274E+06              0.    -8.09854E+06
           22060     7.79618E+06     54.8328E+06              0.    -8.21636E+06
           22061     6.66420E+06     55.0287E+06              0.    -8.33397E+06
           22062     5.51737E+06     55.2146E+06              0.    -8.45129E+06
           22063     4.35579E+06     55.3896E+06              0.    -8.56820E+06
           22064     3.17956E+06     55.5531E+06              0.    -8.68460E+06
           22065     1.98880E+06     55.7042E+06              0.    -8.80039E+06
           22066     783.654E+03     55.8422E+06              0.    -8.91543E+06
           22067    -435.732E+03     55.9662E+06              0.    -9.02962E+06
           22068    -1.66919E+06     56.0754E+06              0.    -9.14283E+06
           22069    -2.91655E+06     56.1689E+06              0.    -9.25493E+06
           22070    -4.17759E+06     56.2458E+06              0.    -9.36579E+06
           22071    -5.45210E+06      56.305E+06              0.    -9.47527E+06
           22072    -6.73986E+06     56.3457E+06              0.    -9.58324E+06
           22073    -8.04060E+06     56.3667E+06              0.    -9.68954E+06
           22074    -9.35405E+06     56.3671E+06              0.    -9.79403E+06
           22075    -10.6799E+06     56.3457E+06              0.    -9.89655E+06
           22076    -12.0179E+06     56.3015E+06              0.    -9.99695E+06
           22077    -13.3677E+06     56.2332E+06              0.    -10.0951E+06
           22078    -14.7289E+06     56.1397E+06              0.    -10.1907E+06
           22079    -16.1012E+06     56.0197E+06              0.    -10.2837E+06
           22080    -17.4841E+06     55.8720E+06              0.    -10.3740E+06
           22081    -18.8773E+06     55.6953E+06              0.    -10.4613E+06
           22082    -20.2803E+06     55.4882E+06              0.    -10.5454E+06
           22083    -21.6927E+06     55.2494E+06              0.    -10.6261E+06
           22084    -23.1140E+06     54.9774E+06              0.    -10.7034E+06
           22085    -24.5436E+06     54.6708E+06              0.    -10.7769E+06
           22086    -25.9812E+06     54.3281E+06              0.    -10.8465E+06
           22087    -27.4260E+06     53.9479E+06              0.    -10.9120E+06
           22088    -28.8776E+06     53.5284E+06              0.    -10.9733E+06
           22089    -30.3354E+06     53.0682E+06              0.    -11.0300E+06
           22090    -31.7987E+06     52.5657E+06              0.    -11.0819E+06
           22091    -33.2668E+06     52.0191E+06              0.    -11.1290E+06
           22092    -34.7393E+06     51.4267E+06              0.    -11.1710E+06
           22093    -36.2152E+06     50.7869E+06              0.    -11.2076E+06
           22094    -37.6940E+06     50.0978E+06              0.    -11.2387E+06
           22095    -39.1750E+06     49.3578E+06              0.    -11.2640E+06
           22096    -40.6572E+06     48.5648E+06              0.    -11.2834E+06
           22097    -42.1400E+06     47.7172E+06              0.    -11.2966E+06
           22098    -43.6225E+06     46.8129E+06              0.    -11.3034E+06
           22099    -45.1039E+06     45.8501E+06              0.    -11.3036E+06
           22100    -46.5834E+06     44.8269E+06              0.    -11.2970E+06
           22101    -48.0601E+06     43.7412E+06              0.    -11.2834E+06
           22102    -49.5330E+06     42.5911E+06              0.    -11.2626E+06
           22103    -51.0013E+06     41.3745E+06              0.    -11.2344E+06
           22104    -52.4639E+06     40.0894E+06              0.    -11.1986E+06
           22105    -53.9200E+06     38.7338E+06              0.    -11.1549E+06
           22106    -55.3684E+06     37.3056E+06              0.    -11.1033E+06
           22107    -56.8082E+06     35.8027E+06              0.    -11.0434E+06
           22108    -58.2384E+06     34.2229E+06              0.    -10.9751E+06
           22109    -59.6578E+06     32.5642E+06              0.    -10.8982E+06
           22110    -61.0654E+06     30.8245E+06              0.    -10.8126E+06
           22111    -62.4600E+06     29.0015E+06              0.    -10.7180E+06
           22112    -63.8405E+06     27.0931E+06              0.    -10.6143E+06
           22113    -65.2058E+06     25.0973E+06              0.    -10.5013E+06
           22114    -66.5546E+06     23.0117E+06              0.    -10.3788E+06
           22115    -67.8858E+06     20.8344E+06              0.    -10.2468E+06
           22116    -69.1981E+06     18.5631E+06              0.    -10.1049E+06
           22117    -70.4903E+06     16.1957E+06              0.    -9.95319E+06
           22118    -71.7610E+06     13.7302E+06              0.    -9.79139E+06
           22119    -73.0090E+06     11.1642E+06              0.    -9.61940E+06
           22120    -74.2330E+06     8.49581E+06              0.    -9.43709E+06
           22121    -75.4316E+06     5.72283E+06              0.    -9.24434E+06
           22122    -76.6035E+06     2.84323E+06              0.    -9.04104E+06
           22123    -77.7472E+06    -145.040E+03              0.    -8.82707E+06
           22124    -78.8614E+06    -3.24406E+06              0.    -8.60233E+06
           22125    -79.9446E+06    -6.45578E+06              0.    -8.36671E+06
           22126    -80.9954E+06    -9.78225E+06              0.    -8.12014E+06
           22127    -82.0122E+06    -13.2254E+06              0.    -7.86251E+06
           22128    -82.9936E+06    -16.7871E+06              0.    -7.59376E+06
           22129     -83.938E+06    -20.4693E+06              0.    -7.31380E+06
           22130    -84.8439E+06    -24.2738E+06              0.    -7.02256E+06
           22131    -85.7096E+06    -28.2025E+06              0.    -6.71998E+06
           22132    -86.5336E+06    -32.2572E+06              0.    -6.40600E+06
           22133    -87.3142E+06    -36.4395E+06              0.    -6.08056E+06
           22134    -88.9193E+06    -41.1772E+06              0.    -5.92429E+06
           22135     63.6244E+06     27.9434E+06              0.    -478.371E+03
           22136     63.6454E+06     28.1759E+06              0.    -477.474E+03
           22137     63.5668E+06     28.3599E+06              0.    -471.046E+03
           22138     63.4892E+06     28.5389E+06              0.    -465.567E+03
           22139     63.4123E+06     28.7131E+06              0.    -461.013E+03
           22140     63.3361E+06     28.8828E+06              0.    -457.358E+03
           22141     63.2603E+06     29.0482E+06              0.    -454.580E+03
           22142     63.1850E+06     29.2094E+06              0.    -452.656E+03
           22143     63.1098E+06     29.3668E+06              0.    -451.565E+03
           22144     63.0347E+06     29.5205E+06              0.    -451.288E+03
           22145     62.9596E+06     29.6707E+06              0.    -451.804E+03
           22146     62.8842E+06     29.8177E+06              0.    -453.097E+03
           22147     62.8086E+06     29.9615E+06              0.    -455.150E+03
           22148     62.7324E+06     30.1024E+06              0.    -457.946E+03
           22149     62.6558E+06     30.2405E+06              0.    -461.472E+03
           22150     62.5784E+06     30.3761E+06              0.    -465.711E+03
           22151     62.5002E+06     30.5093E+06              0.    -470.652E+03
           22152     62.4211E+06     30.6403E+06              0.    -476.283E+03
           22153     62.3409E+06     30.7691E+06              0.    -482.591E+03
           22154     62.2596E+06     30.8961E+06              0.    -489.566E+03
           22155     62.1770E+06     31.0212E+06              0.    -497.197E+03
           22156     62.0930E+06     31.1447E+06              0.    -505.477E+03
           22157     62.0076E+06     31.2667E+06              0.    -514.396E+03
           22158     61.9206E+06     31.3874E+06              0.    -523.947E+03
           22159     61.8318E+06     31.5068E+06              0.    -534.123E+03
           22160     61.7413E+06     31.6251E+06              0.    -544.917E+03
           22161     61.6489E+06     31.7425E+06              0.    -556.323E+03
           22162     61.5545E+06     31.8590E+06              0.    -568.337E+03
           22163     61.4580E+06     31.9748E+06              0.    -580.955E+03
           22164     61.3593E+06       32.09E+06              0.    -594.172E+03
           22165     61.2582E+06     32.2047E+06              0.    -607.986E+03
           22166     61.1548E+06     32.3190E+06              0.    -622.393E+03
           22167     61.0489E+06     32.4330E+06              0.    -637.391E+03
           22168     60.9404E+06     32.5469E+06              0.    -652.979E+03
           22169     60.8291E+06     32.6607E+06              0.    -669.157E+03
           22170     60.7151E+06     32.7745E+06              0.    -685.923E+03
           22171     60.5982E+06     32.8885E+06              0.    -703.277E+03
           22172     60.4783E+06     33.0027E+06              0.     -721.22E+03
           22173     60.3553E+06     33.1172E+06              0.    -739.753E+03
           22174     60.2292E+06     33.2322E+06              0.    -758.877E+03
           22175     60.0997E+06     33.3477E+06              0.    -778.595E+03
           22176     59.9669E+06     33.4637E+06              0.    -798.908E+03
           22177     59.8306E+06     33.5805E+06              0.    -819.819E+03
           22178     59.6907E+06     33.6980E+06              0.    -841.332E+03
           22179     59.5471E+06     33.8164E+06              0.    -863.449E+03
           22180     59.3998E+06     33.9357E+06              0.    -886.175E+03
           22181     59.2486E+06     34.0560E+06              0.    -909.515E+03
           22182     59.0933E+06     34.1775E+06              0.    -933.472E+03
           22183     58.9341E+06     34.3001E+06              0.    -958.052E+03
           22184     58.7706E+06     34.4239E+06              0.    -983.261E+03
           22185     58.6028E+06     34.5491E+06              0.    -1.00910E+06
           22186     58.4306E+06     34.6757E+06              0.    -1.03559E+06
           22187     58.2540E+06     34.8037E+06              0.    -1.06272E+06
           22188     58.0727E+06     34.9333E+06              0.    -1.09050E+06
           22189     57.8867E+06     35.0645E+06              0.    -1.11894E+06
           22190     57.6959E+06     35.1973E+06              0.    -1.14805E+06
           22191     57.5001E+06     35.3319E+06              0.    -1.17784E+06
           22192     57.2993E+06     35.4683E+06              0.    -1.20830E+06
           22193     57.0934E+06     35.6065E+06              0.    -1.23946E+06
           22194     56.8822E+06     35.7467E+06              0.    -1.27132E+06
           22195     56.6656E+06     35.8889E+06              0.    -1.30389E+06
           22196     56.4435E+06     36.0331E+06              0.    -1.33717E+06
           22197     56.2157E+06     36.1794E+06              0.    -1.37118E+06
           22198     55.9823E+06     36.3278E+06              0.    -1.40593E+06
           22199     55.7430E+06     36.4785E+06              0.    -1.44142E+06
           22200     55.4977E+06     36.6315E+06              0.    -1.47766E+06
           22201     55.2463E+06     36.7868E+06              0.    -1.51467E+06
           22202     54.9887E+06     36.9444E+06              0.    -1.55245E+06
           22203     54.7247E+06     37.1045E+06              0.    -1.59101E+06
           22204     54.4542E+06     37.2670E+06              0.    -1.63037E+06
           22205     54.1772E+06     37.4321E+06              0.    -1.67053E+06
           22206     53.8934E+06     37.5997E+06              0.    -1.71151E+06
           22207     53.6028E+06     37.7700E+06              0.    -1.75331E+06
           22208     53.3051E+06     37.9428E+06              0.    -1.79595E+06
           22209     53.0003E+06     38.1184E+06              0.    -1.83944E+06
           22210     52.6883E+06     38.2967E+06              0.    -1.88378E+06
           22211     52.3688E+06     38.4777E+06              0.    -1.92899E+06
           22212     52.0418E+06     38.6616E+06              0.    -1.97508E+06
           22213     51.7072E+06     38.8483E+06              0.    -2.02206E+06
           22214     51.3647E+06     39.0378E+06              0.    -2.06993E+06
           22215     51.0142E+06     39.2302E+06              0.    -2.11872E+06
           22216     50.6556E+06     39.4256E+06              0.    -2.16843E+06
           22217     50.2888E+06     39.6239E+06              0.    -2.21907E+06
           22218     49.9135E+06     39.8251E+06              0.    -2.27066E+06
           22219     49.5297E+06     40.0293E+06              0.    -2.32319E+06
           22220     49.1372E+06     40.2365E+06              0.    -2.37669E+06
           22221     48.7359E+06     40.4467E+06              0.    -2.43116E+06
           22222     48.3255E+06     40.6599E+06              0.    -2.48661E+06
           22223     47.9060E+06     40.8762E+06              0.    -2.54305E+06
           22224     47.4772E+06     41.0954E+06              0.    -2.60049E+06
           22225     47.0389E+06     41.3177E+06              0.    -2.65894E+06
           22226     46.5910E+06     41.5430E+06              0.    -2.71841E+06
           22227     46.1333E+06     41.7714E+06              0.    -2.77890E+06
           22228     45.6656E+06     42.0027E+06              0.    -2.84043E+06
           22229     45.1879E+06     42.2370E+06              0.    -2.90300E+06
           22230     44.7000E+06     42.4743E+06              0.    -2.96661E+06
           22231     44.2016E+06     42.7145E+06              0.    -3.03128E+06
           22232     43.6927E+06     42.9576E+06              0.    -3.09701E+06
           22233      43.173E+06     43.2036E+06              0.    -3.16381E+06
           22234     42.6424E+06     43.4525E+06              0.    -3.23167E+06
           22235     42.1008E+06     43.7041E+06              0.    -3.30061E+06
           22236     41.5480E+06     43.9585E+06              0.    -3.37063E+06
           22237     40.9839E+06     44.2155E+06              0.    -3.44172E+06
           22238     40.4082E+06     44.4752E+06              0.    -3.51390E+06
           22239     39.8208E+06     44.7375E+06              0.    -3.58717E+06
           22240     39.2216E+06     45.0022E+06              0.    -3.66151E+06
           22241     38.6104E+06     45.2693E+06              0.    -3.73694E+06
           22242     37.9870E+06     45.5387E+06              0.    -3.81345E+06
           22243     37.3514E+06     45.8103E+06              0.    -3.89103E+06
           22244     36.7032E+06     46.0840E+06              0.    -3.96969E+06
           22245     36.0425E+06     46.3597E+06              0.    -4.04942E+06
           22246     35.3690E+06     46.6373E+06              0.    -4.13021E+06
           22247     34.6826E+06     46.9165E+06              0.    -4.21206E+06
           22248     33.9831E+06     47.1974E+06              0.    -4.29495E+06
           22249     33.2704E+06     47.4797E+06              0.    -4.37888E+06
           22250     32.5444E+06     47.7633E+06              0.    -4.46384E+06
           22251     31.8050E+06     48.0479E+06              0.    -4.54980E+06
           22252     31.0519E+06     48.3335E+06              0.    -4.63677E+06
           22253     30.2851E+06     48.6198E+06              0.    -4.72471E+06
           22254     29.5044E+06     48.9065E+06              0.    -4.81361E+06
           22255     28.7097E+06     49.1936E+06              0.    -4.90346E+06
           22256     27.9009E+06     49.4807E+06              0.    -4.99423E+06
           22257     27.0779E+06     49.7676E+06              0.    -5.08589E+06
           22258     26.2406E+06     50.0541E+06              0.    -5.17843E+06
           22259     25.3888E+06     50.3398E+06              0.    -5.27181E+06
           22260     24.5225E+06     50.6245E+06              0.    -5.36600E+06
           22261     23.6415E+06     50.9079E+06              0.    -5.46098E+06
           22262     22.7459E+06     51.1896E+06              0.    -5.55670E+06
           22263     21.8355E+06     51.4693E+06              0.    -5.65313E+06
           22264     20.9102E+06     51.7467E+06              0.    -5.75023E+06
           22265     19.9699E+06     52.0213E+06              0.    -5.84796E+06
           22266     19.0147E+06     52.2929E+06              0.    -5.94628E+06
           22267     18.0445E+06     52.5609E+06              0.    -6.04513E+06
           22268     17.0591E+06     52.8249E+06              0.    -6.14447E+06
           22269     16.0587E+06     53.0845E+06              0.    -6.24425E+06
           22270     15.0431E+06     53.3392E+06              0.    -6.34441E+06
           22271     14.0124E+06     53.5886E+06              0.    -6.44488E+06
           22272     12.9666E+06     53.8320E+06              0.    -6.54562E+06
           22273     11.9056E+06     54.0690E+06              0.    -6.64655E+06
           22274     10.8294E+06     54.2990E+06              0.    -6.74761E+06
           22275     9.73824E+06     54.5214E+06              0.    -6.84872E+06
           22276     8.63199E+06     54.7356E+06              0.    -6.94981E+06
           22277     7.51075E+06      54.941E+06              0.    -7.05081E+06
           22278     6.37460E+06     55.1369E+06              0.    -7.15163E+06
           22279     5.22360E+06     55.3225E+06              0.    -7.25218E+06
           22280     4.05785E+06     55.4973E+06              0.    -7.35239E+06
           22281     2.87746E+06     55.6604E+06              0.    -7.45215E+06
           22282     1.68256E+06     55.8111E+06              0.    -7.55137E+06
           22283     473.290E+03     55.9486E+06              0.    -7.64996E+06
           22284    -750.202E+03     56.0719E+06              0.    -7.74780E+06
           22285    -1.98775E+06     56.1804E+06              0.    -7.84480E+06
           22286    -3.23915E+06     56.2730E+06              0.    -7.94085E+06
           22287    -4.50422E+06     56.3489E+06              0.    -8.03582E+06
           22288    -5.78273E+06     56.4071E+06              0.    -8.12961E+06
           22289    -7.07443E+06     56.4465E+06              0.    -8.22208E+06
           22290    -8.37907E+06     56.4663E+06              0.    -8.31313E+06
           22291    -9.69639E+06     56.4652E+06              0.    -8.40262E+06
           22292    -11.0261E+06     56.4423E+06              0.    -8.49041E+06
           22293    -12.3678E+06     56.3964E+06              0.    -8.57637E+06
           22294    -13.7213E+06     56.3263E+06              0.    -8.66037E+06
           22295    -15.0861E+06     56.2308E+06              0.    -8.74226E+06
           22296    -16.4619E+06     56.1088E+06              0.    -8.82189E+06
           22297    -17.8484E+06     55.9589E+06              0.    -8.89913E+06
           22298    -19.2450E+06     55.7798E+06              0.    -8.97380E+06
           22299    -20.6513E+06     55.5702E+06              0.    -9.04577E+06
           22300    -22.0669E+06     55.3287E+06              0.    -9.11486E+06
           22301    -23.4914E+06     55.0540E+06              0.    -9.18093E+06
           22302    -24.9241E+06     54.7444E+06              0.    -9.24381E+06
           22303    -26.3646E+06     54.3987E+06              0.    -9.30333E+06
           22304    -27.8123E+06     54.0152E+06              0.    -9.35932E+06
           22305    -29.2666E+06     53.5924E+06              0.    -9.41161E+06
           22306    -30.7270E+06     53.1286E+06              0.    -9.46003E+06
           22307    -32.1928E+06     52.6224E+06              0.    -9.50442E+06
           22308    -33.6634E+06     52.0720E+06              0.    -9.54458E+06
           22309    -35.1381E+06     51.4756E+06              0.    -9.58035E+06
           22310    -36.6162E+06     50.8317E+06              0.    -9.61154E+06
           22311    -38.0971E+06     50.1383E+06              0.    -9.63798E+06
           22312    -39.5798E+06     49.3938E+06              0.    -9.65949E+06
           22313    -41.0638E+06     48.5963E+06              0.    -9.67589E+06
           22314    -42.5482E+06     47.7439E+06              0.    -9.68699E+06
           22315    -44.0322E+06     46.8348E+06              0.    -9.69263E+06
           22316    -45.5149E+06     45.8669E+06              0.    -9.69261E+06
           22317    -46.9956E+06     44.8385E+06              0.    -9.68676E+06
           22318    -48.4732E+06     43.7476E+06              0.    -9.67491E+06
           22319    -49.9470E+06     42.5920E+06              0.    -9.65686E+06
           22320    -51.4159E+06     41.3699E+06              0.    -9.63247E+06
           22321    -52.8791E+06     40.0792E+06              0.    -9.60154E+06
           22322    -54.3355E+06     38.7178E+06              0.    -9.56390E+06
           22323    -55.7841E+06     37.2836E+06              0.    -9.51940E+06
           22324    -57.2239E+06     35.7746E+06              0.    -9.46786E+06
           22325    -58.6539E+06     34.1887E+06              0.    -9.40912E+06
           22326    -60.0730E+06     32.5238E+06              0.    -9.34302E+06
           22327    -61.4801E+06     30.7776E+06              0.    -9.26940E+06
           22328    -62.8740E+06     28.9482E+06              0.    -9.18812E+06
           22329    -64.2537E+06     27.0333E+06              0.    -9.09902E+06
           22330    -65.6179E+06     25.0308E+06              0.    -9.00196E+06
           22331    -66.9656E+06     22.9386E+06              0.    -8.89681E+06
           22332    -68.2954E+06     20.7545E+06              0.    -8.78341E+06
           22333    -69.6061E+06     18.4764E+06              0.    -8.66166E+06
           22334    -70.8965E+06     16.1021E+06              0.    -8.53141E+06
           22335    -72.1653E+06     13.6296E+06              0.    -8.39254E+06
           22336    -73.4113E+06     11.0566E+06              0.    -8.24496E+06
           22337    -74.6330E+06     8.38121E+06              0.    -8.08853E+06
           22338    -75.8292E+06     5.60116E+06              0.    -7.92316E+06
           22339    -76.9985E+06     2.71445E+06              0.    -7.74874E+06
           22340    -78.1394E+06    -280.945E+03              0.    -7.56519E+06
           22341    -79.2506E+06    -3.38711E+06              0.    -7.37241E+06
           22342    -80.3307E+06    -6.60600E+06              0.    -7.17032E+06
           22343    -81.3782E+06    -9.93965E+06              0.    -6.95884E+06
           22344    -82.3915E+06    -13.3900E+06              0.    -6.73789E+06
           22345    -83.3693E+06    -16.9589E+06              0.    -6.50741E+06
           22346    -84.3099E+06    -20.6483E+06              0.    -6.26732E+06
           22347    -85.2118E+06    -24.4600E+06              0.    -6.01758E+06
           22348    -86.0734E+06    -28.3958E+06              0.    -5.75812E+06
           22349    -86.8930E+06    -32.4577E+06              0.    -5.48889E+06
           22350    -87.6691E+06    -36.6471E+06              0.    -5.20985E+06
           22351    -89.2742E+06    -41.3918E+06              0.    -5.07578E+06
           22352     63.6071E+06     27.9359E+06              0.    -399.256E+03
           22353     63.6283E+06     28.1695E+06              0.    -398.507E+03
           22354     63.5493E+06     28.3544E+06              0.    -393.142E+03
           22355     63.4713E+06     28.5342E+06              0.    -388.569E+03
           22356     63.3940E+06     28.7093E+06              0.    -384.768E+03
           22357     63.3175E+06     28.8797E+06              0.    -381.718E+03
           22358     63.2414E+06     29.0459E+06              0.    -379.399E+03
           22359     63.1657E+06     29.2079E+06              0.    -377.793E+03
           22360     63.0901E+06     29.3660E+06              0.    -376.882E+03
           22361     63.0147E+06     29.5204E+06              0.    -376.650E+03
           22362     62.9392E+06     29.6714E+06              0.    -377.081E+03
           22363     62.8635E+06     29.8190E+06              0.    -378.160E+03
           22364     62.7875E+06     29.9635E+06              0.    -379.873E+03
           22365     62.7110E+06     30.1050E+06              0.    -382.207E+03
           22366     62.6340E+06     30.2438E+06              0.    -385.149E+03
           22367     62.5562E+06     30.3801E+06              0.    -388.687E+03
           22368     62.4777E+06     30.5139E+06              0.    -392.811E+03
           22369     62.3982E+06     30.6454E+06              0.    -397.510E+03
           22370     62.3176E+06     30.7749E+06              0.    -402.774E+03
           22371     62.2359E+06     30.9024E+06              0.    -408.595E+03
           22372     62.1530E+06     31.0282E+06              0.    -414.965E+03
           22373     62.0686E+06     31.1522E+06              0.    -421.875E+03
           22374     61.9828E+06     31.2748E+06              0.    -429.318E+03
           22375     61.8953E+06     31.3960E+06              0.    -437.289E+03
           22376     61.8062E+06     31.5160E+06              0.    -445.782E+03
           22377     61.7153E+06     31.6349E+06              0.    -454.790E+03
           22378     61.6224E+06     31.7528E+06              0.    -464.310E+03
           22379     61.5276E+06     31.8699E+06              0.    -474.337E+03
           22380     61.4306E+06     31.9862E+06              0.    -484.867E+03
           22381     61.3314E+06     32.1019E+06              0.    -495.898E+03
           22382     61.2299E+06     32.2172E+06              0.    -507.426E+03
           22383     61.1260E+06     32.3320E+06              0.    -519.449E+03
           22384     61.0196E+06     32.4466E+06              0.    -531.967E+03
           22385     60.9106E+06     32.5610E+06              0.    -544.976E+03
           22386     60.7988E+06     32.6753E+06              0.    -558.478E+03
           22387     60.6843E+06     32.7896E+06              0.    -572.470E+03
           22388     60.5669E+06     32.9042E+06              0.    -586.953E+03
           22389     60.4464E+06     33.0189E+06              0.    -601.928E+03
           22390     60.3229E+06     33.1339E+06              0.    -617.395E+03
           22391     60.1961E+06     33.2494E+06              0.    -633.355E+03
           22392     60.0661E+06     33.3654E+06              0.    -649.811E+03
           22393     59.9326E+06     33.4820E+06              0.    -666.763E+03
           22394     59.7957E+06     33.5993E+06              0.    -684.215E+03
           22395     59.6551E+06     33.7174E+06              0.    -702.168E+03
           22396     59.5109E+06     33.8363E+06              0.    -720.627E+03
           22397     59.3629E+06     33.9562E+06              0.    -739.593E+03
           22398     59.2110E+06     34.0771E+06              0.    -759.071E+03
           22399     59.0550E+06     34.1991E+06              0.    -779.065E+03
           22400     58.8950E+06     34.3222E+06              0.    -799.578E+03
           22401     58.7308E+06     34.4466E+06              0.    -820.616E+03
           22402     58.5622E+06     34.5724E+06              0.    -842.183E+03
           22403     58.3893E+06     34.6995E+06              0.    -864.284E+03
           22404     58.2118E+06     34.8281E+06              0.    -886.924E+03
           22405     58.0297E+06     34.9583E+06              0.    -910.110E+03
           22406     57.8428E+06     35.0901E+06              0.    -933.846E+03
           22407     57.6512E+06     35.2235E+06              0.    -958.140E+03
           22408     57.4545E+06     35.3587E+06              0.    -982.996E+03
           22409     57.2528E+06     35.4957E+06              0.    -1.00842E+06
           22410     57.0459E+06     35.6346E+06              0.    -1.03443E+06
           22411     56.8337E+06     35.7754E+06              0.    -1.06101E+06
           22412     56.6161E+06     35.9182E+06              0.    -1.08819E+06
           22413     56.3930E+06     36.0630E+06              0.    -1.11597E+06
           22414     56.1643E+06       36.21E+06              0.    -1.14435E+06
           22415     55.9297E+06     36.3591E+06              0.    -1.17334E+06
           22416     55.6893E+06     36.5105E+06              0.    -1.20296E+06
           22417     55.4429E+06     36.6641E+06              0.    -1.23320E+06
           22418     55.1904E+06     36.8201E+06              0.    -1.26408E+06
           22419     54.9316E+06     36.9784E+06              0.    -1.29561E+06
           22420     54.6665E+06     37.1392E+06              0.    -1.32779E+06
           22421     54.3948E+06     37.3025E+06              0.    -1.36064E+06
           22422     54.1165E+06     37.4683E+06              0.    -1.39415E+06
           22423     53.8314E+06     37.6366E+06              0.    -1.42835E+06
           22424     53.5395E+06     37.8076E+06              0.    -1.46323E+06
           22425     53.2405E+06     37.9812E+06              0.    -1.49881E+06
           22426     52.9344E+06     38.1575E+06              0.    -1.53510E+06
           22427     52.6209E+06     38.3366E+06              0.    -1.57210E+06
           22428     52.3000E+06     38.5184E+06              0.    -1.60982E+06
           22429     51.9716E+06     38.7031E+06              0.    -1.64828E+06
           22430     51.6354E+06     38.8906E+06              0.    -1.68748E+06
           22431     51.2914E+06     39.0809E+06              0.    -1.72743E+06
           22432     50.9393E+06     39.2742E+06              0.    -1.76814E+06
           22433     50.5792E+06     39.4703E+06              0.    -1.80962E+06
           22434     50.2107E+06     39.6694E+06              0.    -1.85188E+06
           22435     49.8338E+06     39.8715E+06              0.    -1.89492E+06
           22436     49.4483E+06     40.0766E+06              0.    -1.93875E+06
           22437     49.0541E+06     40.2847E+06              0.    -1.98339E+06
           22438     48.6510E+06     40.4957E+06              0.    -2.02884E+06
           22439     48.2388E+06     40.7098E+06              0.    -2.07511E+06
           22440     47.8175E+06     40.9270E+06              0.    -2.12220E+06
           22441     47.3868E+06     41.1471E+06              0.    -2.17013E+06
           22442     46.9466E+06     41.3703E+06              0.    -2.21890E+06
           22443     46.4967E+06     41.5966E+06              0.    -2.26851E+06
           22444     46.0370E+06     41.8258E+06              0.    -2.31898E+06
           22445     45.5674E+06     42.0581E+06              0.    -2.37032E+06
           22446     45.0876E+06     42.2933E+06              0.    -2.42252E+06
           22447     44.5976E+06     42.5315E+06              0.    -2.47560E+06
           22448     44.0971E+06     42.7727E+06              0.    -2.52955E+06
           22449     43.5860E+06     43.0168E+06              0.    -2.58439E+06
           22450     43.0641E+06     43.2637E+06              0.    -2.64011E+06
           22451     42.5313E+06     43.5135E+06              0.    -2.69673E+06
           22452     41.9874E+06     43.7661E+06              0.    -2.75425E+06
           22453     41.4323E+06     44.0215E+06              0.    -2.81266E+06
           22454     40.8657E+06     44.2795E+06              0.    -2.87197E+06
           22455     40.2876E+06     44.5402E+06              0.    -2.93218E+06
           22456     39.6978E+06     44.8034E+06              0.    -2.99330E+06
           22457     39.0961E+06     45.0691E+06              0.    -3.05532E+06
           22458     38.4824E+06     45.3371E+06              0.    -3.11824E+06
           22459     37.8564E+06     45.6075E+06              0.    -3.18206E+06
           22460     37.2181E+06     45.8801E+06              0.    -3.24678E+06
           22461     36.5674E+06     46.1548E+06              0.    -3.31240E+06
           22462     35.9039E+06     46.4314E+06              0.    -3.37890E+06
           22463     35.2277E+06     46.7100E+06              0.    -3.44629E+06
           22464     34.5385E+06     46.9902E+06              0.    -3.51456E+06
           22465     33.8363E+06     47.2720E+06              0.    -3.58370E+06
           22466     33.1208E+06     47.5552E+06              0.    -3.65371E+06
           22467     32.3919E+06     47.8397E+06              0.    -3.72457E+06
           22468     31.6495E+06     48.1253E+06              0.    -3.79626E+06
           22469     30.8935E+06     48.4117E+06              0.    -3.86879E+06
           22470     30.1236E+06     48.6989E+06              0.    -3.94214E+06
           22471     29.3399E+06     48.9866E+06              0.    -4.01628E+06
           22472     28.5422E+06     49.2745E+06              0.    -4.09122E+06
           22473     27.7303E+06     49.5624E+06              0.    -4.16691E+06
           22474     26.9042E+06     49.8502E+06              0.    -4.24335E+06
           22475     26.0636E+06     50.1374E+06              0.    -4.32052E+06
           22476     25.2087E+06     50.4239E+06              0.    -4.39839E+06
           22477     24.3391E+06     50.7094E+06              0.    -4.47694E+06
           22478     23.4549E+06     50.9935E+06              0.    -4.55613E+06
           22479     22.5560E+06     51.2759E+06              0.    -4.63595E+06
           22480     21.6423E+06     51.5562E+06              0.    -4.71635E+06
           22481     20.7136E+06     51.8343E+06              0.    -4.79731E+06
           22482     19.7700E+06     52.1095E+06              0.     -4.8788E+06
           22483     18.8114E+06     52.3816E+06              0.    -4.96077E+06
           22484     17.8377E+06     52.6501E+06              0.    -5.04319E+06
           22485     16.8490E+06     52.9146E+06              0.    -5.12600E+06
           22486     15.8451E+06     53.1746E+06              0.    -5.20918E+06
           22487     14.8260E+06     53.4297E+06              0.    -5.29268E+06
           22488     13.7918E+06     53.6794E+06              0.    -5.37643E+06
           22489     12.7425E+06     53.9231E+06              0.    -5.46040E+06
           22490     11.6780E+06     54.1603E+06              0.    -5.54453E+06
           22491     10.5984E+06     54.3905E+06              0.    -5.62876E+06
           22492     9.50363E+06     54.6130E+06              0.    -5.71304E+06
           22493     8.39386E+06     54.8273E+06              0.    -5.79729E+06
           22494     7.26909E+06     55.0326E+06              0.    -5.88146E+06
           22495     6.12940E+06     55.2284E+06              0.    -5.96548E+06
           22496     4.97487E+06     55.4139E+06              0.    -6.04928E+06
           22497     3.80561E+06     55.5885E+06              0.    -6.13278E+06
           22498     2.62171E+06     55.7513E+06              0.    -6.21590E+06
           22499     1.42331E+06     55.9016E+06              0.    -6.29857E+06
           22500     210.551E+03     56.0386E+06              0.    -6.38071E+06
           22501    -1.01641E+06     56.1614E+06              0.    -6.46223E+06
           22502    -2.25740E+06     56.2692E+06              0.    -6.54304E+06
           22503    -3.51224E+06     56.3611E+06              0.    -6.62304E+06
           22504    -4.78070E+06     56.4362E+06              0.    -6.70215E+06
           22505    -6.06258E+06     56.4934E+06              0.    -6.78027E+06
           22506    -7.35761E+06     56.5319E+06              0.    -6.85729E+06
           22507    -8.66556E+06     56.5505E+06              0.    -6.93311E+06
           22508    -9.98613E+06     56.5482E+06              0.    -7.00763E+06
           22509    -11.3190E+06     56.5240E+06              0.    -7.08073E+06
           22510    -12.6639E+06     56.4766E+06              0.    -7.15231E+06
           22511    -14.0205E+06     56.4050E+06              0.    -7.22224E+06
           22512    -15.3884E+06     56.3079E+06              0.    -7.29040E+06
           22513    -16.7672E+06     56.1841E+06              0.    -7.35669E+06
           22514    -18.1566E+06     56.0323E+06              0.    -7.42096E+06
           22515    -19.5561E+06     55.8512E+06              0.    -7.48311E+06
           22516    -20.9653E+06     55.6395E+06              0.    -7.54298E+06
           22517    -22.3836E+06     55.3958E+06              0.    -7.60047E+06
           22518    -23.8107E+06     55.1187E+06              0.    -7.65542E+06
           22519    -25.2460E+06     54.8067E+06              0.    -7.70771E+06
           22520    -26.6890E+06     54.4583E+06              0.    -7.75720E+06
           22521    -28.1391E+06     54.0721E+06              0.    -7.80375E+06
           22522    -29.5958E+06     53.6464E+06              0.    -7.84721E+06
           22523    -31.0584E+06     53.1797E+06              0.    -7.88744E+06
           22524    -32.5263E+06     52.6703E+06              0.    -7.92430E+06
           22525    -33.9989E+06     52.1166E+06              0.    -7.95764E+06
           22526    -35.4755E+06     51.5169E+06              0.    -7.98731E+06
           22527    -36.9555E+06     50.8694E+06              0.    -8.01317E+06
           22528    -38.4380E+06     50.1725E+06              0.    -8.03507E+06
           22529    -39.9223E+06     49.4242E+06              0.    -8.05285E+06
           22530    -41.4078E+06     48.6228E+06              0.    -8.06637E+06
           22531    -42.8935E+06     47.7664E+06              0.    -8.07548E+06
           22532    -44.3787E+06     46.8531E+06              0.    -8.08002E+06
           22533    -45.8625E+06     45.8811E+06              0.    -8.07986E+06
           22534    -47.3441E+06     44.8483E+06              0.    -8.07484E+06
           22535    -48.8226E+06     43.7529E+06              0.    -8.06480E+06
           22536    -50.2971E+06     42.5927E+06              0.    -8.04962E+06
           22537    -51.7666E+06     41.3659E+06              0.    -8.02913E+06
           22538    -53.2302E+06     40.0704E+06              0.    -8.00321E+06
           22539    -54.6868E+06     38.7040E+06              0.    -7.97169E+06
           22540    -56.1356E+06     37.2649E+06              0.    -7.93445E+06
           22541    -57.5755E+06     35.7508E+06              0.    -7.89135E+06
           22542    -59.0053E+06     34.1597E+06              0.    -7.84225E+06
           22543    -60.4241E+06     32.4894E+06              0.    -7.78702E+06
           22544    -61.8307E+06     30.7380E+06              0.    -7.72553E+06
           22545    -63.2241E+06     28.9031E+06              0.    -7.65765E+06
           22546    -64.6031E+06     26.9826E+06              0.    -7.58326E+06
           22547    -65.9664E+06     24.9746E+06              0.    -7.50224E+06
           22548    -67.3130E+06     22.8767E+06              0.    -7.41447E+06
           22549    -68.6417E+06     20.6869E+06              0.    -7.31984E+06
           22550    -69.9511E+06     18.4030E+06              0.    -7.21825E+06
           22551    -71.2400E+06     16.0229E+06              0.    -7.10958E+06
           22552    -72.5072E+06     13.5445E+06              0.    -6.99374E+06
           22553    -73.7514E+06     10.9656E+06              0.    -6.87063E+06
           22554    -74.9712E+06     8.28423E+06              0.    -6.74015E+06
           22555    -76.1653E+06     5.49820E+06              0.    -6.60223E+06
           22556    -77.3324E+06     2.60548E+06              0.    -6.45678E+06
           22557    -78.4710E+06    -395.946E+03              0.    -6.30371E+06
           22558    -79.5797E+06    -3.50816E+06              0.    -6.14296E+06
           22559    -80.6571E+06    -6.73311E+06              0.    -5.97446E+06
           22560    -81.7018E+06    -10.0728E+06              0.    -5.79813E+06
           22561    -82.7122E+06    -13.5292E+06              0.    -5.61392E+06
           22562    -83.6869E+06    -17.1042E+06              0.    -5.42176E+06
           22563    -84.6243E+06    -20.7997E+06              0.    -5.22161E+06
           22564    -85.5228E+06    -24.6174E+06              0.    -5.01342E+06
           22565    -86.3809E+06    -28.5594E+06              0.    -4.79712E+06
           22566    -87.1969E+06    -32.6273E+06              0.    -4.57270E+06
           22567    -87.9692E+06    -36.8227E+06              0.    -4.34009E+06
           22568    -89.5743E+06    -41.5735E+06              0.    -4.22829E+06
           22569     63.5930E+06     27.9298E+06              0.    -319.806E+03
           22570     63.6143E+06     28.1642E+06              0.    -319.207E+03
           22571     63.5350E+06     28.3498E+06              0.    -314.909E+03
           22572     63.4566E+06     28.5304E+06              0.    -311.246E+03
           22573     63.3791E+06     28.7061E+06              0.    -308.201E+03
           22574     63.3022E+06     28.8772E+06              0.    -305.758E+03
           22575     63.2259E+06     29.0440E+06              0.    -303.900E+03
           22576     63.1498E+06     29.2067E+06              0.    -302.614E+03
           22577     63.0740E+06     29.3654E+06              0.    -301.884E+03
           22578     62.9983E+06     29.5204E+06              0.    -301.698E+03
           22579     62.9225E+06     29.6719E+06              0.    -302.043E+03
           22580     62.8465E+06     29.8201E+06              0.    -302.908E+03
           22581     62.7702E+06     29.9651E+06              0.    -304.280E+03
           22582     62.6934E+06     30.1072E+06              0.    -306.149E+03
           22583     62.6161E+06     30.2465E+06              0.    -308.505E+03
           22584     62.5381E+06     30.3833E+06              0.    -311.339E+03
           22585     62.4592E+06     30.5176E+06              0.    -314.642E+03
           22586     62.3794E+06     30.6497E+06              0.    -318.406E+03
           22587     62.2986E+06     30.7796E+06              0.    -322.623E+03
           22588     62.2166E+06     30.9076E+06              0.    -327.285E+03
           22589     62.1333E+06     31.0339E+06              0.    -332.387E+03
           22590     62.0486E+06     31.1584E+06              0.    -337.921E+03
           22591     61.9624E+06     31.2815E+06              0.    -343.884E+03
           22592     61.8747E+06     31.4032E+06              0.    -350.268E+03
           22593     61.7852E+06     31.5236E+06              0.    -357.070E+03
           22594     61.6939E+06     31.6429E+06              0.    -364.286E+03
           22595     61.6007E+06     31.7613E+06              0.    -371.911E+03
           22596     61.5055E+06     31.8788E+06              0.    -379.942E+03
           22597     61.4082E+06     31.9956E+06              0.    -388.377E+03
           22598     61.3086E+06     32.1117E+06              0.    -397.212E+03
           22599     61.2067E+06     32.2274E+06              0.    -406.446E+03
           22600     61.1024E+06     32.3427E+06              0.    -416.076E+03
           22601     60.9956E+06     32.4577E+06              0.    -426.102E+03
           22602     60.8862E+06     32.5725E+06              0.    -436.523E+03
           22603     60.7740E+06     32.6872E+06              0.    -447.337E+03
           22604     60.6590E+06     32.8020E+06              0.    -458.544E+03
           22605     60.5412E+06     32.9170E+06              0.    -470.145E+03
           22606     60.4202E+06     33.0321E+06              0.    -482.139E+03
           22607     60.2962E+06     33.1476E+06              0.    -494.528E+03
           22608     60.1690E+06     33.2636E+06              0.    -507.312E+03
           22609     60.0385E+06     33.3800E+06              0.    -520.492E+03
           22610     59.9045E+06     33.4970E+06              0.    -534.070E+03
           22611     59.7671E+06     33.6148E+06              0.    -548.048E+03
           22612      59.626E+06     33.7333E+06              0.    -562.428E+03
           22613     59.4812E+06     33.8526E+06              0.    -577.213E+03
           22614     59.3326E+06     33.9730E+06              0.    -592.404E+03
           22615     59.1801E+06     34.0943E+06              0.    -608.005E+03
           22616     59.0236E+06     34.2167E+06              0.    -624.019E+03
           22617     58.8630E+06     34.3404E+06              0.    -640.449E+03
           22618     58.6982E+06     34.4652E+06              0.    -657.299E+03
           22619     58.5290E+06     34.5915E+06              0.    -674.573E+03
           22620     58.3554E+06     34.7191E+06              0.    -692.275E+03
           22621     58.1772E+06     34.8482E+06              0.    -710.409E+03
           22622     57.9945E+06     34.9788E+06              0.    -728.979E+03
           22623     57.8069E+06     35.1111E+06              0.    -747.991E+03
           22624     57.6145E+06     35.2450E+06              0.    -767.448E+03
           22625     57.4171E+06     35.3807E+06              0.    -787.357E+03
           22626     57.2147E+06     35.5182E+06              0.    -807.722E+03
           22627     57.0070E+06     35.6576E+06              0.    -828.549E+03
           22628     56.7940E+06     35.7989E+06              0.    -849.844E+03
           22629     56.5756E+06     35.9422E+06              0.    -871.611E+03
           22630     56.3517E+06     36.0876E+06              0.    -893.857E+03
           22631     56.1221E+06     36.2351E+06              0.    -916.588E+03
           22632     55.8867E+06     36.3848E+06              0.    -939.811E+03
           22633     55.6454E+06     36.5367E+06              0.    -963.530E+03
           22634     55.3981E+06     36.6909E+06              0.    -987.754E+03
           22635     55.1446E+06     36.8474E+06              0.    -1.01249E+06
           22636     54.8849E+06     37.0063E+06              0.    -1.03774E+06
           22637     54.6188E+06     37.1677E+06              0.    -1.06351E+06
           22638     54.3461E+06     37.3315E+06              0.    -1.08982E+06
           22639     54.0668E+06     37.4979E+06              0.    -1.11666E+06
           22640     53.7807E+06     37.6668E+06              0.    -1.14405E+06
           22641     53.4876E+06     37.8384E+06              0.    -1.17198E+06
           22642     53.1876E+06     38.0127E+06              0.    -1.20048E+06
           22643     52.8803E+06     38.1896E+06              0.    -1.22954E+06
           22644     52.5657E+06     38.3693E+06              0.    -1.25917E+06
           22645     52.2437E+06     38.5518E+06              0.    -1.28939E+06
           22646     51.9140E+06     38.7371E+06              0.    -1.32019E+06
           22647     51.5766E+06     38.9252E+06              0.    -1.35158E+06
           22648     51.2313E+06     39.1162E+06              0.    -1.38358E+06
           22649     50.8780E+06     39.3101E+06              0.    -1.41618E+06
           22650     50.5166E+06     39.5070E+06              0.    -1.44940E+06
           22651     50.1468E+06     39.7068E+06              0.    -1.48324E+06
           22652     49.7685E+06     39.9095E+06              0.    -1.51771E+06
           22653     49.3816E+06     40.1153E+06              0.    -1.55281E+06
           22654     48.9860E+06     40.3241E+06              0.    -1.58856E+06
           22655     48.5814E+06     40.5359E+06              0.    -1.62496E+06
           22656     48.1678E+06     40.7507E+06              0.    -1.66201E+06
           22657     47.7450E+06     40.9686E+06              0.    -1.69972E+06
           22658     47.3127E+06     41.1895E+06              0.    -1.73810E+06
           22659     46.8710E+06     41.4134E+06              0.    -1.77716E+06
           22660     46.4195E+06     41.6404E+06              0.    -1.81689E+06
           22661     45.9582E+06     41.8704E+06              0.    -1.85731E+06
           22662     45.4869E+06     42.1034E+06              0.    -1.89841E+06
           22663     45.0055E+06     42.3394E+06              0.    -1.94022E+06
           22664     44.5137E+06     42.5784E+06              0.    -1.98272E+06
           22665     44.0115E+06     42.8203E+06              0.    -2.02592E+06
           22666     43.4986E+06     43.0652E+06              0.    -2.06983E+06
           22667     42.9749E+06     43.3129E+06              0.    -2.11446E+06
           22668     42.4402E+06     43.5635E+06              0.    -2.15979E+06
           22669     41.8945E+06     43.8169E+06              0.    -2.20584E+06
           22670     41.3374E+06     44.0731E+06              0.    -2.25262E+06
           22671     40.7690E+06     44.3319E+06              0.    -2.30011E+06
           22672     40.1889E+06     44.5933E+06              0.    -2.34832E+06
           22673     39.5971E+06     44.8573E+06              0.    -2.39726E+06
           22674     38.9933E+06     45.1238E+06              0.    -2.44691E+06
           22675     38.3775E+06     45.3927E+06              0.    -2.49729E+06
           22676     37.7495E+06     45.6639E+06              0.    -2.54839E+06
           22677     37.1090E+06     45.9373E+06              0.    -2.60021E+06
           22678     36.4561E+06     46.2127E+06              0.    -2.65275E+06
           22679     35.7905E+06     46.4902E+06              0.    -2.70599E+06
           22680     35.1120E+06     46.7695E+06              0.    -2.75995E+06
           22681     34.4206E+06     47.0505E+06              0.    -2.81460E+06
           22682     33.7160E+06     47.3331E+06              0.    -2.86996E+06
           22683     32.9982E+06     47.6171E+06              0.    -2.92600E+06
           22684     32.2669E+06     47.9023E+06              0.    -2.98273E+06
           22685     31.5222E+06     48.1886E+06              0.    -3.04013E+06
           22686     30.7637E+06     48.4758E+06              0.    -3.09819E+06
           22687     29.9914E+06     48.7637E+06              0.    -3.15691E+06
           22688     29.2052E+06     49.0521E+06              0.    -3.21626E+06
           22689     28.4050E+06     49.3407E+06              0.    -3.27624E+06
           22690     27.5906E+06     49.6293E+06              0.    -3.33684E+06
           22691     26.7619E+06     49.9178E+06              0.    -3.39803E+06
           22692     25.9188E+06     50.2057E+06              0.    -3.45980E+06
           22693     25.0612E+06     50.4928E+06              0.    -3.52213E+06
           22694      24.189E+06     50.7788E+06              0.    -3.58500E+06
           22695     23.3021E+06     51.0635E+06              0.    -3.64839E+06
           22696     22.4005E+06     51.3465E+06              0.    -3.71227E+06
           22697     21.4840E+06     51.6274E+06              0.    -3.77662E+06
           22698     20.5527E+06     51.9059E+06              0.    -3.84142E+06
           22699     19.6063E+06     52.1816E+06              0.    -3.90664E+06
           22700     18.6449E+06     52.4542E+06              0.    -3.97224E+06
           22701     17.6685E+06     52.7231E+06              0.    -4.03820E+06
           22702     16.6769E+06     52.9880E+06              0.    -4.10448E+06
           22703     15.6702E+06     53.2483E+06              0.    -4.17104E+06
           22704     14.6483E+06     53.5038E+06              0.    -4.23785E+06
           22705     13.6113E+06     53.7537E+06              0.    -4.30488E+06
           22706     12.5591E+06     53.9976E+06              0.    -4.37207E+06
           22707     11.4917E+06     54.2351E+06              0.    -4.43938E+06
           22708     10.4092E+06     54.4654E+06              0.    -4.50678E+06
           22709     9.31158E+06     54.6880E+06              0.    -4.57421E+06
           22710     8.19892E+06     54.9023E+06              0.    -4.64162E+06
           22711     7.07126E+06     55.1076E+06              0.    -4.70896E+06
           22712     5.92869E+06     55.3033E+06              0.    -4.77618E+06
           22713     4.77128E+06     55.4887E+06              0.    -4.84321E+06
           22714     3.59914E+06     55.6630E+06              0.    -4.91001E+06
           22715     2.41237E+06     55.8256E+06              0.    -4.97650E+06
           22716     1.21111E+06     55.9756E+06              0.    -5.04263E+06
           22717      -4.501E+03     56.1122E+06              0.    -5.10833E+06
           22718    -1.23430E+06     56.2346E+06              0.    -5.17353E+06
           22719    -2.47811E+06     56.3419E+06              0.    -5.23816E+06
           22720    -3.73574E+06     56.4332E+06              0.    -5.30214E+06
           22721    -5.00698E+06     56.5076E+06              0.    -5.36541E+06
           22722    -6.29161E+06     56.5640E+06              0.    -5.42788E+06
           22723    -7.58937E+06     56.6017E+06              0.    -5.48946E+06
           22724    -8.90001E+06     56.6194E+06              0.    -5.55009E+06
           22725    -10.2232E+06     56.6161E+06              0.    -5.60967E+06
           22726    -11.5588E+06     56.5908E+06              0.    -5.66811E+06
           22727    -12.9063E+06     56.5423E+06              0.    -5.72533E+06
           22728    -14.2654E+06     56.4694E+06              0.    -5.78123E+06
           22729    -15.6358E+06     56.3709E+06              0.    -5.83571E+06
           22730    -17.0171E+06     56.2457E+06              0.    -5.88869E+06
           22731    -18.4088E+06     56.0924E+06              0.    -5.94006E+06
           22732    -19.8107E+06     55.9096E+06              0.    -5.98971E+06
           22733    -21.2221E+06     55.6962E+06              0.    -6.03756E+06
           22734    -22.6427E+06     55.4507E+06              0.    -6.08348E+06
           22735    -24.0720E+06     55.1716E+06              0.    -6.12738E+06
           22736    -25.5094E+06     54.8575E+06              0.    -6.16914E+06
           22737    -26.9544E+06     54.5070E+06              0.    -6.20866E+06
           22738    -28.4065E+06     54.1186E+06              0.    -6.24582E+06
           22739    -29.8650E+06     53.6905E+06              0.    -6.28051E+06
           22740    -31.3294E+06     53.2214E+06              0.    -6.31262E+06
           22741    -32.7991E+06     52.7095E+06              0.    -6.34202E+06
           22742    -34.2734E+06     52.1531E+06              0.    -6.36861E+06
           22743    -35.7515E+06     51.5506E+06              0.    -6.39226E+06
           22744    -37.2329E+06     50.9003E+06              0.    -6.41286E+06
           22745    -38.7168E+06     50.2004E+06              0.    -6.43028E+06
           22746    -40.2025E+06     49.4490E+06              0.    -6.44442E+06
           22747    -41.6891E+06     48.6444E+06              0.    -6.45514E+06
           22748    -43.1759E+06     47.7848E+06              0.    -6.46233E+06
           22749    -44.6621E+06     46.8681E+06              0.    -6.46587E+06
           22750    -46.1468E+06     45.8926E+06              0.    -6.46564E+06
           22751    -47.6292E+06     44.8563E+06              0.    -6.46152E+06
           22752    -49.1084E+06     43.7571E+06              0.     -6.4534E+06
           22753    -50.5834E+06     42.5933E+06              0.    -6.44115E+06
           22754    -52.0534E+06     41.3626E+06              0.    -6.42466E+06
           22755    -53.5173E+06     40.0631E+06              0.    -6.40382E+06
           22756    -54.9742E+06     38.6928E+06              0.    -6.37851E+06
           22757    -56.4231E+06     37.2495E+06              0.    -6.34862E+06
           22758    -57.8629E+06     35.7313E+06              0.    -6.31404E+06
           22759    -59.2927E+06     34.1359E+06              0.    -6.27466E+06
           22760    -60.7112E+06     32.4613E+06              0.    -6.23038E+06
           22761    -62.1175E+06     30.7054E+06              0.    -6.18109E+06
           22762    -63.5104E+06     28.8661E+06              0.    -6.12669E+06
           22763    -64.8888E+06     26.9411E+06              0.    -6.06709E+06
           22764    -66.2514E+06     24.9285E+06              0.    -6.00218E+06
           22765    -67.5972E+06     22.8260E+06              0.    -5.93188E+06
           22766    -68.9248E+06     20.6315E+06              0.    -5.85609E+06
           22767    -70.2332E+06     18.3429E+06              0.    -5.77473E+06
           22768    -71.5209E+06     15.9580E+06              0.    -5.68771E+06
           22769    -72.7868E+06     13.4748E+06              0.    -5.59495E+06
           22770    -74.0295E+06     10.8911E+06              0.    -5.49639E+06
           22771    -75.2478E+06     8.20486E+06              0.    -5.39193E+06
           22772    -76.4402E+06     5.41394E+06              0.    -5.28152E+06
           22773    -77.6054E+06     2.51631E+06              0.    -5.16509E+06
           22774    -78.7421E+06    -490.041E+03              0.    -5.04257E+06
           22775    -79.8488E+06     -3.6072E+06              0.    -4.91390E+06
           22776    -80.9240E+06    -6.83710E+06              0.    -4.77904E+06
           22777    -81.9664E+06    -10.1818E+06              0.    -4.63791E+06
           22778    -82.9744E+06    -13.6431E+06              0.    -4.49048E+06
           22779    -83.9466E+06    -17.2231E+06              0.    -4.33671E+06
           22780    -84.8813E+06    -20.9235E+06              0.    -4.17653E+06
           22781    -85.7771E+06    -24.7463E+06              0.    -4.00992E+06
           22782    -86.6323E+06    -28.6932E+06              0.    -3.83684E+06
           22783    -87.4453E+06    -32.7660E+06              0.    -3.65725E+06
           22784    -88.2146E+06    -36.9664E+06              0.    -3.47112E+06
           22785    -89.8196E+06    -41.7221E+06              0.    -3.38161E+06
           22786     63.5820E+06     27.9250E+06              0.    -240.089E+03
           22787     63.6033E+06     28.1602E+06              0.    -239.639E+03
           22788     63.5238E+06     28.3463E+06              0.    -236.413E+03
           22789     63.4452E+06     28.5274E+06              0.    -233.663E+03
           22790     63.3675E+06     28.7036E+06              0.    -231.377E+03
           22791     63.2904E+06     28.8753E+06              0.    -229.542E+03
           22792     63.2138E+06     29.0425E+06              0.    -228.148E+03
           22793     63.1375E+06     29.2057E+06              0.    -227.182E+03
           22794     63.0615E+06     29.3649E+06              0.    -226.634E+03
           22795     62.9855E+06     29.5203E+06              0.    -226.494E+03
           22796     62.9095E+06     29.6723E+06              0.    -226.754E+03
           22797     62.8333E+06     29.8209E+06              0.    -227.402E+03
           22798     62.7568E+06     29.9664E+06              0.    -228.432E+03
           22799     62.6798E+06     30.1089E+06              0.    -229.835E+03
           22800     62.6022E+06     30.2487E+06              0.    -231.604E+03
           22801     62.5239E+06     30.3858E+06              0.    -233.732E+03
           22802     62.4448E+06     30.5205E+06              0.    -236.211E+03
           22803     62.3648E+06     30.6530E+06              0.    -239.037E+03
           22804     62.2837E+06     30.7833E+06              0.    -242.202E+03
           22805     62.2015E+06     30.9117E+06              0.    -245.702E+03
           22806     62.1180E+06     31.0383E+06              0.    -249.532E+03
           22807     62.0330E+06     31.1632E+06              0.    -253.687E+03
           22808     61.9466E+06     31.2866E+06              0.    -258.163E+03
           22809     61.8586E+06     31.4087E+06              0.    -262.956E+03
           22810     61.7688E+06     31.5295E+06              0.    -268.063E+03
           22811     61.6773E+06     31.6492E+06              0.    -273.479E+03
           22812     61.5838E+06     31.7679E+06              0.    -279.203E+03
           22813     61.4883E+06     31.8857E+06              0.    -285.233E+03
           22814     61.3907E+06     32.0029E+06              0.    -291.565E+03
           22815     61.2909E+06     32.1194E+06              0.    -298.197E+03
           22816     61.1887E+06     32.2353E+06              0.    -305.129E+03
           22817     61.0841E+06     32.3510E+06              0.    -312.359E+03
           22818     60.9769E+06     32.4663E+06              0.    -319.886E+03
           22819     60.8672E+06     32.5815E+06              0.    -327.708E+03
           22820     60.7547E+06     32.6966E+06              0.    -335.826E+03
           22821     60.6394E+06     32.8117E+06              0.    -344.240E+03
           22822     60.5211E+06     32.9270E+06              0.    -352.949E+03
           22823     60.3999E+06     33.0425E+06              0.    -361.953E+03
           22824     60.2755E+06     33.1583E+06              0.    -371.253E+03
           22825     60.1479E+06     33.2746E+06              0.    -380.850E+03
           22826     60.0170E+06     33.3913E+06              0.    -390.744E+03
           22827     59.8827E+06     33.5087E+06              0.    -400.938E+03
           22828     59.7448E+06     33.6268E+06              0.    -411.431E+03
           22829     59.6033E+06     33.7456E+06              0.    -422.226E+03
           22830     59.4581E+06     33.8654E+06              0.    -433.325E+03
           22831     59.3091E+06     33.9860E+06              0.    -444.729E+03
           22832     59.1562E+06     34.1077E+06              0.    -456.441E+03
           22833     58.9992E+06     34.2305E+06              0.    -468.462E+03
           22834     58.8381E+06     34.3545E+06              0.    -480.796E+03
           22835     58.6728E+06     34.4797E+06              0.    -493.446E+03
           22836     58.5031E+06     34.6063E+06              0.    -506.413E+03
           22837     58.3290E+06     34.7343E+06              0.    -519.702E+03
           22838     58.1504E+06     34.8637E+06              0.    -533.314E+03
           22839     57.9670E+06     34.9948E+06              0.    -547.255E+03
           22840     57.7790E+06     35.1274E+06              0.    -561.527E+03
           22841     57.5860E+06     35.2617E+06              0.    -576.133E+03
           22842     57.3880E+06     35.3978E+06              0.    -591.078E+03
           22843     57.1850E+06     35.5357E+06              0.    -606.366E+03
           22844     56.9767E+06     35.6755E+06              0.    -622.000E+03
           22845     56.7631E+06     35.8172E+06              0.    -637.986E+03
           22846     56.5441E+06     35.9609E+06              0.    -654.326E+03
           22847     56.3195E+06     36.1067E+06              0.    -671.025E+03
           22848     56.0893E+06     36.2546E+06              0.    -688.089E+03
           22849     55.8532E+06     36.4047E+06              0.    -705.521E+03
           22850     55.6112E+06     36.5570E+06              0.    -723.327E+03
           22851     55.3632E+06     36.7117E+06              0.    -741.511E+03
           22852     55.1090E+06     36.8686E+06              0.    -760.078E+03
           22853     54.8485E+06     37.0280E+06              0.    -779.032E+03
           22854     54.5816E+06     37.1898E+06              0.    -798.380E+03
           22855     54.3082E+06     37.3541E+06              0.    -818.126E+03
           22856     54.0281E+06     37.5209E+06              0.    -838.275E+03
           22857     53.7411E+06     37.6904E+06              0.    -858.833E+03
           22858     53.4473E+06     37.8624E+06              0.    -879.804E+03
           22859     53.1464E+06     38.0371E+06              0.    -901.195E+03
           22860     52.8382E+06     38.2146E+06              0.    -923.009E+03
           22861     52.5227E+06     38.3948E+06              0.    -945.254E+03
           22862     52.1998E+06     38.5777E+06              0.    -967.933E+03
           22863     51.8692E+06     38.7635E+06              0.    -991.053E+03
           22864     51.5309E+06     38.9522E+06              0.    -1.01462E+06
           22865     51.1846E+06     39.1437E+06              0.    -1.03863E+06
           22866     50.8303E+06     39.3381E+06              0.    -1.06311E+06
           22867     50.4678E+06     39.5355E+06              0.    -1.08804E+06
           22868     50.0970E+06     39.7358E+06              0.    -1.11344E+06
           22869     49.7177E+06     39.9391E+06              0.    -1.13932E+06
           22870     49.3297E+06     40.1455E+06              0.    -1.16567E+06
           22871     48.9330E+06     40.3548E+06              0.    -1.19250E+06
           22872     48.5273E+06     40.5671E+06              0.    -1.21982E+06
           22873     48.1125E+06     40.7825E+06              0.    -1.24763E+06
           22874     47.6885E+06     41.0010E+06              0.    -1.27593E+06
           22875     47.2551E+06     41.2224E+06              0.    -1.30474E+06
           22876     46.8121E+06     41.4469E+06              0.    -1.33406E+06
           22877     46.3594E+06     41.6745E+06              0.    -1.36388E+06
           22878     45.8969E+06     41.9051E+06              0.    -1.39422E+06
           22879     45.4243E+06     42.1387E+06              0.    -1.42507E+06
           22880     44.9415E+06     42.3753E+06              0.    -1.45644E+06
           22881     44.4484E+06     42.6149E+06              0.    -1.48834E+06
           22882     43.9448E+06     42.8574E+06              0.    -1.52077E+06
           22883     43.4305E+06     43.1029E+06              0.    -1.55373E+06
           22884     42.9054E+06     43.3513E+06              0.    -1.58722E+06
           22885     42.3694E+06     43.6025E+06              0.    -1.62125E+06
           22886     41.8221E+06     43.8565E+06              0.    -1.65581E+06
           22887     41.2636E+06     44.1132E+06              0.    -1.69091E+06
           22888     40.6936E+06     44.3727E+06              0.    -1.72656E+06
           22889     40.1120E+06     44.6347E+06              0.    -1.76274E+06
           22890     39.5186E+06     44.8994E+06              0.    -1.79947E+06
           22891     38.9133E+06     45.1665E+06              0.    -1.83674E+06
           22892     38.2959E+06     45.4360E+06              0.    -1.87455E+06
           22893     37.6662E+06     45.7078E+06              0.    -1.91290E+06
           22894     37.0241E+06     45.9818E+06              0.    -1.95179E+06
           22895     36.3695E+06     46.2578E+06              0.    -1.99121E+06
           22896     35.7022E+06     46.5359E+06              0.    -2.03117E+06
           22897     35.0220E+06     46.8158E+06              0.    -2.07166E+06
           22898     34.3288E+06     47.0974E+06              0.    -2.11268E+06
           22899     33.6224E+06     47.3806E+06              0.    -2.15422E+06
           22900     32.9028E+06     47.6652E+06              0.    -2.19627E+06
           22901     32.1697E+06     47.9510E+06              0.    -2.23884E+06
           22902     31.4231E+06     48.2379E+06              0.    -2.28192E+06
           22903     30.6627E+06     48.5257E+06              0.    -2.32549E+06
           22904     29.8885E+06     48.8142E+06              0.    -2.36955E+06
           22905     29.1004E+06     49.1031E+06              0.    -2.41408E+06
           22906     28.2982E+06     49.3922E+06              0.    -2.45909E+06
           22907     27.4818E+06     49.6814E+06              0.    -2.50456E+06
           22908     26.6511E+06     49.9703E+06              0.    -2.55047E+06
           22909     25.8060E+06     50.2588E+06              0.    -2.59682E+06
           22910     24.9464E+06     50.5464E+06              0.    -2.64359E+06
           22911     24.0722E+06     50.8329E+06              0.    -2.69076E+06
           22912     23.1832E+06     51.1180E+06              0.    -2.73832E+06
           22913     22.2795E+06     51.4014E+06              0.    -2.78625E+06
           22914     21.3609E+06     51.6828E+06              0.    -2.83453E+06
           22915     20.4274E+06     51.9617E+06              0.    -2.88315E+06
           22916     19.4789E+06     52.2378E+06              0.    -2.93208E+06
           22917     18.5154E+06     52.5106E+06              0.    -2.98129E+06
           22918     17.5368E+06     52.7799E+06              0.    -3.03078E+06
           22919     16.5430E+06     53.0451E+06              0.    -3.08050E+06
           22920     15.5341E+06     53.3057E+06              0.    -3.13043E+06
           22921     14.5100E+06     53.5614E+06              0.    -3.18055E+06
           22922     13.4708E+06     53.8115E+06              0.    -3.23083E+06
           22923     12.4163E+06     54.0556E+06              0.    -3.28123E+06
           22924     11.3467E+06     54.2932E+06              0.    -3.33173E+06
           22925     10.2620E+06     54.5236E+06              0.    -3.38228E+06
           22926     9.16213E+06     54.7463E+06              0.    -3.43286E+06
           22927     8.04723E+06     54.9606E+06              0.    -3.48342E+06
           22928     6.91734E+06     55.1659E+06              0.    -3.53393E+06
           22929     5.77252E+06     55.3616E+06              0.    -3.58434E+06
           22930     4.61287E+06     55.5468E+06              0.    -3.63462E+06
           22931     3.43849E+06     55.7210E+06              0.    -3.68471E+06
           22932     2.24949E+06     55.8834E+06              0.    -3.73458E+06
           22933     1.04601E+06     56.0331E+06              0.    -3.78417E+06
           22934    -171.816E+03     56.1694E+06              0.    -3.83344E+06
           22935    -1.40382E+06     56.2915E+06              0.    -3.88233E+06
           22936    -2.64982E+06     56.3984E+06              0.    -3.93079E+06
           22937    -3.90962E+06     56.4892E+06              0.    -3.97877E+06
           22938    -5.18302E+06     56.5631E+06              0.    -4.02621E+06
           22939    -6.46979E+06     56.6190E+06              0.    -4.07304E+06
           22940    -7.76967E+06     56.6560E+06              0.    -4.11921E+06
           22941     -9.0824E+06     56.6730E+06              0.    -4.16467E+06
           22942    -10.4077E+06     56.6689E+06              0.    -4.20933E+06
           22943    -11.7453E+06     56.6428E+06              0.    -4.25314E+06
           22944    -13.0948E+06     56.5933E+06              0.    -4.29603E+06
           22945    -14.4559E+06     56.5195E+06              0.    -4.33793E+06
           22946    -15.8282E+06     56.4200E+06              0.    -4.37876E+06
           22947    -17.2114E+06     56.2936E+06              0.    -4.41847E+06
           22948    -18.6050E+06     56.1390E+06              0.    -4.45696E+06
           22949    -20.0087E+06     55.9550E+06              0.    -4.49417E+06
           22950    -21.4219E+06     55.7403E+06              0.    -4.53001E+06
           22951    -22.8443E+06     55.4933E+06              0.    -4.56442E+06
           22952    -24.2752E+06     55.2127E+06              0.    -4.59730E+06
           22953    -25.7142E+06     54.8971E+06              0.    -4.62859E+06
           22954    -27.1608E+06     54.5449E+06              0.    -4.65818E+06
           22955    -28.6144E+06     54.1547E+06              0.    -4.68601E+06
           22956    -30.0744E+06     53.7248E+06              0.    -4.71198E+06
           22957    -31.5403E+06     53.2538E+06              0.    -4.73602E+06
           22958    -33.0113E+06     52.7399E+06              0.    -4.75802E+06
           22959    -34.4868E+06     52.1814E+06              0.    -4.77791E+06
           22960    -35.9662E+06     51.5768E+06              0.    -4.79560E+06
           22961    -37.4487E+06     50.9243E+06              0.    -4.81100E+06
           22962    -38.9337E+06     50.2220E+06              0.    -4.82401E+06
           22963    -40.4203E+06     49.4683E+06              0.    -4.83456E+06
           22964    -41.9079E+06     48.6612E+06              0.    -4.84255E+06
           22965    -43.3955E+06      47.799E+06              0.    -4.84788E+06
           22966    -44.8825E+06     46.8797E+06              0.    -4.85048E+06
           22967    -46.3679E+06     45.9015E+06              0.    -4.85025E+06
           22968    -47.8509E+06     44.8624E+06              0.    -4.84711E+06
           22969    -49.3306E+06     43.7604E+06              0.    -4.84096E+06
           22970    -50.8060E+06     42.5936E+06              0.    -4.83171E+06
           22971    -52.2764E+06     41.3600E+06              0.    -4.81929E+06
           22972    -53.7405E+06     40.0574E+06              0.    -4.80360E+06
           22973    -55.1976E+06     38.6840E+06              0.    -4.78456E+06
           22974    -56.6466E+06     37.2375E+06              0.    -4.76208E+06
           22975    -58.0864E+06     35.7160E+06              0.    -4.73609E+06
           22976    -59.5161E+06     34.1174E+06              0.     -4.7065E+06
           22977    -60.9344E+06     32.4394E+06              0.    -4.67323E+06
           22978    -62.3404E+06     30.6801E+06              0.    -4.63621E+06
           22979    -63.7330E+06     28.8373E+06              0.    -4.59536E+06
           22980    -65.1109E+06     26.9088E+06              0.    -4.55060E+06
           22981    -66.4729E+06     24.8926E+06              0.    -4.50186E+06
           22982    -67.8180E+06     22.7865E+06              0.    -4.44908E+06
           22983    -69.1450E+06     20.5884E+06              0.    -4.39219E+06
           22984    -70.4524E+06     18.2961E+06              0.    -4.33112E+06
           22985    -71.7393E+06     15.9076E+06              0.    -4.26581E+06
           22986    -73.0041E+06     13.4206E+06              0.    -4.19619E+06
           22987    -74.2457E+06     10.8332E+06              0.    -4.12222E+06
           22988    -75.4627E+06     8.14312E+06              0.    -4.04384E+06
           22989    -76.6538E+06     5.34840E+06              0.    -3.96099E+06
           22990    -77.8177E+06     2.44696E+06              0.    -3.87362E+06
           22991    -78.9528E+06    -563.227E+03              0.    -3.78169E+06
           22992    -80.0579E+06    -3.68423E+06              0.    -3.68516E+06
           22993    -81.1315E+06    -6.91798E+06              0.    -3.58397E+06
           22994    -82.1721E+06    -10.2665E+06              0.    -3.47809E+06
           22995    -83.1782E+06    -13.7317E+06              0.    -3.36748E+06
           22996    -84.1484E+06    -17.3155E+06              0.    -3.25212E+06
           22997    -85.0811E+06    -21.0198E+06              0.    -3.13196E+06
           22998    -85.9747E+06    -24.8464E+06              0.    -3.00697E+06
           22999    -86.8277E+06    -28.7972E+06              0.    -2.87713E+06
           23000    -87.6384E+06    -32.8739E+06              0.    -2.74240E+06
           23001    -88.4052E+06    -37.0782E+06              0.    -2.60277E+06
           23002    -90.0103E+06    -41.8376E+06              0.    -2.53560E+06
           23003     63.5741E+06     27.9216E+06              0.    -160.171E+03
           23004     63.5955E+06     28.1573E+06              0.    -159.871E+03
           23005     63.5158E+06     28.3438E+06              0.    -157.718E+03
           23006     63.4371E+06     28.5253E+06              0.    -155.884E+03
           23007     63.3591E+06     28.7019E+06              0.    -154.359E+03
           23008     63.2819E+06     28.8739E+06              0.    -153.135E+03
           23009     63.2051E+06     29.0415E+06              0.    -152.205E+03
           23010     63.1287E+06     29.2050E+06              0.    -151.560E+03
           23011     63.0525E+06     29.3645E+06              0.    -151.195E+03
           23012     62.9764E+06     29.5203E+06              0.    -151.101E+03
           23013     62.9002E+06     29.6726E+06              0.    -151.274E+03
           23014     62.8239E+06     29.8215E+06              0.    -151.707E+03
           23015     62.7472E+06     29.9673E+06              0.    -152.394E+03
           23016       62.67E+06     30.1101E+06              0.    -153.330E+03
           23017     62.5923E+06     30.2502E+06              0.    -154.510E+03
           23018     62.5138E+06     30.3876E+06              0.    -155.929E+03
           23019     62.4346E+06     30.5226E+06              0.    -157.584E+03
           23020     62.3544E+06     30.6553E+06              0.    -159.468E+03
           23021     62.2731E+06     30.7860E+06              0.    -161.580E+03
           23022     62.1907E+06     30.9146E+06              0.    -163.915E+03
           23023     62.1070E+06     31.0415E+06              0.    -166.470E+03
           23024     62.0219E+06     31.1667E+06              0.    -169.242E+03
           23025     61.9353E+06     31.2903E+06              0.    -172.228E+03
           23026     61.8471E+06     31.4126E+06              0.    -175.425E+03
           23027     61.7572E+06     31.5337E+06              0.    -178.832E+03
           23028     61.6654E+06     31.6536E+06              0.    -182.446E+03
           23029     61.5717E+06     31.7726E+06              0.    -186.264E+03
           23030     61.4760E+06     31.8907E+06              0.    -190.287E+03
           23031     61.3782E+06     32.0081E+06              0.    -194.511E+03
           23032     61.2782E+06     32.1248E+06              0.    -198.935E+03
           23033     61.1758E+06     32.2410E+06              0.    -203.560E+03
           23034     61.0709E+06     32.3569E+06              0.    -208.383E+03
           23035     60.9636E+06     32.4725E+06              0.    -213.404E+03
           23036     60.8536E+06     32.5879E+06              0.    -218.623E+03
           23037     60.7409E+06     32.7032E+06              0.    -224.039E+03
           23038     60.6253E+06     32.8186E+06              0.    -229.651E+03
           23039     60.5068E+06     32.9341E+06              0.    -235.461E+03
           23040     60.3853E+06     33.0498E+06              0.    -241.468E+03
           23041     60.2607E+06     33.1659E+06              0.    -247.672E+03
           23042     60.1328E+06     33.2824E+06              0.    -254.074E+03
           23043     60.0016E+06     33.3994E+06              0.    -260.675E+03
           23044     59.8670E+06     33.5171E+06              0.    -267.475E+03
           23045     59.7289E+06     33.6354E+06              0.    -274.475E+03
           23046     59.5871E+06     33.7545E+06              0.    -281.677E+03
           23047     59.4416E+06     33.8744E+06              0.    -289.081E+03
           23048     59.2923E+06     33.9954E+06              0.    -296.689E+03
           23049     59.1390E+06     34.1173E+06              0.    -304.502E+03
           23050     58.9817E+06     34.2403E+06              0.    -312.521E+03
           23051     58.8203E+06     34.3646E+06              0.    -320.750E+03
           23052     58.6546E+06     34.4901E+06              0.    -329.188E+03
           23053     58.4846E+06     34.6169E+06              0.    -337.839E+03
           23054     58.3102E+06     34.7452E+06              0.    -346.704E+03
           23055     58.1311E+06     34.8749E+06              0.    -355.785E+03
           23056     57.9474E+06     35.0062E+06              0.    -365.085E+03
           23057     57.7590E+06     35.1391E+06              0.    -374.605E+03
           23058     57.5656E+06     35.2737E+06              0.    -384.349E+03
           23059     57.3672E+06     35.4100E+06              0.    -394.319E+03
           23060     57.1638E+06     35.5482E+06              0.    -404.518E+03
           23061     56.9551E+06     35.6883E+06              0.    -414.947E+03
           23062     56.7411E+06     35.8303E+06              0.    -425.611E+03
           23063     56.5216E+06     35.9743E+06              0.    -436.511E+03
           23064     56.2965E+06     36.1204E+06              0.    -447.652E+03
           23065     56.0658E+06     36.2686E+06              0.    -459.035E+03
           23066     55.8292E+06     36.4190E+06              0.    -470.664E+03
           23067     55.5868E+06     36.5716E+06              0.    -482.542E+03
           23068     55.3382E+06     36.7265E+06              0.    -494.672E+03
           23069     55.0835E+06     36.8838E+06              0.    -507.058E+03
           23070     54.8225E+06     37.0435E+06              0.    -519.702E+03
           23071     54.5551E+06     37.2056E+06              0.    -532.609E+03
           23072     54.2811E+06     37.3703E+06              0.    -545.781E+03
           23073     54.0004E+06     37.5374E+06              0.    -559.222E+03
           23074     53.7129E+06     37.7072E+06              0.    -572.936E+03
           23075     53.4184E+06     37.8796E+06              0.    -586.925E+03
           23076     53.1169E+06     38.0546E+06              0.    -601.194E+03
           23077     52.8081E+06     38.2324E+06              0.    -615.746E+03
           23078     52.4920E+06     38.4130E+06              0.    -630.585E+03
           23079     52.1684E+06     38.5963E+06              0.    -645.714E+03
           23080     51.8372E+06     38.7824E+06              0.    -661.136E+03
           23081     51.4981E+06     38.9714E+06              0.    -676.856E+03
           23082     51.1512E+06     39.1633E+06              0.    -692.876E+03
           23083     50.7962E+06     39.3581E+06              0.    -709.201E+03
           23084     50.4330E+06     39.5559E+06              0.    -725.834E+03
           23085     50.0614E+06     39.7566E+06              0.    -742.778E+03
           23086     49.6813E+06     39.9603E+06              0.    -760.037E+03
           23087     49.2926E+06     40.1670E+06              0.    -777.614E+03
           23088     48.8951E+06     40.3767E+06              0.    -795.512E+03
           23089     48.4886E+06     40.5895E+06              0.    -813.735E+03
           23090     48.0730E+06     40.8053E+06              0.    -832.286E+03
           23091     47.6482E+06     41.0241E+06              0.    -851.168E+03
           23092     47.2139E+06     41.2460E+06              0.    -870.384E+03
           23093     46.7700E+06     41.4709E+06              0.    -889.937E+03
           23094     46.3165E+06     41.6989E+06              0.    -909.830E+03
           23095     45.8530E+06     41.9299E+06              0.    -930.066E+03
           23096     45.3795E+06     42.1639E+06              0.    -950.646E+03
           23097     44.8958E+06     42.4010E+06              0.    -971.574E+03
           23098     44.4018E+06     42.6410E+06              0.    -992.852E+03
           23099     43.8972E+06     42.8839E+06              0.    -1.01448E+06
           23100     43.3819E+06     43.1298E+06              0.    -1.03647E+06
           23101     42.8558E+06     43.3786E+06              0.    -1.05880E+06
           23102     42.3187E+06     43.6303E+06              0.    -1.08150E+06
           23103     41.7704E+06     43.8847E+06              0.    -1.10455E+06
           23104     41.2108E+06     44.1419E+06              0.    -1.12797E+06
           23105     40.6398E+06     44.4018E+06              0.    -1.15174E+06
           23106     40.0571E+06     44.6643E+06              0.    -1.17588E+06
           23107     39.4626E+06     44.9294E+06              0.    -1.20037E+06
           23108     38.8561E+06     45.1969E+06              0.    -1.22523E+06
           23109     38.2375E+06     45.4669E+06              0.    -1.25045E+06
           23110     37.6067E+06     45.7391E+06              0.    -1.27603E+06
           23111     36.9634E+06     46.0136E+06              0.    -1.30196E+06
           23112     36.3076E+06     46.2901E+06              0.    -1.32826E+06
           23113     35.6390E+06     46.5686E+06              0.    -1.35491E+06
           23114     34.9576E+06     46.8489E+06              0.    -1.38192E+06
           23115     34.2631E+06     47.1310E+06              0.    -1.40927E+06
           23116     33.5555E+06     47.4146E+06              0.    -1.43698E+06
           23117     32.8346E+06     47.6996E+06              0.    -1.46503E+06
           23118     32.1002E+06     47.9858E+06              0.    -1.49342E+06
           23119     31.3522E+06     48.2731E+06              0.    -1.52214E+06
           23120     30.5905E+06     48.5613E+06              0.    -1.55120E+06
           23121     29.8150E+06     48.8502E+06              0.    -1.58058E+06
           23122     29.0255E+06     49.1395E+06              0.    -1.61029E+06
           23123     28.2219E+06     49.4291E+06              0.    -1.64030E+06
           23124     27.4041E+06     49.7186E+06              0.    -1.67063E+06
           23125     26.5720E+06     50.0079E+06              0.    -1.70125E+06
           23126     25.7254E+06     50.2967E+06              0.    -1.73215E+06
           23127     24.8644E+06     50.5847E+06              0.    -1.76334E+06
           23128     23.9886E+06     50.8715E+06              0.    -1.79480E+06
           23129     23.0982E+06     51.1570E+06              0.    -1.82651E+06
           23130     22.1930E+06     51.4407E+06              0.    -1.85848E+06
           23131     21.2729E+06     51.7223E+06              0.    -1.89067E+06
           23132     20.3379E+06     52.0015E+06              0.    -1.92309E+06
           23133     19.3879E+06     52.2779E+06              0.    -1.95572E+06
           23134     18.4228E+06     52.5510E+06              0.    -1.98854E+06
           23135     17.4426E+06     52.8205E+06              0.    -2.02153E+06
           23136     16.4473E+06     53.0859E+06              0.    -2.05468E+06
           23137     15.4368E+06     53.3467E+06              0.    -2.08798E+06
           23138     14.4112E+06     53.6025E+06              0.    -2.12140E+06
           23139     13.3704E+06     53.8528E+06              0.    -2.15492E+06
           23140     12.3143E+06     54.0971E+06              0.    -2.18853E+06
           23141     11.2431E+06     54.3347E+06              0.    -2.22220E+06
           23142     10.1568E+06     54.5652E+06              0.    -2.25590E+06
           23143     9.05535E+06     54.7879E+06              0.    -2.28962E+06
           23144     7.93885E+06     55.0023E+06              0.    -2.32333E+06
           23145     6.80735E+06     55.2076E+06              0.    -2.35700E+06
           23146     5.66094E+06     55.4032E+06              0.    -2.39061E+06
           23147     4.49969E+06     55.5884E+06              0.    -2.42413E+06
           23148     3.32371E+06     55.7625E+06              0.    -2.45753E+06
           23149     2.13312E+06     55.9247E+06              0.    -2.49077E+06
           23150     928.049E+03     56.0743E+06              0.    -2.52383E+06
           23151    -291.354E+03     56.2103E+06              0.    -2.55667E+06
           23152    -1.52493E+06     56.3321E+06              0.    -2.58926E+06
           23153    -2.77249E+06     56.4387E+06              0.    -2.62156E+06
           23154    -4.03385E+06     56.5292E+06              0.    -2.65354E+06
           23155    -5.30879E+06     56.6027E+06              0.    -2.68516E+06
           23156    -6.59708E+06     56.6582E+06              0.    -2.71638E+06
           23157    -7.89847E+06     56.6947E+06              0.    -2.74715E+06
           23158    -9.21270E+06     56.7112E+06              0.    -2.77744E+06
           23159    -10.5395E+06     56.7066E+06              0.    -2.80721E+06
           23160    -11.8785E+06     56.6799E+06              0.    -2.83640E+06
           23161    -13.2294E+06     56.6298E+06              0.    -2.86499E+06
           23162    -14.5919E+06     56.5552E+06              0.    -2.89290E+06
           23163    -15.9657E+06     56.4549E+06              0.    -2.92012E+06
           23164    -17.3502E+06     56.3278E+06              0.    -2.94657E+06
           23165    -18.7452E+06     56.1724E+06              0.    -2.97222E+06
           23166    -20.1501E+06     55.9875E+06              0.    -2.99701E+06
           23167    -21.5646E+06     55.7717E+06              0.    -3.02089E+06
           23168    -22.9882E+06     55.5237E+06              0.    -3.04381E+06
           23169    -24.4203E+06     55.2421E+06              0.    -3.06571E+06
           23170    -25.8605E+06     54.9253E+06              0.    -3.08655E+06
           23171    -27.3083E+06     54.5719E+06              0.    -3.10626E+06
           23172    -28.7629E+06     54.1805E+06              0.    -3.12479E+06
           23173    -30.2240E+06     53.7493E+06              0.    -3.14208E+06
           23174    -31.6908E+06     53.2769E+06              0.    -3.15808E+06
           23175    -33.1628E+06     52.7616E+06              0.    -3.17273E+06
           23176    -34.6392E+06     52.2017E+06              0.    -3.18597E+06
           23177    -36.1195E+06     51.5955E+06              0.    -3.19773E+06
           23178    -37.6028E+06     50.9413E+06              0.    -3.20797E+06
           23179    -39.0886E+06     50.2374E+06              0.    -3.21663E+06
           23180    -40.5759E+06      49.482E+06              0.    -3.22363E+06
           23181    -42.0641E+06     48.6732E+06              0.    -3.22893E+06
           23182    -43.5524E+06     47.8091E+06              0.    -3.23246E+06
           23183    -45.0399E+06     46.8880E+06              0.    -3.23417E+06
           23184    -46.5258E+06     45.9079E+06              0.    -3.23399E+06
           23185    -48.0092E+06     44.8668E+06              0.    -3.23186E+06
           23186    -49.4893E+06     43.7628E+06              0.    -3.22774E+06
           23187    -50.9650E+06     42.5939E+06              0.    -3.22155E+06
           23188    -52.4356E+06     41.3581E+06              0.    -3.21324E+06
           23189    -53.9000E+06     40.0533E+06              0.    -3.20275E+06
           23190    -55.3572E+06     38.6777E+06              0.    -3.19003E+06
           23191    -56.8062E+06     37.2289E+06              0.    -3.17501E+06
           23192    -58.2460E+06     35.7051E+06              0.    -3.15766E+06
           23193    -59.6756E+06     34.1041E+06              0.    -3.13791E+06
           23194    -61.0938E+06     32.4238E+06              0.     -3.1157E+06
           23195    -62.4996E+06     30.6620E+06              0.    -3.09099E+06
           23196    -63.8919E+06     28.8167E+06              0.    -3.06373E+06
           23197    -65.2694E+06     26.8858E+06              0.    -3.03386E+06
           23198    -66.6311E+06     24.8670E+06              0.    -3.00135E+06
           23199    -67.9758E+06     22.7583E+06              0.    -2.96614E+06
           23200    -69.3021E+06     20.5576E+06              0.    -2.92819E+06
           23201    -70.6090E+06     18.2627E+06              0.    -2.88745E+06
           23202    -71.8952E+06     15.8715E+06              0.    -2.84388E+06
           23203    -73.1593E+06     13.3819E+06              0.    -2.79745E+06
           23204    -74.4001E+06     10.7917E+06              0.    -2.74812E+06
           23205    -75.6162E+06     8.09902E+06              0.    -2.69584E+06
           23206    -76.8064E+06     5.30159E+06              0.    -2.64059E+06
           23207    -77.9692E+06     2.39742E+06              0.    -2.58232E+06
           23208    -79.1033E+06    -615.505E+03              0.    -2.52102E+06
           23209    -80.2073E+06    -3.73925E+06              0.    -2.45664E+06
           23210    -81.2796E+06    -6.97575E+06              0.    -2.38916E+06
           23211    -82.3189E+06    -10.3270E+06              0.    -2.31856E+06
           23212    -83.3238E+06    -13.7950E+06              0.    -2.24481E+06
           23213    -84.2925E+06    -17.3816E+06              0.    -2.16788E+06
           23214    -85.2237E+06    -21.0886E+06              0.    -2.08776E+06
           23215    -86.1158E+06    -24.9180E+06              0.    -2.00442E+06
           23216    -86.9672E+06    -28.8715E+06              0.    -1.91784E+06
           23217    -87.7763E+06    -32.9509E+06              0.    -1.82801E+06
           23218    -88.5414E+06    -37.1580E+06              0.    -1.73491E+06
           23219    -90.1464E+06    -41.9201E+06              0.    -1.69012E+06
           23220     63.5694E+06     27.9195E+06              0.    -80.1191E+03
           23221     63.5908E+06     28.1555E+06              0.    -79.9689E+03
           23222     63.5110E+06     28.3423E+06              0.    -78.8922E+03
           23223     63.4322E+06     28.5240E+06              0.    -77.9745E+03
           23224     63.3541E+06     28.7008E+06              0.    -77.2117E+03
           23225     63.2768E+06     28.8730E+06              0.    -76.5995E+03
           23226     63.1999E+06     29.0409E+06              0.    -76.1341E+03
           23227     63.1234E+06     29.2045E+06              0.    -75.8117E+03
           23228     63.0471E+06     29.3643E+06              0.    -75.6289E+03
           23229     62.9709E+06     29.5203E+06              0.    -75.5823E+03
           23230     62.8947E+06     29.6727E+06              0.    -75.6687E+03
           23231     62.8182E+06     29.8219E+06              0.    -75.8852E+03
           23232     62.7414E+06     29.9678E+06              0.    -76.2288E+03
           23233     62.6641E+06     30.1108E+06              0.    -76.6970E+03
           23234     62.5863E+06     30.2511E+06              0.    -77.2873E+03
           23235     62.5078E+06     30.3887E+06              0.    -77.9972E+03
           23236     62.4284E+06     30.5238E+06              0.    -78.8246E+03
           23237     62.3481E+06     30.6567E+06              0.    -79.7674E+03
           23238     62.2668E+06     30.7875E+06              0.    -80.8237E+03
           23239     62.1842E+06     30.9164E+06              0.    -81.9917E+03
           23240     62.1004E+06     31.0434E+06              0.    -83.2697E+03
           23241     62.0152E+06     31.1687E+06              0.    -84.6562E+03
           23242     61.9285E+06     31.2926E+06              0.    -86.1498E+03
           23243     61.8402E+06     31.4150E+06              0.    -87.7492E+03
           23244     61.7501E+06     31.5362E+06              0.    -89.4532E+03
           23245     61.6583E+06     31.6563E+06              0.    -91.2607E+03
           23246     61.5645E+06     31.7754E+06              0.    -93.1709E+03
           23247     61.4687E+06     31.8937E+06              0.    -95.1827E+03
           23248     61.3707E+06     32.0112E+06              0.    -97.2957E+03
           23249     61.2705E+06     32.1281E+06              0.    -99.5090E+03
           23250     61.1680E+06     32.2445E+06              0.    -101.822E+03
           23251     61.0631E+06     32.3605E+06              0.    -104.235E+03
           23252     60.9556E+06     32.4762E+06              0.    -106.746E+03
           23253     60.8454E+06     32.5917E+06              0.    -109.357E+03
           23254     60.7326E+06     32.7072E+06              0.    -112.066E+03
           23255     60.6169E+06     32.8227E+06              0.    -114.873E+03
           23256     60.4983E+06     32.9384E+06              0.    -117.779E+03
           23257     60.3766E+06     33.0543E+06              0.    -120.784E+03
           23258     60.2518E+06     33.1705E+06              0.    -123.887E+03
           23259     60.1238E+06     33.2871E+06              0.    -127.090E+03
           23260     59.9924E+06     33.4043E+06              0.    -130.391E+03
           23261     59.8576E+06     33.5221E+06              0.    -133.793E+03
           23262     59.7193E+06     33.6405E+06              0.    -137.294E+03
           23263     59.5774E+06     33.7598E+06              0.    -140.896E+03
           23264     59.4317E+06     33.8799E+06              0.    -144.600E+03
           23265     59.2822E+06     34.0010E+06              0.    -148.405E+03
           23266     59.1287E+06     34.1231E+06              0.    -152.313E+03
           23267     58.9712E+06     34.2463E+06              0.    -156.325E+03
           23268     58.8096E+06     34.3706E+06              0.    -160.440E+03
           23269     58.6437E+06     34.4963E+06              0.    -164.661E+03
           23270     58.4735E+06     34.6233E+06              0.    -168.988E+03
           23271     58.2988E+06     34.7517E+06              0.    -173.423E+03
           23272     58.1196E+06     34.8816E+06              0.    -177.965E+03
           23273     57.9357E+06     35.0130E+06              0.    -182.617E+03
           23274     57.7469E+06     35.1461E+06              0.    -187.379E+03
           23275     57.5534E+06     35.2808E+06              0.    -192.253E+03
           23276     57.3548E+06     35.4174E+06              0.    -197.240E+03
           23277     57.1510E+06     35.5557E+06              0.    -202.341E+03
           23278     56.9421E+06     35.6959E+06              0.    -207.558E+03
           23279     56.7278E+06     35.8381E+06              0.    -212.892E+03
           23280     56.5080E+06     35.9823E+06              0.    -218.344E+03
           23281     56.2827E+06     36.1286E+06              0.    -223.916E+03
           23282     56.0517E+06     36.2770E+06              0.    -229.610E+03
           23283     55.8149E+06     36.4275E+06              0.    -235.427E+03
           23284     55.5721E+06     36.5804E+06              0.    -241.368E+03
           23285     55.3232E+06     36.7355E+06              0.    -247.435E+03
           23286     55.0682E+06     36.8929E+06              0.    -253.631E+03
           23287     54.8069E+06     37.0528E+06              0.    -259.955E+03
           23288     54.5391E+06     37.2151E+06              0.    -266.411E+03
           23289     54.2648E+06     37.3800E+06              0.    -273.000E+03
           23290     53.9838E+06     37.5473E+06              0.    -279.723E+03
           23291     53.6959E+06     37.7173E+06              0.    -286.582E+03
           23292     53.4011E+06     37.8899E+06              0.    -293.579E+03
           23293     53.0992E+06     38.0651E+06              0.    -300.717E+03
           23294     52.7901E+06     38.2431E+06              0.    -307.995E+03
           23295     52.4736E+06     38.4239E+06              0.    -315.417E+03
           23296     52.1496E+06     38.6074E+06              0.    -322.984E+03
           23297     51.8179E+06     38.7938E+06              0.    -330.698E+03
           23298     51.4785E+06     38.9830E+06              0.    -338.561E+03
           23299     51.1311E+06     39.1751E+06              0.    -346.574E+03
           23300     50.7757E+06     39.3702E+06              0.    -354.740E+03
           23301     50.4121E+06     39.5681E+06              0.    -363.059E+03
           23302     50.0401E+06     39.7691E+06              0.    -371.534E+03
           23303     49.6595E+06     39.9730E+06              0.    -380.166E+03
           23304     49.2703E+06     40.1799E+06              0.    -388.958E+03
           23305     48.8723E+06     40.3899E+06              0.    -397.910E+03
           23306     48.4654E+06     40.6029E+06              0.    -407.025E+03
           23307     48.0493E+06     40.8189E+06              0.    -416.303E+03
           23308     47.6239E+06      41.038E+06              0.    -425.748E+03
           23309     47.1892E+06     41.2601E+06              0.    -435.359E+03
           23310     46.7448E+06     41.4853E+06              0.    -445.139E+03
           23311     46.2907E+06     41.7135E+06              0.    -455.088E+03
           23312     45.8267E+06     41.9448E+06              0.    -465.210E+03
           23313     45.3526E+06     42.1791E+06              0.    -475.503E+03
           23314     44.8684E+06     42.4164E+06              0.    -485.971E+03
           23315     44.3737E+06     42.6566E+06              0.    -496.613E+03
           23316     43.8686E+06     42.8999E+06              0.    -507.431E+03
           23317     43.3527E+06     43.1460E+06              0.    -518.426E+03
           23318     42.8260E+06     43.3951E+06              0.    -529.599E+03
           23319     42.2883E+06     43.6470E+06              0.    -540.951E+03
           23320     41.7394E+06     43.9017E+06              0.    -552.481E+03
           23321     41.1792E+06     44.1591E+06              0.    -564.192E+03
           23322     40.6075E+06     44.4193E+06              0.    -576.082E+03
           23323     40.0241E+06     44.6821E+06              0.    -588.154E+03
           23324     39.4289E+06     44.9474E+06              0.    -600.405E+03
           23325     38.8218E+06     45.2152E+06              0.    -612.837E+03
           23326     38.2025E+06     45.4854E+06              0.    -625.450E+03
           23327     37.5710E+06     45.7579E+06              0.    -638.242E+03
           23328     36.9270E+06     46.0326E+06              0.    -651.215E+03
           23329     36.2704E+06     46.3094E+06              0.    -664.366E+03
           23330     35.6011E+06     46.5882E+06              0.    -677.695E+03
           23331     34.9190E+06     46.8688E+06              0.    -691.201E+03
           23332     34.2237E+06     47.1511E+06              0.    -704.882E+03
           23333     33.5154E+06     47.4350E+06              0.    -718.738E+03
           23334     32.7936E+06     47.7202E+06              0.    -732.766E+03
           23335     32.0585E+06     48.0067E+06              0.    -746.965E+03
           23336     31.3097E+06     48.2943E+06              0.    -761.332E+03
           23337     30.5472E+06     48.5827E+06              0.    -775.864E+03
           23338     29.7709E+06     48.8718E+06              0.    -790.559E+03
           23339     28.9805E+06     49.1614E+06              0.    -805.414E+03
           23340     28.1761E+06     49.4512E+06              0.    -820.425E+03
           23341     27.3575E+06     49.7410E+06              0.    -835.589E+03
           23342     26.5245E+06     50.0305E+06              0.    -850.902E+03
           23343     25.6771E+06     50.3195E+06              0.    -866.359E+03
           23344     24.8151E+06     50.6076E+06              0.    -881.955E+03
           23345     23.9385E+06     50.8947E+06              0.    -897.687E+03
           23346     23.0472E+06     51.1804E+06              0.    -913.547E+03
           23347     22.1411E+06     51.4643E+06              0.    -929.531E+03
           23348     21.2201E+06     51.7461E+06              0.    -945.632E+03
           23349     20.2842E+06     52.0254E+06              0.    -961.844E+03
           23350     19.3333E+06     52.3020E+06              0.    -978.159E+03
           23351     18.3673E+06     52.5752E+06              0.    -994.570E+03
           23352     17.3861E+06     52.8448E+06              0.    -1.01107E+06
           23353     16.3899E+06     53.1104E+06              0.    -1.02765E+06
           23354     15.3785E+06     53.3713E+06              0.    -1.04430E+06
           23355     14.3519E+06     53.6272E+06              0.    -1.06101E+06
           23356     13.3101E+06     53.8776E+06              0.    -1.07777E+06
           23357     12.2531E+06     54.1219E+06              0.    -1.09458E+06
           23358     11.1810E+06     54.3597E+06              0.    -1.11141E+06
           23359     10.0937E+06     54.5902E+06              0.    -1.12826E+06
           23360     8.99127E+06     54.8129E+06              0.    -1.14512E+06
           23361     7.87381E+06     55.0273E+06              0.    -1.16198E+06
           23362     6.74135E+06     55.2326E+06              0.    -1.17882E+06
           23363     5.59397E+06     55.4282E+06              0.    -1.19562E+06
           23364     4.43177E+06     55.6133E+06              0.    -1.21238E+06
           23365     3.25483E+06     55.7874E+06              0.    -1.22908E+06
           23366     2.06328E+06     55.9495E+06              0.    -1.24570E+06
           23367     857.263E+03     56.0989E+06              0.    -1.26223E+06
           23368    -363.088E+03     56.2349E+06              0.    -1.27865E+06
           23369    -1.59760E+06     56.3565E+06              0.    -1.29494E+06
           23370    -2.84610E+06     56.4629E+06              0.    -1.31109E+06
           23371    -4.10839E+06     56.5532E+06              0.    -1.32708E+06
           23372    -5.38426E+06     56.6265E+06              0.    -1.34289E+06
           23373    -6.67346E+06     56.6817E+06              0.    -1.35849E+06
           23374    -7.97576E+06     56.7180E+06              0.    -1.37388E+06
           23375    -9.29088E+06     56.7342E+06              0.    -1.38902E+06
           23376    -10.6185E+06     56.7292E+06              0.    -1.40390E+06
           23377    -11.9584E+06     56.7021E+06              0.    -1.41850E+06
           23378    -13.3102E+06     56.6516E+06              0.    -1.43278E+06
           23379    -14.6736E+06     56.5766E+06              0.    -1.44674E+06
           23380    -16.0481E+06     56.4759E+06              0.    -1.46034E+06
           23381    -17.4335E+06     56.3483E+06              0.    -1.47356E+06
           23382    -18.8293E+06     56.1924E+06              0.    -1.48638E+06
           23383    -20.2350E+06     56.0069E+06              0.    -1.49877E+06
           23384    -21.6503E+06     55.7906E+06              0.    -1.51071E+06
           23385    -23.0746E+06     55.5420E+06              0.    -1.52216E+06
           23386    -24.5074E+06     55.2597E+06              0.    -1.53311E+06
           23387    -25.9483E+06     54.9422E+06              0.    -1.54352E+06
           23388    -27.3967E+06     54.5882E+06              0.    -1.55337E+06
           23389    -28.8521E+06     54.1959E+06              0.    -1.56263E+06
           23390    -30.3137E+06     53.7640E+06              0.    -1.57127E+06
           23391    -31.7812E+06     53.2907E+06              0.    -1.57926E+06
           23392    -33.2537E+06     52.7746E+06              0.    -1.58658E+06
           23393    -34.7307E+06     52.2138E+06              0.    -1.59319E+06
           23394    -36.2115E+06     51.6067E+06              0.    -1.59907E+06
           23395    -37.6953E+06     50.9516E+06              0.    -1.60418E+06
           23396    -39.1815E+06     50.2467E+06              0.    -1.60850E+06
           23397    -40.6693E+06     49.4902E+06              0.    -1.61199E+06
           23398    -42.1579E+06     48.6804E+06              0.    -1.61464E+06
           23399    -43.6465E+06     47.8152E+06              0.    -1.61639E+06
           23400    -45.1343E+06     46.8930E+06              0.    -1.61724E+06
           23401    -46.6205E+06     45.9116E+06              0.    -1.61714E+06
           23402    -48.1042E+06     44.8694E+06              0.    -1.61607E+06
           23403    -49.5845E+06     43.7641E+06              0.    -1.61400E+06
           23404    -51.0604E+06     42.5940E+06              0.    -1.61089E+06
           23405    -52.5311E+06     41.3569E+06              0.    -1.60673E+06
           23406    -53.9956E+06     40.0509E+06              0.    -1.60148E+06
           23407    -55.4529E+06     38.6739E+06              0.    -1.59511E+06
           23408    -56.9020E+06     37.2238E+06              0.    -1.58760E+06
           23409    -58.3418E+06     35.6986E+06              0.    -1.57891E+06
           23410    -59.7713E+06     34.0961E+06              0.    -1.56902E+06
           23411    -61.1895E+06     32.4143E+06              0.    -1.55791E+06
           23412    -62.5951E+06     30.6511E+06              0.    -1.54555E+06
           23413    -63.9872E+06     28.8044E+06              0.    -1.53191E+06
           23414    -65.3646E+06     26.8719E+06              0.    -1.51697E+06
           23415    -66.7260E+06     24.8516E+06              0.    -1.50071E+06
           23416    -68.0704E+06     22.7414E+06              0.    -1.48309E+06
           23417    -69.3964E+06     20.5391E+06              0.    -1.46411E+06
           23418    -70.7030E+06     18.2427E+06              0.    -1.44374E+06
           23419    -71.9887E+06     15.8499E+06              0.    -1.42195E+06
           23420    -73.2524E+06     13.3587E+06              0.    -1.39872E+06
           23421    -74.4927E+06     10.7669E+06              0.    -1.37405E+06
           23422    -75.7083E+06     8.07256E+06              0.    -1.34790E+06
           23423    -76.8979E+06     5.27350E+06              0.    -1.32027E+06
           23424    -78.0601E+06     2.36769E+06              0.    -1.29113E+06
           23425    -79.1936E+06    -646.871E+03              0.    -1.26048E+06
           23426    -80.2968E+06    -3.77226E+06              0.    -1.22828E+06
           23427    -81.3685E+06    -7.01041E+06              0.    -1.19454E+06
           23428    -82.4070E+06    -10.3634E+06              0.    -1.15923E+06
           23429    -83.4110E+06    -13.8330E+06              0.    -1.12235E+06
           23430    -84.3790E+06    -17.4212E+06              0.    -1.08388E+06
           23431    -85.3093E+06    -21.1299E+06              0.    -1.04382E+06
           23432    -86.2005E+06    -24.9609E+06              0.    -1.00214E+06
           23433    -87.0509E+06    -28.9161E+06              0.    -958.850E+03
           23434    -87.8590E+06    -32.9972E+06              0.    -913.931E+03
           23435     -88.623E+06    -37.2059E+06              0.    -867.377E+03
           23436    -90.2280E+06    -41.9696E+06              0.    -844.976E+03
           23437     63.5679E+06     27.9189E+06              0.    -976.563E-06
           23438     63.5893E+06     28.1549E+06              0.    -244.141E-06
           23439     63.5094E+06     28.3418E+06              0.     244.141E-06
           23440     63.4305E+06     28.5235E+06              0.    -122.070E-06
           23441     63.3525E+06     28.7005E+06              0.     488.281E-06
           23442     63.2751E+06     28.8727E+06              0.     122.070E-06
           23443     63.1982E+06     29.0407E+06              0.     366.211E-06
           23444     63.1217E+06     29.2044E+06              0.    -122.070E-06
           23445     63.0453E+06     29.3642E+06              0.              0.
           23446     62.9691E+06     29.5203E+06              0.     854.492E-06
           23447     62.8928E+06     29.6728E+06              0.    -244.141E-06
           23448     62.8163E+06     29.8220E+06              0.    -610.352E-06
           23449     62.7395E+06     29.9680E+06              0.     366.211E-06
           23450     62.6622E+06     30.1111E+06              0.     610.352E-06
           23451     62.5843E+06     30.2514E+06              0.     732.422E-06
           23452     62.5057E+06     30.3890E+06              0.    -244.141E-06
           23453     62.4263E+06     30.5243E+06              0.     244.141E-06
           23454     62.3460E+06     30.6572E+06              0.    -244.141E-06
           23455     62.2646E+06     30.7881E+06              0.     976.563E-06
           23456     62.1821E+06     30.9169E+06              0.              0.
           23457     62.0982E+06     31.0440E+06              0.     732.422E-06
           23458     62.0130E+06     31.1694E+06              0.     244.141E-06
           23459     61.9262E+06     31.2933E+06              0.    -244.141E-06
           23460     61.8379E+06     31.4158E+06              0.     976.563E-06
           23461     61.7478E+06     31.5371E+06              0.              0.
           23462     61.6559E+06     31.6572E+06              0.    -488.281E-06
           23463     61.5621E+06     31.7764E+06              0.              0.
           23464     61.4662E+06     31.8947E+06              0.     488.281E-06
           23465     61.3682E+06     32.0122E+06              0.              0.
           23466     61.2680E+06     32.1292E+06              0.    -976.563E-06
           23467     61.1654E+06     32.2456E+06              0.              0.
           23468     61.0604E+06     32.3616E+06              0.     488.281E-06
           23469     60.9529E+06     32.4774E+06              0.     488.281E-06
           23470     60.8427E+06     32.5930E+06              0.     488.281E-06
           23471     60.7298E+06     32.7085E+06              0.     488.281E-06
           23472     60.6141E+06     32.8241E+06              0.    -1.46484E-03
           23473     60.4954E+06     32.9398E+06              0.    -488.281E-06
           23474     60.3737E+06     33.0557E+06              0.              0.
           23475     60.2488E+06     33.1720E+06              0.     976.563E-06
           23476     60.1208E+06     33.2887E+06              0.     976.563E-06
           23477     59.9893E+06     33.4059E+06              0.     976.563E-06
           23478     59.8545E+06     33.5237E+06              0.              0.
           23479     59.7161E+06     33.6423E+06              0.    -1.95313E-03
           23480     59.5741E+06     33.7616E+06              0.     976.563E-06
           23481     59.4284E+06     33.8817E+06              0.    -1.95313E-03
           23482     59.2788E+06     34.0028E+06              0.              0.
           23483     59.1253E+06     34.1250E+06              0.    -976.563E-06
           23484     58.9678E+06     34.2482E+06              0.     1.95313E-03
           23485     58.8061E+06     34.3727E+06              0.    -1.95313E-03
           23486     58.6401E+06     34.4984E+06              0.              0.
           23487     58.4698E+06     34.6254E+06              0.    -976.563E-06
           23488     58.2951E+06     34.7539E+06              0.              0.
           23489     58.1157E+06     34.8838E+06              0.              0.
           23490     57.9317E+06     35.0153E+06              0.              0.
           23491     57.7429E+06     35.1484E+06              0.     976.563E-06
           23492     57.5493E+06     35.2832E+06              0.              0.
           23493     57.3506E+06     35.4198E+06              0.     1.95313E-03
           23494     57.1468E+06     35.5582E+06              0.              0.
           23495     56.9378E+06     35.6985E+06              0.              0.
           23496     56.7234E+06     35.8407E+06              0.    -976.563E-06
           23497     56.5035E+06     35.9850E+06              0.              0.
           23498     56.2781E+06     36.1313E+06              0.              0.
           23499      56.047E+06     36.2798E+06              0.              0.
           23500     55.8101E+06     36.4304E+06              0.              0.
           23501     55.5672E+06     36.5833E+06              0.              0.
           23502     55.3183E+06     36.7385E+06              0.     3.90625E-03
           23503     55.0631E+06     36.8960E+06              0.     1.95313E-03
           23504     54.8017E+06     37.0559E+06              0.     1.95313E-03
           23505     54.5338E+06     37.2183E+06              0.    -1.95313E-03
           23506     54.2594E+06     37.3832E+06              0.              0.
           23507     53.9782E+06     37.5506E+06              0.     1.95313E-03
           23508     53.6903E+06     37.7206E+06              0.              0.
           23509     53.3953E+06     37.8933E+06              0.              0.
           23510     53.0933E+06     38.0686E+06              0.    -3.90625E-03
           23511     52.7841E+06     38.2467E+06              0.     1.95313E-03
           23512     52.4674E+06     38.4275E+06              0.    -3.90625E-03
           23513     52.1433E+06     38.6111E+06              0.    -1.95313E-03
           23514     51.8115E+06     38.7976E+06              0.     1.95313E-03
           23515     51.4720E+06     38.9869E+06              0.     1.95313E-03
           23516     51.1245E+06     39.1791E+06              0.     1.95313E-03
           23517     50.7689E+06     39.3742E+06              0.              0.
           23518     50.4051E+06     39.5722E+06              0.     3.90625E-03
           23519     50.0329E+06     39.7732E+06              0.              0.
           23520     49.6523E+06     39.9772E+06              0.     1.95313E-03
           23521     49.2629E+06     40.1843E+06              0.     3.90625E-03
           23522     48.8648E+06     40.3943E+06              0.              0.
           23523     48.4576E+06     40.6074E+06              0.     3.90625E-03
           23524     48.0414E+06     40.8235E+06              0.    -3.90625E-03
           23525     47.6159E+06     41.0426E+06              0.      7.8125E-03
           23526     47.1809E+06     41.2648E+06              0.              0.
           23527     46.7364E+06     41.4901E+06              0.              0.
           23528     46.2821E+06     41.7184E+06              0.    -3.90625E-03
           23529     45.8179E+06     41.9498E+06              0.              0.
           23530     45.3437E+06     42.1841E+06              0.    -3.90625E-03
           23531     44.8592E+06     42.4215E+06              0.    -3.90625E-03
           23532     44.3644E+06     42.6618E+06              0.              0.
           23533     43.8590E+06     42.9052E+06              0.     -7.8125E-03
           23534     43.3430E+06     43.1514E+06              0.     3.90625E-03
           23535     42.8161E+06     43.4006E+06              0.     3.90625E-03
           23536     42.2782E+06     43.6525E+06              0.              0.
           23537     41.7290E+06     43.9073E+06              0.     3.90625E-03
           23538     41.1686E+06     44.1649E+06              0.     3.90625E-03
           23539     40.5967E+06     44.4251E+06              0.              0.
           23540     40.0131E+06     44.6880E+06              0.    -3.90625E-03
           23541     39.4177E+06     44.9534E+06              0.              0.
           23542     38.8103E+06     45.2213E+06              0.     -7.8125E-03
           23543     38.1908E+06     45.4916E+06              0.     11.7188E-03
           23544     37.5591E+06     45.7642E+06              0.    -3.90625E-03
           23545     36.9149E+06     46.0390E+06              0.    -3.90625E-03
           23546     36.2581E+06     46.3159E+06              0.    -11.7188E-03
           23547     35.5885E+06     46.5947E+06              0.     3.90625E-03
           23548     34.9061E+06     46.8754E+06              0.     -7.8125E-03
           23549     34.2106E+06     47.1578E+06              0.     3.90625E-03
           23550     33.5020E+06     47.4418E+06              0.              0.
           23551     32.7800E+06     47.7271E+06              0.    -3.90625E-03
           23552     32.0446E+06     48.0137E+06              0.              0.
           23553     31.2955E+06     48.3013E+06              0.      7.8125E-03
           23554     30.5328E+06     48.5899E+06              0.     -7.8125E-03
           23555     29.7562E+06     48.8790E+06              0.              0.
           23556     28.9655E+06     49.1687E+06              0.     -15.625E-03
           23557     28.1608E+06     49.4586E+06              0.              0.
           23558     27.3419E+06     49.7484E+06              0.      7.8125E-03
           23559     26.5086E+06      50.038E+06              0.      7.8125E-03
           23560     25.6609E+06     50.3271E+06              0.      7.8125E-03
           23561     24.7987E+06     50.6153E+06              0.              0.
           23562     23.9218E+06     50.9024E+06              0.      7.8125E-03
           23563     23.0302E+06     51.1882E+06              0.     -7.8125E-03
           23564     22.1238E+06     51.4721E+06              0.              0.
           23565     21.2025E+06      51.754E+06              0.      7.8125E-03
           23566     20.2663E+06     52.0334E+06              0.              0.
           23567     19.3150E+06     52.3100E+06              0.      15.625E-03
           23568     18.3487E+06     52.5833E+06              0.      7.8125E-03
           23569     17.3673E+06     52.8530E+06              0.      15.625E-03
           23570     16.3708E+06     53.1185E+06              0.      15.625E-03
           23571     15.3590E+06     53.3795E+06              0.              0.
           23572     14.3321E+06     53.6355E+06              0.     -15.625E-03
           23573     13.2900E+06     53.8859E+06              0.      7.8125E-03
           23574     12.2327E+06     54.1302E+06              0.      7.8125E-03
           23575     11.1602E+06     54.3680E+06              0.      15.625E-03
           23576     10.0726E+06     54.5985E+06              0.     -7.8125E-03
           23577     8.96991E+06     54.8213E+06              0.              0.
           23578     7.85212E+06     55.0356E+06              0.              0.
           23579     6.71935E+06     55.2409E+06              0.      15.625E-03
           23580     5.57165E+06     55.4365E+06              0.     -15.625E-03
           23581     4.40912E+06     55.6216E+06              0.      7.8125E-03
           23582     3.23187E+06     55.7956E+06              0.     -7.8125E-03
           23583     2.04000E+06     55.9577E+06              0.      7.8125E-03
           23584     833.665E+03     56.1072E+06              0.              0.
           23585    -387.001E+03     56.2431E+06              0.              0.
           23586    -1.62183E+06     56.3646E+06              0.              0.
           23587    -2.87064E+06      56.471E+06              0.     -15.625E-03
           23588    -4.13324E+06     56.5612E+06              0.              0.
           23589    -5.40941E+06     56.6344E+06              0.      15.625E-03
           23590    -6.69892E+06     56.6896E+06              0.     -15.625E-03
           23591    -8.00152E+06     56.7257E+06              0.              0.
           23592    -9.31694E+06     56.7418E+06              0.     -15.625E-03
           23593    -10.6449E+06     56.7368E+06              0.      15.625E-03
           23594    -11.9851E+06     56.7095E+06              0.              0.
           23595    -13.3372E+06     56.6589E+06              0.     -15.625E-03
           23596    -14.7008E+06     56.5838E+06              0.      15.625E-03
           23597    -16.0756E+06     56.4829E+06              0.              0.
           23598    -17.4613E+06     56.3551E+06              0.              0.
           23599    -18.8573E+06     56.1990E+06              0.     -15.625E-03
           23600    -20.2633E+06     56.0134E+06              0.      15.625E-03
           23601    -21.6788E+06     55.7969E+06              0.     -15.625E-03
           23602    -23.1034E+06     55.5480E+06              0.      15.625E-03
           23603    -24.5365E+06     55.2655E+06              0.              0.
           23604    -25.9776E+06     54.9479E+06              0.     -15.625E-03
           23605    -27.4262E+06     54.5936E+06              0.              0.
           23606    -28.8818E+06     54.2011E+06              0.              0.
           23607    -30.3437E+06     53.7689E+06              0.              0.
           23608    -31.8113E+06     53.2954E+06              0.      15.625E-03
           23609    -33.2840E+06     52.7789E+06              0.      15.625E-03
           23610    -34.7612E+06     52.2178E+06              0.       31.25E-03
           23611    -36.2421E+06     51.6104E+06              0.      15.625E-03
           23612    -37.7261E+06      50.955E+06              0.              0.
           23613    -39.2124E+06     50.2498E+06              0.     -15.625E-03
           23614    -40.7004E+06     49.4930E+06              0.       31.25E-03
           23615    -42.1891E+06     48.6827E+06              0.       31.25E-03
           23616    -43.6778E+06     47.8172E+06              0.      15.625E-03
           23617    -45.1658E+06     46.8946E+06              0.     -15.625E-03
           23618    -46.6521E+06     45.9129E+06              0.       31.25E-03
           23619    -48.1358E+06     44.8702E+06              0.              0.
           23620    -49.6162E+06     43.7646E+06              0.              0.
           23621    -51.0922E+06     42.5940E+06              0.     -46.875E-03
           23622    -52.5630E+06     41.3565E+06              0.      46.875E-03
           23623    -54.0275E+06     40.0501E+06              0.              0.
           23624    -55.4848E+06     38.6726E+06              0.      -31.25E-03
           23625    -56.9339E+06     37.2221E+06              0.      -31.25E-03
           23626    -58.3737E+06     35.6964E+06              0.     -15.625E-03
           23627    -59.8032E+06     34.0935E+06              0.              0.
           23628    -61.2213E+06     32.4112E+06              0.     -15.625E-03
           23629    -62.6270E+06     30.6475E+06              0.      46.875E-03
           23630    -64.0190E+06     28.8002E+06              0.      -31.25E-03
           23631    -65.3963E+06     26.8673E+06              0.              0.
           23632    -66.7577E+06     24.8465E+06              0.              0.
           23633    -68.1019E+06     22.7358E+06              0.              0.
           23634    -69.4279E+06     20.5330E+06              0.     -15.625E-03
           23635    -70.7343E+06     18.2360E+06              0.              0.
           23636    -72.0199E+06     15.8426E+06              0.     -15.625E-03
           23637    -73.2834E+06     13.3509E+06              0.      15.625E-03
           23638    -74.5235E+06     10.7586E+06              0.     -15.625E-03
           23639    -75.7390E+06     8.06374E+06              0.              0.
           23640    -76.9284E+06     5.26413E+06              0.     -15.625E-03
           23641    -78.0904E+06     2.35778E+06              0.      15.625E-03
           23642    -79.2236E+06    -657.327E+03              0.       31.25E-03
           23643    -80.3267E+06    -3.78327E+06              0.              0.
           23644    -81.3981E+06    -7.02196E+06              0.              0.
           23645    -82.4364E+06    -10.3755E+06              0.              0.
           23646    -83.4401E+06    -13.8456E+06              0.      -31.25E-03
           23647    -84.4078E+06    -17.4344E+06              0.      -31.25E-03
           23648    -85.3378E+06    -21.1437E+06              0.       31.25E-03
           23649    -86.2287E+06    -24.9752E+06              0.              0.
           23650    -87.0788E+06    -28.9310E+06              0.              0.
           23651    -87.8865E+06    -33.0126E+06              0.       31.25E-03
           23652    -88.6502E+06    -37.2218E+06              0.      -31.25E-03
           23653    -90.2552E+06    -41.9861E+06              0.              0.
           23654     63.5694E+06     27.9196E+06              0.     80.1191E+03
           23655     63.5908E+06     28.1555E+06              0.     79.9689E+03
           23656     63.5110E+06     28.3423E+06              0.     78.8922E+03
           23657     63.4322E+06     28.5240E+06              0.     77.9745E+03
           23658     63.3541E+06     28.7008E+06              0.     77.2117E+03
           23659     63.2768E+06     28.8730E+06              0.     76.5995E+03
           23660     63.1999E+06     29.0409E+06              0.     76.1341E+03
           23661     63.1234E+06     29.2045E+06              0.     75.8117E+03
           23662     63.0471E+06     29.3643E+06              0.     75.6289E+03
           23663     62.9709E+06     29.5203E+06              0.     75.5823E+03
           23664     62.8947E+06     29.6727E+06              0.     75.6687E+03
           23665     62.8182E+06     29.8219E+06              0.     75.8852E+03
           23666     62.7414E+06     29.9678E+06              0.     76.2288E+03
           23667     62.6641E+06     30.1108E+06              0.     76.6970E+03
           23668     62.5863E+06     30.2511E+06              0.     77.2873E+03
           23669     62.5078E+06     30.3887E+06              0.     77.9972E+03
           23670     62.4284E+06     30.5238E+06              0.     78.8246E+03
           23671     62.3481E+06     30.6567E+06              0.     79.7674E+03
           23672     62.2668E+06     30.7875E+06              0.     80.8237E+03
           23673     62.1842E+06     30.9164E+06              0.     81.9917E+03
           23674     62.1004E+06     31.0434E+06              0.     83.2697E+03
           23675     62.0152E+06     31.1687E+06              0.     84.6562E+03
           23676     61.9285E+06     31.2926E+06              0.     86.1498E+03
           23677     61.8402E+06     31.4150E+06              0.     87.7492E+03
           23678     61.7501E+06     31.5362E+06              0.     89.4532E+03
           23679     61.6583E+06     31.6563E+06              0.     91.2607E+03
           23680     61.5645E+06     31.7754E+06              0.     93.1709E+03
           23681     61.4687E+06     31.8937E+06              0.     95.1827E+03
           23682     61.3707E+06     32.0112E+06              0.     97.2957E+03
           23683     61.2705E+06     32.1281E+06              0.     99.5090E+03
           23684     61.1680E+06     32.2445E+06              0.     101.822E+03
           23685     61.0631E+06     32.3605E+06              0.     104.235E+03
           23686     60.9556E+06     32.4762E+06              0.     106.746E+03
           23687     60.8454E+06     32.5917E+06              0.     109.357E+03
           23688     60.7326E+06     32.7072E+06              0.     112.066E+03
           23689     60.6169E+06     32.8227E+06              0.     114.873E+03
           23690     60.4983E+06     32.9384E+06              0.     117.779E+03
           23691     60.3766E+06     33.0543E+06              0.     120.784E+03
           23692     60.2518E+06     33.1705E+06              0.     123.887E+03
           23693     60.1238E+06     33.2871E+06              0.     127.090E+03
           23694     59.9924E+06     33.4043E+06              0.     130.391E+03
           23695     59.8576E+06     33.5221E+06              0.     133.793E+03
           23696     59.7193E+06     33.6405E+06              0.     137.294E+03
           23697     59.5774E+06     33.7598E+06              0.     140.896E+03
           23698     59.4317E+06     33.8799E+06              0.     144.600E+03
           23699     59.2822E+06     34.0010E+06              0.     148.405E+03
           23700     59.1287E+06     34.1231E+06              0.     152.313E+03
           23701     58.9712E+06     34.2463E+06              0.     156.325E+03
           23702     58.8096E+06     34.3706E+06              0.     160.440E+03
           23703     58.6437E+06     34.4963E+06              0.     164.661E+03
           23704     58.4735E+06     34.6233E+06              0.     168.988E+03
           23705     58.2988E+06     34.7517E+06              0.     173.423E+03
           23706     58.1196E+06     34.8816E+06              0.     177.965E+03
           23707     57.9357E+06     35.0130E+06              0.     182.617E+03
           23708     57.7469E+06     35.1461E+06              0.     187.379E+03
           23709     57.5534E+06     35.2808E+06              0.     192.253E+03
           23710     57.3547E+06     35.4174E+06              0.     197.240E+03
           23711     57.1510E+06     35.5557E+06              0.     202.341E+03
           23712     56.9421E+06     35.6959E+06              0.     207.558E+03
           23713     56.7278E+06     35.8381E+06              0.     212.892E+03
           23714     56.5080E+06     35.9823E+06              0.     218.344E+03
           23715     56.2827E+06     36.1286E+06              0.     223.916E+03
           23716     56.0517E+06     36.2770E+06              0.     229.610E+03
           23717     55.8149E+06     36.4275E+06              0.     235.427E+03
           23718     55.5721E+06     36.5804E+06              0.     241.368E+03
           23719     55.3232E+06     36.7355E+06              0.     247.435E+03
           23720     55.0682E+06     36.8929E+06              0.     253.631E+03
           23721     54.8069E+06     37.0528E+06              0.     259.955E+03
           23722     54.5391E+06     37.2151E+06              0.     266.411E+03
           23723     54.2648E+06     37.3800E+06              0.     273.000E+03
           23724     53.9838E+06     37.5473E+06              0.     279.723E+03
           23725     53.6959E+06     37.7173E+06              0.     286.582E+03
           23726     53.4011E+06     37.8899E+06              0.     293.579E+03
           23727     53.0992E+06     38.0651E+06              0.     300.717E+03
           23728     52.7901E+06     38.2431E+06              0.     307.995E+03
           23729     52.4736E+06     38.4239E+06              0.     315.417E+03
           23730     52.1496E+06     38.6074E+06              0.     322.984E+03
           23731     51.8179E+06     38.7938E+06              0.     330.698E+03
           23732     51.4785E+06     38.9830E+06              0.     338.561E+03
           23733     51.1312E+06     39.1751E+06              0.     346.574E+03
           23734     50.7757E+06     39.3702E+06              0.     354.740E+03
           23735     50.4121E+06     39.5681E+06              0.     363.059E+03
           23736     50.0401E+06     39.7691E+06              0.     371.534E+03
           23737     49.6595E+06     39.9730E+06              0.     380.166E+03
           23738     49.2703E+06     40.1799E+06              0.     388.958E+03
           23739     48.8723E+06     40.3899E+06              0.     397.910E+03
           23740     48.4654E+06     40.6029E+06              0.     407.025E+03
           23741     48.0493E+06     40.8189E+06              0.     416.303E+03
           23742     47.6239E+06      41.038E+06              0.     425.748E+03
           23743     47.1892E+06     41.2601E+06              0.     435.359E+03
           23744     46.7448E+06     41.4853E+06              0.     445.139E+03
           23745     46.2907E+06     41.7135E+06              0.     455.088E+03
           23746     45.8267E+06     41.9448E+06              0.     465.210E+03
           23747     45.3526E+06     42.1791E+06              0.     475.503E+03
           23748     44.8684E+06     42.4164E+06              0.     485.971E+03
           23749     44.3737E+06     42.6566E+06              0.     496.613E+03
           23750     43.8686E+06     42.8999E+06              0.     507.431E+03
           23751     43.3527E+06     43.1460E+06              0.     518.426E+03
           23752     42.8260E+06     43.3951E+06              0.     529.599E+03
           23753     42.2883E+06     43.6470E+06              0.     540.951E+03
           23754     41.7394E+06     43.9017E+06              0.     552.481E+03
           23755     41.1792E+06     44.1591E+06              0.     564.192E+03
           23756     40.6075E+06     44.4193E+06              0.     576.082E+03
           23757     40.0241E+06     44.6821E+06              0.     588.154E+03
           23758     39.4289E+06     44.9474E+06              0.     600.405E+03
           23759     38.8218E+06     45.2152E+06              0.     612.837E+03
           23760     38.2025E+06     45.4854E+06              0.     625.450E+03
           23761     37.5710E+06     45.7579E+06              0.     638.242E+03
           23762     36.9270E+06     46.0326E+06              0.     651.215E+03
           23763     36.2704E+06     46.3094E+06              0.     664.366E+03
           23764     35.6011E+06     46.5882E+06              0.     677.695E+03
           23765     34.9190E+06     46.8688E+06              0.     691.201E+03
           23766     34.2237E+06     47.1511E+06              0.     704.882E+03
           23767     33.5154E+06     47.4350E+06              0.     718.738E+03
           23768     32.7936E+06     47.7202E+06              0.     732.766E+03
           23769     32.0585E+06     48.0067E+06              0.     746.965E+03
           23770     31.3097E+06     48.2943E+06              0.     761.332E+03
           23771     30.5472E+06     48.5827E+06              0.     775.864E+03
           23772     29.7709E+06     48.8718E+06              0.     790.559E+03
           23773     28.9805E+06     49.1614E+06              0.     805.414E+03
           23774     28.1761E+06     49.4512E+06              0.     820.425E+03
           23775     27.3575E+06     49.7410E+06              0.     835.589E+03
           23776     26.5245E+06     50.0305E+06              0.     850.902E+03
           23777     25.6771E+06     50.3195E+06              0.     866.359E+03
           23778     24.8151E+06     50.6076E+06              0.     881.956E+03
           23779     23.9385E+06     50.8947E+06              0.     897.687E+03
           23780     23.0472E+06     51.1804E+06              0.     913.547E+03
           23781     22.1411E+06     51.4643E+06              0.     929.531E+03
           23782     21.2201E+06     51.7461E+06              0.     945.632E+03
           23783     20.2842E+06     52.0254E+06              0.     961.844E+03
           23784     19.3333E+06     52.3020E+06              0.     978.159E+03
           23785     18.3673E+06     52.5752E+06              0.      994.57E+03
           23786     17.3861E+06     52.8448E+06              0.     1.01107E+06
           23787     16.3899E+06     53.1104E+06              0.     1.02765E+06
           23788     15.3785E+06     53.3713E+06              0.     1.04430E+06
           23789     14.3519E+06     53.6272E+06              0.     1.06101E+06
           23790     13.3101E+06     53.8776E+06              0.     1.07777E+06
           23791     12.2531E+06     54.1220E+06              0.     1.09458E+06
           23792     11.1810E+06     54.3597E+06              0.     1.11141E+06
           23793     10.0937E+06     54.5902E+06              0.     1.12826E+06
           23794     8.99127E+06     54.8129E+06              0.     1.14513E+06
           23795     7.87381E+06     55.0273E+06              0.     1.16198E+06
           23796     6.74135E+06     55.2326E+06              0.     1.17882E+06
           23797     5.59397E+06     55.4282E+06              0.     1.19562E+06
           23798     4.43177E+06     55.6133E+06              0.     1.21238E+06
           23799     3.25483E+06     55.7873E+06              0.     1.22908E+06
           23800     2.06328E+06     55.9495E+06              0.     1.24570E+06
           23801     857.263E+03     56.0989E+06              0.     1.26223E+06
           23802    -363.088E+03     56.2349E+06              0.     1.27865E+06
           23803    -1.59760E+06     56.3565E+06              0.     1.29494E+06
           23804    -2.84610E+06     56.4629E+06              0.     1.31109E+06
           23805    -4.10839E+06     56.5532E+06              0.     1.32708E+06
           23806    -5.38426E+06     56.6265E+06              0.     1.34289E+06
           23807    -6.67346E+06     56.6817E+06              0.     1.35849E+06
           23808    -7.97576E+06     56.7180E+06              0.     1.37388E+06
           23809    -9.29088E+06     56.7342E+06              0.     1.38902E+06
           23810    -10.6185E+06     56.7292E+06              0.     1.40390E+06
           23811    -11.9584E+06     56.7021E+06              0.     1.41850E+06
           23812    -13.3102E+06     56.6516E+06              0.     1.43278E+06
           23813    -14.6736E+06     56.5766E+06              0.     1.44674E+06
           23814    -16.0481E+06     56.4759E+06              0.     1.46034E+06
           23815    -17.4335E+06     56.3483E+06              0.     1.47356E+06
           23816    -18.8293E+06     56.1924E+06              0.     1.48638E+06
           23817    -20.2350E+06     56.0069E+06              0.     1.49877E+06
           23818    -21.6503E+06     55.7906E+06              0.     1.51071E+06
           23819    -23.0746E+06     55.5420E+06              0.     1.52216E+06
           23820    -24.5074E+06     55.2597E+06              0.     1.53311E+06
           23821    -25.9483E+06     54.9422E+06              0.     1.54352E+06
           23822    -27.3967E+06     54.5882E+06              0.     1.55337E+06
           23823    -28.8521E+06     54.1959E+06              0.     1.56263E+06
           23824    -30.3137E+06     53.7640E+06              0.     1.57127E+06
           23825    -31.7812E+06     53.2907E+06              0.     1.57926E+06
           23826    -33.2537E+06     52.7746E+06              0.     1.58658E+06
           23827    -34.7307E+06     52.2138E+06              0.     1.59319E+06
           23828    -36.2115E+06     51.6067E+06              0.     1.59907E+06
           23829    -37.6953E+06     50.9516E+06              0.     1.60418E+06
           23830    -39.1815E+06     50.2467E+06              0.     1.60850E+06
           23831    -40.6693E+06     49.4902E+06              0.     1.61199E+06
           23832    -42.1579E+06     48.6804E+06              0.     1.61464E+06
           23833    -43.6465E+06     47.8152E+06              0.     1.61639E+06
           23834    -45.1343E+06     46.8930E+06              0.     1.61724E+06
           23835    -46.6205E+06     45.9116E+06              0.     1.61714E+06
           23836    -48.1042E+06     44.8694E+06              0.     1.61607E+06
           23837    -49.5845E+06     43.7641E+06              0.     1.61400E+06
           23838    -51.0604E+06     42.5940E+06              0.     1.61089E+06
           23839    -52.5311E+06     41.3569E+06              0.     1.60673E+06
           23840    -53.9956E+06     40.0509E+06              0.     1.60148E+06
           23841    -55.4529E+06     38.6739E+06              0.     1.59511E+06
           23842    -56.9020E+06     37.2238E+06              0.     1.58760E+06
           23843    -58.3418E+06     35.6986E+06              0.     1.57891E+06
           23844    -59.7713E+06     34.0961E+06              0.     1.56902E+06
           23845    -61.1895E+06     32.4143E+06              0.     1.55791E+06
           23846    -62.5951E+06     30.6511E+06              0.     1.54555E+06
           23847    -63.9872E+06     28.8044E+06              0.     1.53191E+06
           23848    -65.3646E+06     26.8719E+06              0.     1.51697E+06
           23849    -66.7260E+06     24.8516E+06              0.     1.50071E+06
           23850    -68.0704E+06     22.7414E+06              0.     1.48309E+06
           23851    -69.3964E+06     20.5391E+06              0.     1.46411E+06
           23852    -70.7030E+06     18.2427E+06              0.     1.44374E+06
           23853    -71.9887E+06     15.8499E+06              0.     1.42195E+06
           23854    -73.2523E+06     13.3587E+06              0.     1.39872E+06
           23855    -74.4927E+06     10.7669E+06              0.     1.37405E+06
           23856    -75.7083E+06     8.07256E+06              0.     1.34790E+06
           23857    -76.8979E+06     5.27350E+06              0.     1.32027E+06
           23858    -78.0601E+06     2.36769E+06              0.     1.29113E+06
           23859    -79.1936E+06    -646.871E+03              0.     1.26048E+06
           23860    -80.2968E+06    -3.77226E+06              0.     1.22828E+06
           23861    -81.3685E+06    -7.01041E+06              0.     1.19454E+06
           23862    -82.4070E+06    -10.3634E+06              0.     1.15923E+06
           23863    -83.4110E+06    -13.8330E+06              0.     1.12235E+06
           23864    -84.3790E+06    -17.4212E+06              0.     1.08388E+06
           23865    -85.3093E+06    -21.1299E+06              0.     1.04382E+06
           23866    -86.2005E+06    -24.9609E+06              0.     1.00214E+06
           23867    -87.0509E+06    -28.9161E+06              0.     958.850E+03
           23868    -87.8590E+06    -32.9972E+06              0.     913.931E+03
           23869    -88.6230E+06    -37.2059E+06              0.     867.377E+03
           23870    -90.2280E+06    -41.9696E+06              0.     844.976E+03
           23871     63.5741E+06     27.9216E+06              0.     160.171E+03
           23872     63.5955E+06     28.1573E+06              0.     159.871E+03
           23873     63.5158E+06     28.3438E+06              0.     157.718E+03
           23874     63.4371E+06     28.5253E+06              0.     155.884E+03
           23875     63.3591E+06     28.7019E+06              0.     154.359E+03
           23876     63.2819E+06     28.8739E+06              0.     153.135E+03
           23877     63.2051E+06     29.0415E+06              0.     152.205E+03
           23878     63.1287E+06     29.2050E+06              0.     151.560E+03
           23879     63.0525E+06     29.3645E+06              0.     151.195E+03
           23880     62.9764E+06     29.5203E+06              0.     151.101E+03
           23881     62.9002E+06     29.6726E+06              0.     151.274E+03
           23882     62.8239E+06     29.8215E+06              0.     151.707E+03
           23883     62.7472E+06     29.9673E+06              0.     152.394E+03
           23884       62.67E+06     30.1101E+06              0.     153.330E+03
           23885     62.5923E+06     30.2502E+06              0.     154.510E+03
           23886     62.5138E+06     30.3876E+06              0.     155.929E+03
           23887     62.4346E+06     30.5226E+06              0.     157.584E+03
           23888     62.3544E+06     30.6553E+06              0.     159.468E+03
           23889     62.2731E+06     30.7860E+06              0.     161.580E+03
           23890     62.1907E+06     30.9146E+06              0.     163.915E+03
           23891     62.1070E+06     31.0415E+06              0.     166.470E+03
           23892     62.0219E+06     31.1667E+06              0.     169.242E+03
           23893     61.9353E+06     31.2903E+06              0.     172.228E+03
           23894     61.8471E+06     31.4126E+06              0.     175.425E+03
           23895     61.7572E+06     31.5337E+06              0.     178.832E+03
           23896     61.6654E+06     31.6536E+06              0.     182.446E+03
           23897     61.5717E+06     31.7726E+06              0.     186.264E+03
           23898     61.4760E+06     31.8907E+06              0.     190.287E+03
           23899     61.3782E+06     32.0081E+06              0.     194.511E+03
           23900     61.2782E+06     32.1248E+06              0.     198.936E+03
           23901     61.1758E+06     32.2410E+06              0.     203.560E+03
           23902     61.0709E+06     32.3569E+06              0.     208.383E+03
           23903     60.9636E+06     32.4725E+06              0.     213.404E+03
           23904     60.8536E+06     32.5879E+06              0.     218.623E+03
           23905     60.7409E+06     32.7032E+06              0.     224.039E+03
           23906     60.6253E+06     32.8186E+06              0.     229.651E+03
           23907     60.5068E+06     32.9341E+06              0.     235.461E+03
           23908     60.3853E+06     33.0498E+06              0.     241.468E+03
           23909     60.2607E+06     33.1659E+06              0.     247.672E+03
           23910     60.1328E+06     33.2824E+06              0.     254.074E+03
           23911     60.0016E+06     33.3994E+06              0.     260.675E+03
           23912     59.8670E+06     33.5171E+06              0.     267.475E+03
           23913     59.7289E+06     33.6354E+06              0.     274.475E+03
           23914     59.5871E+06     33.7545E+06              0.     281.677E+03
           23915     59.4416E+06     33.8744E+06              0.     289.081E+03
           23916     59.2923E+06     33.9954E+06              0.     296.689E+03
           23917     59.1390E+06     34.1173E+06              0.     304.502E+03
           23918     58.9817E+06     34.2403E+06              0.     312.521E+03
           23919     58.8203E+06     34.3646E+06              0.     320.750E+03
           23920     58.6546E+06     34.4901E+06              0.     329.188E+03
           23921     58.4846E+06     34.6169E+06              0.     337.839E+03
           23922     58.3102E+06     34.7452E+06              0.     346.704E+03
           23923     58.1311E+06     34.8749E+06              0.     355.785E+03
           23924     57.9474E+06     35.0062E+06              0.     365.085E+03
           23925     57.7590E+06     35.1391E+06              0.     374.605E+03
           23926     57.5656E+06     35.2737E+06              0.     384.349E+03
           23927     57.3672E+06     35.4100E+06              0.     394.319E+03
           23928     57.1638E+06     35.5482E+06              0.     404.518E+03
           23929     56.9551E+06     35.6883E+06              0.     414.947E+03
           23930     56.7411E+06     35.8303E+06              0.     425.611E+03
           23931     56.5216E+06     35.9743E+06              0.     436.511E+03
           23932     56.2965E+06     36.1204E+06              0.     447.652E+03
           23933     56.0658E+06     36.2686E+06              0.     459.035E+03
           23934     55.8292E+06     36.4190E+06              0.     470.664E+03
           23935     55.5868E+06     36.5716E+06              0.     482.542E+03
           23936     55.3382E+06     36.7265E+06              0.     494.672E+03
           23937     55.0835E+06     36.8838E+06              0.     507.058E+03
           23938     54.8225E+06     37.0435E+06              0.     519.702E+03
           23939     54.5551E+06     37.2056E+06              0.     532.609E+03
           23940     54.2811E+06     37.3703E+06              0.     545.781E+03
           23941     54.0004E+06     37.5374E+06              0.     559.222E+03
           23942     53.7129E+06     37.7072E+06              0.     572.936E+03
           23943     53.4184E+06     37.8796E+06              0.     586.925E+03
           23944     53.1169E+06     38.0546E+06              0.     601.194E+03
           23945     52.8081E+06     38.2324E+06              0.     615.746E+03
           23946     52.4920E+06     38.4130E+06              0.     630.585E+03
           23947     52.1684E+06     38.5963E+06              0.     645.714E+03
           23948     51.8372E+06     38.7824E+06              0.     661.136E+03
           23949     51.4981E+06     38.9714E+06              0.     676.856E+03
           23950     51.1512E+06     39.1633E+06              0.     692.876E+03
           23951     50.7962E+06     39.3581E+06              0.     709.201E+03
           23952     50.4330E+06     39.5559E+06              0.     725.834E+03
           23953     50.0614E+06     39.7566E+06              0.     742.778E+03
           23954     49.6813E+06     39.9603E+06              0.     760.037E+03
           23955     49.2926E+06     40.1670E+06              0.     777.614E+03
           23956     48.8951E+06     40.3767E+06              0.     795.512E+03
           23957     48.4886E+06     40.5895E+06              0.     813.735E+03
           23958     48.0730E+06     40.8053E+06              0.     832.286E+03
           23959     47.6482E+06     41.0241E+06              0.     851.168E+03
           23960     47.2139E+06     41.2460E+06              0.     870.384E+03
           23961     46.7700E+06     41.4709E+06              0.     889.937E+03
           23962     46.3165E+06     41.6989E+06              0.     909.830E+03
           23963     45.8530E+06     41.9299E+06              0.     930.066E+03
           23964     45.3795E+06     42.1639E+06              0.     950.646E+03
           23965     44.8958E+06     42.4010E+06              0.     971.574E+03
           23966     44.4018E+06     42.6410E+06              0.     992.852E+03
           23967     43.8972E+06     42.8839E+06              0.     1.01448E+06
           23968     43.3819E+06     43.1298E+06              0.     1.03647E+06
           23969     42.8558E+06     43.3786E+06              0.     1.05880E+06
           23970     42.3187E+06     43.6303E+06              0.     1.08150E+06
           23971     41.7704E+06     43.8847E+06              0.     1.10455E+06
           23972     41.2108E+06     44.1419E+06              0.     1.12797E+06
           23973     40.6398E+06     44.4018E+06              0.     1.15174E+06
           23974     40.0571E+06     44.6643E+06              0.     1.17588E+06
           23975     39.4626E+06     44.9294E+06              0.     1.20037E+06
           23976     38.8561E+06     45.1969E+06              0.     1.22523E+06
           23977     38.2375E+06     45.4669E+06              0.     1.25045E+06
           23978     37.6067E+06     45.7391E+06              0.     1.27603E+06
           23979     36.9634E+06     46.0136E+06              0.     1.30196E+06
           23980     36.3076E+06     46.2901E+06              0.     1.32826E+06
           23981     35.6390E+06     46.5686E+06              0.     1.35491E+06
           23982     34.9576E+06     46.8489E+06              0.     1.38192E+06
           23983     34.2631E+06     47.1310E+06              0.     1.40927E+06
           23984     33.5555E+06     47.4146E+06              0.     1.43698E+06
           23985     32.8346E+06     47.6996E+06              0.     1.46503E+06
           23986     32.1002E+06     47.9858E+06              0.     1.49342E+06
           23987     31.3522E+06     48.2731E+06              0.     1.52214E+06
           23988     30.5905E+06     48.5613E+06              0.     1.55120E+06
           23989     29.8150E+06     48.8502E+06              0.     1.58058E+06
           23990     29.0255E+06     49.1395E+06              0.     1.61029E+06
           23991     28.2219E+06     49.4291E+06              0.     1.64030E+06
           23992     27.4041E+06     49.7186E+06              0.     1.67063E+06
           23993     26.5720E+06     50.0079E+06              0.     1.70125E+06
           23994     25.7254E+06     50.2967E+06              0.     1.73215E+06
           23995     24.8644E+06     50.5847E+06              0.     1.76334E+06
           23996     23.9886E+06     50.8715E+06              0.     1.79480E+06
           23997     23.0982E+06     51.1570E+06              0.     1.82651E+06
           23998     22.1930E+06     51.4407E+06              0.     1.85848E+06
           23999     21.2729E+06     51.7223E+06              0.     1.89067E+06
           24000     20.3379E+06     52.0015E+06              0.     1.92309E+06
           24001     19.3879E+06     52.2779E+06              0.     1.95572E+06
           24002     18.4228E+06     52.5510E+06              0.     1.98854E+06
           24003     17.4426E+06     52.8205E+06              0.     2.02153E+06
           24004     16.4473E+06     53.0859E+06              0.     2.05468E+06
           24005     15.4368E+06     53.3467E+06              0.     2.08798E+06
           24006     14.4112E+06     53.6025E+06              0.     2.12140E+06
           24007     13.3704E+06     53.8528E+06              0.     2.15492E+06
           24008     12.3143E+06     54.0971E+06              0.     2.18853E+06
           24009     11.2431E+06     54.3347E+06              0.     2.22220E+06
           24010     10.1568E+06     54.5652E+06              0.     2.25590E+06
           24011     9.05535E+06     54.7879E+06              0.     2.28962E+06
           24012     7.93885E+06     55.0023E+06              0.     2.32333E+06
           24013     6.80735E+06     55.2076E+06              0.     2.35700E+06
           24014     5.66094E+06     55.4032E+06              0.     2.39061E+06
           24015     4.49969E+06     55.5884E+06              0.     2.42413E+06
           24016     3.32371E+06     55.7625E+06              0.     2.45753E+06
           24017     2.13312E+06     55.9247E+06              0.     2.49077E+06
           24018     928.049E+03     56.0743E+06              0.     2.52383E+06
           24019    -291.354E+03     56.2103E+06              0.     2.55667E+06
           24020    -1.52493E+06     56.3321E+06              0.     2.58926E+06
           24021    -2.77249E+06     56.4387E+06              0.     2.62156E+06
           24022    -4.03385E+06     56.5292E+06              0.     2.65354E+06
           24023    -5.30879E+06     56.6027E+06              0.     2.68516E+06
           24024    -6.59708E+06     56.6582E+06              0.     2.71638E+06
           24025    -7.89847E+06     56.6947E+06              0.     2.74715E+06
           24026    -9.21270E+06     56.7112E+06              0.     2.77744E+06
           24027    -10.5395E+06     56.7066E+06              0.     2.80721E+06
           24028    -11.8785E+06     56.6799E+06              0.     2.83640E+06
           24029    -13.2294E+06     56.6298E+06              0.     2.86499E+06
           24030    -14.5919E+06     56.5552E+06              0.     2.89290E+06
           24031    -15.9657E+06     56.4549E+06              0.     2.92012E+06
           24032    -17.3502E+06     56.3278E+06              0.     2.94657E+06
           24033    -18.7452E+06     56.1724E+06              0.     2.97222E+06
           24034    -20.1501E+06     55.9875E+06              0.     2.99701E+06
           24035    -21.5646E+06     55.7717E+06              0.     3.02089E+06
           24036    -22.9882E+06     55.5237E+06              0.     3.04381E+06
           24037    -24.4203E+06     55.2421E+06              0.     3.06571E+06
           24038    -25.8605E+06     54.9253E+06              0.     3.08655E+06
           24039    -27.3083E+06     54.5719E+06              0.     3.10626E+06
           24040    -28.7629E+06     54.1805E+06              0.     3.12479E+06
           24041    -30.2240E+06     53.7493E+06              0.     3.14208E+06
           24042    -31.6908E+06     53.2769E+06              0.     3.15808E+06
           24043    -33.1628E+06     52.7615E+06              0.     3.17273E+06
           24044    -34.6392E+06     52.2017E+06              0.     3.18597E+06
           24045    -36.1195E+06     51.5955E+06              0.     3.19773E+06
           24046    -37.6028E+06     50.9413E+06              0.     3.20797E+06
           24047    -39.0886E+06     50.2374E+06              0.     3.21663E+06
           24048    -40.5759E+06     49.4820E+06              0.     3.22363E+06
           24049    -42.0641E+06     48.6732E+06              0.     3.22893E+06
           24050    -43.5524E+06     47.8091E+06              0.     3.23246E+06
           24051    -45.0399E+06     46.8880E+06              0.     3.23417E+06
           24052    -46.5258E+06     45.9079E+06              0.     3.23399E+06
           24053    -48.0092E+06     44.8668E+06              0.     3.23186E+06
           24054    -49.4893E+06     43.7628E+06              0.     3.22774E+06
           24055    -50.9650E+06     42.5939E+06              0.     3.22155E+06
           24056    -52.4356E+06     41.3581E+06              0.     3.21324E+06
           24057    -53.9000E+06     40.0533E+06              0.     3.20275E+06
           24058    -55.3572E+06     38.6777E+06              0.     3.19003E+06
           24059    -56.8062E+06     37.2289E+06              0.     3.17501E+06
           24060    -58.2460E+06     35.7051E+06              0.     3.15766E+06
           24061    -59.6756E+06     34.1041E+06              0.     3.13791E+06
           24062    -61.0938E+06     32.4238E+06              0.      3.1157E+06
           24063    -62.4996E+06     30.6620E+06              0.     3.09099E+06
           24064    -63.8919E+06     28.8167E+06              0.     3.06373E+06
           24065    -65.2695E+06     26.8858E+06              0.     3.03387E+06
           24066    -66.6311E+06     24.8670E+06              0.     3.00135E+06
           24067    -67.9758E+06     22.7583E+06              0.     2.96614E+06
           24068    -69.3021E+06     20.5576E+06              0.     2.92819E+06
           24069    -70.6090E+06     18.2627E+06              0.     2.88745E+06
           24070    -71.8952E+06     15.8715E+06              0.     2.84388E+06
           24071    -73.1593E+06     13.3819E+06              0.     2.79745E+06
           24072    -74.4001E+06     10.7917E+06              0.     2.74812E+06
           24073    -75.6162E+06     8.09902E+06              0.     2.69584E+06
           24074    -76.8064E+06     5.30159E+06              0.     2.64059E+06
           24075    -77.9692E+06     2.39742E+06              0.     2.58232E+06
           24076    -79.1033E+06    -615.505E+03              0.     2.52102E+06
           24077    -80.2073E+06    -3.73925E+06              0.     2.45664E+06
           24078    -81.2796E+06    -6.97575E+06              0.     2.38916E+06
           24079    -82.3189E+06    -10.3270E+06              0.     2.31856E+06
           24080    -83.3238E+06    -13.7950E+06              0.     2.24481E+06
           24081    -84.2925E+06    -17.3816E+06              0.     2.16788E+06
           24082    -85.2238E+06    -21.0886E+06              0.     2.08776E+06
           24083    -86.1158E+06    -24.9180E+06              0.     2.00442E+06
           24084    -86.9672E+06    -28.8715E+06              0.     1.91784E+06
           24085    -87.7763E+06    -32.9509E+06              0.     1.82801E+06
           24086    -88.5414E+06    -37.1580E+06              0.     1.73491E+06
           24087    -90.1464E+06    -41.9201E+06              0.     1.69012E+06
           24088     63.5820E+06     27.9250E+06              0.     240.089E+03
           24089     63.6033E+06     28.1602E+06              0.     239.639E+03
           24090     63.5238E+06     28.3463E+06              0.     236.413E+03
           24091     63.4452E+06     28.5274E+06              0.     233.663E+03
           24092     63.3675E+06     28.7036E+06              0.     231.377E+03
           24093     63.2904E+06     28.8753E+06              0.     229.542E+03
           24094     63.2138E+06     29.0425E+06              0.     228.148E+03
           24095     63.1375E+06     29.2057E+06              0.     227.182E+03
           24096     63.0615E+06     29.3649E+06              0.     226.634E+03
           24097     62.9855E+06     29.5203E+06              0.     226.495E+03
           24098     62.9095E+06     29.6723E+06              0.     226.754E+03
           24099     62.8333E+06     29.8209E+06              0.     227.402E+03
           24100     62.7568E+06     29.9664E+06              0.     228.432E+03
           24101     62.6798E+06     30.1089E+06              0.     229.835E+03
           24102     62.6022E+06     30.2487E+06              0.     231.604E+03
           24103     62.5239E+06     30.3858E+06              0.     233.732E+03
           24104     62.4448E+06     30.5205E+06              0.     236.211E+03
           24105     62.3648E+06     30.6530E+06              0.     239.037E+03
           24106     62.2837E+06     30.7833E+06              0.     242.202E+03
           24107     62.2015E+06     30.9117E+06              0.     245.702E+03
           24108     62.1180E+06     31.0383E+06              0.     249.532E+03
           24109     62.0330E+06     31.1632E+06              0.     253.687E+03
           24110     61.9466E+06     31.2866E+06              0.     258.163E+03
           24111     61.8586E+06     31.4087E+06              0.     262.956E+03
           24112     61.7689E+06     31.5295E+06              0.     268.062E+03
           24113     61.6773E+06     31.6492E+06              0.     273.479E+03
           24114     61.5838E+06     31.7679E+06              0.     279.203E+03
           24115     61.4883E+06     31.8857E+06              0.     285.233E+03
           24116     61.3907E+06     32.0028E+06              0.     291.565E+03
           24117     61.2909E+06     32.1193E+06              0.     298.197E+03
           24118     61.1887E+06     32.2353E+06              0.     305.129E+03
           24119     61.0841E+06     32.3510E+06              0.     312.359E+03
           24120     60.9769E+06     32.4663E+06              0.     319.886E+03
           24121     60.8672E+06     32.5815E+06              0.     327.708E+03
           24122     60.7547E+06     32.6966E+06              0.     335.826E+03
           24123     60.6394E+06     32.8117E+06              0.     344.240E+03
           24124     60.5211E+06     32.9270E+06              0.     352.949E+03
           24125     60.3999E+06     33.0425E+06              0.     361.953E+03
           24126     60.2755E+06     33.1583E+06              0.     371.253E+03
           24127     60.1479E+06     33.2746E+06              0.     380.850E+03
           24128     60.0170E+06     33.3913E+06              0.     390.744E+03
           24129     59.8826E+06     33.5087E+06              0.     400.938E+03
           24130     59.7448E+06     33.6268E+06              0.     411.431E+03
           24131     59.6033E+06     33.7456E+06              0.     422.226E+03
           24132     59.4581E+06     33.8654E+06              0.     433.325E+03
           24133     59.3091E+06     33.9860E+06              0.     444.729E+03
           24134     59.1562E+06     34.1077E+06              0.     456.440E+03
           24135     58.9992E+06     34.2305E+06              0.     468.462E+03
           24136     58.8381E+06     34.3545E+06              0.     480.796E+03
           24137     58.6728E+06     34.4797E+06              0.     493.446E+03
           24138     58.5031E+06     34.6063E+06              0.     506.413E+03
           24139     58.3290E+06     34.7343E+06              0.     519.702E+03
           24140     58.1504E+06     34.8637E+06              0.     533.314E+03
           24141     57.9670E+06     34.9948E+06              0.     547.255E+03
           24142     57.7790E+06     35.1274E+06              0.     561.527E+03
           24143     57.5860E+06     35.2617E+06              0.     576.133E+03
           24144     57.3880E+06     35.3978E+06              0.     591.078E+03
           24145     57.1850E+06     35.5357E+06              0.     606.366E+03
           24146     56.9767E+06     35.6755E+06              0.     622.001E+03
           24147     56.7631E+06     35.8172E+06              0.     637.986E+03
           24148     56.5441E+06     35.9609E+06              0.     654.326E+03
           24149     56.3195E+06     36.1067E+06              0.     671.025E+03
           24150     56.0893E+06     36.2546E+06              0.     688.089E+03
           24151     55.8532E+06     36.4047E+06              0.     705.521E+03
           24152     55.6112E+06     36.5570E+06              0.     723.327E+03
           24153     55.3632E+06     36.7117E+06              0.     741.511E+03
           24154     55.1090E+06     36.8686E+06              0.     760.078E+03
           24155     54.8485E+06     37.0280E+06              0.     779.032E+03
           24156     54.5816E+06     37.1898E+06              0.     798.380E+03
           24157     54.3082E+06     37.3541E+06              0.     818.126E+03
           24158     54.0281E+06     37.5209E+06              0.     838.275E+03
           24159     53.7411E+06     37.6904E+06              0.     858.833E+03
           24160     53.4473E+06     37.8624E+06              0.     879.804E+03
           24161     53.1464E+06     38.0371E+06              0.     901.195E+03
           24162     52.8382E+06     38.2146E+06              0.     923.009E+03
           24163     52.5227E+06     38.3948E+06              0.     945.254E+03
           24164     52.1998E+06     38.5777E+06              0.     967.933E+03
           24165     51.8692E+06     38.7635E+06              0.     991.053E+03
           24166     51.5309E+06     38.9522E+06              0.     1.01462E+06
           24167     51.1846E+06     39.1437E+06              0.     1.03863E+06
           24168     50.8303E+06     39.3381E+06              0.     1.06311E+06
           24169     50.4678E+06     39.5355E+06              0.     1.08804E+06
           24170     50.0970E+06     39.7358E+06              0.     1.11344E+06
           24171     49.7177E+06     39.9391E+06              0.     1.13932E+06
           24172     49.3297E+06     40.1455E+06              0.     1.16567E+06
           24173     48.9330E+06     40.3548E+06              0.     1.19250E+06
           24174     48.5273E+06     40.5671E+06              0.     1.21982E+06
           24175     48.1125E+06     40.7825E+06              0.     1.24763E+06
           24176     47.6885E+06     41.0010E+06              0.     1.27593E+06
           24177     47.2551E+06     41.2224E+06              0.     1.30474E+06
           24178     46.8121E+06     41.4469E+06              0.     1.33406E+06
           24179     46.3594E+06     41.6745E+06              0.     1.36388E+06
           24180     45.8969E+06     41.9051E+06              0.     1.39422E+06
           24181     45.4243E+06     42.1387E+06              0.     1.42507E+06
           24182     44.9415E+06     42.3753E+06              0.     1.45644E+06
           24183     44.4484E+06     42.6149E+06              0.     1.48834E+06
           24184     43.9448E+06     42.8574E+06              0.     1.52077E+06
           24185     43.4305E+06     43.1029E+06              0.     1.55373E+06
           24186     42.9054E+06     43.3512E+06              0.     1.58722E+06
           24187     42.3694E+06     43.6025E+06              0.     1.62125E+06
           24188     41.8221E+06     43.8565E+06              0.     1.65581E+06
           24189     41.2636E+06     44.1132E+06              0.     1.69091E+06
           24190     40.6936E+06     44.3727E+06              0.     1.72656E+06
           24191     40.1120E+06     44.6347E+06              0.     1.76274E+06
           24192     39.5186E+06     44.8994E+06              0.     1.79947E+06
           24193     38.9133E+06     45.1665E+06              0.     1.83674E+06
           24194     38.2959E+06     45.4360E+06              0.     1.87455E+06
           24195     37.6662E+06     45.7078E+06              0.     1.91290E+06
           24196     37.0241E+06     45.9818E+06              0.     1.95179E+06
           24197     36.3695E+06     46.2578E+06              0.     1.99121E+06
           24198     35.7022E+06     46.5359E+06              0.     2.03117E+06
           24199     35.0220E+06     46.8158E+06              0.     2.07166E+06
           24200     34.3288E+06     47.0974E+06              0.     2.11268E+06
           24201     33.6224E+06     47.3806E+06              0.     2.15422E+06
           24202     32.9028E+06     47.6652E+06              0.     2.19627E+06
           24203     32.1697E+06     47.9510E+06              0.     2.23884E+06
           24204     31.4231E+06     48.2379E+06              0.     2.28192E+06
           24205     30.6627E+06     48.5257E+06              0.     2.32549E+06
           24206     29.8885E+06     48.8142E+06              0.     2.36955E+06
           24207     29.1004E+06     49.1031E+06              0.     2.41408E+06
           24208     28.2982E+06     49.3922E+06              0.     2.45909E+06
           24209     27.4818E+06     49.6814E+06              0.     2.50456E+06
           24210     26.6511E+06     49.9703E+06              0.     2.55047E+06
           24211     25.8060E+06     50.2588E+06              0.     2.59682E+06
           24212     24.9464E+06     50.5464E+06              0.     2.64359E+06
           24213     24.0722E+06     50.8329E+06              0.     2.69076E+06
           24214     23.1832E+06     51.1180E+06              0.     2.73832E+06
           24215     22.2795E+06     51.4014E+06              0.     2.78625E+06
           24216     21.3609E+06     51.6828E+06              0.     2.83453E+06
           24217     20.4274E+06     51.9617E+06              0.     2.88315E+06
           24218     19.4789E+06     52.2378E+06              0.     2.93208E+06
           24219     18.5154E+06     52.5106E+06              0.     2.98129E+06
           24220     17.5368E+06     52.7799E+06              0.     3.03078E+06
           24221     16.5430E+06     53.0451E+06              0.     3.08050E+06
           24222     15.5341E+06     53.3057E+06              0.     3.13043E+06
           24223     14.5100E+06     53.5614E+06              0.     3.18055E+06
           24224     13.4708E+06     53.8115E+06              0.     3.23083E+06
           24225     12.4163E+06     54.0556E+06              0.     3.28123E+06
           24226     11.3467E+06     54.2932E+06              0.     3.33173E+06
           24227     10.2620E+06     54.5236E+06              0.     3.38228E+06
           24228     9.16213E+06     54.7463E+06              0.     3.43286E+06
           24229     8.04723E+06     54.9606E+06              0.     3.48342E+06
           24230     6.91734E+06     55.1659E+06              0.     3.53393E+06
           24231     5.77252E+06     55.3616E+06              0.     3.58434E+06
           24232     4.61287E+06     55.5468E+06              0.     3.63462E+06
           24233     3.43849E+06     55.7210E+06              0.     3.68471E+06
           24234     2.24949E+06     55.8834E+06              0.     3.73458E+06
           24235     1.04601E+06     56.0331E+06              0.     3.78417E+06
           24236    -171.816E+03     56.1694E+06              0.     3.83344E+06
           24237    -1.40382E+06     56.2915E+06              0.     3.88233E+06
           24238    -2.64982E+06     56.3984E+06              0.     3.93079E+06
           24239    -3.90962E+06     56.4892E+06              0.     3.97877E+06
           24240    -5.18302E+06     56.5631E+06              0.     4.02621E+06
           24241    -6.46979E+06     56.6190E+06              0.     4.07304E+06
           24242    -7.76967E+06     56.6560E+06              0.     4.11921E+06
           24243     -9.0824E+06     56.6730E+06              0.     4.16467E+06
           24244    -10.4077E+06     56.6689E+06              0.     4.20933E+06
           24245    -11.7453E+06     56.6428E+06              0.     4.25314E+06
           24246    -13.0948E+06     56.5933E+06              0.     4.29603E+06
           24247    -14.4559E+06     56.5195E+06              0.     4.33793E+06
           24248    -15.8282E+06     56.4200E+06              0.     4.37876E+06
           24249    -17.2114E+06     56.2936E+06              0.     4.41847E+06
           24250    -18.6050E+06     56.1390E+06              0.     4.45696E+06
           24251    -20.0087E+06     55.9550E+06              0.     4.49417E+06
           24252    -21.4219E+06     55.7403E+06              0.     4.53001E+06
           24253    -22.8443E+06     55.4933E+06              0.     4.56442E+06
           24254    -24.2752E+06     55.2127E+06              0.     4.59730E+06
           24255    -25.7142E+06     54.8971E+06              0.     4.62859E+06
           24256    -27.1608E+06     54.5449E+06              0.     4.65818E+06
           24257    -28.6144E+06     54.1547E+06              0.     4.68601E+06
           24258    -30.0744E+06     53.7248E+06              0.     4.71198E+06
           24259    -31.5403E+06     53.2538E+06              0.     4.73602E+06
           24260    -33.0113E+06     52.7399E+06              0.     4.75802E+06
           24261    -34.4868E+06     52.1814E+06              0.     4.77791E+06
           24262    -35.9662E+06     51.5768E+06              0.     4.79560E+06
           24263    -37.4487E+06     50.9243E+06              0.     4.81100E+06
           24264    -38.9337E+06     50.2220E+06              0.     4.82401E+06
           24265    -40.4203E+06     49.4683E+06              0.     4.83456E+06
           24266    -41.9079E+06     48.6612E+06              0.     4.84255E+06
           24267    -43.3955E+06      47.799E+06              0.     4.84788E+06
           24268    -44.8825E+06     46.8797E+06              0.     4.85048E+06
           24269    -46.3679E+06     45.9015E+06              0.     4.85025E+06
           24270    -47.8509E+06     44.8624E+06              0.     4.84711E+06
           24271    -49.3306E+06     43.7604E+06              0.     4.84096E+06
           24272    -50.8060E+06     42.5936E+06              0.     4.83171E+06
           24273    -52.2764E+06     41.3600E+06              0.     4.81929E+06
           24274    -53.7405E+06     40.0574E+06              0.     4.80360E+06
           24275    -55.1976E+06     38.6840E+06              0.     4.78456E+06
           24276    -56.6466E+06     37.2375E+06              0.     4.76208E+06
           24277    -58.0864E+06     35.7160E+06              0.     4.73609E+06
           24278    -59.5161E+06     34.1174E+06              0.     4.70650E+06
           24279    -60.9344E+06     32.4394E+06              0.     4.67323E+06
           24280    -62.3405E+06     30.6801E+06              0.     4.63621E+06
           24281    -63.7330E+06     28.8373E+06              0.     4.59536E+06
           24282    -65.1109E+06     26.9088E+06              0.     4.55060E+06
           24283    -66.4729E+06     24.8926E+06              0.     4.50186E+06
           24284    -67.8181E+06     22.7865E+06              0.     4.44908E+06
           24285    -69.1450E+06     20.5884E+06              0.     4.39219E+06
           24286    -70.4524E+06     18.2961E+06              0.     4.33112E+06
           24287    -71.7393E+06     15.9076E+06              0.     4.26581E+06
           24288    -73.0041E+06     13.4206E+06              0.     4.19620E+06
           24289    -74.2457E+06     10.8332E+06              0.     4.12222E+06
           24290    -75.4627E+06     8.14312E+06              0.     4.04384E+06
           24291    -76.6538E+06     5.34840E+06              0.     3.96099E+06
           24292    -77.8177E+06     2.44696E+06              0.     3.87362E+06
           24293    -78.9528E+06    -563.227E+03              0.     3.78169E+06
           24294    -80.0579E+06    -3.68423E+06              0.     3.68516E+06
           24295    -81.1315E+06    -6.91798E+06              0.     3.58397E+06
           24296    -82.1721E+06    -10.2665E+06              0.     3.47809E+06
           24297    -83.1782E+06    -13.7317E+06              0.     3.36748E+06
           24298    -84.1484E+06    -17.3155E+06              0.     3.25212E+06
           24299    -85.0811E+06    -21.0198E+06              0.     3.13196E+06
           24300    -85.9747E+06    -24.8464E+06              0.     3.00697E+06
           24301    -86.8277E+06    -28.7972E+06              0.     2.87713E+06
           24302    -87.6384E+06    -32.8739E+06              0.     2.74240E+06
           24303    -88.4052E+06    -37.0782E+06              0.     2.60277E+06
           24304    -90.0103E+06    -41.8376E+06              0.     2.53560E+06
           24305     63.5930E+06     27.9298E+06              0.     319.806E+03
           24306     63.6143E+06     28.1642E+06              0.     319.207E+03
           24307     63.5350E+06     28.3498E+06              0.     314.909E+03
           24308     63.4566E+06     28.5304E+06              0.     311.246E+03
           24309     63.3791E+06     28.7061E+06              0.     308.201E+03
           24310     63.3022E+06     28.8772E+06              0.     305.758E+03
           24311     63.2259E+06     29.0440E+06              0.     303.900E+03
           24312     63.1498E+06     29.2067E+06              0.     302.614E+03
           24313     63.0740E+06     29.3654E+06              0.     301.884E+03
           24314     62.9983E+06     29.5204E+06              0.     301.698E+03
           24315     62.9225E+06     29.6719E+06              0.     302.043E+03
           24316     62.8465E+06     29.8201E+06              0.     302.908E+03
           24317     62.7702E+06     29.9651E+06              0.     304.280E+03
           24318     62.6934E+06     30.1072E+06              0.     306.149E+03
           24319     62.6161E+06     30.2465E+06              0.     308.505E+03
           24320     62.5381E+06     30.3833E+06              0.     311.339E+03
           24321     62.4592E+06     30.5176E+06              0.     314.642E+03
           24322     62.3794E+06     30.6497E+06              0.     318.406E+03
           24323     62.2986E+06     30.7796E+06              0.     322.623E+03
           24324     62.2166E+06     30.9076E+06              0.     327.285E+03
           24325     62.1333E+06     31.0339E+06              0.     332.387E+03
           24326     62.0486E+06     31.1584E+06              0.     337.921E+03
           24327     61.9624E+06     31.2815E+06              0.     343.884E+03
           24328     61.8747E+06     31.4032E+06              0.     350.268E+03
           24329     61.7852E+06     31.5236E+06              0.     357.070E+03
           24330     61.6939E+06     31.6429E+06              0.     364.286E+03
           24331     61.6007E+06     31.7613E+06              0.     371.911E+03
           24332     61.5055E+06     31.8788E+06              0.     379.942E+03
           24333     61.4082E+06     31.9956E+06              0.     388.377E+03
           24334     61.3086E+06     32.1117E+06              0.     397.212E+03
           24335     61.2067E+06     32.2274E+06              0.     406.446E+03
           24336     61.1024E+06     32.3427E+06              0.     416.076E+03
           24337     60.9956E+06     32.4577E+06              0.     426.102E+03
           24338     60.8862E+06     32.5725E+06              0.     436.523E+03
           24339     60.7740E+06     32.6872E+06              0.     447.337E+03
           24340     60.6590E+06     32.8020E+06              0.     458.544E+03
           24341     60.5412E+06     32.9170E+06              0.     470.145E+03
           24342     60.4202E+06     33.0321E+06              0.     482.139E+03
           24343     60.2962E+06     33.1476E+06              0.     494.528E+03
           24344     60.1690E+06     33.2636E+06              0.     507.312E+03
           24345     60.0385E+06     33.3800E+06              0.     520.492E+03
           24346     59.9045E+06     33.4970E+06              0.     534.070E+03
           24347     59.7671E+06     33.6148E+06              0.     548.048E+03
           24348      59.626E+06     33.7333E+06              0.     562.428E+03
           24349     59.4812E+06     33.8526E+06              0.     577.213E+03
           24350     59.3326E+06     33.9730E+06              0.     592.404E+03
           24351     59.1802E+06     34.0943E+06              0.     608.005E+03
           24352     59.0236E+06     34.2167E+06              0.     624.019E+03
           24353     58.8630E+06     34.3404E+06              0.     640.449E+03
           24354     58.6982E+06     34.4652E+06              0.     657.300E+03
           24355     58.5290E+06     34.5915E+06              0.     674.573E+03
           24356     58.3554E+06     34.7191E+06              0.     692.275E+03
           24357     58.1772E+06     34.8482E+06              0.     710.409E+03
           24358     57.9945E+06     34.9788E+06              0.     728.979E+03
           24359     57.8069E+06     35.1111E+06              0.     747.991E+03
           24360     57.6145E+06     35.2450E+06              0.     767.448E+03
           24361     57.4171E+06     35.3807E+06              0.     787.357E+03
           24362     57.2147E+06     35.5182E+06              0.     807.722E+03
           24363     57.0070E+06     35.6576E+06              0.     828.549E+03
           24364     56.7940E+06     35.7989E+06              0.     849.844E+03
           24365     56.5756E+06     35.9422E+06              0.     871.611E+03
           24366     56.3517E+06     36.0876E+06              0.     893.857E+03
           24367     56.1221E+06     36.2351E+06              0.     916.588E+03
           24368     55.8867E+06     36.3848E+06              0.     939.811E+03
           24369     55.6454E+06     36.5367E+06              0.     963.530E+03
           24370     55.3981E+06     36.6909E+06              0.     987.754E+03
           24371     55.1446E+06     36.8474E+06              0.     1.01249E+06
           24372     54.8849E+06     37.0063E+06              0.     1.03774E+06
           24373     54.6188E+06     37.1677E+06              0.     1.06351E+06
           24374     54.3461E+06     37.3315E+06              0.     1.08982E+06
           24375     54.0668E+06     37.4979E+06              0.     1.11666E+06
           24376     53.7807E+06     37.6668E+06              0.     1.14405E+06
           24377     53.4876E+06     37.8384E+06              0.     1.17198E+06
           24378     53.1876E+06     38.0127E+06              0.     1.20048E+06
           24379     52.8803E+06     38.1896E+06              0.     1.22954E+06
           24380     52.5657E+06     38.3693E+06              0.     1.25917E+06
           24381     52.2437E+06     38.5518E+06              0.     1.28939E+06
           24382     51.9140E+06     38.7371E+06              0.     1.32019E+06
           24383     51.5766E+06     38.9252E+06              0.     1.35158E+06
           24384     51.2313E+06     39.1162E+06              0.     1.38358E+06
           24385     50.8780E+06     39.3101E+06              0.     1.41618E+06
           24386     50.5166E+06     39.5070E+06              0.     1.44940E+06
           24387     50.1468E+06     39.7068E+06              0.     1.48324E+06
           24388     49.7685E+06     39.9095E+06              0.     1.51771E+06
           24389     49.3816E+06     40.1153E+06              0.     1.55281E+06
           24390     48.9860E+06     40.3241E+06              0.     1.58856E+06
           24391     48.5814E+06     40.5359E+06              0.     1.62496E+06
           24392     48.1678E+06     40.7507E+06              0.     1.66201E+06
           24393     47.7450E+06     40.9686E+06              0.     1.69972E+06
           24394     47.3127E+06     41.1895E+06              0.     1.73810E+06
           24395     46.8710E+06     41.4134E+06              0.     1.77716E+06
           24396     46.4195E+06     41.6404E+06              0.     1.81689E+06
           24397     45.9582E+06     41.8704E+06              0.     1.85731E+06
           24398     45.4869E+06     42.1034E+06              0.     1.89841E+06
           24399     45.0055E+06     42.3394E+06              0.     1.94022E+06
           24400     44.5137E+06     42.5784E+06              0.     1.98272E+06
           24401     44.0115E+06     42.8203E+06              0.     2.02592E+06
           24402     43.4986E+06     43.0652E+06              0.     2.06983E+06
           24403     42.9749E+06     43.3129E+06              0.     2.11446E+06
           24404     42.4402E+06     43.5635E+06              0.     2.15979E+06
           24405     41.8945E+06     43.8169E+06              0.     2.20584E+06
           24406     41.3374E+06     44.0731E+06              0.     2.25262E+06
           24407     40.7690E+06     44.3319E+06              0.     2.30011E+06
           24408     40.1889E+06     44.5933E+06              0.     2.34832E+06
           24409     39.5970E+06     44.8573E+06              0.     2.39726E+06
           24410     38.9933E+06     45.1238E+06              0.     2.44691E+06
           24411     38.3775E+06     45.3927E+06              0.     2.49729E+06
           24412     37.7495E+06     45.6639E+06              0.     2.54839E+06
           24413     37.1090E+06     45.9373E+06              0.     2.60021E+06
           24414     36.4561E+06     46.2127E+06              0.     2.65275E+06
           24415     35.7905E+06     46.4902E+06              0.     2.70599E+06
           24416     35.1120E+06     46.7695E+06              0.     2.75995E+06
           24417     34.4206E+06     47.0505E+06              0.     2.81460E+06
           24418     33.7160E+06     47.3331E+06              0.     2.86996E+06
           24419     32.9982E+06     47.6171E+06              0.     2.92600E+06
           24420     32.2669E+06     47.9023E+06              0.     2.98273E+06
           24421     31.5222E+06     48.1886E+06              0.     3.04013E+06
           24422     30.7637E+06     48.4758E+06              0.     3.09819E+06
           24423     29.9914E+06     48.7637E+06              0.     3.15691E+06
           24424     29.2052E+06     49.0521E+06              0.     3.21626E+06
           24425     28.4050E+06     49.3407E+06              0.     3.27625E+06
           24426     27.5906E+06     49.6293E+06              0.     3.33684E+06
           24427     26.7619E+06     49.9178E+06              0.     3.39803E+06
           24428     25.9188E+06     50.2057E+06              0.     3.45980E+06
           24429     25.0612E+06     50.4928E+06              0.     3.52213E+06
           24430     24.1890E+06     50.7788E+06              0.     3.58500E+06
           24431     23.3021E+06     51.0635E+06              0.     3.64839E+06
           24432     22.4005E+06     51.3465E+06              0.     3.71227E+06
           24433     21.4840E+06     51.6274E+06              0.     3.77662E+06
           24434     20.5527E+06     51.9059E+06              0.     3.84142E+06
           24435     19.6063E+06     52.1816E+06              0.     3.90664E+06
           24436     18.6449E+06     52.4542E+06              0.     3.97224E+06
           24437     17.6685E+06     52.7231E+06              0.     4.03820E+06
           24438     16.6769E+06     52.9880E+06              0.     4.10448E+06
           24439     15.6702E+06     53.2483E+06              0.     4.17104E+06
           24440     14.6483E+06     53.5038E+06              0.     4.23785E+06
           24441     13.6113E+06     53.7537E+06              0.     4.30488E+06
           24442     12.5591E+06     53.9976E+06              0.     4.37207E+06
           24443     11.4917E+06     54.2351E+06              0.     4.43938E+06
           24444     10.4092E+06     54.4654E+06              0.     4.50678E+06
           24445     9.31158E+06     54.6880E+06              0.     4.57421E+06
           24446     8.19892E+06     54.9023E+06              0.     4.64162E+06
           24447     7.07126E+06     55.1076E+06              0.     4.70896E+06
           24448     5.92869E+06     55.3033E+06              0.     4.77618E+06
           24449     4.77128E+06     55.4887E+06              0.     4.84321E+06
           24450     3.59914E+06     55.6630E+06              0.     4.91001E+06
           24451     2.41237E+06     55.8256E+06              0.     4.97650E+06
           24452     1.21111E+06     55.9756E+06              0.     5.04263E+06
           24453    -4.50103E+03     56.1122E+06              0.     5.10833E+06
           24454    -1.23430E+06     56.2346E+06              0.     5.17353E+06
           24455    -2.47811E+06     56.3418E+06              0.     5.23816E+06
           24456    -3.73574E+06     56.4332E+06              0.     5.30214E+06
           24457    -5.00698E+06     56.5075E+06              0.     5.36541E+06
           24458    -6.29161E+06     56.5641E+06              0.     5.42788E+06
           24459    -7.58937E+06     56.6017E+06              0.     5.48946E+06
           24460    -8.90001E+06     56.6194E+06              0.     5.55009E+06
           24461    -10.2232E+06     56.6161E+06              0.     5.60967E+06
           24462    -11.5588E+06     56.5908E+06              0.     5.66811E+06
           24463    -12.9063E+06     56.5423E+06              0.     5.72533E+06
           24464    -14.2654E+06     56.4694E+06              0.     5.78123E+06
           24465    -15.6358E+06     56.3709E+06              0.     5.83571E+06
           24466    -17.0171E+06     56.2457E+06              0.     5.88869E+06
           24467    -18.4088E+06     56.0924E+06              0.     5.94006E+06
           24468    -19.8107E+06     55.9096E+06              0.     5.98971E+06
           24469    -21.2221E+06     55.6962E+06              0.     6.03756E+06
           24470    -22.6427E+06     55.4507E+06              0.     6.08348E+06
           24471    -24.0720E+06     55.1716E+06              0.     6.12738E+06
           24472    -25.5094E+06     54.8575E+06              0.     6.16914E+06
           24473    -26.9544E+06     54.5070E+06              0.     6.20866E+06
           24474    -28.4065E+06     54.1186E+06              0.     6.24582E+06
           24475    -29.8650E+06     53.6905E+06              0.     6.28051E+06
           24476    -31.3294E+06     53.2214E+06              0.     6.31262E+06
           24477    -32.7991E+06     52.7095E+06              0.     6.34202E+06
           24478    -34.2734E+06     52.1531E+06              0.     6.36861E+06
           24479    -35.7515E+06     51.5506E+06              0.     6.39226E+06
           24480    -37.2329E+06     50.9003E+06              0.     6.41286E+06
           24481    -38.7168E+06     50.2004E+06              0.     6.43028E+06
           24482    -40.2025E+06     49.4490E+06              0.     6.44442E+06
           24483    -41.6891E+06     48.6444E+06              0.     6.45514E+06
           24484    -43.1759E+06     47.7848E+06              0.     6.46233E+06
           24485    -44.6621E+06     46.8681E+06              0.     6.46587E+06
           24486    -46.1468E+06     45.8926E+06              0.     6.46564E+06
           24487    -47.6292E+06     44.8563E+06              0.     6.46152E+06
           24488    -49.1084E+06     43.7571E+06              0.      6.4534E+06
           24489    -50.5834E+06     42.5933E+06              0.     6.44115E+06
           24490    -52.0534E+06     41.3626E+06              0.     6.42466E+06
           24491    -53.5173E+06     40.0631E+06              0.     6.40382E+06
           24492    -54.9742E+06     38.6928E+06              0.     6.37851E+06
           24493    -56.4231E+06     37.2495E+06              0.     6.34862E+06
           24494    -57.8629E+06     35.7313E+06              0.     6.31404E+06
           24495    -59.2927E+06     34.1359E+06              0.     6.27466E+06
           24496    -60.7112E+06     32.4613E+06              0.     6.23038E+06
           24497    -62.1175E+06     30.7054E+06              0.     6.18109E+06
           24498    -63.5104E+06     28.8661E+06              0.     6.12669E+06
           24499    -64.8888E+06     26.9411E+06              0.     6.06709E+06
           24500    -66.2514E+06     24.9285E+06              0.     6.00218E+06
           24501    -67.5972E+06     22.8260E+06              0.     5.93188E+06
           24502    -68.9248E+06     20.6315E+06              0.     5.85609E+06
           24503    -70.2332E+06     18.3429E+06              0.     5.77473E+06
           24504    -71.5209E+06     15.9580E+06              0.     5.68771E+06
           24505    -72.7868E+06     13.4748E+06              0.     5.59495E+06
           24506    -74.0295E+06     10.8911E+06              0.     5.49639E+06
           24507    -75.2478E+06     8.20486E+06              0.     5.39193E+06
           24508    -76.4402E+06     5.41394E+06              0.     5.28152E+06
           24509    -77.6054E+06     2.51631E+06              0.     5.16509E+06
           24510    -78.7421E+06    -490.041E+03              0.     5.04257E+06
           24511    -79.8488E+06     -3.6072E+06              0.     4.91390E+06
           24512    -80.9240E+06    -6.83710E+06              0.     4.77904E+06
           24513    -81.9664E+06    -10.1818E+06              0.     4.63791E+06
           24514    -82.9744E+06    -13.6431E+06              0.     4.49048E+06
           24515    -83.9466E+06    -17.2231E+06              0.     4.33671E+06
           24516    -84.8813E+06    -20.9235E+06              0.     4.17653E+06
           24517    -85.7771E+06    -24.7463E+06              0.     4.00992E+06
           24518    -86.6323E+06    -28.6932E+06              0.     3.83684E+06
           24519    -87.4453E+06    -32.7660E+06              0.     3.65725E+06
           24520    -88.2146E+06    -36.9664E+06              0.     3.47112E+06
           24521    -89.8196E+06    -41.7221E+06              0.     3.38161E+06
           24522     63.6071E+06     27.9359E+06              0.     399.256E+03
           24523     63.6283E+06     28.1695E+06              0.     398.507E+03
           24524     63.5493E+06     28.3544E+06              0.     393.142E+03
           24525     63.4713E+06     28.5342E+06              0.     388.569E+03
           24526     63.3940E+06     28.7093E+06              0.     384.768E+03
           24527     63.3175E+06     28.8797E+06              0.     381.718E+03
           24528     63.2414E+06     29.0459E+06              0.     379.399E+03
           24529     63.1657E+06     29.2079E+06              0.     377.793E+03
           24530     63.0901E+06     29.3660E+06              0.     376.882E+03
           24531     63.0147E+06     29.5204E+06              0.     376.650E+03
           24532     62.9392E+06     29.6714E+06              0.     377.081E+03
           24533     62.8635E+06     29.8190E+06              0.     378.160E+03
           24534     62.7875E+06     29.9635E+06              0.     379.873E+03
           24535     62.7110E+06     30.1050E+06              0.     382.207E+03
           24536     62.6340E+06     30.2438E+06              0.     385.149E+03
           24537     62.5562E+06     30.3801E+06              0.     388.687E+03
           24538     62.4777E+06     30.5139E+06              0.     392.811E+03
           24539     62.3982E+06     30.6454E+06              0.     397.510E+03
           24540     62.3176E+06     30.7749E+06              0.     402.774E+03
           24541     62.2359E+06     30.9024E+06              0.     408.595E+03
           24542     62.1530E+06     31.0282E+06              0.     414.965E+03
           24543     62.0686E+06     31.1522E+06              0.     421.875E+03
           24544     61.9828E+06     31.2748E+06              0.     429.318E+03
           24545     61.8953E+06     31.3961E+06              0.     437.289E+03
           24546     61.8062E+06     31.5160E+06              0.     445.782E+03
           24547     61.7153E+06     31.6349E+06              0.     454.790E+03
           24548     61.6224E+06     31.7528E+06              0.     464.310E+03
           24549     61.5276E+06     31.8699E+06              0.     474.337E+03
           24550     61.4306E+06     31.9862E+06              0.     484.867E+03
           24551     61.3314E+06     32.1019E+06              0.     495.898E+03
           24552     61.2299E+06     32.2172E+06              0.     507.426E+03
           24553     61.1260E+06     32.3320E+06              0.     519.449E+03
           24554     61.0196E+06     32.4466E+06              0.     531.967E+03
           24555     60.9106E+06     32.5610E+06              0.     544.976E+03
           24556     60.7988E+06     32.6753E+06              0.     558.478E+03
           24557     60.6843E+06     32.7896E+06              0.     572.470E+03
           24558     60.5668E+06     32.9042E+06              0.     586.953E+03
           24559     60.4464E+06     33.0189E+06              0.     601.928E+03
           24560     60.3229E+06     33.1339E+06              0.     617.395E+03
           24561     60.1961E+06     33.2494E+06              0.     633.355E+03
           24562     60.0661E+06     33.3654E+06              0.     649.811E+03
           24563     59.9326E+06     33.4820E+06              0.     666.763E+03
           24564     59.7957E+06     33.5993E+06              0.     684.215E+03
           24565     59.6551E+06     33.7174E+06              0.     702.168E+03
           24566     59.5109E+06     33.8363E+06              0.     720.627E+03
           24567     59.3629E+06     33.9562E+06              0.     739.593E+03
           24568     59.2110E+06     34.0771E+06              0.     759.071E+03
           24569     59.0550E+06     34.1991E+06              0.     779.065E+03
           24570     58.8950E+06     34.3222E+06              0.     799.578E+03
           24571     58.7308E+06     34.4466E+06              0.     820.616E+03
           24572     58.5622E+06     34.5724E+06              0.     842.183E+03
           24573     58.3893E+06     34.6995E+06              0.     864.284E+03
           24574     58.2118E+06     34.8281E+06              0.     886.924E+03
           24575     58.0297E+06     34.9583E+06              0.     910.110E+03
           24576     57.8428E+06     35.0901E+06              0.     933.846E+03
           24577     57.6512E+06     35.2235E+06              0.     958.140E+03
           24578     57.4545E+06     35.3587E+06              0.     982.996E+03
           24579     57.2528E+06     35.4957E+06              0.     1.00842E+06
           24580     57.0459E+06     35.6346E+06              0.     1.03443E+06
           24581     56.8337E+06     35.7754E+06              0.     1.06101E+06
           24582     56.6161E+06     35.9182E+06              0.     1.08819E+06
           24583     56.3930E+06     36.0630E+06              0.     1.11597E+06
           24584     56.1643E+06       36.21E+06              0.     1.14435E+06
           24585     55.9297E+06     36.3591E+06              0.     1.17334E+06
           24586     55.6893E+06     36.5105E+06              0.     1.20296E+06
           24587     55.4429E+06     36.6641E+06              0.     1.23320E+06
           24588     55.1904E+06     36.8201E+06              0.     1.26408E+06
           24589     54.9316E+06     36.9784E+06              0.     1.29561E+06
           24590     54.6665E+06     37.1392E+06              0.     1.32779E+06
           24591     54.3948E+06     37.3025E+06              0.     1.36064E+06
           24592     54.1165E+06     37.4683E+06              0.     1.39415E+06
           24593     53.8314E+06     37.6366E+06              0.     1.42835E+06
           24594     53.5395E+06     37.8076E+06              0.     1.46323E+06
           24595     53.2405E+06     37.9812E+06              0.     1.49881E+06
           24596     52.9344E+06     38.1575E+06              0.     1.53510E+06
           24597     52.6209E+06     38.3366E+06              0.     1.57210E+06
           24598     52.3000E+06     38.5184E+06              0.     1.60982E+06
           24599     51.9716E+06     38.7031E+06              0.     1.64828E+06
           24600     51.6354E+06     38.8906E+06              0.     1.68748E+06
           24601     51.2914E+06     39.0809E+06              0.     1.72743E+06
           24602     50.9393E+06     39.2742E+06              0.     1.76814E+06
           24603     50.5792E+06     39.4703E+06              0.     1.80962E+06
           24604     50.2107E+06     39.6694E+06              0.     1.85188E+06
           24605     49.8338E+06     39.8715E+06              0.     1.89492E+06
           24606     49.4483E+06     40.0766E+06              0.     1.93875E+06
           24607     49.0541E+06     40.2847E+06              0.     1.98339E+06
           24608     48.6510E+06     40.4957E+06              0.     2.02884E+06
           24609     48.2388E+06     40.7098E+06              0.     2.07511E+06
           24610     47.8175E+06     40.9270E+06              0.     2.12220E+06
           24611     47.3868E+06     41.1471E+06              0.     2.17013E+06
           24612     46.9466E+06     41.3703E+06              0.     2.21890E+06
           24613     46.4967E+06     41.5966E+06              0.     2.26851E+06
           24614     46.0370E+06     41.8258E+06              0.     2.31898E+06
           24615     45.5674E+06     42.0581E+06              0.     2.37032E+06
           24616     45.0876E+06     42.2933E+06              0.     2.42252E+06
           24617     44.5976E+06     42.5315E+06              0.     2.47560E+06
           24618     44.0971E+06     42.7727E+06              0.     2.52955E+06
           24619     43.5860E+06     43.0168E+06              0.     2.58439E+06
           24620     43.0641E+06     43.2637E+06              0.     2.64011E+06
           24621     42.5313E+06     43.5135E+06              0.     2.69673E+06
           24622     41.9874E+06     43.7661E+06              0.     2.75425E+06
           24623     41.4323E+06     44.0215E+06              0.     2.81266E+06
           24624     40.8657E+06     44.2795E+06              0.     2.87197E+06
           24625     40.2876E+06     44.5402E+06              0.     2.93218E+06
           24626     39.6978E+06     44.8034E+06              0.     2.99330E+06
           24627     39.0961E+06     45.0691E+06              0.     3.05532E+06
           24628     38.4824E+06     45.3371E+06              0.     3.11824E+06
           24629     37.8564E+06     45.6075E+06              0.     3.18206E+06
           24630     37.2181E+06     45.8801E+06              0.     3.24678E+06
           24631     36.5674E+06     46.1548E+06              0.     3.31240E+06
           24632     35.9039E+06     46.4314E+06              0.     3.37890E+06
           24633     35.2277E+06     46.7100E+06              0.     3.44629E+06
           24634     34.5385E+06     46.9902E+06              0.     3.51456E+06
           24635     33.8363E+06     47.2720E+06              0.     3.58370E+06
           24636     33.1208E+06     47.5552E+06              0.     3.65371E+06
           24637     32.3919E+06     47.8397E+06              0.     3.72456E+06
           24638     31.6495E+06     48.1253E+06              0.     3.79626E+06
           24639     30.8935E+06     48.4117E+06              0.     3.86879E+06
           24640     30.1236E+06     48.6989E+06              0.     3.94214E+06
           24641     29.3399E+06     48.9866E+06              0.     4.01628E+06
           24642     28.5422E+06     49.2745E+06              0.     4.09122E+06
           24643     27.7303E+06     49.5624E+06              0.     4.16691E+06
           24644     26.9042E+06     49.8502E+06              0.     4.24335E+06
           24645     26.0636E+06     50.1374E+06              0.     4.32052E+06
           24646     25.2087E+06     50.4239E+06              0.     4.39839E+06
           24647     24.3391E+06     50.7094E+06              0.     4.47694E+06
           24648     23.4549E+06     50.9935E+06              0.     4.55613E+06
           24649     22.5560E+06     51.2759E+06              0.     4.63595E+06
           24650     21.6423E+06     51.5562E+06              0.     4.71635E+06
           24651     20.7136E+06     51.8342E+06              0.     4.79731E+06
           24652     19.7700E+06     52.1095E+06              0.      4.8788E+06
           24653     18.8114E+06     52.3816E+06              0.     4.96077E+06
           24654     17.8377E+06     52.6501E+06              0.     5.04319E+06
           24655     16.8490E+06     52.9146E+06              0.     5.12600E+06
           24656     15.8451E+06     53.1746E+06              0.     5.20918E+06
           24657     14.8260E+06     53.4297E+06              0.     5.29268E+06
           24658     13.7918E+06     53.6794E+06              0.     5.37643E+06
           24659     12.7425E+06     53.9231E+06              0.     5.46040E+06
           24660     11.6780E+06     54.1603E+06              0.     5.54453E+06
           24661     10.5984E+06     54.3905E+06              0.     5.62876E+06
           24662     9.50363E+06     54.6130E+06              0.     5.71304E+06
           24663     8.39386E+06     54.8273E+06              0.     5.79729E+06
           24664     7.26909E+06     55.0326E+06              0.     5.88146E+06
           24665     6.12940E+06     55.2284E+06              0.     5.96548E+06
           24666     4.97487E+06     55.4139E+06              0.     6.04928E+06
           24667     3.80561E+06     55.5885E+06              0.     6.13278E+06
           24668     2.62171E+06     55.7513E+06              0.     6.21590E+06
           24669     1.42331E+06     55.9016E+06              0.     6.29857E+06
           24670     210.551E+03     56.0386E+06              0.     6.38071E+06
           24671    -1.01641E+06     56.1614E+06              0.     6.46223E+06
           24672    -2.25740E+06     56.2692E+06              0.     6.54304E+06
           24673    -3.51224E+06     56.3611E+06              0.     6.62304E+06
           24674    -4.78070E+06     56.4362E+06              0.     6.70215E+06
           24675    -6.06257E+06     56.4934E+06              0.     6.78027E+06
           24676    -7.35761E+06     56.5319E+06              0.     6.85729E+06
           24677    -8.66556E+06     56.5505E+06              0.     6.93311E+06
           24678    -9.98613E+06     56.5482E+06              0.     7.00763E+06
           24679    -11.3190E+06      56.524E+06              0.     7.08073E+06
           24680    -12.6639E+06     56.4767E+06              0.     7.15231E+06
           24681    -14.0205E+06     56.4050E+06              0.     7.22224E+06
           24682    -15.3884E+06     56.3079E+06              0.     7.29040E+06
           24683    -16.7672E+06     56.1841E+06              0.     7.35669E+06
           24684    -18.1566E+06     56.0323E+06              0.     7.42096E+06
           24685    -19.5561E+06     55.8512E+06              0.     7.48311E+06
           24686    -20.9653E+06     55.6395E+06              0.     7.54298E+06
           24687    -22.3836E+06     55.3958E+06              0.     7.60047E+06
           24688    -23.8107E+06     55.1187E+06              0.     7.65542E+06
           24689    -25.2460E+06     54.8067E+06              0.     7.70771E+06
           24690    -26.6890E+06     54.4583E+06              0.     7.75720E+06
           24691    -28.1391E+06     54.0721E+06              0.     7.80375E+06
           24692    -29.5958E+06     53.6464E+06              0.     7.84721E+06
           24693    -31.0584E+06     53.1797E+06              0.     7.88744E+06
           24694    -32.5263E+06     52.6703E+06              0.     7.92430E+06
           24695    -33.9989E+06     52.1166E+06              0.     7.95764E+06
           24696    -35.4755E+06     51.5169E+06              0.     7.98731E+06
           24697    -36.9554E+06     50.8694E+06              0.     8.01317E+06
           24698    -38.4380E+06     50.1725E+06              0.     8.03507E+06
           24699    -39.9223E+06     49.4242E+06              0.     8.05285E+06
           24700    -41.4078E+06     48.6228E+06              0.     8.06637E+06
           24701    -42.8935E+06     47.7664E+06              0.     8.07548E+06
           24702    -44.3787E+06     46.8531E+06              0.     8.08002E+06
           24703    -45.8625E+06     45.8811E+06              0.     8.07986E+06
           24704    -47.3441E+06     44.8483E+06              0.     8.07484E+06
           24705    -48.8226E+06     43.7529E+06              0.     8.06480E+06
           24706    -50.2971E+06     42.5927E+06              0.     8.04962E+06
           24707    -51.7666E+06     41.3659E+06              0.     8.02913E+06
           24708    -53.2302E+06     40.0704E+06              0.     8.00321E+06
           24709    -54.6868E+06     38.7040E+06              0.     7.97169E+06
           24710    -56.1356E+06     37.2649E+06              0.     7.93445E+06
           24711    -57.5754E+06     35.7508E+06              0.     7.89135E+06
           24712    -59.0053E+06     34.1597E+06              0.     7.84225E+06
           24713    -60.4241E+06     32.4895E+06              0.     7.78702E+06
           24714    -61.8307E+06     30.7380E+06              0.     7.72553E+06
           24715    -63.2241E+06     28.9031E+06              0.     7.65765E+06
           24716    -64.6031E+06     26.9826E+06              0.     7.58326E+06
           24717    -65.9664E+06     24.9746E+06              0.     7.50224E+06
           24718    -67.3130E+06     22.8767E+06              0.     7.41447E+06
           24719    -68.6417E+06     20.6869E+06              0.     7.31984E+06
           24720    -69.9511E+06     18.4030E+06              0.     7.21825E+06
           24721    -71.2400E+06     16.0229E+06              0.     7.10958E+06
           24722    -72.5072E+06     13.5445E+06              0.     6.99374E+06
           24723    -73.7514E+06     10.9656E+06              0.     6.87063E+06
           24724    -74.9712E+06     8.28423E+06              0.     6.74015E+06
           24725    -76.1653E+06     5.49820E+06              0.     6.60223E+06
           24726    -77.3324E+06     2.60548E+06              0.     6.45678E+06
           24727    -78.4710E+06    -395.946E+03              0.     6.30371E+06
           24728    -79.5797E+06    -3.50816E+06              0.     6.14296E+06
           24729    -80.6571E+06    -6.73311E+06              0.     5.97446E+06
           24730    -81.7018E+06    -10.0728E+06              0.     5.79813E+06
           24731    -82.7122E+06    -13.5292E+06              0.     5.61392E+06
           24732    -83.6869E+06    -17.1042E+06              0.     5.42176E+06
           24733    -84.6243E+06    -20.7997E+06              0.     5.22161E+06
           24734    -85.5228E+06    -24.6174E+06              0.     5.01342E+06
           24735    -86.3809E+06    -28.5594E+06              0.     4.79712E+06
           24736    -87.1969E+06    -32.6273E+06              0.     4.57270E+06
           24737    -87.9692E+06    -36.8227E+06              0.     4.34009E+06
           24738    -89.5743E+06    -41.5735E+06              0.     4.22829E+06
           24739     63.6244E+06     27.9434E+06              0.     478.371E+03
           24740     63.6454E+06     28.1759E+06              0.     477.474E+03
           24741     63.5668E+06     28.3599E+06              0.     471.046E+03
           24742     63.4892E+06     28.5389E+06              0.     465.567E+03
           24743     63.4123E+06     28.7131E+06              0.     461.013E+03
           24744     63.3361E+06     28.8828E+06              0.     457.358E+03
           24745     63.2603E+06     29.0482E+06              0.     454.580E+03
           24746     63.1850E+06     29.2094E+06              0.     452.656E+03
           24747     63.1098E+06     29.3668E+06              0.     451.565E+03
           24748     63.0347E+06     29.5205E+06              0.     451.288E+03
           24749     62.9596E+06     29.6707E+06              0.     451.804E+03
           24750     62.8842E+06     29.8177E+06              0.     453.097E+03
           24751     62.8086E+06     29.9615E+06              0.     455.150E+03
           24752     62.7324E+06     30.1024E+06              0.     457.947E+03
           24753     62.6557E+06     30.2405E+06              0.     461.472E+03
           24754     62.5784E+06     30.3761E+06              0.     465.711E+03
           24755     62.5002E+06     30.5093E+06              0.     470.652E+03
           24756     62.4211E+06     30.6403E+06              0.     476.283E+03
           24757     62.3409E+06     30.7691E+06              0.     482.591E+03
           24758     62.2596E+06     30.8961E+06              0.     489.566E+03
           24759     62.1770E+06     31.0212E+06              0.     497.197E+03
           24760     62.0930E+06     31.1447E+06              0.     505.477E+03
           24761     62.0076E+06     31.2667E+06              0.     514.396E+03
           24762     61.9206E+06     31.3874E+06              0.     523.947E+03
           24763     61.8318E+06     31.5068E+06              0.     534.123E+03
           24764     61.7413E+06     31.6251E+06              0.     544.917E+03
           24765     61.6489E+06     31.7425E+06              0.     556.323E+03
           24766     61.5545E+06     31.8590E+06              0.     568.337E+03
           24767     61.4580E+06     31.9748E+06              0.     580.955E+03
           24768     61.3593E+06       32.09E+06              0.     594.172E+03
           24769     61.2582E+06     32.2047E+06              0.     607.986E+03
           24770     61.1548E+06     32.3190E+06              0.     622.393E+03
           24771     61.0489E+06     32.4330E+06              0.     637.391E+03
           24772     60.9404E+06     32.5469E+06              0.     652.980E+03
           24773     60.8291E+06     32.6607E+06              0.     669.157E+03
           24774     60.7151E+06     32.7745E+06              0.     685.923E+03
           24775     60.5982E+06     32.8885E+06              0.     703.277E+03
           24776     60.4783E+06     33.0027E+06              0.      721.22E+03
           24777     60.3553E+06     33.1172E+06              0.     739.753E+03
           24778     60.2292E+06     33.2322E+06              0.     758.877E+03
           24779     60.0997E+06     33.3477E+06              0.     778.595E+03
           24780     59.9669E+06     33.4637E+06              0.     798.908E+03
           24781     59.8306E+06     33.5805E+06              0.     819.819E+03
           24782     59.6907E+06     33.6980E+06              0.     841.332E+03
           24783     59.5471E+06     33.8164E+06              0.     863.449E+03
           24784     59.3998E+06     33.9357E+06              0.     886.175E+03
           24785     59.2486E+06     34.0560E+06              0.     909.515E+03
           24786     59.0933E+06     34.1775E+06              0.     933.472E+03
           24787     58.9340E+06     34.3001E+06              0.     958.052E+03
           24788     58.7706E+06     34.4239E+06              0.     983.261E+03
           24789     58.6028E+06     34.5491E+06              0.     1.00910E+06
           24790     58.4306E+06     34.6757E+06              0.     1.03559E+06
           24791     58.2540E+06     34.8037E+06              0.     1.06272E+06
           24792     58.0727E+06     34.9333E+06              0.     1.09050E+06
           24793     57.8867E+06     35.0645E+06              0.     1.11894E+06
           24794     57.6959E+06     35.1973E+06              0.     1.14805E+06
           24795     57.5001E+06     35.3319E+06              0.     1.17784E+06
           24796     57.2993E+06     35.4683E+06              0.     1.20831E+06
           24797     57.0934E+06     35.6065E+06              0.     1.23946E+06
           24798     56.8822E+06     35.7467E+06              0.     1.27132E+06
           24799     56.6656E+06     35.8889E+06              0.     1.30389E+06
           24800     56.4435E+06     36.0331E+06              0.     1.33717E+06
           24801     56.2157E+06     36.1794E+06              0.     1.37118E+06
           24802     55.9823E+06     36.3278E+06              0.     1.40593E+06
           24803     55.7430E+06     36.4785E+06              0.     1.44142E+06
           24804     55.4977E+06     36.6315E+06              0.     1.47766E+06
           24805     55.2463E+06     36.7868E+06              0.     1.51467E+06
           24806     54.9886E+06     36.9444E+06              0.     1.55245E+06
           24807     54.7247E+06     37.1045E+06              0.     1.59101E+06
           24808     54.4542E+06     37.2670E+06              0.     1.63037E+06
           24809     54.1772E+06     37.4321E+06              0.     1.67053E+06
           24810     53.8934E+06     37.5997E+06              0.     1.71151E+06
           24811     53.6028E+06     37.7700E+06              0.     1.75331E+06
           24812     53.3051E+06     37.9428E+06              0.     1.79595E+06
           24813     53.0003E+06     38.1184E+06              0.     1.83944E+06
           24814     52.6883E+06     38.2967E+06              0.     1.88378E+06
           24815     52.3688E+06     38.4777E+06              0.     1.92899E+06
           24816     52.0418E+06     38.6616E+06              0.     1.97508E+06
           24817     51.7072E+06     38.8483E+06              0.     2.02206E+06
           24818     51.3647E+06     39.0378E+06              0.     2.06993E+06
           24819     51.0142E+06     39.2302E+06              0.     2.11872E+06
           24820     50.6556E+06     39.4256E+06              0.     2.16843E+06
           24821     50.2888E+06     39.6239E+06              0.     2.21907E+06
           24822     49.9135E+06     39.8251E+06              0.     2.27066E+06
           24823     49.5297E+06     40.0293E+06              0.     2.32319E+06
           24824     49.1372E+06     40.2365E+06              0.     2.37669E+06
           24825     48.7359E+06     40.4467E+06              0.     2.43116E+06
           24826     48.3255E+06     40.6599E+06              0.     2.48661E+06
           24827     47.9060E+06     40.8762E+06              0.     2.54305E+06
           24828     47.4772E+06     41.0954E+06              0.     2.60049E+06
           24829     47.0389E+06     41.3177E+06              0.     2.65894E+06
           24830     46.5910E+06     41.5430E+06              0.     2.71841E+06
           24831     46.1333E+06     41.7714E+06              0.     2.77890E+06
           24832     45.6656E+06     42.0027E+06              0.     2.84043E+06
           24833     45.1879E+06     42.2370E+06              0.     2.90300E+06
           24834     44.7000E+06     42.4743E+06              0.     2.96661E+06
           24835     44.2016E+06     42.7145E+06              0.     3.03128E+06
           24836     43.6927E+06     42.9576E+06              0.     3.09701E+06
           24837      43.173E+06     43.2036E+06              0.     3.16381E+06
           24838     42.6424E+06     43.4525E+06              0.     3.23167E+06
           24839     42.1008E+06     43.7041E+06              0.     3.30061E+06
           24840     41.5480E+06     43.9585E+06              0.     3.37063E+06
           24841     40.9839E+06     44.2155E+06              0.     3.44172E+06
           24842     40.4082E+06     44.4752E+06              0.     3.51390E+06
           24843     39.8208E+06     44.7375E+06              0.     3.58717E+06
           24844     39.2216E+06     45.0022E+06              0.     3.66151E+06
           24845     38.6104E+06     45.2693E+06              0.     3.73694E+06
           24846     37.9870E+06     45.5387E+06              0.     3.81345E+06
           24847     37.3513E+06     45.8103E+06              0.     3.89103E+06
           24848     36.7032E+06     46.0840E+06              0.     3.96969E+06
           24849     36.0425E+06     46.3597E+06              0.     4.04942E+06
           24850     35.3690E+06     46.6373E+06              0.     4.13021E+06
           24851     34.6826E+06     46.9165E+06              0.     4.21206E+06
           24852     33.9831E+06     47.1974E+06              0.     4.29495E+06
           24853     33.2704E+06     47.4797E+06              0.     4.37888E+06
           24854     32.5444E+06     47.7633E+06              0.     4.46384E+06
           24855     31.8050E+06     48.0479E+06              0.     4.54980E+06
           24856     31.0519E+06     48.3335E+06              0.     4.63677E+06
           24857     30.2851E+06     48.6198E+06              0.     4.72471E+06
           24858     29.5044E+06     48.9065E+06              0.     4.81361E+06
           24859     28.7097E+06     49.1936E+06              0.     4.90346E+06
           24860     27.9009E+06     49.4807E+06              0.     4.99423E+06
           24861     27.0779E+06     49.7676E+06              0.     5.08589E+06
           24862     26.2406E+06     50.0541E+06              0.     5.17843E+06
           24863     25.3888E+06     50.3398E+06              0.     5.27181E+06
           24864     24.5225E+06     50.6245E+06              0.     5.36600E+06
           24865     23.6416E+06     50.9079E+06              0.     5.46098E+06
           24866     22.7459E+06     51.1896E+06              0.     5.55670E+06
           24867     21.8355E+06     51.4693E+06              0.     5.65313E+06
           24868     20.9102E+06     51.7467E+06              0.     5.75023E+06
           24869     19.9699E+06     52.0213E+06              0.     5.84796E+06
           24870     19.0147E+06     52.2929E+06              0.     5.94628E+06
           24871     18.0445E+06     52.5609E+06              0.     6.04513E+06
           24872     17.0591E+06     52.8249E+06              0.     6.14447E+06
           24873     16.0587E+06     53.0845E+06              0.     6.24425E+06
           24874     15.0431E+06     53.3392E+06              0.     6.34441E+06
           24875     14.0124E+06     53.5886E+06              0.     6.44488E+06
           24876     12.9666E+06     53.8320E+06              0.     6.54562E+06
           24877     11.9056E+06     54.0690E+06              0.     6.64655E+06
           24878     10.8294E+06     54.2990E+06              0.     6.74761E+06
           24879     9.73824E+06     54.5214E+06              0.     6.84872E+06
           24880     8.63199E+06     54.7356E+06              0.     6.94981E+06
           24881     7.51075E+06     54.9410E+06              0.     7.05081E+06
           24882     6.37459E+06     55.1369E+06              0.     7.15163E+06
           24883     5.22359E+06     55.3225E+06              0.     7.25218E+06
           24884     4.05785E+06     55.4973E+06              0.     7.35239E+06
           24885     2.87746E+06     55.6604E+06              0.     7.45215E+06
           24886     1.68256E+06     55.8111E+06              0.     7.55137E+06
           24887     473.290E+03     55.9486E+06              0.     7.64996E+06
           24888    -750.202E+03     56.0719E+06              0.     7.74780E+06
           24889    -1.98775E+06     56.1804E+06              0.     7.84480E+06
           24890    -3.23915E+06     56.2730E+06              0.     7.94085E+06
           24891    -4.50422E+06     56.3489E+06              0.     8.03582E+06
           24892    -5.78273E+06     56.4071E+06              0.     8.12961E+06
           24893    -7.07443E+06     56.4465E+06              0.     8.22208E+06
           24894    -8.37907E+06     56.4663E+06              0.     8.31313E+06
           24895    -9.69639E+06     56.4652E+06              0.     8.40262E+06
           24896    -11.0261E+06     56.4423E+06              0.     8.49041E+06
           24897    -12.3678E+06     56.3964E+06              0.     8.57637E+06
           24898    -13.7213E+06     56.3263E+06              0.     8.66037E+06
           24899    -15.0861E+06     56.2308E+06              0.     8.74226E+06
           24900    -16.4619E+06     56.1088E+06              0.     8.82189E+06
           24901    -17.8484E+06     55.9589E+06              0.     8.89913E+06
           24902    -19.2450E+06     55.7798E+06              0.     8.97380E+06
           24903    -20.6513E+06     55.5702E+06              0.     9.04577E+06
           24904    -22.0669E+06     55.3287E+06              0.     9.11486E+06
           24905    -23.4914E+06     55.0540E+06              0.     9.18093E+06
           24906    -24.9241E+06     54.7444E+06              0.     9.24381E+06
           24907    -26.3646E+06     54.3987E+06              0.     9.30333E+06
           24908    -27.8123E+06     54.0152E+06              0.     9.35932E+06
           24909    -29.2666E+06     53.5924E+06              0.     9.41161E+06
           24910    -30.7270E+06     53.1286E+06              0.     9.46003E+06
           24911    -32.1928E+06     52.6224E+06              0.     9.50442E+06
           24912    -33.6634E+06     52.0720E+06              0.     9.54458E+06
           24913    -35.1381E+06     51.4756E+06              0.     9.58035E+06
           24914    -36.6162E+06     50.8317E+06              0.     9.61154E+06
           24915    -38.0971E+06     50.1383E+06              0.     9.63798E+06
           24916    -39.5798E+06     49.3938E+06              0.     9.65949E+06
           24917    -41.0638E+06     48.5963E+06              0.     9.67589E+06
           24918    -42.5482E+06     47.7439E+06              0.     9.68699E+06
           24919    -44.0322E+06     46.8348E+06              0.     9.69263E+06
           24920    -45.5149E+06     45.8669E+06              0.     9.69261E+06
           24921    -46.9956E+06     44.8385E+06              0.     9.68676E+06
           24922    -48.4732E+06     43.7476E+06              0.     9.67491E+06
           24923    -49.9470E+06     42.5920E+06              0.     9.65686E+06
           24924    -51.4159E+06     41.3699E+06              0.     9.63247E+06
           24925    -52.8791E+06     40.0792E+06              0.     9.60154E+06
           24926    -54.3355E+06     38.7178E+06              0.     9.56390E+06
           24927    -55.7841E+06     37.2836E+06              0.     9.51940E+06
           24928    -57.2239E+06     35.7746E+06              0.     9.46786E+06
           24929    -58.6539E+06     34.1887E+06              0.     9.40912E+06
           24930    -60.0730E+06     32.5238E+06              0.     9.34302E+06
           24931    -61.4801E+06     30.7776E+06              0.     9.26940E+06
           24932    -62.8740E+06     28.9482E+06              0.     9.18812E+06
           24933    -64.2537E+06     27.0333E+06              0.     9.09902E+06
           24934    -65.6179E+06     25.0308E+06              0.     9.00196E+06
           24935    -66.9656E+06     22.9386E+06              0.     8.89681E+06
           24936    -68.2954E+06     20.7545E+06              0.     8.78341E+06
           24937    -69.6061E+06     18.4764E+06              0.     8.66166E+06
           24938    -70.8965E+06     16.1021E+06              0.     8.53141E+06
           24939    -72.1653E+06     13.6296E+06              0.     8.39254E+06
           24940    -73.4113E+06     11.0566E+06              0.     8.24496E+06
           24941    -74.6330E+06     8.38121E+06              0.     8.08853E+06
           24942    -75.8292E+06     5.60116E+06              0.     7.92316E+06
           24943    -76.9985E+06     2.71445E+06              0.     7.74874E+06
           24944    -78.1394E+06    -280.945E+03              0.     7.56519E+06
           24945    -79.2506E+06    -3.38711E+06              0.     7.37241E+06
           24946    -80.3307E+06    -6.60600E+06              0.     7.17032E+06
           24947    -81.3782E+06    -9.93965E+06              0.     6.95884E+06
           24948    -82.3915E+06    -13.3900E+06              0.     6.73789E+06
           24949    -83.3693E+06    -16.9589E+06              0.     6.50741E+06
           24950    -84.3099E+06    -20.6483E+06              0.     6.26732E+06
           24951    -85.2118E+06    -24.4600E+06              0.     6.01758E+06
           24952    -86.0733E+06    -28.3958E+06              0.     5.75812E+06
           24953    -86.8930E+06    -32.4577E+06              0.     5.48889E+06
           24954    -87.6691E+06    -36.6471E+06              0.     5.20985E+06
           24955    -89.2742E+06    -41.3918E+06              0.     5.07578E+06
           24956     63.6447E+06     27.9522E+06              0.     557.085E+03
           24957     63.6657E+06     28.1834E+06              0.     556.042E+03
           24958     63.5875E+06     28.3664E+06              0.     548.556E+03
           24959     63.5102E+06     28.5444E+06              0.     542.176E+03
           24960     63.4338E+06     28.7177E+06              0.     536.872E+03
           24961      63.358E+06     28.8864E+06              0.     532.617E+03
           24962     63.2827E+06     29.0509E+06              0.     529.381E+03
           24963     63.2077E+06     29.2113E+06              0.     527.141E+03
           24964     63.1330E+06     29.3678E+06              0.     525.871E+03
           24965     63.0583E+06     29.5206E+06              0.     525.548E+03
           24966     62.9836E+06     29.6700E+06              0.     526.150E+03
           24967     62.9087E+06     29.8161E+06              0.     527.656E+03
           24968     62.8334E+06     29.9591E+06              0.     530.047E+03
           24969     62.7577E+06     30.0993E+06              0.     533.304E+03
           24970     62.6815E+06     30.2367E+06              0.     537.409E+03
           24971     62.6045E+06     30.3715E+06              0.     542.347E+03
           24972     62.5267E+06     30.5039E+06              0.     548.102E+03
           24973     62.4481E+06     30.6342E+06              0.     554.659E+03
           24974     62.3683E+06     30.7623E+06              0.     562.005E+03
           24975     62.2875E+06     30.8885E+06              0.     570.128E+03
           24976     62.2053E+06     31.0130E+06              0.     579.016E+03
           24977     62.1218E+06     31.1358E+06              0.     588.659E+03
           24978     62.0369E+06     31.2572E+06              0.     599.046E+03
           24979     61.9503E+06     31.3772E+06              0.     610.169E+03
           24980     61.8621E+06     31.4959E+06              0.     622.020E+03
           24981     61.7721E+06     31.6136E+06              0.     634.591E+03
           24982     61.6802E+06     31.7303E+06              0.     647.875E+03
           24983     61.5863E+06     31.8462E+06              0.     661.867E+03
           24984     61.4903E+06     31.9614E+06              0.     676.562E+03
           24985     61.3921E+06     32.0759E+06              0.     691.955E+03
           24986     61.2916E+06     32.1900E+06              0.     708.042E+03
           24987     61.1888E+06     32.3036E+06              0.     724.820E+03
           24988     61.0834E+06     32.4170E+06              0.     742.288E+03
           24989     60.9755E+06     32.5303E+06              0.     760.442E+03
           24990     60.8649E+06     32.6435E+06              0.     779.283E+03
           24991     60.7515E+06     32.7567E+06              0.     798.809E+03
           24992     60.6352E+06     32.8700E+06              0.     819.020E+03
           24993     60.5160E+06     32.9836E+06              0.     839.917E+03
           24994     60.3937E+06     33.0975E+06              0.     861.501E+03
           24995     60.2682E+06     33.2118E+06              0.     883.774E+03
           24996     60.1395E+06     33.3267E+06              0.     906.738E+03
           24997     60.0073E+06     33.4421E+06              0.     930.395E+03
           24998     59.8718E+06     33.5582E+06              0.     954.749E+03
           24999     59.7327E+06     33.6751E+06              0.     979.803E+03
           25000     59.5899E+06     33.7929E+06              0.     1.00556E+06
           25001     59.4433E+06     33.9115E+06              0.     1.03203E+06
           25002     59.2929E+06     34.0312E+06              0.     1.05921E+06
           25003     59.1385E+06     34.1520E+06              0.     1.08711E+06
           25004     58.9801E+06     34.2740E+06              0.     1.11574E+06
           25005     58.8175E+06     34.3971E+06              0.     1.14510E+06
           25006     58.6507E+06     34.5216E+06              0.     1.17520E+06
           25007     58.4794E+06     34.6475E+06              0.     1.20604E+06
           25008     58.3037E+06     34.7749E+06              0.     1.23764E+06
           25009     58.1234E+06     34.9038E+06              0.     1.27000E+06
           25010     57.9384E+06     35.0342E+06              0.     1.30312E+06
           25011     57.7487E+06     35.1664E+06              0.     1.33703E+06
           25012     57.5540E+06     35.3002E+06              0.     1.37172E+06
           25013     57.3542E+06     35.4359E+06              0.     1.40721E+06
           25014     57.1494E+06     35.5734E+06              0.     1.44350E+06
           25015     56.9393E+06     35.7128E+06              0.     1.48060E+06
           25016     56.7239E+06     35.8543E+06              0.     1.51853E+06
           25017     56.5030E+06     35.9977E+06              0.      1.5573E+06
           25018     56.2765E+06     36.1432E+06              0.     1.59691E+06
           25019     56.0443E+06     36.2909E+06              0.     1.63738E+06
           25020     55.8062E+06     36.4408E+06              0.     1.67871E+06
           25021     55.5622E+06     36.5930E+06              0.     1.72093E+06
           25022     55.3122E+06     36.7474E+06              0.     1.76403E+06
           25023     55.0560E+06     36.9043E+06              0.     1.80804E+06
           25024     54.7934E+06     37.0635E+06              0.     1.85295E+06
           25025     54.5244E+06     37.2252E+06              0.     1.89880E+06
           25026     54.2488E+06     37.3894E+06              0.     1.94558E+06
           25027     53.9665E+06     37.5562E+06              0.     1.99331E+06
           25028     53.6774E+06     37.7256E+06              0.     2.04200E+06
           25029     53.3814E+06     37.8975E+06              0.     2.09166E+06
           25030     53.0782E+06     38.0722E+06              0.     2.14232E+06
           25031     52.7678E+06     38.2496E+06              0.     2.19397E+06
           25032     52.4500E+06     38.4297E+06              0.     2.24663E+06
           25033     52.1248E+06     38.6126E+06              0.     2.30031E+06
           25034     51.7918E+06     38.7984E+06              0.     2.35504E+06
           25035     51.4511E+06     38.9870E+06              0.     2.41081E+06
           25036     51.1025E+06     39.1784E+06              0.     2.46764E+06
           25037     50.7458E+06     39.3728E+06              0.     2.52554E+06
           25038     50.3809E+06     39.5701E+06              0.     2.58453E+06
           25039     50.0076E+06     39.7703E+06              0.     2.64462E+06
           25040     49.6258E+06     39.9735E+06              0.     2.70582E+06
           25041     49.2353E+06     40.1797E+06              0.     2.76814E+06
           25042     48.8360E+06     40.3889E+06              0.     2.83159E+06
           25043     48.4278E+06     40.6011E+06              0.     2.89619E+06
           25044     48.0104E+06     40.8162E+06              0.     2.96194E+06
           25045     47.5838E+06     41.0345E+06              0.     3.02885E+06
           25046     47.1478E+06     41.2557E+06              0.     3.09695E+06
           25047     46.7022E+06     41.4799E+06              0.     3.16623E+06
           25048     46.2468E+06     41.7071E+06              0.     3.23670E+06
           25049     45.7816E+06     41.9374E+06              0.     3.30838E+06
           25050     45.3063E+06     42.1706E+06              0.     3.38128E+06
           25051     44.8208E+06     42.4067E+06              0.     3.45539E+06
           25052     44.3250E+06     42.6458E+06              0.     3.53074E+06
           25053     43.8186E+06     42.8878E+06              0.     3.60732E+06
           25054     43.3015E+06     43.1327E+06              0.     3.68514E+06
           25055     42.7736E+06     43.3804E+06              0.     3.76421E+06
           25056     42.2347E+06     43.6309E+06              0.     3.84453E+06
           25057     41.6847E+06     43.8841E+06              0.     3.92611E+06
           25058     41.1233E+06     44.1400E+06              0.     4.00895E+06
           25059     40.5505E+06     44.3986E+06              0.     4.09305E+06
           25060     39.9660E+06     44.6597E+06              0.     4.17842E+06
           25061     39.3697E+06     44.9232E+06              0.     4.26505E+06
           25062     38.7615E+06     45.1892E+06              0.     4.35294E+06
           25063     38.1412E+06     45.4574E+06              0.     4.44209E+06
           25064     37.5086E+06     45.7279E+06              0.     4.53250E+06
           25065     36.8636E+06     46.0005E+06              0.     4.62416E+06
           25066     36.2060E+06     46.2750E+06              0.     4.71707E+06
           25067     35.5357E+06     46.5515E+06              0.     4.81122E+06
           25068     34.8526E+06     46.8296E+06              0.     4.90661E+06
           25069     34.1564E+06     47.1094E+06              0.     5.00321E+06
           25070     33.4471E+06     47.3905E+06              0.     5.10102E+06
           25071     32.7245E+06      47.673E+06              0.     5.20003E+06
           25072     31.9885E+06     47.9566E+06              0.     5.30023E+06
           25073     31.2389E+06     48.2411E+06              0.     5.40158E+06
           25074     30.4757E+06     48.5263E+06              0.     5.50408E+06
           25075     29.6985E+06     48.8120E+06              0.     5.60771E+06
           25076     28.9075E+06     49.0981E+06              0.     5.71243E+06
           25077     28.1024E+06     49.3842E+06              0.     5.81824E+06
           25078     27.2831E+06     49.6702E+06              0.     5.92509E+06
           25079     26.4495E+06     49.9557E+06              0.     6.03296E+06
           25080     25.6015E+06     50.2405E+06              0.     6.14181E+06
           25081     24.7390E+06     50.5243E+06              0.     6.25162E+06
           25082     23.8619E+06     50.8068E+06              0.     6.36234E+06
           25083     22.9701E+06     51.0877E+06              0.     6.47393E+06
           25084     22.0636E+06     51.3667E+06              0.     6.58636E+06
           25085     21.1423E+06     51.6433E+06              0.     6.69957E+06
           25086     20.2060E+06     51.9173E+06              0.     6.81352E+06
           25087     19.2548E+06     52.1881E+06              0.     6.92816E+06
           25088     18.2886E+06     52.4555E+06              0.     7.04343E+06
           25089     17.3073E+06     52.7190E+06              0.     7.15927E+06
           25090     16.3109E+06     52.9781E+06              0.     7.27562E+06
           25091     15.2995E+06     53.2323E+06              0.     7.39242E+06
           25092     14.2729E+06     53.4813E+06              0.     7.50960E+06
           25093     13.2312E+06     53.7244E+06              0.     7.62709E+06
           25094     12.1743E+06     53.9611E+06              0.     7.74481E+06
           25095     11.1024E+06     54.1909E+06              0.     7.86268E+06
           25096     10.0153E+06     54.4132E+06              0.     7.98062E+06
           25097     8.91324E+06     54.6274E+06              0.     8.09854E+06
           25098     7.79618E+06     54.8328E+06              0.     8.21636E+06
           25099     6.66420E+06     55.0287E+06              0.     8.33397E+06
           25100     5.51737E+06     55.2146E+06              0.     8.45129E+06
           25101     4.35579E+06     55.3896E+06              0.     8.56820E+06
           25102     3.17956E+06     55.5531E+06              0.     8.68460E+06
           25103     1.98880E+06     55.7042E+06              0.     8.80039E+06
           25104     783.654E+03     55.8422E+06              0.     8.91543E+06
           25105    -435.732E+03     55.9662E+06              0.     9.02962E+06
           25106    -1.66919E+06     56.0754E+06              0.     9.14283E+06
           25107    -2.91655E+06     56.1689E+06              0.     9.25493E+06
           25108    -4.17759E+06     56.2458E+06              0.     9.36579E+06
           25109    -5.45210E+06      56.305E+06              0.     9.47527E+06
           25110    -6.73986E+06     56.3457E+06              0.     9.58324E+06
           25111    -8.04060E+06     56.3667E+06              0.     9.68954E+06
           25112    -9.35405E+06     56.3671E+06              0.     9.79403E+06
           25113    -10.6799E+06     56.3457E+06              0.     9.89655E+06
           25114    -12.0179E+06     56.3015E+06              0.     9.99695E+06
           25115    -13.3677E+06     56.2332E+06              0.     10.0951E+06
           25116    -14.7289E+06     56.1397E+06              0.     10.1907E+06
           25117    -16.1012E+06     56.0197E+06              0.     10.2837E+06
           25118    -17.4841E+06     55.8720E+06              0.     10.3740E+06
           25119    -18.8773E+06     55.6953E+06              0.     10.4613E+06
           25120    -20.2803E+06     55.4882E+06              0.     10.5454E+06
           25121    -21.6927E+06     55.2494E+06              0.     10.6261E+06
           25122    -23.1140E+06     54.9774E+06              0.     10.7034E+06
           25123    -24.5436E+06     54.6708E+06              0.     10.7769E+06
           25124    -25.9812E+06     54.3281E+06              0.     10.8465E+06
           25125    -27.4260E+06     53.9479E+06              0.     10.9120E+06
           25126    -28.8776E+06     53.5284E+06              0.     10.9733E+06
           25127    -30.3354E+06     53.0682E+06              0.     11.0300E+06
           25128    -31.7987E+06     52.5657E+06              0.     11.0819E+06
           25129    -33.2668E+06     52.0191E+06              0.     11.1290E+06
           25130    -34.7393E+06     51.4267E+06              0.     11.1710E+06
           25131    -36.2152E+06     50.7869E+06              0.     11.2076E+06
           25132    -37.6940E+06     50.0978E+06              0.     11.2387E+06
           25133    -39.1750E+06     49.3578E+06              0.     11.2640E+06
           25134    -40.6572E+06     48.5648E+06              0.     11.2834E+06
           25135    -42.1400E+06     47.7172E+06              0.     11.2965E+06
           25136    -43.6225E+06     46.8129E+06              0.     11.3034E+06
           25137    -45.1039E+06     45.8501E+06              0.     11.3036E+06
           25138    -46.5834E+06     44.8269E+06              0.     11.2970E+06
           25139    -48.0601E+06     43.7412E+06              0.     11.2834E+06
           25140    -49.5330E+06     42.5911E+06              0.     11.2626E+06
           25141    -51.0013E+06     41.3745E+06              0.     11.2344E+06
           25142    -52.4639E+06     40.0894E+06              0.     11.1986E+06
           25143    -53.9200E+06     38.7338E+06              0.     11.1549E+06
           25144    -55.3684E+06     37.3056E+06              0.     11.1033E+06
           25145    -56.8083E+06     35.8027E+06              0.     11.0434E+06
           25146    -58.2384E+06     34.2229E+06              0.     10.9751E+06
           25147    -59.6578E+06     32.5642E+06              0.     10.8982E+06
           25148    -61.0654E+06     30.8245E+06              0.     10.8126E+06
           25149    -62.4600E+06     29.0015E+06              0.     10.7180E+06
           25150    -63.8405E+06     27.0931E+06              0.     10.6143E+06
           25151    -65.2058E+06     25.0972E+06              0.     10.5013E+06
           25152    -66.5546E+06     23.0117E+06              0.     10.3788E+06
           25153    -67.8858E+06     20.8344E+06              0.     10.2468E+06
           25154    -69.1981E+06     18.5631E+06              0.     10.1049E+06
           25155    -70.4903E+06     16.1957E+06              0.     9.95319E+06
           25156    -71.7610E+06     13.7302E+06              0.     9.79139E+06
           25157    -73.0090E+06     11.1642E+06              0.     9.61940E+06
           25158     -74.233E+06     8.49581E+06              0.     9.43709E+06
           25159    -75.4316E+06     5.72283E+06              0.     9.24434E+06
           25160    -76.6035E+06     2.84323E+06              0.     9.04104E+06
           25161    -77.7472E+06    -145.040E+03              0.     8.82707E+06
           25162    -78.8614E+06    -3.24406E+06              0.     8.60233E+06
           25163    -79.9446E+06    -6.45578E+06              0.     8.36671E+06
           25164    -80.9954E+06    -9.78225E+06              0.     8.12014E+06
           25165    -82.0122E+06    -13.2254E+06              0.     7.86251E+06
           25166    -82.9936E+06    -16.7871E+06              0.     7.59376E+06
           25167    -83.9380E+06    -20.4693E+06              0.     7.31380E+06
           25168    -84.8439E+06    -24.2738E+06              0.     7.02256E+06
           25169    -85.7096E+06    -28.2025E+06              0.     6.71998E+06
           25170    -86.5336E+06    -32.2572E+06              0.       6.406E+06
           25171    -87.3142E+06    -36.4395E+06              0.     6.08056E+06
           25172    -88.9193E+06    -41.1772E+06              0.     5.92429E+06
           25173     63.6681E+06     27.9624E+06              0.     635.334E+03
           25174     63.6890E+06     28.1921E+06              0.     634.144E+03
           25175     63.6113E+06     28.3739E+06              0.     625.606E+03
           25176     63.5345E+06     28.5508E+06              0.     618.331E+03
           25177     63.4586E+06     28.7229E+06              0.     612.283E+03
           25178     63.3833E+06     28.8906E+06              0.     607.429E+03
           25179     63.3084E+06     29.0540E+06              0.     603.740E+03
           25180     63.2340E+06     29.2133E+06              0.     601.186E+03
           25181     63.1597E+06     29.3689E+06              0.     599.737E+03
           25182     63.0855E+06     29.5207E+06              0.     599.369E+03
           25183     63.0113E+06     29.6691E+06              0.     600.056E+03
           25184     62.9368E+06     29.8143E+06              0.     601.774E+03
           25185     62.8621E+06     29.9564E+06              0.     604.502E+03
           25186     62.7868E+06     30.0957E+06              0.     608.216E+03
           25187     62.7111E+06     30.2322E+06              0.     612.899E+03
           25188     62.6346E+06     30.3661E+06              0.     618.531E+03
           25189     62.5573E+06     30.4977E+06              0.     625.094E+03
           25190     62.4792E+06     30.6271E+06              0.     632.573E+03
           25191     62.3999E+06     30.7545E+06              0.     640.952E+03
           25192     62.3196E+06     30.8799E+06              0.     650.217E+03
           25193     62.2380E+06     31.0035E+06              0.     660.354E+03
           25194     62.1550E+06     31.1256E+06              0.     671.352E+03
           25195     62.0706E+06     31.2462E+06              0.     683.199E+03
           25196     61.9846E+06     31.3654E+06              0.     695.885E+03
           25197     61.8969E+06     31.4834E+06              0.     709.401E+03
           25198     61.8075E+06     31.6003E+06              0.     723.738E+03
           25199     61.7162E+06     31.7163E+06              0.     738.889E+03
           25200     61.6229E+06     31.8314E+06              0.     754.848E+03
           25201     61.5275E+06     31.9459E+06              0.     771.607E+03
           25202     61.4299E+06     32.0597E+06              0.     789.164E+03
           25203     61.3301E+06     32.1730E+06              0.     807.512E+03
           25204     61.2279E+06     32.2860E+06              0.     826.648E+03
           25205     61.1232E+06     32.3987E+06              0.     846.571E+03
           25206     61.0160E+06     32.5112E+06              0.     867.277E+03
           25207     60.9060E+06     32.6236E+06              0.     888.765E+03
           25208     60.7934E+06     32.7361E+06              0.     911.035E+03
           25209     60.6778E+06     32.8488E+06              0.     934.087E+03
           25210     60.5594E+06     32.9616E+06              0.     957.921E+03
           25211     60.4378E+06     33.0748E+06              0.     982.539E+03
           25212     60.3131E+06     33.1884E+06              0.     1.00794E+06
           25213     60.1852E+06     33.3025E+06              0.     1.03413E+06
           25214     60.0539E+06     33.4172E+06              0.     1.06112E+06
           25215     59.9192E+06     33.5326E+06              0.     1.08889E+06
           25216     59.7810E+06     33.6488E+06              0.     1.11747E+06
           25217     59.6391E+06     33.7658E+06              0.     1.14685E+06
           25218     59.4935E+06     33.8837E+06              0.     1.17704E+06
           25219     59.3440E+06     34.0027E+06              0.     1.20804E+06
           25220     59.1906E+06     34.1227E+06              0.     1.23987E+06
           25221     59.0332E+06     34.2439E+06              0.     1.27252E+06
           25222     58.8716E+06     34.3663E+06              0.     1.30600E+06
           25223     58.7058E+06     34.4900E+06              0.     1.34033E+06
           25224     58.5356E+06     34.6151E+06              0.     1.37551E+06
           25225     58.3610E+06     34.7417E+06              0.     1.41155E+06
           25226     58.1819E+06     34.8698E+06              0.     1.44846E+06
           25227     57.9980E+06     34.9994E+06              0.     1.48625E+06
           25228     57.8094E+06     35.1307E+06              0.     1.52492E+06
           25229     57.6159E+06     35.2638E+06              0.     1.56449E+06
           25230     57.4175E+06     35.3986E+06              0.     1.60496E+06
           25231     57.2139E+06     35.5353E+06              0.     1.64636E+06
           25232     57.0052E+06     35.6739E+06              0.     1.68868E+06
           25233     56.7911E+06     35.8144E+06              0.     1.73195E+06
           25234     56.5715E+06     35.9570E+06              0.     1.77617E+06
           25235     56.3464E+06     36.1016E+06              0.     1.82135E+06
           25236     56.1157E+06     36.2484E+06              0.     1.86751E+06
           25237     55.8791E+06     36.3974E+06              0.     1.91466E+06
           25238     55.6366E+06     36.5486E+06              0.     1.96281E+06
           25239     55.3881E+06     36.7022E+06              0.     2.01198E+06
           25240     55.1335E+06     36.8581E+06              0.     2.06218E+06
           25241     54.8725E+06     37.0163E+06              0.     2.11341E+06
           25242     54.6052E+06     37.1771E+06              0.     2.16571E+06
           25243     54.3313E+06     37.3403E+06              0.     2.21907E+06
           25244     54.0508E+06     37.5061E+06              0.     2.27352E+06
           25245     53.7634E+06     37.6744E+06              0.     2.32906E+06
           25246     53.4692E+06     37.8454E+06              0.     2.38572E+06
           25247     53.1679E+06     38.0190E+06              0.     2.44350E+06
           25248     52.8594E+06     38.1953E+06              0.     2.50242E+06
           25249     52.5436E+06     38.3744E+06              0.     2.56249E+06
           25250     52.2203E+06     38.5563E+06              0.     2.62374E+06
           25251     51.8894E+06     38.7409E+06              0.     2.68616E+06
           25252     51.5507E+06     38.9284E+06              0.     2.74978E+06
           25253     51.2042E+06     39.1187E+06              0.     2.81462E+06
           25254     50.8497E+06     39.3120E+06              0.     2.88068E+06
           25255     50.4870E+06     39.5081E+06              0.     2.94798E+06
           25256     50.1159E+06     39.7072E+06              0.     3.01653E+06
           25257     49.7364E+06     39.9092E+06              0.     3.08635E+06
           25258     49.3483E+06     40.1142E+06              0.     3.15744E+06
           25259     48.9514E+06     40.3222E+06              0.     3.22983E+06
           25260     48.5456E+06     40.5332E+06              0.     3.30353E+06
           25261     48.1308E+06     40.7472E+06              0.     3.37855E+06
           25262     47.7067E+06     40.9642E+06              0.     3.45490E+06
           25263     47.2733E+06     41.1842E+06              0.     3.53259E+06
           25264     46.8303E+06     41.4072E+06              0.     3.61163E+06
           25265     46.3776E+06     41.6331E+06              0.     3.69204E+06
           25266     45.9151E+06     41.8621E+06              0.     3.77383E+06
           25267     45.4427E+06     42.0940E+06              0.     3.85700E+06
           25268     44.9600E+06     42.3289E+06              0.     3.94157E+06
           25269     44.4671E+06     42.5667E+06              0.     4.02754E+06
           25270     43.9637E+06     42.8074E+06              0.     4.11492E+06
           25271     43.4496E+06     43.0510E+06              0.     4.20372E+06
           25272     42.9248E+06     43.2974E+06              0.     4.29395E+06
           25273     42.3890E+06     43.5466E+06              0.     4.38560E+06
           25274     41.8421E+06     43.7985E+06              0.     4.47870E+06
           25275     41.2840E+06     44.0531E+06              0.     4.57323E+06
           25276     40.7144E+06     44.3103E+06              0.     4.66920E+06
           25277     40.1333E+06     44.5700E+06              0.     4.76662E+06
           25278     39.5404E+06     44.8323E+06              0.     4.86549E+06
           25279     38.9356E+06     45.0969E+06              0.     4.96579E+06
           25280     38.3188E+06     45.3638E+06              0.     5.06754E+06
           25281     37.6897E+06     45.6330E+06              0.     5.17072E+06
           25282     37.0483E+06     45.9042E+06              0.     5.27534E+06
           25283     36.3944E+06     46.1775E+06              0.     5.38138E+06
           25284     35.7279E+06     46.4526E+06              0.     5.48884E+06
           25285     35.0485E+06     46.7294E+06              0.     5.59771E+06
           25286     34.3562E+06     47.0079E+06              0.     5.70798E+06
           25287     33.6507E+06     47.2878E+06              0.     5.81963E+06
           25288     32.9321E+06     47.5690E+06              0.     5.93265E+06
           25289     32.2000E+06     47.8513E+06              0.     6.04702E+06
           25290     31.4545E+06     48.1346E+06              0.     6.16272E+06
           25291     30.6953E+06     48.4186E+06              0.     6.27973E+06
           25292     29.9223E+06     48.7031E+06              0.     6.39803E+06
           25293     29.1354E+06     48.9880E+06              0.     6.51759E+06
           25294     28.3345E+06     49.2730E+06              0.     6.63838E+06
           25295     27.5195E+06     49.5578E+06              0.     6.76038E+06
           25296     26.6902E+06     49.8423E+06              0.     6.88354E+06
           25297     25.8466E+06     50.1260E+06              0.     7.00783E+06
           25298     24.9885E+06     50.4088E+06              0.     7.13321E+06
           25299     24.1158E+06     50.6904E+06              0.     7.25964E+06
           25300     23.2286E+06     50.9703E+06              0.     7.38707E+06
           25301     22.3266E+06     51.2483E+06              0.     7.51546E+06
           25302     21.4098E+06     51.5241E+06              0.     7.64475E+06
           25303     20.4781E+06     51.7972E+06              0.     7.77489E+06
           25304     19.5315E+06     52.0673E+06              0.     7.90581E+06
           25305     18.5700E+06     52.3340E+06              0.     8.03747E+06
           25306     17.5934E+06     52.5968E+06              0.     8.16978E+06
           25307     16.6017E+06     52.8554E+06              0.     8.30268E+06
           25308     15.5950E+06     53.1091E+06              0.     8.43610E+06
           25309     14.5732E+06     53.3576E+06              0.     8.56996E+06
           25310     13.5362E+06     53.6003E+06              0.     8.70418E+06
           25311     12.4842E+06     53.8367E+06              0.     8.83867E+06
           25312     11.4170E+06     54.0663E+06              0.     8.97334E+06
           25313     10.3348E+06     54.2884E+06              0.     9.10810E+06
           25314     9.23752E+06     54.5025E+06              0.     9.24285E+06
           25315     8.12529E+06     54.7079E+06              0.     9.37748E+06
           25316     6.99812E+06     54.9040E+06              0.     9.51189E+06
           25317     5.85612E+06     55.0900E+06              0.     9.64597E+06
           25318     4.69935E+06     55.2654E+06              0.     9.77959E+06
           25319     3.52792E+06     55.4292E+06              0.     9.91264E+06
           25320     2.34195E+06     55.5809E+06              0.     10.0450E+06
           25321     1.14157E+06     55.7195E+06              0.     10.1765E+06
           25322    -73.0704E+03     55.8443E+06              0.     10.3070E+06
           25323    -1.30181E+06     55.9543E+06              0.     10.4365E+06
           25324    -2.54448E+06     56.0488E+06              0.     10.5647E+06
           25325    -3.80087E+06     56.1267E+06              0.     10.6914E+06
           25326    -5.07077E+06     56.1872E+06              0.     10.8166E+06
           25327    -6.35396E+06     56.2292E+06              0.     10.9401E+06
           25328    -7.65018E+06     56.2517E+06              0.     11.0617E+06
           25329    -8.95917E+06     56.2538E+06              0.     11.1813E+06
           25330    -10.2806E+06     56.2342E+06              0.     11.2986E+06
           25331    -11.6143E+06     56.1919E+06              0.     11.4134E+06
           25332    -12.9598E+06     56.1257E+06              0.     11.5257E+06
           25333    -14.3168E+06     56.0344E+06              0.     11.6352E+06
           25334    -15.6849E+06     55.9168E+06              0.     11.7417E+06
           25335    -17.0638E+06     55.7717E+06              0.     11.8450E+06
           25336    -18.4531E+06     55.5977E+06              0.     11.9449E+06
           25337    -19.8522E+06     55.3935E+06              0.     12.0412E+06
           25338    -21.2609E+06     55.1577E+06              0.     12.1338E+06
           25339    -22.6785E+06     54.8889E+06              0.     12.2223E+06
           25340    -24.1046E+06     54.5857E+06              0.     12.3065E+06
           25341    -25.5387E+06     54.2466E+06              0.     12.3863E+06
           25342    -26.9803E+06     53.8700E+06              0.     12.4615E+06
           25343    -28.4287E+06     53.4545E+06              0.     12.5317E+06
           25344    -29.8834E+06     52.9984E+06              0.     12.5967E+06
           25345    -31.3438E+06     52.5001E+06              0.     12.6564E+06
           25346    -32.8092E+06     51.9579E+06              0.     12.7105E+06
           25347    -34.2789E+06     51.3701E+06              0.     12.7587E+06
           25348    -35.7524E+06     50.7351E+06              0.     12.8009E+06
           25349    -37.2289E+06     50.0510E+06              0.     12.8367E+06
           25350    -38.7076E+06     49.3160E+06              0.     12.8660E+06
           25351    -40.1878E+06     48.5284E+06              0.     12.8884E+06
           25352    -41.6688E+06     47.6862E+06              0.     12.9038E+06
           25353    -43.1496E+06     46.7875E+06              0.     12.9119E+06
           25354    -44.6295E+06     45.8305E+06              0.     12.9125E+06
           25355    -46.1077E+06     44.8132E+06              0.     12.9053E+06
           25356    -47.5832E+06     43.7336E+06              0.     12.8901E+06
           25357    -49.0551E+06     42.5898E+06              0.     12.8667E+06
           25358    -50.5226E+06     41.3796E+06              0.     12.8348E+06
           25359    -51.9846E+06     40.1012E+06              0.     12.7942E+06
           25360    -53.4403E+06     38.7523E+06              0.     12.7446E+06
           25361    -54.8885E+06     37.3309E+06              0.     12.6859E+06
           25362    -56.3283E+06     35.8349E+06              0.     12.6178E+06
           25363    -57.7586E+06     34.2623E+06              0.     12.5401E+06
           25364    -59.1784E+06     32.6108E+06              0.     12.4526E+06
           25365    -60.5866E+06     30.8784E+06              0.     12.3550E+06
           25366    -61.9819E+06     29.0628E+06              0.     12.2472E+06
           25367    -63.3634E+06      27.162E+06              0.     12.1290E+06
           25368    -64.7299E+06     25.1738E+06              0.     12.0002E+06
           25369    -66.0801E+06     23.0960E+06              0.     11.8605E+06
           25370    -67.4128E+06     20.9265E+06              0.     11.7099E+06
           25371    -68.7269E+06     18.6631E+06              0.     11.5481E+06
           25372    -70.0211E+06     16.3037E+06              0.     11.3749E+06
           25373     -71.294E+06     13.8461E+06              0.     11.1903E+06
           25374    -72.5444E+06     11.2883E+06              0.     10.9940E+06
           25375    -73.7710E+06       8.628E+06              0.     10.7859E+06
           25376    -74.9724E+06     5.86320E+06              0.     10.5658E+06
           25377    -76.1473E+06     2.99180E+06              0.     10.3337E+06
           25378    -77.2943E+06     11.7672E+03              0.     10.0894E+06
           25379    -78.4119E+06    -3.07899E+06              0.     9.83278E+06
           25380    -79.4987E+06    -6.28243E+06              0.     9.56372E+06
           25381    -80.5532E+06    -9.60061E+06              0.     9.28212E+06
           25382    -81.5741E+06    -13.0355E+06              0.     8.98789E+06
           25383    -82.5596E+06    -16.5889E+06              0.     8.68093E+06
           25384    -83.5085E+06    -20.2628E+06              0.     8.36115E+06
           25385    -84.4189E+06    -24.0590E+06              0.     8.02848E+06
           25386    -85.2894E+06    -27.9794E+06              0.     7.68285E+06
           25387    -86.1184E+06    -32.0258E+06              0.     7.32418E+06
           25388    -86.9042E+06    -36.1999E+06              0.     6.95241E+06
           25389    -88.5094E+06    -40.9294E+06              0.     6.77403E+06
           25390     63.6946E+06     27.9739E+06              0.     713.050E+03
           25391     63.7153E+06     28.2019E+06              0.     711.715E+03
           25392     63.6382E+06     28.3824E+06              0.     702.134E+03
           25393      63.562E+06     28.5580E+06              0.     693.968E+03
           25394     63.4866E+06     28.7289E+06              0.     687.181E+03
           25395     63.4118E+06     28.8953E+06              0.     681.734E+03
           25396     63.3376E+06     29.0575E+06              0.     677.594E+03
           25397     63.2636E+06     29.2157E+06              0.     674.727E+03
           25398     63.1899E+06     29.3701E+06              0.     673.103E+03
           25399     63.1163E+06     29.5208E+06              0.     672.690E+03
           25400     63.0426E+06     29.6682E+06              0.     673.462E+03
           25401     62.9687E+06     29.8123E+06              0.     675.390E+03
           25402     62.8944E+06     29.9534E+06              0.     678.452E+03
           25403     62.8198E+06     30.0916E+06              0.     682.621E+03
           25404     62.7446E+06     30.2271E+06              0.     687.878E+03
           25405     62.6686E+06     30.3601E+06              0.     694.199E+03
           25406     62.5919E+06     30.4907E+06              0.     701.566E+03
           25407     62.5143E+06     30.6192E+06              0.     709.960E+03
           25408     62.4357E+06     30.7456E+06              0.     719.365E+03
           25409     62.3559E+06     30.8701E+06              0.     729.764E+03
           25410     62.2749E+06     30.9929E+06              0.     741.142E+03
           25411     62.1925E+06     31.1140E+06              0.     753.486E+03
           25412     62.1087E+06     31.2337E+06              0.     766.783E+03
           25413     62.0234E+06     31.3521E+06              0.     781.022E+03
           25414     61.9363E+06     31.4692E+06              0.     796.192E+03
           25415     61.8475E+06     31.5853E+06              0.     812.284E+03
           25416     61.7569E+06     31.7004E+06              0.     829.290E+03
           25417     61.6642E+06     31.8147E+06              0.     847.202E+03
           25418     61.5695E+06     31.9283E+06              0.     866.013E+03
           25419     61.4727E+06     32.0413E+06              0.     885.718E+03
           25420     61.3736E+06     32.1538E+06              0.     906.312E+03
           25421     61.2721E+06     32.2660E+06              0.     927.791E+03
           25422     61.1682E+06     32.3778E+06              0.     950.153E+03
           25423     61.0617E+06     32.4896E+06              0.     973.393E+03
           25424     60.9526E+06     32.6012E+06              0.     997.512E+03
           25425     60.8407E+06     32.7129E+06              0.     1.02251E+06
           25426     60.7260E+06     32.8247E+06              0.     1.04838E+06
           25427     60.6084E+06     32.9368E+06              0.     1.07513E+06
           25428     60.4878E+06     33.0491E+06              0.     1.10277E+06
           25429     60.3640E+06     33.1619E+06              0.     1.13128E+06
           25430     60.2369E+06     33.2752E+06              0.     1.16068E+06
           25431     60.1066E+06     33.3891E+06              0.     1.19096E+06
           25432     59.9729E+06     33.5037E+06              0.     1.22214E+06
           25433     59.8356E+06     33.6190E+06              0.     1.25422E+06
           25434     59.6948E+06     33.7352E+06              0.     1.28719E+06
           25435     59.5502E+06     33.8523E+06              0.     1.32108E+06
           25436     59.4018E+06     33.9703E+06              0.     1.35588E+06
           25437     59.2495E+06     34.0895E+06              0.     1.39160E+06
           25438     59.0932E+06     34.2098E+06              0.     1.42825E+06
           25439     58.9328E+06     34.3314E+06              0.     1.46584E+06
           25440     58.7681E+06     34.4542E+06              0.     1.50437E+06
           25441     58.5992E+06     34.5785E+06              0.     1.54386E+06
           25442     58.4258E+06     34.7041E+06              0.     1.58432E+06
           25443     58.2479E+06     34.8313E+06              0.     1.62574E+06
           25444     58.0654E+06     34.9600E+06              0.     1.66816E+06
           25445     57.8782E+06     35.0904E+06              0.     1.71157E+06
           25446     57.6861E+06     35.2226E+06              0.     1.75598E+06
           25447     57.4890E+06     35.3564E+06              0.     1.80142E+06
           25448     57.2869E+06     35.4921E+06              0.     1.84788E+06
           25449     57.0796E+06     35.6298E+06              0.     1.89539E+06
           25450     56.8670E+06     35.7693E+06              0.     1.94396E+06
           25451     56.6490E+06     35.9109E+06              0.     1.99360E+06
           25452     56.4255E+06     36.0546E+06              0.     2.04432E+06
           25453     56.1964E+06     36.2003E+06              0.     2.09613E+06
           25454     55.9615E+06     36.3483E+06              0.     2.14906E+06
           25455     55.7208E+06     36.4985E+06              0.     2.20312E+06
           25456      55.474E+06     36.6510E+06              0.     2.25831E+06
           25457     55.2211E+06     36.8058E+06              0.     2.31466E+06
           25458     54.9620E+06     36.9630E+06              0.     2.37218E+06
           25459     54.6966E+06     37.1226E+06              0.     2.43088E+06
           25460     54.4246E+06     37.2847E+06              0.     2.49079E+06
           25461     54.1460E+06     37.4493E+06              0.     2.55191E+06
           25462     53.8607E+06     37.6166E+06              0.     2.61427E+06
           25463     53.5685E+06     37.7864E+06              0.     2.67787E+06
           25464     53.2693E+06     37.9588E+06              0.     2.74274E+06
           25465     52.9630E+06     38.1340E+06              0.     2.80889E+06
           25466     52.6493E+06     38.3118E+06              0.     2.87633E+06
           25467     52.3283E+06     38.4925E+06              0.     2.94509E+06
           25468     51.9997E+06     38.6759E+06              0.     3.01517E+06
           25469     51.6634E+06     38.8621E+06              0.     3.08660E+06
           25470     51.3193E+06     39.0512E+06              0.     3.15939E+06
           25471     50.9672E+06     39.2432E+06              0.     3.23356E+06
           25472     50.6070E+06     39.4380E+06              0.     3.30911E+06
           25473     50.2385E+06     39.6358E+06              0.     3.38608E+06
           25474     49.8616E+06     39.8365E+06              0.     3.46447E+06
           25475     49.4761E+06     40.0402E+06              0.     3.54430E+06
           25476     49.0820E+06     40.2469E+06              0.     3.62558E+06
           25477     48.6789E+06     40.4565E+06              0.     3.70833E+06
           25478     48.2669E+06     40.6691E+06              0.     3.79256E+06
           25479     47.8457E+06     40.8847E+06              0.     3.87828E+06
           25480     47.4152E+06     41.1033E+06              0.     3.96552E+06
           25481     46.9752E+06     41.3248E+06              0.     4.05428E+06
           25482     46.5256E+06     41.5494E+06              0.     4.14457E+06
           25483     46.0662E+06     41.7769E+06              0.     4.23641E+06
           25484     45.5969E+06     42.0074E+06              0.     4.32980E+06
           25485     45.1175E+06     42.2409E+06              0.     4.42477E+06
           25486     44.6278E+06     42.4772E+06              0.     4.52131E+06
           25487     44.1278E+06     42.7164E+06              0.     4.61944E+06
           25488     43.6171E+06     42.9585E+06              0.     4.71916E+06
           25489     43.0958E+06     43.2034E+06              0.     4.82049E+06
           25490     42.5635E+06     43.4511E+06              0.     4.92343E+06
           25491     42.0202E+06     43.7016E+06              0.     5.02798E+06
           25492     41.4658E+06     43.9546E+06              0.     5.13415E+06
           25493     40.8999E+06     44.2103E+06              0.     5.24194E+06
           25494     40.3225E+06     44.4686E+06              0.     5.35135E+06
           25495     39.7335E+06     44.7293E+06              0.     5.46239E+06
           25496     39.1326E+06     44.9925E+06              0.     5.57505E+06
           25497     38.5197E+06     45.2579E+06              0.     5.68934E+06
           25498     37.8947E+06     45.5255E+06              0.     5.80524E+06
           25499     37.2574E+06     45.7953E+06              0.     5.92275E+06
           25500     36.6077E+06     46.0670E+06              0.     6.04187E+06
           25501     35.9453E+06     46.3407E+06              0.     6.16259E+06
           25502     35.2702E+06     46.6160E+06              0.     6.28489E+06
           25503     34.5822E+06     46.8930E+06              0.     6.40876E+06
           25504     33.8812E+06     47.1715E+06              0.     6.53419E+06
           25505     33.1669E+06     47.4513E+06              0.     6.66116E+06
           25506     32.4394E+06     47.7322E+06              0.     6.78966E+06
           25507     31.6984E+06     48.0140E+06              0.     6.91965E+06
           25508     30.9438E+06     48.2967E+06              0.     7.05113E+06
           25509     30.1755E+06     48.5799E+06              0.     7.18405E+06
           25510     29.3934E+06     48.8634E+06              0.     7.31839E+06
           25511     28.5973E+06     49.1471E+06              0.     7.45412E+06
           25512     27.7871E+06     49.4307E+06              0.     7.59121E+06
           25513     26.9627E+06     49.7139E+06              0.     7.72961E+06
           25514     26.1240E+06     49.9964E+06              0.     7.86929E+06
           25515     25.2709E+06     50.2780E+06              0.     8.01020E+06
           25516     24.4033E+06     50.5585E+06              0.     8.15230E+06
           25517     23.5211E+06     50.8373E+06              0.     8.29553E+06
           25518     22.6242E+06     51.1143E+06              0.     8.43983E+06
           25519     21.7126E+06     51.3891E+06              0.     8.58516E+06
           25520     20.7861E+06     51.6613E+06              0.     8.73145E+06
           25521     19.8448E+06     51.9306E+06              0.     8.87863E+06
           25522     18.8885E+06     52.1964E+06              0.     9.02664E+06
           25523     17.9172E+06     52.4585E+06              0.     9.17539E+06
           25524     16.9309E+06     52.7164E+06              0.     9.32481E+06
           25525     15.9296E+06     52.9695E+06              0.     9.47483E+06
           25526     14.9131E+06     53.2175E+06              0.     9.62535E+06
           25527     13.8816E+06     53.4597E+06              0.     9.77627E+06
           25528     12.8350E+06     53.6958E+06              0.     9.92751E+06
           25529     11.7733E+06     53.9251E+06              0.     10.0790E+06
           25530     10.6965E+06     54.1470E+06              0.     10.2305E+06
           25531     9.60473E+06     54.3610E+06              0.     10.3821E+06
           25532     8.49796E+06     54.5664E+06              0.     10.5335E+06
           25533     7.37627E+06     54.7626E+06              0.     10.6847E+06
           25534     6.23973E+06     54.9489E+06              0.     10.8356E+06
           25535     5.08843E+06     55.1246E+06              0.     10.9859E+06
           25536     3.92245E+06     55.2889E+06              0.     11.1356E+06
           25537     2.74192E+06     55.4411E+06              0.     11.2845E+06
           25538     1.54695E+06     55.5804E+06              0.     11.4325E+06
           25539     337.701E+03     55.7060E+06              0.     11.5795E+06
           25540    -885.683E+03     55.8170E+06              0.     11.7251E+06
           25541    -2.12302E+06     55.9126E+06              0.     11.8694E+06
           25542    -3.37413E+06     55.9918E+06              0.     12.0121E+06
           25543    -4.63879E+06     56.0536E+06              0.     12.1531E+06
           25544    -5.91679E+06     56.0972E+06              0.     12.2922E+06
           25545    -7.20788E+06     56.1214E+06              0.     12.4291E+06
           25546    -8.51180E+06     56.1253E+06              0.     12.5637E+06
           25547    -9.82826E+06     56.1077E+06              0.     12.6958E+06
           25548    -11.1570E+06     56.0676E+06              0.     12.8252E+06
           25549    -12.4976E+06     56.0038E+06              0.     12.9517E+06
           25550    -13.8498E+06     55.9150E+06              0.     13.0751E+06
           25551    -15.2133E+06     55.8001E+06              0.     13.1951E+06
           25552    -16.5876E+06     55.6579E+06              0.     13.3116E+06
           25553    -17.9724E+06     55.4869E+06              0.     13.4242E+06
           25554    -19.3671E+06     55.2860E+06              0.     13.5329E+06
           25555    -20.7715E+06     55.0536E+06              0.     13.6372E+06
           25556    -22.1850E+06     54.7885E+06              0.     13.7371E+06
           25557    -23.6071E+06     54.4891E+06              0.     13.8322E+06
           25558    -25.0373E+06     54.1540E+06              0.     13.9222E+06
           25559    -26.4750E+06     53.7817E+06              0.     14.0071E+06
           25560    -27.9198E+06     53.3705E+06              0.     14.0864E+06
           25561    -29.3710E+06     52.9190E+06              0.     14.1599E+06
           25562    -30.8281E+06     52.4255E+06              0.     14.2274E+06
           25563    -32.2903E+06     51.8883E+06              0.     14.2886E+06
           25564    -33.7571E+06     51.3058E+06              0.     14.3433E+06
           25565    -35.2277E+06     50.6762E+06              0.     14.3910E+06
           25566    -36.7015E+06     49.9976E+06              0.     14.4317E+06
           25567    -38.1778E+06     49.2685E+06              0.     14.4650E+06
           25568    -39.6557E+06     48.4868E+06              0.     14.4907E+06
           25569    -41.1345E+06     47.6508E+06              0.     14.5084E+06
           25570    -42.6134E+06     46.7585E+06              0.     14.5180E+06
           25571    -44.0916E+06     45.8081E+06              0.     14.5190E+06
           25572    -45.5682E+06     44.7976E+06              0.     14.5114E+06
           25573    -47.0424E+06     43.7249E+06              0.     14.4947E+06
           25574    -48.5132E+06     42.5882E+06              0.     14.4688E+06
           25575    -49.9797E+06     41.3853E+06              0.     14.4333E+06
           25576    -51.4411E+06     40.1143E+06              0.     14.3880E+06
           25577    -52.8962E+06     38.7730E+06              0.     14.3327E+06
           25578    -54.3442E+06     37.3594E+06              0.     14.2671E+06
           25579    -55.7840E+06     35.8713E+06              0.     14.1909E+06
           25580    -57.2144E+06     34.3067E+06              0.     14.1039E+06
           25581    -58.6346E+06     32.6634E+06              0.     14.0058E+06
           25582    -60.0434E+06     30.9393E+06              0.     13.8965E+06
           25583    -61.4397E+06     29.1322E+06              0.     13.7756E+06
           25584    -62.8223E+06     27.2400E+06              0.     13.6430E+06
           25585    -64.1900E+06     25.2604E+06              0.     13.4985E+06
           25586    -65.5418E+06     23.1914E+06              0.     13.3418E+06
           25587    -66.8763E+06     21.0308E+06              0.     13.1727E+06
           25588    -68.1924E+06     18.7764E+06              0.     12.9910E+06
           25589    -69.4888E+06     16.4260E+06              0.     12.7966E+06
           25590    -70.7642E+06     13.9775E+06              0.     12.5892E+06
           25591    -72.0174E+06     11.4288E+06              0.     12.3687E+06
           25592    -73.2469E+06     8.77778E+06              0.     12.1349E+06
           25593    -74.4515E+06     6.02224E+06              0.     11.8877E+06
           25594    -75.6298E+06     3.16016E+06              0.     11.6268E+06
           25595    -76.7804E+06     189.472E+03              0.     11.3523E+06
           25596    -77.9018E+06    -2.89192E+06              0.     11.0639E+06
           25597    -78.9927E+06    -6.08597E+06              0.     10.7614E+06
           25598    -80.0516E+06    -9.39474E+06              0.     10.4449E+06
           25599    -81.0769E+06    -12.8202E+06              0.     10.1141E+06
           25600    -82.0673E+06    -16.3642E+06              0.     9.76904E+06
           25601    -83.0211E+06    -20.0287E+06              0.     9.40952E+06
           25602    -83.9367E+06    -23.8155E+06              0.     9.03549E+06
           25603    -84.8126E+06    -27.7265E+06              0.     8.64686E+06
           25604    -85.6472E+06    -31.7635E+06              0.     8.24356E+06
           25605    -86.4388E+06    -35.9282E+06              0.     7.82552E+06
           25606    -88.0440E+06    -40.6485E+06              0.     7.62511E+06
           25607     63.7242E+06     27.9867E+06              0.     790.169E+03
           25608     63.7447E+06     28.2128E+06              0.     788.690E+03
           25609     63.6682E+06     28.3919E+06              0.     778.073E+03
           25610     63.5926E+06     28.5660E+06              0.     769.025E+03
           25611     63.5179E+06     28.7355E+06              0.     761.504E+03
           25612     63.4437E+06     28.9006E+06              0.     755.469E+03
           25613     63.3700E+06     29.0615E+06              0.     750.882E+03
           25614     63.2967E+06     29.2183E+06              0.     747.706E+03
           25615     63.2236E+06     29.3714E+06              0.     745.905E+03
           25616     63.1506E+06     29.5210E+06              0.     745.449E+03
           25617     63.0774E+06     29.6671E+06              0.     746.304E+03
           25618     63.0042E+06     29.8100E+06              0.     748.443E+03
           25619     62.9305E+06     29.9500E+06              0.     751.835E+03
           25620     62.8565E+06     30.0870E+06              0.     756.457E+03
           25621     62.7819E+06     30.2214E+06              0.     762.282E+03
           25622     62.7066E+06     30.3534E+06              0.     769.288E+03
           25623     62.6305E+06     30.4829E+06              0.     777.453E+03
           25624     62.5535E+06     30.6103E+06              0.     786.756E+03
           25625     62.4755E+06     30.7357E+06              0.     797.178E+03
           25626     62.3964E+06     30.8592E+06              0.     808.703E+03
           25627     62.3161E+06     30.9809E+06              0.     821.313E+03
           25628     62.2344E+06     31.1011E+06              0.     834.993E+03
           25629     62.1512E+06     31.2198E+06              0.     849.729E+03
           25630     62.0666E+06     31.3372E+06              0.     865.510E+03
           25631     61.9802E+06     31.4534E+06              0.     882.322E+03
           25632     61.8922E+06     31.5685E+06              0.     900.156E+03
           25633     61.8022E+06     31.6827E+06              0.     919.003E+03
           25634     61.7104E+06     31.7961E+06              0.     938.854E+03
           25635     61.6164E+06     31.9088E+06              0.     959.701E+03
           25636     61.5204E+06     32.0208E+06              0.     981.539E+03
           25637     61.4221E+06     32.1325E+06              0.     1.00436E+06
           25638     61.3214E+06     32.2437E+06              0.     1.02817E+06
           25639     61.2183E+06     32.3546E+06              0.     1.05295E+06
           25640     61.1127E+06     32.4654E+06              0.     1.07870E+06
           25641     61.0045E+06     32.5762E+06              0.     1.10543E+06
           25642     60.8935E+06     32.6870E+06              0.     1.13314E+06
           25643     60.7798E+06     32.7979E+06              0.     1.16181E+06
           25644     60.6631E+06     32.9090E+06              0.     1.19146E+06
           25645     60.5434E+06     33.0205E+06              0.     1.22208E+06
           25646     60.4206E+06     33.1324E+06              0.     1.25368E+06
           25647     60.2946E+06     33.2448E+06              0.     1.28626E+06
           25648     60.1654E+06     33.3577E+06              0.     1.31983E+06
           25649     60.0327E+06     33.4714E+06              0.     1.35438E+06
           25650     59.8965E+06     33.5858E+06              0.     1.38993E+06
           25651     59.7568E+06     33.7010E+06              0.     1.42648E+06
           25652     59.6134E+06     33.8172E+06              0.     1.46404E+06
           25653     59.4662E+06     33.9343E+06              0.     1.50260E+06
           25654     59.3151E+06     34.0525E+06              0.     1.54219E+06
           25655     59.1601E+06     34.1719E+06              0.     1.58281E+06
           25656     59.0009E+06     34.2925E+06              0.     1.62447E+06
           25657     58.8376E+06     34.4143E+06              0.     1.66718E+06
           25658     58.6700E+06     34.5376E+06              0.     1.71095E+06
           25659     58.4981E+06     34.6622E+06              0.     1.75578E+06
           25660     58.3216E+06     34.7884E+06              0.     1.80170E+06
           25661     58.1406E+06     34.9162E+06              0.     1.84871E+06
           25662     57.9548E+06     35.0455E+06              0.     1.89682E+06
           25663     57.7642E+06     35.1766E+06              0.     1.94605E+06
           25664     57.5688E+06     35.3094E+06              0.     1.99641E+06
           25665     57.3682E+06     35.4441E+06              0.     2.04791E+06
           25666     57.1626E+06     35.5806E+06              0.     2.10057E+06
           25667     56.9517E+06     35.7191E+06              0.     2.15440E+06
           25668     56.7355E+06     35.8595E+06              0.     2.20941E+06
           25669     56.5137E+06     36.0021E+06              0.     2.26563E+06
           25670     56.2864E+06     36.1467E+06              0.     2.32307E+06
           25671     56.0534E+06     36.2935E+06              0.     2.38173E+06
           25672     55.8146E+06     36.4425E+06              0.     2.44165E+06
           25673     55.5698E+06     36.5938E+06              0.     2.50282E+06
           25674     55.3189E+06     36.7475E+06              0.     2.56528E+06
           25675     55.0618E+06     36.9034E+06              0.     2.62904E+06
           25676     54.7985E+06     37.0619E+06              0.     2.69411E+06
           25677     54.5287E+06     37.2227E+06              0.     2.76052E+06
           25678     54.2523E+06     37.3861E+06              0.     2.82827E+06
           25679     53.9692E+06     37.5520E+06              0.     2.89739E+06
           25680     53.6793E+06     37.7206E+06              0.     2.96789E+06
           25681     53.3824E+06     37.8917E+06              0.     3.03980E+06
           25682     53.0785E+06     38.0655E+06              0.     3.11313E+06
           25683     52.7673E+06     38.2421E+06              0.     3.18789E+06
           25684     52.4488E+06     38.4213E+06              0.     3.26411E+06
           25685     52.1227E+06     38.6034E+06              0.     3.34180E+06
           25686     51.7891E+06     38.7882E+06              0.     3.42099E+06
           25687     51.4476E+06     38.9759E+06              0.     3.50168E+06
           25688     51.0982E+06     39.1665E+06              0.     3.58390E+06
           25689     50.7408E+06     39.3599E+06              0.     3.66767E+06
           25690     50.3752E+06     39.5562E+06              0.     3.75299E+06
           25691     50.0012E+06     39.7555E+06              0.     3.83990E+06
           25692     49.6187E+06     39.9576E+06              0.      3.9284E+06
           25693     49.2275E+06     40.1628E+06              0.     4.01851E+06
           25694     48.8276E+06     40.3709E+06              0.     4.11026E+06
           25695     48.4187E+06     40.5820E+06              0.     4.20364E+06
           25696     48.0007E+06     40.7960E+06              0.     4.29869E+06
           25697     47.5735E+06     41.0130E+06              0.     4.39541E+06
           25698     47.1369E+06     41.2330E+06              0.     4.49382E+06
           25699     46.6907E+06     41.4560E+06              0.     4.59394E+06
           25700     46.2347E+06     41.6820E+06              0.     4.69577E+06
           25701     45.7690E+06     41.9108E+06              0.     4.79933E+06
           25702     45.2932E+06     42.1426E+06              0.     4.90463E+06
           25703     44.8072E+06     42.3774E+06              0.     5.01168E+06
           25704     44.3108E+06     42.6150E+06              0.     5.12049E+06
           25705      43.804E+06     42.8554E+06              0.     5.23108E+06
           25706     43.2865E+06     43.0986E+06              0.     5.34344E+06
           25707     42.7582E+06     43.3447E+06              0.     5.45759E+06
           25708     42.2189E+06     43.5934E+06              0.     5.57354E+06
           25709     41.6685E+06     43.8448E+06              0.     5.69128E+06
           25710     41.1068E+06     44.0989E+06              0.     5.81082E+06
           25711     40.5336E+06     44.3554E+06              0.     5.93217E+06
           25712     39.9489E+06     44.6145E+06              0.     6.05532E+06
           25713     39.3524E+06     44.8759E+06              0.     6.18028E+06
           25714     38.7439E+06     45.1397E+06              0.     6.30704E+06
           25715     38.1234E+06     45.4056E+06              0.     6.43559E+06
           25716     37.4906E+06     45.6737E+06              0.     6.56594E+06
           25717     36.8455E+06     45.9438E+06              0.     6.69807E+06
           25718     36.1879E+06     46.2158E+06              0.     6.83198E+06
           25719     35.5175E+06     46.4895E+06              0.     6.96765E+06
           25720     34.8344E+06     46.7649E+06              0.     7.10506E+06
           25721     34.1382E+06     47.0417E+06              0.     7.24421E+06
           25722     33.4290E+06     47.3199E+06              0.     7.38508E+06
           25723     32.7065E+06     47.5992E+06              0.     7.52764E+06
           25724     31.9706E+06     47.8795E+06              0.     7.67186E+06
           25725     31.2211E+06     48.1606E+06              0.     7.81774E+06
           25726     30.4581E+06     48.4423E+06              0.     7.96522E+06
           25727     29.6812E+06     48.7244E+06              0.     8.11429E+06
           25728     28.8904E+06     49.0066E+06              0.     8.26491E+06
           25729     28.0857E+06     49.2887E+06              0.     8.41703E+06
           25730     27.2667E+06     49.5705E+06              0.     8.57062E+06
           25731     26.4336E+06     49.8517E+06              0.     8.72564E+06
           25732     25.5860E+06     50.1321E+06              0.     8.88203E+06
           25733     24.7241E+06     50.4112E+06              0.     9.03974E+06
           25734     23.8476E+06     50.6889E+06              0.     9.19871E+06
           25735     22.9564E+06     50.9647E+06              0.     9.35889E+06
           25736     22.0506E+06     51.2384E+06              0.     9.52022E+06
           25737     21.1299E+06     51.5096E+06              0.     9.68261E+06
           25738     20.1945E+06     51.7779E+06              0.     9.84600E+06
           25739     19.2441E+06     52.0428E+06              0.     10.0103E+06
           25740     18.2788E+06     52.3041E+06              0.     10.1755E+06
           25741     17.2984E+06     52.5611E+06              0.     10.3414E+06
           25742     16.3031E+06     52.8136E+06              0.     10.5080E+06
           25743     15.2927E+06     53.0610E+06              0.     10.6751E+06
           25744     14.2672E+06     53.3027E+06              0.     10.8427E+06
           25745     13.2267E+06     53.5384E+06              0.     11.0107E+06
           25746     12.1710E+06     53.7674E+06              0.     11.1789E+06
           25747     11.1004E+06     53.9891E+06              0.     11.3473E+06
           25748     10.0147E+06     54.2030E+06              0.     11.5156E+06
           25749     8.91409E+06     54.4084E+06              0.     11.6839E+06
           25750     7.79853E+06     54.6047E+06              0.     11.8519E+06
           25751     6.66812E+06     54.7912E+06              0.     12.0195E+06
           25752     5.52293E+06     54.9672E+06              0.     12.1865E+06
           25753     4.36305E+06     55.1320E+06              0.     12.3529E+06
           25754     3.18860E+06     55.2849E+06              0.     12.5184E+06
           25755     1.99970E+06     55.4250E+06              0.     12.6829E+06
           25756     796.488E+03     55.5515E+06              0.     12.8462E+06
           25757    -420.893E+03     55.6636E+06              0.     13.0082E+06
           25758    -1.65227E+06     55.7603E+06              0.     13.1686E+06
           25759    -2.89745E+06     55.8409E+06              0.     13.3273E+06
           25760    -4.15625E+06     55.9043E+06              0.     13.4840E+06
           25761    -5.42843E+06     55.9496E+06              0.     13.6387E+06
           25762    -6.71376E+06     55.9757E+06              0.     13.7910E+06
           25763    -8.01199E+06     55.9816E+06              0.     13.9408E+06
           25764    -9.32284E+06     55.9663E+06              0.     14.0878E+06
           25765    -10.6460E+06     55.9286E+06              0.     14.2318E+06
           25766    -11.9812E+06     55.8674E+06              0.     14.3725E+06
           25767    -13.3281E+06     55.7814E+06              0.     14.5099E+06
           25768    -14.6863E+06     55.6696E+06              0.     14.6435E+06
           25769    -16.0554E+06     55.5305E+06              0.     14.7732E+06
           25770    -17.4352E+06     55.3630E+06              0.     14.8987E+06
           25771    -18.8250E+06     55.1656E+06              0.     15.0197E+06
           25772    -20.2246E+06     54.9371E+06              0.     15.1359E+06
           25773    -21.6334E+06     54.6760E+06              0.     15.2472E+06
           25774    -23.0509E+06     54.3809E+06              0.     15.3533E+06
           25775    -24.4767E+06     54.0503E+06              0.     15.4537E+06
           25776    -25.9103E+06     53.6827E+06              0.     15.5484E+06
           25777    -27.3510E+06     53.2765E+06              0.     15.6369E+06
           25778    -28.7983E+06     52.8301E+06              0.     15.7190E+06
           25779    -30.2516E+06     52.3420E+06              0.     15.7945E+06
           25780    -31.7103E+06     51.8104E+06              0.     15.8629E+06
           25781    -33.1736E+06     51.2336E+06              0.     15.9241E+06
           25782    -34.6411E+06     50.6100E+06              0.     15.9777E+06
           25783    -36.1119E+06     49.9378E+06              0.     16.0234E+06
           25784    -37.5853E+06     49.2151E+06              0.     16.0609E+06
           25785    -39.0606E+06     48.4402E+06              0.     16.0899E+06
           25786    -40.5370E+06     47.6111E+06              0.     16.1101E+06
           25787    -42.0137E+06     46.7259E+06              0.     16.1212E+06
           25788    -43.4900E+06     45.7828E+06              0.     16.1229E+06
           25789    -44.9649E+06     44.7798E+06              0.     16.1149E+06
           25790    -46.4375E+06     43.7149E+06              0.     16.0969E+06
           25791    -47.9071E+06     42.5861E+06              0.     16.0686E+06
           25792    -49.3726E+06     41.3914E+06              0.     16.0298E+06
           25793    -50.8331E+06     40.1287E+06              0.     15.9800E+06
           25794    -52.2877E+06     38.7959E+06              0.     15.9191E+06
           25795    -53.7353E+06     37.3909E+06              0.     15.8467E+06
           25796    -55.1750E+06     35.9117E+06              0.     15.7625E+06
           25797    -56.6057E+06     34.3562E+06              0.     15.6664E+06
           25798    -58.0263E+06     32.7220E+06              0.     15.5579E+06
           25799    -59.4358E+06     31.0072E+06              0.     15.4370E+06
           25800    -60.8330E+06     29.2096E+06              0.     15.3032E+06
           25801    -62.2168E+06     27.3269E+06              0.     15.1563E+06
           25802    -63.5860E+06     25.3571E+06              0.     14.9962E+06
           25803    -64.9395E+06     23.2979E+06              0.     14.8225E+06
           25804    -66.2760E+06     21.1472E+06              0.     14.6351E+06
           25805    -67.5944E+06     18.9028E+06              0.     14.4337E+06
           25806    -68.8933E+06     16.5625E+06              0.     14.2181E+06
           25807    -70.1715E+06     14.1243E+06              0.     13.9881E+06
           25808    -71.4276E+06     11.5858E+06              0.     13.7435E+06
           25809    -72.6604E+06     8.94512E+06              0.     13.4842E+06
           25810    -73.8686E+06     6.19996E+06              0.     13.2099E+06
           25811    -75.0506E+06     3.34830E+06              0.     12.9205E+06
           25812    -76.2053E+06     388.072E+03              0.     12.6158E+06
           25813    -77.3310E+06    -2.68283E+06              0.     12.2956E+06
           25814    -78.4265E+06    -5.86637E+06              0.     11.9599E+06
           25815    -79.4902E+06    -9.16462E+06              0.     11.6086E+06
           25816    -80.5206E+06    -12.5795E+06              0.     11.2413E+06
           25817    -81.5162E+06    -16.1130E+06              0.     10.8582E+06
           25818    -82.4756E+06    -19.7670E+06              0.     10.4590E+06
           25819    -83.3970E+06    -23.5433E+06              0.     10.0437E+06
           25820    -84.2790E+06    -27.4438E+06              0.     9.61215E+06
           25821    -85.1199E+06    -31.4703E+06              0.     9.16429E+06
           25822    -85.9180E+06    -35.6245E+06              0.     8.70003E+06
           25823    -87.5232E+06    -40.3344E+06              0.     8.47762E+06
           25824     63.7567E+06     28.0008E+06              0.     866.627E+03
           25825     63.7770E+06     28.2249E+06              0.     865.006E+03
           25826     63.7012E+06     28.4023E+06              0.     853.362E+03
           25827     63.6264E+06     28.5748E+06              0.     843.439E+03
           25828     63.5523E+06     28.7428E+06              0.     835.190E+03
           25829     63.4788E+06     28.9064E+06              0.     828.572E+03
           25830     63.4058E+06     29.0658E+06              0.     823.541E+03
           25831     63.3332E+06     29.2212E+06              0.     820.058E+03
           25832     63.2607E+06     29.3729E+06              0.     818.085E+03
           25833     63.1883E+06     29.5211E+06              0.     817.585E+03
           25834     63.1159E+06     29.6659E+06              0.     818.524E+03
           25835     63.0433E+06     29.8075E+06              0.     820.870E+03
           25836     62.9703E+06     29.9462E+06              0.     824.592E+03
           25837     62.8970E+06     30.0820E+06              0.     829.661E+03
           25838     62.8230E+06     30.2152E+06              0.     836.051E+03
           25839     62.7484E+06     30.3459E+06              0.     843.736E+03
           25840     62.6730E+06     30.4743E+06              0.     852.692E+03
           25841     62.5968E+06     30.6006E+06              0.     862.896E+03
           25842     62.5195E+06     30.7248E+06              0.     874.328E+03
           25843     62.4411E+06     30.8472E+06              0.     886.969E+03
           25844     62.3614E+06     30.9678E+06              0.     900.800E+03
           25845     62.2805E+06     31.0869E+06              0.     915.806E+03
           25846     62.1981E+06     31.2045E+06              0.     931.969E+03
           25847     62.1142E+06     31.3208E+06              0.     949.278E+03
           25848     62.0287E+06     31.4360E+06              0.     967.719E+03
           25849     61.9414E+06     31.5501E+06              0.     987.280E+03
           25850     61.8523E+06     31.6632E+06              0.     1.00795E+06
           25851     61.7612E+06     31.7756E+06              0.     1.02973E+06
           25852     61.6681E+06     31.8872E+06              0.     1.05259E+06
           25853     61.5729E+06     31.9983E+06              0.     1.07655E+06
           25854     61.4755E+06     32.1089E+06              0.     1.10158E+06
           25855     61.3758E+06     32.2191E+06              0.     1.12769E+06
           25856     61.2736E+06     32.3291E+06              0.     1.15487E+06
           25857     61.1690E+06     32.4389E+06              0.     1.18312E+06
           25858     61.0617E+06     32.5486E+06              0.     1.21244E+06
           25859     60.9518E+06     32.6584E+06              0.     1.24283E+06
           25860     60.8390E+06     32.7683E+06              0.     1.27428E+06
           25861     60.7234E+06     32.8785E+06              0.     1.30680E+06
           25862     60.6048E+06     32.9889E+06              0.     1.34039E+06
           25863     60.4831E+06     33.0998E+06              0.     1.37505E+06
           25864     60.3582E+06     33.2112E+06              0.     1.41079E+06
           25865     60.2301E+06     33.3232E+06              0.     1.44761E+06
           25866     60.0986E+06     33.4358E+06              0.     1.48551E+06
           25867     59.9637E+06     33.5492E+06              0.     1.52450E+06
           25868     59.8252E+06     33.6634E+06              0.     1.56459E+06
           25869     59.6831E+06     33.7785E+06              0.     1.60579E+06
           25870     59.5372E+06     33.8946E+06              0.     1.64810E+06
           25871     59.3875E+06     34.0118E+06              0.     1.69152E+06
           25872     59.2338E+06     34.1301E+06              0.     1.73608E+06
           25873     59.0761E+06     34.2496E+06              0.     1.78178E+06
           25874     58.9143E+06     34.3704E+06              0.     1.82863E+06
           25875     58.7482E+06     34.4925E+06              0.     1.87663E+06
           25876     58.5777E+06     34.6161E+06              0.     1.92582E+06
           25877     58.4028E+06     34.7412E+06              0.     1.97618E+06
           25878     58.2234E+06     34.8678E+06              0.     2.02775E+06
           25879     58.0393E+06     34.9960E+06              0.     2.08053E+06
           25880     57.8504E+06     35.1259E+06              0.     2.13453E+06
           25881     57.6567E+06     35.2576E+06              0.     2.18977E+06
           25882     57.4579E+06     35.3911E+06              0.     2.24627E+06
           25883     57.2541E+06     35.5264E+06              0.     2.30404E+06
           25884     57.0451E+06     35.6637E+06              0.     2.36309E+06
           25885     56.8308E+06     35.8029E+06              0.     2.42344E+06
           25886     56.6110E+06     35.9442E+06              0.     2.48512E+06
           25887     56.3857E+06     36.0876E+06              0.     2.54812E+06
           25888     56.1547E+06     36.2331E+06              0.     2.61248E+06
           25889     55.9180E+06     36.3809E+06              0.     2.67821E+06
           25890     55.6753E+06     36.5309E+06              0.     2.74533E+06
           25891     55.4267E+06     36.6832E+06              0.     2.81385E+06
           25892     55.1719E+06     36.8378E+06              0.     2.88380E+06
           25893     54.9108E+06     36.9949E+06              0.     2.95519E+06
           25894     54.6434E+06     37.1544E+06              0.     3.02804E+06
           25895     54.3694E+06     37.3164E+06              0.     3.10237E+06
           25896     54.0888E+06     37.4809E+06              0.     3.17820E+06
           25897     53.8014E+06     37.6480E+06              0.     3.25555E+06
           25898     53.5071E+06     37.8177E+06              0.     3.33445E+06
           25899     53.2058E+06     37.9901E+06              0.     3.41490E+06
           25900     52.8974E+06     38.1651E+06              0.     3.49693E+06
           25901     52.5816E+06     38.3429E+06              0.     3.58055E+06
           25902     52.2584E+06     38.5235E+06              0.     3.66580E+06
           25903     51.9276E+06     38.7068E+06              0.     3.75268E+06
           25904     51.5891E+06     38.8929E+06              0.     3.84122E+06
           25905     51.2427E+06     39.0819E+06              0.     3.93144E+06
           25906     50.8884E+06     39.2737E+06              0.     4.02335E+06
           25907     50.5258E+06     39.4684E+06              0.     4.11698E+06
           25908     50.1551E+06     39.6660E+06              0.     4.21234E+06
           25909     49.7758E+06     39.8666E+06              0.     4.30945E+06
           25910     49.3880E+06     40.0701E+06              0.     4.40833E+06
           25911     48.9915E+06     40.2765E+06              0.     4.50901E+06
           25912     48.5861E+06     40.4859E+06              0.     4.61149E+06
           25913     48.1717E+06     40.6982E+06              0.     4.71579E+06
           25914     47.7480E+06     40.9136E+06              0.     4.82193E+06
           25915     47.3151E+06     41.1318E+06              0.     4.92993E+06
           25916     46.8726E+06     41.3530E+06              0.      5.0398E+06
           25917     46.4206E+06     41.5772E+06              0.     5.15156E+06
           25918     45.9587E+06     41.8043E+06              0.     5.26521E+06
           25919     45.4869E+06     42.0343E+06              0.     5.38078E+06
           25920     45.0049E+06     42.2672E+06              0.     5.49827E+06
           25921     44.5127E+06     42.5030E+06              0.     5.61770E+06
           25922     44.0101E+06     42.7416E+06              0.     5.73908E+06
           25923     43.4969E+06     42.9831E+06              0.     5.86241E+06
           25924     42.9729E+06     43.2273E+06              0.     5.98771E+06
           25925     42.4380E+06     43.4742E+06              0.     6.11498E+06
           25926     41.8921E+06     43.7237E+06              0.     6.24422E+06
           25927     41.3350E+06     43.9759E+06              0.     6.37545E+06
           25928     40.7665E+06     44.2306E+06              0.     6.50866E+06
           25929     40.1865E+06     44.4878E+06              0.     6.64385E+06
           25930     39.5947E+06     44.7474E+06              0.     6.78103E+06
           25931     38.9912E+06     45.0093E+06              0.     6.92019E+06
           25932     38.3756E+06     45.2734E+06              0.     7.06132E+06
           25933     37.7479E+06     45.5396E+06              0.     7.20443E+06
           25934     37.1079E+06     45.8079E+06              0.     7.34951E+06
           25935     36.4554E+06     46.0780E+06              0.     7.49653E+06
           25936     35.7903E+06     46.3499E+06              0.     7.64550E+06
           25937     35.1125E+06     46.6235E+06              0.     7.79639E+06
           25938     34.4218E+06     46.8985E+06              0.     7.94919E+06
           25939     33.7180E+06     47.1749E+06              0.     8.10388E+06
           25940     33.0011E+06     47.4525E+06              0.     8.26043E+06
           25941     32.2708E+06     47.7310E+06              0.     8.41883E+06
           25942     31.5271E+06     48.0104E+06              0.     8.57903E+06
           25943     30.7698E+06     48.2904E+06              0.     8.74102E+06
           25944     29.9988E+06     48.5709E+06              0.     8.90475E+06
           25945     29.2139E+06     48.8515E+06              0.     9.07018E+06
           25946     28.4151E+06     49.1320E+06              0.     9.23729E+06
           25947     27.6022E+06     49.4123E+06              0.     9.40600E+06
           25948     26.7752E+06     49.6920E+06              0.     9.57630E+06
           25949     25.9338E+06     49.9709E+06              0.     9.74811E+06
           25950     25.0781E+06     50.2487E+06              0.     9.92138E+06
           25951     24.2078E+06     50.5250E+06              0.     10.0960E+06
           25952     23.3230E+06     50.7996E+06              0.     10.2720E+06
           25953     22.4236E+06     51.0720E+06              0.     10.4493E+06
           25954     21.5094E+06     51.3421E+06              0.     10.6278E+06
           25955     20.5804E+06     51.6092E+06              0.     10.8073E+06
           25956     19.6366E+06     51.8732E+06              0.     10.9879E+06
           25957     18.6778E+06     52.1335E+06              0.     11.1694E+06
           25958     17.7041E+06     52.3897E+06              0.     11.3518E+06
           25959     16.7154E+06     52.6414E+06              0.     11.5349E+06
           25960     15.7116E+06     52.8881E+06              0.     11.7187E+06
           25961     14.6929E+06     53.1293E+06              0.     11.9029E+06
           25962     13.6590E+06     53.3645E+06              0.     12.0876E+06
           25963     12.6102E+06     53.5931E+06              0.     12.2726E+06
           25964     11.5463E+06     53.8146E+06              0.     12.4577E+06
           25965     10.4674E+06     54.0283E+06              0.     12.6429E+06
           25966     9.37355E+06     54.2338E+06              0.     12.8279E+06
           25967     8.26477E+06     54.4302E+06              0.     13.0126E+06
           25968     7.14114E+06     54.6169E+06              0.     13.1970E+06
           25969     6.00272E+06     54.7934E+06              0.     13.3808E+06
           25970     4.84960E+06     54.9587E+06              0.     13.5638E+06
           25971     3.68190E+06     55.1122E+06              0.     13.7459E+06
           25972     2.49972E+06     55.2532E+06              0.     13.9269E+06
           25973     1.30319E+06     55.3807E+06              0.     14.1067E+06
           25974     92.4579E+03     55.4939E+06              0.     14.2849E+06
           25975    -1.13231E+06     55.5920E+06              0.     14.4615E+06
           25976    -2.37093E+06     55.6741E+06              0.     14.6362E+06
           25977    -3.62321E+06     55.7392E+06              0.     14.8088E+06
           25978    -4.88894E+06     55.7863E+06              0.     14.9791E+06
           25979    -6.16790E+06     55.8145E+06              0.     15.1468E+06
           25980    -7.45982E+06     55.8227E+06              0.     15.3118E+06
           25981    -8.76444E+06     55.8098E+06              0.     15.4737E+06
           25982    -10.0815E+06     55.7748E+06              0.     15.6324E+06
           25983    -11.4106E+06     55.7164E+06              0.     15.7875E+06
           25984    -12.7516E+06     55.6336E+06              0.     15.9389E+06
           25985    -14.1039E+06     55.5251E+06              0.     16.0862E+06
           25986    -15.4674E+06     55.3895E+06              0.     16.2292E+06
           25987    -16.8415E+06     55.2258E+06              0.     16.3676E+06
           25988    -18.2259E+06     55.0324E+06              0.     16.5011E+06
           25989    -19.6201E+06     54.8081E+06              0.     16.6294E+06
           25990    -21.0237E+06     54.5515E+06              0.     16.7523E+06
           25991    -22.4362E+06     54.2611E+06              0.     16.8693E+06
           25992    -23.8572E+06     53.9354E+06              0.     16.9803E+06
           25993    -25.2860E+06     53.5730E+06              0.     17.0849E+06
           25994    -26.7222E+06     53.1722E+06              0.     17.1828E+06
           25995    -28.1651E+06     52.7315E+06              0.     17.2737E+06
           25996    -29.6142E+06     52.2493E+06              0.     17.3572E+06
           25997    -31.0689E+06     51.7239E+06              0.      17.433E+06
           25998    -32.5286E+06     51.1536E+06              0.     17.5008E+06
           25999    -33.9924E+06     50.5367E+06              0.     17.5603E+06
           26000    -35.4599E+06     49.8713E+06              0.     17.6112E+06
           26001    -36.9301E+06     49.1558E+06              0.     17.6530E+06
           26002    -38.4025E+06     48.3882E+06              0.     17.6855E+06
           26003    -39.8763E+06     47.5668E+06              0.     17.7084E+06
           26004    -41.3506E+06     46.6895E+06              0.     17.7212E+06
           26005    -42.8246E+06     45.7545E+06              0.     17.7238E+06
           26006    -44.2975E+06     44.7599E+06              0.     17.7156E+06
           26007    -45.7685E+06     43.7035E+06              0.     17.6965E+06
           26008    -47.2366E+06     42.5835E+06              0.     17.6660E+06
           26009    -48.7009E+06     41.3978E+06              0.     17.6239E+06
           26010    -50.1606E+06     40.1443E+06              0.     17.5698E+06
           26011    -51.6145E+06     38.8209E+06              0.     17.5034E+06
           26012    -53.0618E+06     37.4256E+06              0.     17.4244E+06
           26013    -54.5014E+06     35.9562E+06              0.     17.3325E+06
           26014    -55.9322E+06     34.4106E+06              0.     17.2274E+06
           26015    -57.3533E+06     32.7866E+06              0.     17.1087E+06
           26016    -58.7635E+06     31.0821E+06              0.     16.9763E+06
           26017    -60.1618E+06     29.2949E+06              0.     16.8297E+06
           26018    -61.5469E+06     27.4229E+06              0.     16.6688E+06
           26019    -62.9177E+06     25.4638E+06              0.     16.4932E+06
           26020    -64.2731E+06     23.4155E+06              0.     16.3028E+06
           26021    -65.6118E+06     21.2758E+06              0.     16.0972E+06
           26022    -66.9326E+06     19.0424E+06              0.     15.8762E+06
           26023    -68.2342E+06     16.7134E+06              0.     15.6396E+06
           26024    -69.5154E+06     14.2864E+06              0.     15.3871E+06
           26025    -70.7749E+06     11.7593E+06              0.     15.1186E+06
           26026    -72.0114E+06     9.13001E+06              0.     14.8338E+06
           26027    -73.2234E+06     6.39634E+06              0.     14.5325E+06
           26028    -74.4097E+06     3.55621E+06              0.     14.2146E+06
           26029    -75.5687E+06     607.563E+03              0.     13.8799E+06
           26030    -76.6993E+06    -2.45173E+06              0.     13.5282E+06
           26031    -77.7998E+06    -5.62364E+06              0.     13.1593E+06
           26032    -78.8688E+06    -8.91025E+06              0.     12.7732E+06
           26033    -79.9048E+06    -12.3135E+06              0.     12.3696E+06
           26034    -80.9063E+06    -15.8353E+06              0.     11.9485E+06
           26035    -81.8718E+06    -19.4776E+06              0.     11.5098E+06
           26036    -82.7997E+06    -23.2423E+06              0.     11.0533E+06
           26037    -83.6884E+06    -27.1312E+06              0.     10.5789E+06
           26038    -84.5363E+06    -31.1461E+06              0.     10.0865E+06
           26039    -85.3417E+06    -35.2888E+06              0.     9.57617E+06
           26040    -86.9471E+06    -39.9874E+06              0.     9.33191E+06
           26041     63.7923E+06     28.0162E+06              0.     942.359E+03
           26042     63.8124E+06     28.2380E+06              0.     940.596E+03
           26043     63.7373E+06     28.4137E+06              0.     927.936E+03
           26044     63.6632E+06     28.5845E+06              0.     917.146E+03
           26045     63.5899E+06     28.7508E+06              0.     908.178E+03
           26046     63.5172E+06     28.9127E+06              0.     900.982E+03
           26047     63.4449E+06     29.0705E+06              0.     895.512E+03
           26048     63.3730E+06     29.2244E+06              0.     891.726E+03
           26049     63.3013E+06     29.3746E+06              0.     889.580E+03
           26050     63.2296E+06     29.5213E+06              0.     889.038E+03
           26051     63.1579E+06     29.6646E+06              0.     890.059E+03
           26052     63.0860E+06     29.8048E+06              0.     892.611E+03
           26053     63.0138E+06     29.9421E+06              0.     896.660E+03
           26054     62.9411E+06     30.0765E+06              0.     902.173E+03
           26055     62.8679E+06     30.2084E+06              0.     909.123E+03
           26056     62.7941E+06     30.3378E+06              0.      917.48E+03
           26057     62.7195E+06     30.4649E+06              0.     927.220E+03
           26058     62.6439E+06     30.5899E+06              0.     938.317E+03
           26059     62.5674E+06     30.7129E+06              0.     950.750E+03
           26060     62.4898E+06     30.8340E+06              0.     964.496E+03
           26061     62.4110E+06     30.9535E+06              0.     979.538E+03
           26062     62.3308E+06     31.0713E+06              0.     995.856E+03
           26063     62.2493E+06     31.1878E+06              0.     1.01343E+06
           26064     62.1662E+06     31.3030E+06              0.     1.03226E+06
           26065     62.0815E+06     31.4170E+06              0.     1.05231E+06
           26066     61.9951E+06     31.5299E+06              0.     1.07358E+06
           26067     61.9069E+06     31.6419E+06              0.     1.09607E+06
           26068     61.8167E+06     31.7532E+06              0.     1.11974E+06
           26069     61.7246E+06     31.8637E+06              0.     1.14461E+06
           26070     61.6303E+06     31.9737E+06              0.     1.17066E+06
           26071     61.5339E+06     32.0831E+06              0.     1.19788E+06
           26072     61.4351E+06     32.1923E+06              0.     1.22628E+06
           26073     61.3340E+06     32.3011E+06              0.     1.25584E+06
           26074     61.2304E+06     32.4099E+06              0.     1.28656E+06
           26075     61.1242E+06     32.5185E+06              0.     1.31845E+06
           26076     61.0153E+06     32.6272E+06              0.     1.35149E+06
           26077     60.9037E+06     32.7360E+06              0.     1.38570E+06
           26078     60.7892E+06     32.8451E+06              0.     1.42106E+06
           26079     60.6718E+06     32.9545E+06              0.     1.45759E+06
           26080     60.5513E+06     33.0643E+06              0.     1.49529E+06
           26081     60.4277E+06     33.1745E+06              0.     1.53416E+06
           26082     60.3008E+06     33.2854E+06              0.     1.57420E+06
           26083     60.1706E+06     33.3969E+06              0.     1.61542E+06
           26084     60.0370E+06     33.5092E+06              0.     1.65782E+06
           26085     59.8999E+06     33.6223E+06              0.     1.70142E+06
           26086     59.7592E+06     33.7363E+06              0.     1.74622E+06
           26087     59.6147E+06     33.8512E+06              0.     1.79223E+06
           26088     59.4665E+06     33.9672E+06              0.     1.83946E+06
           26089     59.3143E+06     34.0844E+06              0.     1.88792E+06
           26090     59.1582E+06     34.2027E+06              0.     1.93762E+06
           26091     58.9979E+06     34.3224E+06              0.     1.98857E+06
           26092     58.8335E+06     34.4433E+06              0.     2.04079E+06
           26093     58.6647E+06     34.5657E+06              0.     2.09428E+06
           26094     58.4915E+06     34.6895E+06              0.     2.14906E+06
           26095     58.3138E+06     34.8149E+06              0.     2.20514E+06
           26096     58.1315E+06     34.9419E+06              0.     2.26254E+06
           26097     57.9445E+06     35.0706E+06              0.     2.32128E+06
           26098     57.7527E+06     35.2010E+06              0.     2.38136E+06
           26099     57.5559E+06     35.3332E+06              0.     2.44281E+06
           26100     57.3540E+06     35.4672E+06              0.     2.50564E+06
           26101     57.1471E+06     35.6032E+06              0.     2.56987E+06
           26102     56.9348E+06     35.7411E+06              0.     2.63551E+06
           26103     56.7172E+06     35.8810E+06              0.     2.70259E+06
           26104     56.4941E+06     36.0230E+06              0.     2.77112E+06
           26105     56.2653E+06     36.1672E+06              0.     2.84112E+06
           26106     56.0309E+06     36.3135E+06              0.     2.91262E+06
           26107     55.7906E+06     36.4621E+06              0.     2.98562E+06
           26108     55.5444E+06     36.6130E+06              0.     3.06015E+06
           26109     55.2920E+06     36.7662E+06              0.     3.13624E+06
           26110     55.0335E+06     36.9218E+06              0.     3.21389E+06
           26111     54.7686E+06     37.0798E+06              0.     3.29313E+06
           26112     54.4973E+06     37.2402E+06              0.     3.37399E+06
           26113     54.2194E+06     37.4032E+06              0.     3.45648E+06
           26114     53.9348E+06     37.5688E+06              0.     3.54062E+06
           26115     53.6433E+06     37.7369E+06              0.     3.62644E+06
           26116     53.3449E+06     37.9077E+06              0.     3.71396E+06
           26117     53.0394E+06     38.0811E+06              0.     3.80319E+06
           26118     52.7266E+06     38.2573E+06              0.     3.89417E+06
           26119     52.4065E+06     38.4361E+06              0.      3.9869E+06
           26120     52.0789E+06     38.6178E+06              0.     4.08142E+06
           26121     51.7436E+06     38.8022E+06              0.     4.17774E+06
           26122     51.4005E+06     38.9895E+06              0.     4.27589E+06
           26123     51.0495E+06     39.1796E+06              0.     4.37588E+06
           26124     50.6905E+06     39.3725E+06              0.     4.47774E+06
           26125     50.3232E+06     39.5684E+06              0.     4.58149E+06
           26126     49.9475E+06     39.7671E+06              0.     4.68715E+06
           26127     49.5634E+06     39.9688E+06              0.     4.79473E+06
           26128     49.1706E+06     40.1734E+06              0.     4.90427E+06
           26129     48.7690E+06     40.3809E+06              0.     5.01577E+06
           26130     48.3584E+06     40.5914E+06              0.     5.12926E+06
           26131     47.9387E+06     40.8049E+06              0.     5.24475E+06
           26132     47.5098E+06     41.0212E+06              0.     5.36226E+06
           26133     47.0715E+06     41.2405E+06              0.     5.48182E+06
           26134     46.6236E+06     41.4628E+06              0.     5.60342E+06
           26135     46.1660E+06     41.6879E+06              0.      5.7271E+06
           26136     45.6985E+06     41.9160E+06              0.     5.85286E+06
           26137     45.2210E+06     42.1469E+06              0.     5.98072E+06
           26138     44.7333E+06     42.3807E+06              0.     6.11069E+06
           26139     44.2352E+06     42.6174E+06              0.     6.24278E+06
           26140     43.7267E+06     42.8568E+06              0.     6.37701E+06
           26141     43.2075E+06     43.0990E+06              0.     6.51337E+06
           26142     42.6774E+06     43.3438E+06              0.     6.65188E+06
           26143     42.1365E+06     43.5914E+06              0.     6.79255E+06
           26144     41.5843E+06     43.8415E+06              0.     6.93538E+06
           26145     41.0209E+06     44.0942E+06              0.     7.08038E+06
           26146     40.4461E+06     44.3494E+06              0.     7.22753E+06
           26147     39.8596E+06     44.6069E+06              0.     7.37685E+06
           26148     39.2614E+06     44.8668E+06              0.     7.52834E+06
           26149     38.6512E+06     45.1289E+06              0.     7.68198E+06
           26150     38.0290E+06     45.3931E+06              0.     7.83777E+06
           26151     37.3946E+06     45.6593E+06              0.     7.99571E+06
           26152     36.7478E+06     45.9274E+06              0.     8.15577E+06
           26153     36.0885E+06     46.1973E+06              0.     8.31796E+06
           26154     35.4165E+06     46.4689E+06              0.     8.48225E+06
           26155     34.7317E+06     46.7420E+06              0.     8.64862E+06
           26156     34.0340E+06     47.0164E+06              0.     8.81706E+06
           26157     33.3231E+06     47.2921E+06              0.     8.98753E+06
           26158     32.5990E+06     47.5687E+06              0.     9.16002E+06
           26159     31.8615E+06     47.8463E+06              0.     9.33449E+06
           26160     31.1106E+06     48.1244E+06              0.     9.51090E+06
           26161     30.3459E+06     48.4030E+06              0.     9.68922E+06
           26162     29.5675E+06     48.6819E+06              0.     9.86940E+06
           26163     28.7753E+06     48.9607E+06              0.     10.0514E+06
           26164     27.9690E+06     49.2393E+06              0.     10.2352E+06
           26165     27.1486E+06     49.5174E+06              0.     10.4207E+06
           26166     26.3140E+06     49.7947E+06              0.     10.6079E+06
           26167     25.4651E+06     50.0709E+06              0.     10.7966E+06
           26168     24.6017E+06     50.3458E+06              0.     10.9869E+06
           26169     23.7239E+06     50.6189E+06              0.     11.1787E+06
           26170     22.8314E+06     50.8900E+06              0.     11.3719E+06
           26171     21.9243E+06     51.1588E+06              0.     11.5663E+06
           26172     21.0024E+06     51.4248E+06              0.      11.762E+06
           26173     20.0657E+06     51.6876E+06              0.     11.9588E+06
           26174     19.1142E+06     51.9469E+06              0.     12.1567E+06
           26175     18.1477E+06     52.2022E+06              0.     12.3554E+06
           26176     17.1663E+06     52.4531E+06              0.     12.5550E+06
           26177     16.1698E+06     52.6990E+06              0.     12.7553E+06
           26178     15.1584E+06     52.9396E+06              0.     12.9562E+06
           26179     14.1320E+06     53.1742E+06              0.     13.1576E+06
           26180     13.0905E+06     53.4024E+06              0.     13.3593E+06
           26181     12.0341E+06     53.6236E+06              0.     13.5612E+06
           26182     10.9626E+06     53.8372E+06              0.     13.7631E+06
           26183     9.87619E+06     54.0426E+06              0.     13.9649E+06
           26184     8.77485E+06     54.2391E+06              0.     14.1664E+06
           26185     7.65866E+06     54.4262E+06              0.     14.3675E+06
           26186     6.52767E+06     54.6030E+06              0.     14.5680E+06
           26187     5.38198E+06     54.7689E+06              0.     14.7677E+06
           26188     4.22167E+06     54.9232E+06              0.     14.9665E+06
           26189     3.04686E+06     55.0650E+06              0.     15.1640E+06
           26190     1.85768E+06     55.1936E+06              0.     15.3602E+06
           26191     654.256E+03     55.3081E+06              0.     15.5548E+06
           26192    -563.249E+03     55.4076E+06              0.     15.7475E+06
           26193    -1.79466E+06     55.4913E+06              0.     15.9383E+06
           26194    -3.03979E+06     55.5582E+06              0.     16.1268E+06
           26195    -4.29844E+06     55.6074E+06              0.     16.3128E+06
           26196    -5.57037E+06     55.6379E+06              0.     16.4960E+06
           26197    -6.85536E+06     55.6485E+06              0.     16.6762E+06
           26198    -8.15314E+06     55.6383E+06              0.     16.8532E+06
           26199    -9.46342E+06     55.6062E+06              0.     17.0266E+06
           26200    -10.7859E+06     55.5510E+06              0.     17.1961E+06
           26201    -12.1203E+06     55.4715E+06              0.     17.3616E+06
           26202    -13.4662E+06     55.3666E+06              0.     17.5227E+06
           26203    -14.8234E+06     55.2349E+06              0.     17.6791E+06
           26204    -16.1913E+06     55.0753E+06              0.     17.8305E+06
           26205    -17.5697E+06     54.8863E+06              0.     17.9766E+06
           26206    -18.9581E+06     54.6666E+06              0.     18.1171E+06
           26207    -20.3560E+06     54.4148E+06              0.     18.2516E+06
           26208    -21.7630E+06     54.1296E+06              0.     18.3798E+06
           26209    -23.1785E+06     53.8093E+06              0.     18.5015E+06
           26210    -24.6021E+06     53.4525E+06              0.     18.6161E+06
           26211    -26.0333E+06     53.0577E+06              0.     18.7235E+06
           26212    -27.4715E+06     52.6232E+06              0.     18.8232E+06
           26213    -28.9160E+06     52.1475E+06              0.     18.9150E+06
           26214    -30.3663E+06     51.6288E+06              0.     18.9984E+06
           26215    -31.8217E+06     51.0656E+06              0.     19.0730E+06
           26216    -33.2817E+06     50.4559E+06              0.     19.1386E+06
           26217    -34.7454E+06     49.7982E+06              0.     19.1948E+06
           26218    -36.2122E+06     49.0905E+06              0.     19.2412E+06
           26219    -37.6814E+06     48.3310E+06              0.     19.2774E+06
           26220    -39.1522E+06     47.5179E+06              0.     19.3030E+06
           26221    -40.6238E+06     46.6493E+06              0.     19.3178E+06
           26222    -42.0953E+06     45.7232E+06              0.     19.3213E+06
           26223    -43.5661E+06     44.7377E+06              0.     19.3132E+06
           26224    -45.0352E+06     43.6907E+06              0.     19.2931E+06
           26225    -46.5017E+06     42.5803E+06              0.     19.2606E+06
           26226    -47.9647E+06     41.4045E+06              0.     19.2154E+06
           26227    -49.4233E+06     40.1610E+06              0.     19.1572E+06
           26228    -50.8765E+06     38.8480E+06              0.     19.0855E+06
           26229    -52.3233E+06     37.4632E+06              0.     19.0001E+06
           26230    -53.7628E+06     36.0045E+06              0.     18.9006E+06
           26231    -55.1938E+06     34.4698E+06              0.     18.7867E+06
           26232    -56.6154E+06     32.8570E+06              0.     18.6580E+06
           26233    -58.0264E+06     31.1638E+06              0.     18.5143E+06
           26234    -59.4257E+06     29.3881E+06              0.     18.3551E+06
           26235    -60.8123E+06     27.5277E+06              0.     18.1803E+06
           26236    -62.1848E+06     25.5804E+06              0.     17.9895E+06
           26237    -63.5422E+06     23.5440E+06              0.     17.7825E+06
           26238    -64.8833E+06     21.4163E+06              0.     17.5588E+06
           26239    -66.2068E+06     19.1952E+06              0.     17.3184E+06
           26240    -67.5114E+06     16.8784E+06              0.     17.0609E+06
           26241    -68.7960E+06     14.4638E+06              0.     16.7861E+06
           26242    -70.0591E+06     11.9492E+06              0.     16.4938E+06
           26243    -71.2995E+06     9.33243E+06              0.     16.1837E+06
           26244    -72.5158E+06     6.61137E+06              0.     15.8556E+06
           26245    -73.7066E+06     3.78389E+06              0.     15.5094E+06
           26246    -74.8706E+06     847.940E+03              0.     15.1447E+06
           26247    -76.0063E+06    -2.19862E+06              0.     14.7616E+06
           26248    -77.1123E+06    -5.35778E+06              0.     14.3597E+06
           26249    -78.1871E+06    -8.63161E+06              0.     13.9389E+06
           26250    -79.2292E+06    -12.0221E+06              0.     13.4991E+06
           26251    -80.2372E+06    -15.5311E+06              0.     13.0402E+06
           26252    -81.2094E+06    -19.1607E+06              0.     12.5620E+06
           26253    -82.1443E+06    -22.9126E+06              0.     12.0643E+06
           26254    -83.0403E+06    -26.7887E+06              0.     11.5472E+06
           26255    -83.8958E+06    -30.7909E+06              0.     11.0105E+06
           26256    -84.7091E+06    -34.9209E+06              0.     10.4540E+06
           26257    -86.3143E+06    -39.6069E+06              0.     10.1881E+06
           26258     63.8308E+06     28.0329E+06              0.     1.01730E+06
           26259     63.8507E+06     28.2523E+06              0.     1.01540E+06
           26260     63.7765E+06     28.4260E+06              0.     1.00173E+06
           26261     63.7032E+06     28.5949E+06              0.     990.086E+03
           26262     63.6306E+06     28.7594E+06              0.     980.405E+03
           26263     63.5587E+06     28.9195E+06              0.     972.638E+03
           26264     63.4872E+06     29.0756E+06              0.     966.734E+03
           26265     63.4161E+06     29.2278E+06              0.     962.647E+03
           26266     63.3452E+06     29.3764E+06              0.     960.332E+03
           26267     63.2743E+06     29.5214E+06              0.     959.747E+03
           26268     63.2034E+06     29.6632E+06              0.     960.851E+03
           26269     63.1323E+06     29.8019E+06              0.     963.607E+03
           26270     63.0608E+06     29.9376E+06              0.     967.979E+03
           26271     62.9890E+06     30.0706E+06              0.     973.932E+03
           26272     62.9166E+06     30.2010E+06              0.     981.435E+03
           26273     62.8436E+06     30.3290E+06              0.     990.459E+03
           26274     62.7697E+06     30.4547E+06              0.     1.00097E+06
           26275     62.6951E+06     30.5783E+06              0.     1.01296E+06
           26276     62.6194E+06     30.7000E+06              0.     1.02638E+06
           26277     62.5426E+06     30.8198E+06              0.     1.04122E+06
           26278     62.4646E+06     30.9379E+06              0.     1.05746E+06
           26279     62.3854E+06     31.0545E+06              0.     1.07508E+06
           26280     62.3047E+06     31.1697E+06              0.     1.09406E+06
           26281     62.2225E+06     31.2836E+06              0.     1.11438E+06
           26282     62.1388E+06     31.3963E+06              0.     1.13603E+06
           26283     62.0533E+06     31.5081E+06              0.     1.15900E+06
           26284     61.9660E+06     31.6189E+06              0.     1.18327E+06
           26285     61.8769E+06     31.7289E+06              0.     1.20883E+06
           26286     61.7857E+06     31.8382E+06              0.     1.23568E+06
           26287     61.6925E+06     31.9470E+06              0.     1.26380E+06
           26288     61.5971E+06     32.0553E+06              0.     1.29320E+06
           26289     61.4994E+06     32.1632E+06              0.     1.32385E+06
           26290     61.3994E+06     32.2709E+06              0.     1.35577E+06
           26291     61.2969E+06     32.3784E+06              0.     1.38894E+06
           26292     61.1919E+06     32.4859E+06              0.     1.42336E+06
           26293     61.0842E+06     32.5934E+06              0.     1.45904E+06
           26294     60.9738E+06     32.7011E+06              0.     1.49597E+06
           26295     60.8605E+06     32.8090E+06              0.     1.53415E+06
           26296     60.7443E+06     32.9171E+06              0.     1.57359E+06
           26297     60.6252E+06     33.0257E+06              0.     1.61429E+06
           26298     60.5029E+06     33.1348E+06              0.     1.65626E+06
           26299     60.3774E+06     33.2445E+06              0.     1.69949E+06
           26300     60.2486E+06     33.3548E+06              0.     1.74399E+06
           26301     60.1165E+06     33.4659E+06              0.     1.78978E+06
           26302     59.9808E+06     33.5777E+06              0.     1.83685E+06
           26303     59.8416E+06     33.6905E+06              0.     1.88522E+06
           26304     59.6988E+06     33.8042E+06              0.     1.93490E+06
           26305     59.5521E+06     33.9190E+06              0.     1.98590E+06
           26306     59.4016E+06     34.0349E+06              0.     2.03822E+06
           26307     59.2471E+06     34.1520E+06              0.     2.09188E+06
           26308     59.0886E+06     34.2703E+06              0.     2.14689E+06
           26309     58.9259E+06     34.3900E+06              0.     2.20327E+06
           26310     58.7589E+06     34.5111E+06              0.     2.26103E+06
           26311     58.5876E+06     34.6336E+06              0.     2.32017E+06
           26312     58.4118E+06     34.7577E+06              0.     2.38073E+06
           26313     58.2315E+06     34.8833E+06              0.     2.44271E+06
           26314     58.0465E+06     35.0106E+06              0.     2.50613E+06
           26315     57.8567E+06     35.1396E+06              0.     2.57101E+06
           26316     57.6620E+06     35.2704E+06              0.     2.63736E+06
           26317     57.4623E+06     35.4031E+06              0.     2.70520E+06
           26318     57.2575E+06     35.5376E+06              0.     2.77456E+06
           26319     57.0476E+06     35.6741E+06              0.     2.84544E+06
           26320     56.8323E+06     35.8126E+06              0.     2.91788E+06
           26321     56.6115E+06     35.9531E+06              0.     2.99188E+06
           26322     56.3852E+06     36.0957E+06              0.     3.06747E+06
           26323     56.1533E+06     36.2406E+06              0.     3.14467E+06
           26324     55.9155E+06     36.3876E+06              0.     3.22351E+06
           26325     55.6719E+06     36.5369E+06              0.     3.30400E+06
           26326     55.4222E+06     36.6885E+06              0.     3.38616E+06
           26327     55.1664E+06     36.8425E+06              0.     3.47002E+06
           26328     54.9044E+06     36.9989E+06              0.     3.55559E+06
           26329     54.6359E+06     37.1577E+06              0.     3.64291E+06
           26330     54.3609E+06     37.3190E+06              0.     3.73200E+06
           26331     54.0793E+06     37.4829E+06              0.     3.82287E+06
           26332     53.7909E+06     37.6493E+06              0.     3.91555E+06
           26333     53.4956E+06     37.8184E+06              0.     4.01007E+06
           26334     53.1933E+06     37.9901E+06              0.     4.10644E+06
           26335     52.8838E+06     38.1644E+06              0.     4.20470E+06
           26336     52.5671E+06     38.3415E+06              0.     4.30485E+06
           26337     52.2428E+06     38.5213E+06              0.     4.40694E+06
           26338     51.9111E+06     38.7039E+06              0.     4.51097E+06
           26339     51.5715E+06     38.8893E+06              0.     4.61698E+06
           26340     51.2242E+06     39.0775E+06              0.     4.72498E+06
           26341     50.8688E+06     39.2686E+06              0.     4.83501E+06
           26342     50.5054E+06     39.4625E+06              0.     4.94707E+06
           26343     50.1336E+06     39.6593E+06              0.      5.0612E+06
           26344     49.7534E+06     39.8590E+06              0.     5.17741E+06
           26345     49.3646E+06     40.0617E+06              0.     5.29573E+06
           26346     48.9671E+06     40.2672E+06              0.     5.41618E+06
           26347     48.5608E+06     40.4756E+06              0.     5.53878E+06
           26348     48.1454E+06     40.6870E+06              0.     5.66354E+06
           26349     47.7208E+06     40.9013E+06              0.     5.79049E+06
           26350     47.2870E+06     41.1186E+06              0.     5.91964E+06
           26351     46.8436E+06     41.3387E+06              0.     6.05102E+06
           26352     46.3906E+06     41.5618E+06              0.     6.18464E+06
           26353     45.9279E+06     41.7877E+06              0.     6.32051E+06
           26354     45.4551E+06     42.0165E+06              0.     6.45865E+06
           26355     44.9723E+06     42.2481E+06              0.     6.59908E+06
           26356     44.4793E+06     42.4826E+06              0.     6.74180E+06
           26357     43.9758E+06     42.7198E+06              0.     6.88683E+06
           26358     43.4618E+06     42.9598E+06              0.     7.03418E+06
           26359     42.9370E+06     43.2025E+06              0.     7.18386E+06
           26360     42.4013E+06     43.4479E+06              0.     7.33587E+06
           26361     41.8546E+06     43.6958E+06              0.     7.49021E+06
           26362     41.2968E+06     43.9463E+06              0.     7.64690E+06
           26363     40.7275E+06     44.1992E+06              0.     7.80594E+06
           26364     40.1468E+06     44.4546E+06              0.     7.96732E+06
           26365     39.5543E+06     44.7122E+06              0.     8.13104E+06
           26366     38.9501E+06     44.9721E+06              0.     8.29710E+06
           26367     38.3339E+06     45.2341E+06              0.     8.46549E+06
           26368     37.7055E+06     45.4981E+06              0.     8.63620E+06
           26369     37.0649E+06     45.7641E+06              0.     8.80923E+06
           26370     36.4118E+06     46.0318E+06              0.     8.98455E+06
           26371     35.7462E+06     46.3013E+06              0.     9.16215E+06
           26372     35.0678E+06     46.5722E+06              0.     9.34201E+06
           26373     34.3766E+06     46.8445E+06              0.     9.52412E+06
           26374     33.6723E+06     47.1181E+06              0.     9.70843E+06
           26375     32.9549E+06     47.3927E+06              0.     9.89492E+06
           26376     32.2242E+06     47.6682E+06              0.     10.0836E+06
           26377     31.4801E+06     47.9443E+06              0.     10.2743E+06
           26378     30.7225E+06     48.2210E+06              0.     10.4672E+06
           26379     29.9511E+06     48.4979E+06              0.     10.6620E+06
           26380     29.1660E+06     48.7748E+06              0.     10.8589E+06
           26381     28.3669E+06     49.0516E+06              0.     11.0576E+06
           26382     27.5538E+06     49.3279E+06              0.     11.2583E+06
           26383     26.7265E+06     49.6034E+06              0.     11.4607E+06
           26384     25.8850E+06     49.8780E+06              0.     11.6649E+06
           26385     25.0291E+06     50.1512E+06              0.     11.8708E+06
           26386     24.1588E+06     50.4228E+06              0.     12.0783E+06
           26387     23.2739E+06     50.6925E+06              0.     12.2872E+06
           26388     22.3745E+06     50.9598E+06              0.     12.4977E+06
           26389     21.4603E+06     51.2245E+06              0.     12.7094E+06
           26390     20.5314E+06     51.4861E+06              0.     12.9224E+06
           26391     19.5877E+06     51.7443E+06              0.     13.1365E+06
           26392     18.6291E+06     51.9986E+06              0.     13.3517E+06
           26393     17.6556E+06     52.2485E+06              0.     13.5677E+06
           26394     16.6672E+06     52.4936E+06              0.     13.7845E+06
           26395     15.6637E+06     52.7335E+06              0.     14.0020E+06
           26396     14.6453E+06     52.9676E+06              0.     14.2200E+06
           26397     13.6119E+06     53.1953E+06              0.     14.4384E+06
           26398     12.5635E+06     53.4162E+06              0.     14.6570E+06
           26399     11.5002E+06     53.6296E+06              0.     14.8757E+06
           26400     10.4218E+06     53.8349E+06              0.     15.0943E+06
           26401     9.32861E+06     54.0316E+06              0.     15.3126E+06
           26402     8.22052E+06     54.2189E+06              0.     15.5304E+06
           26403     7.09763E+06     54.3961E+06              0.     15.7476E+06
           26404     5.96002E+06     54.5627E+06              0.     15.9640E+06
           26405     4.80778E+06     54.7177E+06              0.     16.1794E+06
           26406     3.64101E+06     54.8605E+06              0.     16.3935E+06
           26407     2.45983E+06     54.9902E+06              0.     16.6061E+06
           26408     1.26438E+06     55.1060E+06              0.     16.8170E+06
           26409     54.7888E+03     55.2071E+06              0.     17.0261E+06
           26410    -1.16876E+06     55.2926E+06              0.     17.2329E+06
           26411    -2.40609E+06     55.3615E+06              0.     17.4373E+06
           26412    -3.65700E+06     55.4129E+06              0.     17.6390E+06
           26413    -4.92129E+06     55.4457E+06              0.     17.8378E+06
           26414    -6.19870E+06     55.4590E+06              0.     18.0334E+06
           26415    -7.48900E+06     55.4517E+06              0.     18.2254E+06
           26416    -8.79192E+06     55.4227E+06              0.     18.4136E+06
           26417    -10.1071E+06     55.3709E+06              0.     18.5977E+06
           26418    -11.4344E+06     55.2951E+06              0.     18.7774E+06
           26419    -12.7733E+06     55.1941E+06              0.     18.9524E+06
           26420    -14.1236E+06     55.0666E+06              0.     19.1223E+06
           26421    -15.4848E+06     54.9114E+06              0.     19.2868E+06
           26422    -16.8566E+06     54.7271E+06              0.     19.4456E+06
           26423    -18.2385E+06     54.5124E+06              0.     19.5984E+06
           26424    -19.6302E+06     54.2660E+06              0.     19.7447E+06
           26425    -21.0311E+06     53.9863E+06              0.     19.8843E+06
           26426    -22.4408E+06     53.6718E+06              0.     20.0167E+06
           26427    -23.8587E+06     53.3212E+06              0.     20.1416E+06
           26428    -25.2844E+06     52.9328E+06              0.     20.2586E+06
           26429    -26.7173E+06     52.5051E+06              0.     20.3674E+06
           26430    -28.1568E+06     52.0364E+06              0.     20.4675E+06
           26431    -29.6023E+06     51.5251E+06              0.     20.5586E+06
           26432    -31.0531E+06     50.9694E+06              0.     20.6403E+06
           26433    -32.5087E+06     50.3677E+06              0.     20.7121E+06
           26434    -33.9684E+06     49.7182E+06              0.     20.7738E+06
           26435    -35.4314E+06     49.0190E+06              0.     20.8249E+06
           26436    -36.8970E+06     48.2684E+06              0.     20.8650E+06
           26437    -38.3645E+06     47.4644E+06              0.     20.8936E+06
           26438    -39.8331E+06     46.6051E+06              0.     20.9105E+06
           26439    -41.3020E+06     45.6887E+06              0.     20.9152E+06
           26440    -42.7704E+06     44.7131E+06              0.     20.9073E+06
           26441    -44.2374E+06     43.6763E+06              0.     20.8864E+06
           26442    -45.7021E+06     42.5764E+06              0.     20.8522E+06
           26443    -47.1636E+06     41.4113E+06              0.     20.8041E+06
           26444    -48.6211E+06     40.1788E+06              0.     20.7419E+06
           26445    -50.0735E+06     38.8770E+06              0.     20.6652E+06
           26446    -51.5198E+06     37.5036E+06              0.     20.5736E+06
           26447    -52.9591E+06     36.0567E+06              0.     20.4667E+06
           26448    -54.3903E+06     34.5339E+06              0.     20.3442E+06
           26449    -55.8123E+06     32.9331E+06              0.     20.2057E+06
           26450    -57.2242E+06     31.2523E+06              0.     20.0509E+06
           26451    -58.6247E+06     29.4891E+06              0.     19.8793E+06
           26452    -60.0127E+06     27.6413E+06              0.     19.6908E+06
           26453    -61.3871E+06     25.7069E+06              0.     19.4849E+06
           26454    -62.7467E+06     23.6835E+06              0.     19.2614E+06
           26455    -64.0903E+06     21.5689E+06              0.     19.0200E+06
           26456    -65.4167E+06     19.3611E+06              0.     18.7603E+06
           26457    -66.7246E+06     17.0576E+06              0.     18.4822E+06
           26458    -68.0127E+06     14.6565E+06              0.     18.1852E+06
           26459    -69.2798E+06     12.1555E+06              0.     17.8692E+06
           26460    -70.5244E+06     9.55236E+06              0.     17.5340E+06
           26461    -71.7453E+06     6.84502E+06              0.     17.1793E+06
           26462    -72.9411E+06     4.03132E+06              0.     16.8048E+06
           26463    -74.1104E+06     1.10920E+06              0.     16.4104E+06
           26464    -75.2518E+06    -1.92350E+06              0.     15.9959E+06
           26465    -76.3637E+06    -5.06877E+06              0.     15.5611E+06
           26466    -77.4448E+06    -8.32869E+06              0.     15.1058E+06
           26467    -78.4936E+06    -11.7052E+06              0.     14.6299E+06
           26468    -79.5086E+06    -15.2004E+06              0.     14.1332E+06
           26469    -80.4881E+06    -18.8160E+06              0.     13.6156E+06
           26470    -81.4306E+06    -22.5540E+06              0.     13.0770E+06
           26471    -82.3346E+06    -26.4163E+06              0.     12.5172E+06
           26472    -83.1984E+06    -30.4047E+06              0.     11.9362E+06
           26473    -84.0202E+06    -34.5208E+06              0.     11.3338E+06
           26474    -85.6256E+06    -39.1933E+06              0.     11.0461E+06
           26475     63.8722E+06     28.0508E+06              0.     1.09139E+06
           26476     63.8918E+06     28.2676E+06              0.     1.08935E+06
           26477     63.8185E+06     28.4392E+06              0.     1.07469E+06
           26478     63.7461E+06     28.6062E+06              0.     1.06220E+06
           26479     63.6745E+06     28.7687E+06              0.     1.05181E+06
           26480     63.6034E+06     28.9269E+06              0.     1.04348E+06
           26481     63.5328E+06     29.0811E+06              0.     1.03715E+06
           26482     63.4625E+06     29.2315E+06              0.     1.03276E+06
           26483     63.3924E+06     29.3783E+06              0.     1.03028E+06
           26484     63.3224E+06     29.5216E+06              0.     1.02965E+06
           26485     63.2523E+06     29.6617E+06              0.     1.03084E+06
           26486     63.1821E+06     29.7987E+06              0.     1.03380E+06
           26487     63.1115E+06     29.9328E+06              0.     1.03849E+06
           26488     63.0405E+06     30.0642E+06              0.     1.04488E+06
           26489     62.9690E+06     30.1931E+06              0.     1.05293E+06
           26490     62.8968E+06     30.3195E+06              0.     1.06261E+06
           26491     62.8239E+06     30.4438E+06              0.     1.07389E+06
           26492     62.7501E+06     30.5659E+06              0.     1.08675E+06
           26493     62.6753E+06     30.6861E+06              0.     1.10115E+06
           26494     62.5994E+06     30.8045E+06              0.     1.11708E+06
           26495     62.5224E+06     30.9212E+06              0.     1.13450E+06
           26496     62.4441E+06     31.0364E+06              0.     1.15340E+06
           26497     62.3644E+06     31.1502E+06              0.     1.17377E+06
           26498     62.2832E+06     31.2628E+06              0.     1.19557E+06
           26499     62.2004E+06     31.3742E+06              0.     1.21880E+06
           26500     62.1159E+06     31.4845E+06              0.     1.24344E+06
           26501     62.0297E+06     31.5940E+06              0.     1.26949E+06
           26502     61.9416E+06     31.7027E+06              0.     1.29692E+06
           26503     61.8515E+06     31.8108E+06              0.     1.32572E+06
           26504     61.7594E+06     31.9182E+06              0.     1.35590E+06
           26505     61.6651E+06     32.0253E+06              0.     1.38743E+06
           26506     61.5686E+06     32.1319E+06              0.     1.42033E+06
           26507     61.4698E+06     32.2383E+06              0.     1.45457E+06
           26508     61.3685E+06     32.3446E+06              0.     1.49016E+06
           26509     61.2647E+06     32.4508E+06              0.     1.52710E+06
           26510     61.1583E+06     32.5571E+06              0.     1.56538E+06
           26511     61.0492E+06     32.6634E+06              0.     1.60500E+06
           26512     60.9372E+06     32.7700E+06              0.     1.64597E+06
           26513     60.8225E+06     32.8770E+06              0.     1.68829E+06
           26514     60.7047E+06     32.9843E+06              0.     1.73196E+06
           26515     60.5838E+06     33.0921E+06              0.     1.77699E+06
           26516     60.4598E+06     33.2005E+06              0.     1.82337E+06
           26517     60.3326E+06     33.3095E+06              0.     1.87113E+06
           26518     60.2020E+06     33.4192E+06              0.     1.92026E+06
           26519     60.0679E+06     33.5298E+06              0.     1.97077E+06
           26520     59.9304E+06     33.6413E+06              0.     2.02267E+06
           26521     59.7892E+06     33.7537E+06              0.     2.07598E+06
           26522     59.6442E+06     33.8671E+06              0.     2.13070E+06
           26523     59.4955E+06     33.9816E+06              0.     2.18684E+06
           26524     59.3428E+06     34.0974E+06              0.     2.24442E+06
           26525     59.1861E+06     34.2143E+06              0.     2.30345E+06
           26526     59.0253E+06     34.3326E+06              0.     2.36395E+06
           26527     58.8603E+06     34.4523E+06              0.     2.42592E+06
           26528     58.6910E+06     34.5734E+06              0.     2.48940E+06
           26529     58.5173E+06     34.6960E+06              0.     2.55438E+06
           26530     58.3391E+06     34.8202E+06              0.     2.62089E+06
           26531     58.1562E+06     34.9461E+06              0.     2.68894E+06
           26532     57.9686E+06     35.0736E+06              0.     2.75856E+06
           26533     57.7762E+06     35.2029E+06              0.     2.82977E+06
           26534     57.5788E+06     35.3340E+06              0.     2.90257E+06
           26535     57.3765E+06     35.4670E+06              0.     2.97700E+06
           26536     57.1689E+06     35.6019E+06              0.     3.05307E+06
           26537     56.9561E+06     35.7389E+06              0.     3.13080E+06
           26538     56.7379E+06     35.8778E+06              0.     3.21022E+06
           26539     56.5143E+06     36.0188E+06              0.     3.29134E+06
           26540     56.2850E+06     36.1620E+06              0.     3.37419E+06
           26541     56.0500E+06     36.3074E+06              0.     3.45880E+06
           26542     55.8092E+06     36.4550E+06              0.     3.54518E+06
           26543     55.5624E+06     36.6049E+06              0.     3.63336E+06
           26544     55.3095E+06     36.7572E+06              0.     3.72336E+06
           26545     55.0505E+06     36.9118E+06              0.     3.81521E+06
           26546     54.7851E+06     37.0689E+06              0.     3.90892E+06
           26547     54.5133E+06     37.2284E+06              0.     4.00454E+06
           26548     54.2349E+06     37.3905E+06              0.     4.10207E+06
           26549     53.9498E+06     37.5551E+06              0.     4.20155E+06
           26550     53.6579E+06     37.7222E+06              0.     4.30299E+06
           26551     53.3590E+06     37.8920E+06              0.     4.40643E+06
           26552     53.0531E+06     38.0645E+06              0.     4.51190E+06
           26553     52.7399E+06     38.2396E+06              0.     4.61940E+06
           26554     52.4194E+06     38.4175E+06              0.     4.72898E+06
           26555     52.0913E+06     38.5981E+06              0.     4.84065E+06
           26556     51.7557E+06     38.7815E+06              0.     4.95444E+06
           26557     51.4122E+06     38.9677E+06              0.     5.07038E+06
           26558     51.0609E+06     39.1567E+06              0.     5.18849E+06
           26559     50.7015E+06     39.3486E+06              0.     5.30879E+06
           26560     50.3339E+06     39.5433E+06              0.     5.43131E+06
           26561     49.9580E+06     39.7409E+06              0.     5.55607E+06
           26562     49.5736E+06     39.9413E+06              0.     5.68309E+06
           26563     49.1805E+06     40.1447E+06              0.     5.81240E+06
           26564     48.7787E+06     40.3510E+06              0.     5.94402E+06
           26565     48.3679E+06     40.5602E+06              0.     6.07797E+06
           26566     47.9481E+06     40.7722E+06              0.     6.21427E+06
           26567     47.5190E+06     40.9872E+06              0.     6.35294E+06
           26568     47.0805E+06     41.2051E+06              0.     6.49400E+06
           26569     46.6325E+06     41.4259E+06              0.     6.63747E+06
           26570     46.1748E+06     41.6495E+06              0.     6.78337E+06
           26571     45.7073E+06     41.8760E+06              0.     6.93171E+06
           26572     45.2298E+06     42.1053E+06              0.     7.08250E+06
           26573     44.7421E+06     42.3375E+06              0.     7.23576E+06
           26574     44.2441E+06     42.5724E+06              0.     7.39151E+06
           26575     43.7356E+06     42.8100E+06              0.     7.54975E+06
           26576     43.2165E+06     43.0503E+06              0.     7.71050E+06
           26577     42.6866E+06     43.2933E+06              0.     7.87375E+06
           26578     42.1458E+06     43.5389E+06              0.     8.03952E+06
           26579     41.5938E+06     43.7869E+06              0.     8.20782E+06
           26580     41.0306E+06     44.0375E+06              0.     8.37864E+06
           26581     40.4560E+06     44.2905E+06              0.     8.55198E+06
           26582     39.8699E+06     44.5457E+06              0.     8.72785E+06
           26583     39.2720E+06     44.8032E+06              0.     8.90623E+06
           26584     38.6622E+06     45.0628E+06              0.     9.08713E+06
           26585     38.0404E+06     45.3245E+06              0.     9.27053E+06
           26586     37.4064E+06     45.5881E+06              0.     9.45642E+06
           26587     36.7601E+06     45.8535E+06              0.     9.64478E+06
           26588     36.1013E+06     46.1206E+06              0.     9.83561E+06
           26589     35.4299E+06     46.3892E+06              0.     10.0289E+06
           26590     34.7457E+06     46.6593E+06              0.     10.2245E+06
           26591     34.0486E+06     46.9306E+06              0.     10.4226E+06
           26592     33.3384E+06     47.2029E+06              0.     10.6230E+06
           26593     32.6150E+06     47.4762E+06              0.     10.8258E+06
           26594     31.8783E+06     47.7502E+06              0.     11.0308E+06
           26595     31.1282E+06     48.0247E+06              0.     11.2380E+06
           26596     30.3644E+06     48.2995E+06              0.     11.4475E+06
           26597     29.5869E+06     48.5744E+06              0.     11.6591E+06
           26598     28.7956E+06     48.8492E+06              0.     11.8728E+06
           26599     27.9903E+06     49.1235E+06              0.     12.0885E+06
           26600      27.171E+06     49.3972E+06              0.     12.3061E+06
           26601     26.3375E+06     49.6700E+06              0.     12.5257E+06
           26602     25.4897E+06     49.9414E+06              0.     12.7471E+06
           26603     24.6275E+06     50.2114E+06              0.     12.9702E+06
           26604     23.7509E+06     50.4794E+06              0.     13.1949E+06
           26605     22.8597E+06     50.7453E+06              0.     13.4212E+06
           26606     21.9539E+06     51.0085E+06              0.     13.6489E+06
           26607     21.0334E+06     51.2688E+06              0.     13.8780E+06
           26608     20.0982E+06     51.5258E+06              0.     14.1084E+06
           26609     19.1481E+06     51.7789E+06              0.     14.3398E+06
           26610     18.1832E+06     52.0278E+06              0.     14.5723E+06
           26611     17.2033E+06     52.2721E+06              0.     14.8056E+06
           26612     16.2086E+06     52.5111E+06              0.     15.0396E+06
           26613     15.1988E+06     52.7446E+06              0.     15.2743E+06
           26614     14.1742E+06     52.9718E+06              0.     15.5093E+06
           26615     13.1345E+06     53.1923E+06              0.     15.7446E+06
           26616     12.0799E+06     53.4055E+06              0.     15.9800E+06
           26617     11.0103E+06     53.6108E+06              0.     16.2153E+06
           26618     9.92588E+06     53.8075E+06              0.     16.4504E+06
           26619     8.82656E+06     53.9951E+06              0.     16.6850E+06
           26620     7.71244E+06     54.1728E+06              0.     16.9189E+06
           26621     6.58359E+06     54.3399E+06              0.     17.1520E+06
           26622     5.44008E+06     54.4958E+06              0.     17.3840E+06
           26623     4.28202E+06     54.6396E+06              0.     17.6147E+06
           26624     3.10951E+06     54.7705E+06              0.     17.8438E+06
           26625     1.92268E+06     54.8878E+06              0.     18.0711E+06
           26626     721.676E+03     54.9906E+06              0.     18.2964E+06
           26627    -493.350E+03     55.0779E+06              0.     18.5194E+06
           26628    -1.72222E+06     55.1489E+06              0.     18.7398E+06
           26629    -2.96475E+06     55.2026E+06              0.     18.9573E+06
           26630    -4.22073E+06     55.2380E+06              0.     19.1717E+06
           26631    -5.48994E+06     55.2542E+06              0.     19.3826E+06
           26632    -6.77213E+06     55.2500E+06              0.     19.5898E+06
           26633    -8.06704E+06     55.2244E+06              0.     19.7929E+06
           26634    -9.37439E+06     55.1762E+06              0.     19.9917E+06
           26635    -10.6939E+06     55.1043E+06              0.     20.1857E+06
           26636    -12.0252E+06     55.0075E+06              0.     20.3746E+06
           26637    -13.3680E+06     54.8845E+06              0.     20.5582E+06
           26638    -14.7219E+06     54.7340E+06              0.     20.7360E+06
           26639    -16.0865E+06     54.5548E+06              0.     20.9076E+06
           26640    -17.4615E+06     54.3456E+06              0.     21.0728E+06
           26641    -18.8463E+06     54.1048E+06              0.     21.2310E+06
           26642    -20.2406E+06     53.8311E+06              0.     21.3820E+06
           26643    -21.6439E+06     53.5230E+06              0.     21.5254E+06
           26644    -23.0557E+06     53.1790E+06              0.     21.6607E+06
           26645    -24.4754E+06     52.7975E+06              0.     21.7875E+06
           26646    -25.9025E+06     52.3771E+06              0.     21.9055E+06
           26647    -27.3365E+06     51.9160E+06              0.     22.0142E+06
           26648    -28.7768E+06     51.4125E+06              0.     22.1132E+06
           26649    -30.2226E+06     50.8651E+06              0.     22.2021E+06
           26650    -31.6735E+06     50.2720E+06              0.     22.2804E+06
           26651    -33.1287E+06     49.6313E+06              0.     22.3478E+06
           26652    -34.5876E+06     48.9413E+06              0.     22.4038E+06
           26653    -36.0493E+06     48.2001E+06              0.     22.4479E+06
           26654    -37.5133E+06     47.4060E+06              0.     22.4798E+06
           26655    -38.9786E+06     46.5568E+06              0.     22.4990E+06
           26656    -40.4445E+06     45.6508E+06              0.     22.5051E+06
           26657    -41.9103E+06     44.6860E+06              0.     22.4977E+06
           26658    -43.3750E+06     43.6602E+06              0.     22.4762E+06
           26659    -44.8377E+06     42.5716E+06              0.     22.4404E+06
           26660    -46.2976E+06     41.4181E+06              0.     22.3897E+06
           26661    -47.7537E+06     40.1975E+06              0.     22.3238E+06
           26662    -49.2052E+06     38.9078E+06              0.     22.2423E+06
           26663    -50.6509E+06     37.5469E+06              0.     22.1447E+06
           26664    -52.0900E+06     36.1125E+06              0.     22.0307E+06
           26665    -53.5213E+06     34.6026E+06              0.     21.8998E+06
           26666    -54.9438E+06     33.0150E+06              0.     21.7517E+06
           26667    -56.3565E+06     31.3474E+06              0.     21.5859E+06
           26668    -57.7583E+06     29.5977E+06              0.     21.4022E+06
           26669    -59.1479E+06     27.7637E+06              0.     21.2002E+06
           26670    -60.5243E+06     25.8431E+06              0.     20.9795E+06
           26671    -61.8863E+06     23.8338E+06              0.     20.7397E+06
           26672    -63.2326E+06     21.7335E+06              0.     20.4807E+06
           26673    -64.5621E+06     19.5399E+06              0.     20.2019E+06
           26674    -65.8735E+06     17.2510E+06              0.     19.9032E+06
           26675    -67.1654E+06     14.8645E+06              0.     19.5843E+06
           26676    -68.4367E+06     12.3781E+06              0.     19.2449E+06
           26677    -69.6859E+06     9.78976E+06              0.     18.8847E+06
           26678    -70.9118E+06     7.09727E+06              0.     18.5034E+06
           26679    -72.1130E+06     4.29849E+06              0.     18.1009E+06
           26680    -73.2880E+06     1.39133E+06              0.     17.6769E+06
           26681    -74.4354E+06    -1.62636E+06              0.     17.2312E+06
           26682    -75.5538E+06    -4.75660E+06              0.     16.7636E+06
           26683    -76.6417E+06    -8.00149E+06              0.     16.2739E+06
           26684    -77.6977E+06    -11.3630E+06              0.     15.7620E+06
           26685    -78.7201E+06    -14.8431E+06              0.     15.2278E+06
           26686    -79.7075E+06    -18.4437E+06              0.     14.6709E+06
           26687    -80.6583E+06    -22.1667E+06              0.     14.0914E+06
           26688    -81.5709E+06    -26.0140E+06              0.     13.4891E+06
           26689    -82.4437E+06    -29.9874E+06              0.     12.8640E+06
           26690    -83.2752E+06    -34.0888E+06              0.     12.2158E+06
           26691    -84.8810E+06    -38.7467E+06              0.     11.9067E+06
           26692     63.9165E+06     28.0700E+06              0.     1.16457E+06
           26693     63.9359E+06     28.2840E+06              0.     1.16239E+06
           26694     63.8636E+06     28.4534E+06              0.     1.14675E+06
           26695     63.7921E+06     28.6182E+06              0.     1.13342E+06
           26696     63.7214E+06     28.7786E+06              0.     1.12234E+06
           26697     63.6512E+06     28.9348E+06              0.     1.11345E+06
           26698     63.5815E+06     29.0870E+06              0.     1.10669E+06
           26699     63.5122E+06     29.2354E+06              0.     1.10202E+06
           26700     63.4430E+06     29.3803E+06              0.     1.09937E+06
           26701     63.3739E+06     29.5218E+06              0.     1.09870E+06
           26702     63.3047E+06     29.6600E+06              0.     1.09997E+06
           26703     63.2353E+06     29.7953E+06              0.     1.10313E+06
           26704     63.1657E+06     29.9277E+06              0.     1.10813E+06
           26705     63.0956E+06     30.0574E+06              0.     1.11495E+06
           26706     63.0250E+06     30.1846E+06              0.     1.12354E+06
           26707     62.9538E+06     30.3094E+06              0.     1.13388E+06
           26708     62.8818E+06     30.4320E+06              0.     1.14592E+06
           26709     62.8089E+06     30.5526E+06              0.     1.15964E+06
           26710     62.7351E+06     30.6712E+06              0.     1.17501E+06
           26711     62.6602E+06     30.7881E+06              0.     1.19200E+06
           26712     62.5842E+06     30.9033E+06              0.     1.21060E+06
           26713     62.5069E+06      31.017E+06              0.     1.23077E+06
           26714     62.4282E+06     31.1293E+06              0.     1.25250E+06
           26715     62.3480E+06     31.2404E+06              0.     1.27577E+06
           26716     62.2663E+06     31.3504E+06              0.     1.30056E+06
           26717     62.1829E+06     31.4594E+06              0.     1.32686E+06
           26718     62.0978E+06     31.5675E+06              0.     1.35465E+06
           26719     62.0108E+06     31.6748E+06              0.     1.38392E+06
           26720     61.9219E+06     31.7814E+06              0.     1.41466E+06
           26721      61.831E+06     31.8875E+06              0.     1.44687E+06
           26722     61.7379E+06     31.9932E+06              0.     1.48052E+06
           26723     61.6427E+06     32.0985E+06              0.     1.51563E+06
           26724     61.5451E+06     32.2035E+06              0.     1.55217E+06
           26725     61.4451E+06     32.3084E+06              0.     1.59015E+06
           26726     61.3426E+06     32.4132E+06              0.     1.62957E+06
           26727     61.2376E+06     32.5181E+06              0.     1.67042E+06
           26728     61.1298E+06     32.6232E+06              0.     1.71271E+06
           26729     61.0194E+06     32.7284E+06              0.     1.75644E+06
           26730     60.9060E+06     32.8340E+06              0.     1.80160E+06
           26731     60.7898E+06     32.9399E+06              0.     1.84820E+06
           26732     60.6705E+06     33.0464E+06              0.     1.89626E+06
           26733     60.5480E+06     33.1534E+06              0.     1.94576E+06
           26734     60.4224E+06      33.261E+06              0.     1.99672E+06
           26735     60.2935E+06     33.3694E+06              0.     2.04916E+06
           26736     60.1611E+06     33.4785E+06              0.     2.10306E+06
           26737     60.0253E+06     33.5886E+06              0.     2.15846E+06
           26738     59.8859E+06     33.6995E+06              0.     2.21535E+06
           26739     59.7428E+06     33.8116E+06              0.     2.27375E+06
           26740     59.5959E+06     33.9247E+06              0.     2.33367E+06
           26741     59.4452E+06     34.0389E+06              0.     2.39512E+06
           26742     59.2905E+06     34.1544E+06              0.     2.45813E+06
           26743     59.1318E+06     34.2712E+06              0.     2.52269E+06
           26744     58.9689E+06     34.3894E+06              0.     2.58884E+06
           26745     58.8017E+06     34.5090E+06              0.     2.65658E+06
           26746     58.6302E+06     34.6301E+06              0.     2.72594E+06
           26747     58.4542E+06     34.7527E+06              0.     2.79693E+06
           26748     58.2736E+06     34.8770E+06              0.     2.86956E+06
           26749     58.0884E+06     35.0030E+06              0.     2.94387E+06
           26750     57.8984E+06     35.1307E+06              0.     3.01987E+06
           26751     57.7036E+06     35.2602E+06              0.     3.09758E+06
           26752     57.5037E+06     35.3915E+06              0.     3.17702E+06
           26753     57.2988E+06     35.5248E+06              0.     3.25822E+06
           26754     57.0886E+06     35.6600E+06              0.     3.34119E+06
           26755     56.8732E+06     35.7972E+06              0.     3.42596E+06
           26756     56.6523E+06     35.9365E+06              0.     3.51255E+06
           26757     56.4259E+06     36.0780E+06              0.     3.60099E+06
           26758     56.1939E+06     36.2216E+06              0.     3.69130E+06
           26759     55.9561E+06     36.3674E+06              0.     3.78351E+06
           26760     55.7124E+06     36.5155E+06              0.     3.87764E+06
           26761     55.4627E+06     36.6659E+06              0.     3.97371E+06
           26762     55.2068E+06     36.8187E+06              0.     4.07176E+06
           26763     54.9448E+06     36.9738E+06              0.     4.17181E+06
           26764     54.6763E+06     37.1314E+06              0.     4.27387E+06
           26765     54.4014E+06     37.2915E+06              0.     4.37800E+06
           26766     54.1198E+06     37.4542E+06              0.     4.48419E+06
           26767     53.8315E+06     37.6193E+06              0.     4.59249E+06
           26768     53.5364E+06     37.7871E+06              0.     4.70293E+06
           26769     53.2342E+06     37.9575E+06              0.     4.81552E+06
           26770     52.9249E+06     38.1306E+06              0.     4.93030E+06
           26771     52.6083E+06     38.3064E+06              0.     5.04729E+06
           26772     52.2843E+06     38.4848E+06              0.     5.16652E+06
           26773     51.9527E+06     38.6661E+06              0.     5.28801E+06
           26774     51.6135E+06     38.8501E+06              0.     5.41180E+06
           26775     51.2665E+06     39.0369E+06              0.     5.53791E+06
           26776     50.9114E+06     39.2266E+06              0.     5.66636E+06
           26777     50.5483E+06     39.4190E+06              0.     5.79718E+06
           26778     50.1770E+06     39.6143E+06              0.     5.93040E+06
           26779     49.7972E+06     39.8125E+06              0.     6.06604E+06
           26780     49.4089E+06     40.0136E+06              0.     6.20412E+06
           26781     49.0119E+06     40.2175E+06              0.     6.34468E+06
           26782     48.6061E+06     40.4243E+06              0.     6.48772E+06
           26783     48.1913E+06     40.6340E+06              0.     6.63328E+06
           26784     47.7674E+06     40.8466E+06              0.     6.78138E+06
           26785     47.3342E+06     41.0621E+06              0.     6.93203E+06
           26786     46.8915E+06     41.2804E+06              0.     7.08526E+06
           26787     46.4393E+06     41.5016E+06              0.     7.24108E+06
           26788     45.9773E+06     41.7256E+06              0.     7.39951E+06
           26789     45.5054E+06     41.9524E+06              0.     7.56058E+06
           26790     45.0235E+06     42.1821E+06              0.     7.72429E+06
           26791     44.5313E+06     42.4144E+06              0.     7.89065E+06
           26792     44.0288E+06     42.6496E+06              0.     8.05968E+06
           26793     43.5158E+06     42.8873E+06              0.     8.23140E+06
           26794     42.9920E+06     43.1278E+06              0.     8.40580E+06
           26795     42.4575E+06     43.3708E+06              0.     8.58290E+06
           26796     41.9119E+06     43.6163E+06              0.     8.76270E+06
           26797     41.3553E+06     43.8643E+06              0.     8.94520E+06
           26798     40.7873E+06     44.1147E+06              0.     9.13041E+06
           26799     40.2078E+06     44.3674E+06              0.     9.31832E+06
           26800     39.6167E+06     44.6223E+06              0.     9.50893E+06
           26801     39.0139E+06     44.8794E+06              0.     9.70223E+06
           26802     38.3991E+06     45.1385E+06              0.     9.89821E+06
           26803     37.7723E+06     45.3996E+06              0.     10.0969E+06
           26804     37.1332E+06     45.6625E+06              0.     10.2982E+06
           26805     36.4817E+06     45.9270E+06              0.     10.5021E+06
           26806     35.8178E+06     46.1932E+06              0.     10.7087E+06
           26807     35.1411E+06     46.4608E+06              0.     10.9178E+06
           26808     34.4516E+06     46.7296E+06              0.     11.1296E+06
           26809     33.7492E+06     46.9996E+06              0.     11.3438E+06
           26810     33.0337E+06     47.2705E+06              0.     11.5605E+06
           26811     32.3050E+06     47.5421E+06              0.     11.7797E+06
           26812     31.5628E+06     47.8144E+06              0.     12.0013E+06
           26813     30.8072E+06     48.0869E+06              0.     12.2253E+06
           26814     30.0380E+06     48.3596E+06              0.     12.4515E+06
           26815     29.2550E+06     48.6322E+06              0.     12.6800E+06
           26816     28.4582E+06     48.9045E+06              0.     12.9107E+06
           26817     27.6473E+06     49.1761E+06              0.     13.1435E+06
           26818     26.8224E+06     49.4469E+06              0.     13.3783E+06
           26819     25.9833E+06     49.7165E+06              0.     13.6151E+06
           26820     25.1299E+06     49.9847E+06              0.     13.8538E+06
           26821     24.2621E+06     50.2510E+06              0.     14.0942E+06
           26822     23.3798E+06     50.5152E+06              0.     14.3363E+06
           26823     22.4830E+06     50.7769E+06              0.     14.5800E+06
           26824     21.5716E+06     51.0358E+06              0.     14.8252E+06
           26825     20.6454E+06     51.2913E+06              0.     15.0716E+06
           26826     19.7045E+06     51.5433E+06              0.     15.3194E+06
           26827     18.7488E+06     51.7911E+06              0.     15.5682E+06
           26828     17.7782E+06     52.0343E+06              0.     15.8179E+06
           26829     16.7927E+06     52.2726E+06              0.     16.0685E+06
           26830     15.7924E+06     52.5053E+06              0.     16.3197E+06
           26831     14.7770E+06     52.7319E+06              0.     16.5713E+06
           26832     13.7468E+06     52.9520E+06              0.     16.8233E+06
           26833     12.7016E+06     53.1650E+06              0.     17.0754E+06
           26834     11.6415E+06     53.3702E+06              0.     17.3275E+06
           26835     10.5665E+06     53.5670E+06              0.     17.5793E+06
           26836     9.47660E+06     53.7548E+06              0.     17.8306E+06
           26837     8.37192E+06     53.9330E+06              0.     18.0813E+06
           26838     7.25249E+06     54.1008E+06              0.     18.3310E+06
           26839     6.11839E+06     54.2575E+06              0.     18.5797E+06
           26840     4.96971E+06     54.4024E+06              0.     18.8269E+06
           26841     3.80655E+06     54.5346E+06              0.     19.0726E+06
           26842     2.62902E+06     54.6534E+06              0.     19.3163E+06
           26843     1.43727E+06     54.7579E+06              0.     19.5579E+06
           26844     231.432E+03     54.8472E+06              0.     19.7971E+06
           26845    -988.318E+03     54.9204E+06              0.     20.0335E+06
           26846    -2.22180E+06     54.9766E+06              0.     20.2669E+06
           26847    -3.46883E+06     55.0148E+06              0.     20.4970E+06
           26848    -4.72918E+06     55.0340E+06              0.     20.7234E+06
           26849    -6.00261E+06     55.0331E+06              0.     20.9458E+06
           26850    -7.28889E+06     55.0111E+06              0.     21.1639E+06
           26851    -8.58772E+06     54.9668E+06              0.     21.3774E+06
           26852    -9.89883E+06     54.8991E+06              0.     21.5858E+06
           26853    -11.2219E+06     54.8067E+06              0.     21.7889E+06
           26854    -12.5566E+06     54.6885E+06              0.     21.9862E+06
           26855    -13.9026E+06     54.5432E+06              0.     22.1773E+06
           26856    -15.2595E+06     54.3694E+06              0.     22.3619E+06
           26857    -16.6269E+06     54.1659E+06              0.     22.5396E+06
           26858    -18.0044E+06     53.9312E+06              0.     22.7100E+06
           26859    -19.3916E+06     53.6639E+06              0.     22.8726E+06
           26860    -20.7879E+06     53.3626E+06              0.     23.0271E+06
           26861    -22.1930E+06     53.0257E+06              0.     23.1729E+06
           26862    -23.6062E+06     52.6517E+06              0.     23.3098E+06
           26863    -25.0271E+06     52.2390E+06              0.     23.4371E+06
           26864    -26.4552E+06     51.7860E+06              0.     23.5546E+06
           26865    -27.8897E+06     51.2911E+06              0.     23.6617E+06
           26866    -29.3302E+06     50.7525E+06              0.     23.7580E+06
           26867    -30.7759E+06     50.1685E+06              0.     23.8430E+06
           26868    -32.2263E+06     49.5373E+06              0.     23.9163E+06
           26869    -33.6806E+06     48.8572E+06              0.     23.9774E+06
           26870    -35.1382E+06     48.1263E+06              0.     24.0259E+06
           26871    -36.5982E+06     47.3426E+06              0.     24.0612E+06
           26872    -38.0600E+06     46.5044E+06              0.      24.083E+06
           26873    -39.5227E+06     45.6096E+06              0.     24.0907E+06
           26874    -40.9855E+06     44.6562E+06              0.     24.0839E+06
           26875    -42.4477E+06     43.6424E+06              0.     24.0622E+06
           26876    -43.9082E+06     42.5659E+06              0.     24.0250E+06
           26877    -45.3663E+06     41.4249E+06              0.     23.9720E+06
           26878    -46.8210E+06     40.2170E+06              0.     23.9026E+06
           26879    -48.2714E+06     38.9404E+06              0.     23.8165E+06
           26880    -49.7165E+06     37.5928E+06              0.     23.7132E+06
           26881    -51.1552E+06     36.1720E+06              0.     23.5922E+06
           26882    -52.5867E+06     34.6760E+06              0.     23.4532E+06
           26883    -54.0097E+06     33.1024E+06              0.     23.2957E+06
           26884    -55.4233E+06     31.4492E+06              0.     23.1193E+06
           26885    -56.8263E+06     29.7140E+06              0.     22.9236E+06
           26886    -58.2176E+06     27.8948E+06              0.     22.7083E+06
           26887    -59.5961E+06     25.9891E+06              0.     22.4730E+06
           26888    -60.9606E+06     23.9949E+06              0.     22.2172E+06
           26889    -62.3098E+06     21.9099E+06              0.     21.9407E+06
           26890    -63.6426E+06     19.7318E+06              0.     21.6431E+06
           26891    -64.9576E+06     17.4584E+06              0.     21.3242E+06
           26892    -66.2537E+06     15.0876E+06              0.     20.9834E+06
           26893    -67.5295E+06     12.6170E+06              0.     20.6207E+06
           26894    -68.7837E+06     10.0446E+06              0.     20.2357E+06
           26895    -70.0149E+06     7.36812E+06              0.     19.8281E+06
           26896    -71.2218E+06     4.58539E+06              0.     19.3977E+06
           26897    -72.4029E+06     1.69434E+06              0.     18.9443E+06
           26898    -73.5568E+06    -1.30721E+06              0.     18.4676E+06
           26899    -74.6821E+06    -4.42128E+06              0.     17.9674E+06
           26900    -75.7774E+06    -7.64998E+06              0.     17.4435E+06
           26901    -76.8410E+06    -10.9953E+06              0.     16.8957E+06
           26902    -77.8715E+06    -14.4592E+06              0.     16.3239E+06
           26903    -78.8673E+06    -18.0436E+06              0.     15.7280E+06
           26904    -79.8269E+06    -21.7505E+06              0.     15.1077E+06
           26905    -80.7487E+06    -25.5817E+06              0.     14.4630E+06
           26906    -81.6309E+06    -29.5390E+06              0.     13.7937E+06
           26907    -82.4715E+06    -33.6239E+06              0.     13.0998E+06
           26908    -84.0764E+06    -38.2655E+06              0.     12.7693E+06
           26909     63.9637E+06     28.0905E+06              0.     1.23677E+06
           26910     63.9828E+06     28.3015E+06              0.     1.23446E+06
           26911     63.9115E+06     28.4685E+06              0.     1.21785E+06
           26912     63.8410E+06     28.6310E+06              0.     1.20369E+06
           26913     63.7713E+06     28.7891E+06              0.     1.19193E+06
           26914     63.7021E+06     28.9432E+06              0.     1.18249E+06
           26915     63.6334E+06     29.0932E+06              0.     1.17531E+06
           26916      63.565E+06     29.2396E+06              0.     1.17035E+06
           26917     63.4968E+06     29.3825E+06              0.     1.16754E+06
           26918     63.4286E+06     29.5220E+06              0.     1.16683E+06
           26919     63.3604E+06     29.6583E+06              0.     1.16818E+06
           26920     63.2920E+06     29.7917E+06              0.     1.17153E+06
           26921     63.2234E+06     29.9222E+06              0.     1.17685E+06
           26922     63.1543E+06     30.0501E+06              0.     1.18409E+06
           26923     63.0846E+06     30.1755E+06              0.     1.19322E+06
           26924     63.0144E+06     30.2986E+06              0.     1.20420E+06
           26925     62.9434E+06     30.4195E+06              0.     1.21699E+06
           26926     62.8716E+06     30.5384E+06              0.     1.23156E+06
           26927     62.7988E+06     30.6554E+06              0.     1.24788E+06
           26928     62.7249E+06     30.7706E+06              0.     1.26594E+06
           26929     62.6499E+06     30.8842E+06              0.     1.28569E+06
           26930     62.5737E+06     30.9964E+06              0.     1.30711E+06
           26931     62.4961E+06     31.1071E+06              0.     1.33019E+06
           26932     62.4171E+06     31.2167E+06              0.     1.35491E+06
           26933     62.3365E+06     31.3252E+06              0.     1.38124E+06
           26934     62.2543E+06     31.4326E+06              0.     1.40917E+06
           26935     62.1703E+06     31.5392E+06              0.     1.43869E+06
           26936     62.0846E+06     31.6450E+06              0.     1.46978E+06
           26937     61.9969E+06     31.7502E+06              0.     1.50243E+06
           26938     61.9072E+06     31.8548E+06              0.     1.53664E+06
           26939     61.8154E+06     31.9590E+06              0.     1.57238E+06
           26940     61.7215E+06     32.0628E+06              0.     1.60967E+06
           26941     61.6252E+06     32.1664E+06              0.     1.64848E+06
           26942     61.5266E+06     32.2699E+06              0.     1.68882E+06
           26943     61.4256E+06     32.3733E+06              0.     1.73069E+06
           26944     61.3220E+06     32.4767E+06              0.     1.77409E+06
           26945     61.2157E+06     32.5803E+06              0.     1.81900E+06
           26946     61.1068E+06     32.6841E+06              0.     1.86544E+06
           26947     60.9950E+06     32.7882E+06              0.     1.91341E+06
           26948     60.8803E+06     32.8927E+06              0.     1.96292E+06
           26949     60.7627E+06     32.9977E+06              0.     2.01396E+06
           26950     60.6419E+06     33.1032E+06              0.     2.06654E+06
           26951     60.5180E+06     33.2094E+06              0.     2.12067E+06
           26952     60.3909E+06     33.3163E+06              0.     2.17637E+06
           26953     60.2603E+06     33.4239E+06              0.     2.23363E+06
           26954     60.1264E+06     33.5325E+06              0.     2.29247E+06
           26955     59.9889E+06     33.6419E+06              0.     2.35290E+06
           26956     59.8478E+06     33.7524E+06              0.     2.41493E+06
           26957     59.7029E+06     33.8640E+06              0.     2.47858E+06
           26958     59.5542E+06     33.9767E+06              0.     2.54386E+06
           26959     59.4017E+06     34.0906E+06              0.     2.61078E+06
           26960     59.2451E+06     34.2059E+06              0.     2.67937E+06
           26961     59.0844E+06     34.3224E+06              0.     2.74964E+06
           26962     58.9195E+06     34.4404E+06              0.     2.82160E+06
           26963     58.7503E+06     34.5599E+06              0.     2.89527E+06
           26964     58.5767E+06     34.6809E+06              0.     2.97068E+06
           26965     58.3986E+06     34.8035E+06              0.     3.04785E+06
           26966     58.2159E+06     34.9278E+06              0.     3.12678E+06
           26967     58.0285E+06     35.0537E+06              0.     3.20752E+06
           26968     57.8363E+06     35.1815E+06              0.     3.29007E+06
           26969     57.6392E+06     35.3111E+06              0.     3.37447E+06
           26970     57.4370E+06     35.4426E+06              0.     3.46072E+06
           26971     57.2298E+06     35.5760E+06              0.     3.54887E+06
           26972     57.0172E+06     35.7114E+06              0.     3.63893E+06
           26973     56.7993E+06     35.8489E+06              0.     3.73092E+06
           26974     56.5760E+06     35.9885E+06              0.     3.82488E+06
           26975     56.3471E+06     36.1302E+06              0.     3.92083E+06
           26976     56.1125E+06     36.2741E+06              0.     4.01880E+06
           26977     55.8721E+06     36.4202E+06              0.     4.11880E+06
           26978     55.6257E+06     36.5687E+06              0.     4.22088E+06
           26979     55.3733E+06     36.7194E+06              0.     4.32505E+06
           26980     55.1148E+06     36.8726E+06              0.     4.43135E+06
           26981     54.8499E+06     37.0282E+06              0.     4.53979E+06
           26982     54.5787E+06     37.1862E+06              0.     4.65042E+06
           26983     54.3009E+06     37.3467E+06              0.     4.76326E+06
           26984     54.0165E+06     37.5097E+06              0.     4.87834E+06
           26985     53.7252E+06     37.6754E+06              0.     4.99569E+06
           26986     53.4271E+06     37.8436E+06              0.     5.11533E+06
           26987     53.1219E+06     38.0145E+06              0.     5.23729E+06
           26988     52.8095E+06     38.1880E+06              0.     5.36161E+06
           26989     52.4898E+06     38.3642E+06              0.     5.48831E+06
           26990     52.1626E+06     38.5432E+06              0.     5.61742E+06
           26991     51.8279E+06     38.7249E+06              0.     5.74897E+06
           26992     51.4854E+06     38.9093E+06              0.     5.88299E+06
           26993     51.1350E+06     39.0966E+06              0.     6.01950E+06
           26994     50.7767E+06     39.2867E+06              0.     6.15853E+06
           26995     50.4102E+06     39.4796E+06              0.     6.30011E+06
           26996     50.0354E+06     39.6753E+06              0.     6.44428E+06
           26997     49.6522E+06     39.8739E+06              0.     6.59104E+06
           26998     49.2604E+06     40.0753E+06              0.     6.74043E+06
           26999     48.8598E+06     40.2796E+06              0.     6.89247E+06
           27000     48.4504E+06     40.4868E+06              0.     7.04719E+06
           27001     48.0320E+06     40.6968E+06              0.     7.20461E+06
           27002     47.6044E+06     40.9097E+06              0.     7.36475E+06
           27003     47.1674E+06     41.1254E+06              0.     7.52764E+06
           27004     46.7210E+06     41.3440E+06              0.     7.69328E+06
           27005     46.2649E+06     41.5654E+06              0.     7.86171E+06
           27006     45.7990E+06     41.7895E+06              0.     8.03294E+06
           27007     45.3232E+06     42.0165E+06              0.     8.20699E+06
           27008     44.8373E+06     42.2462E+06              0.     8.38387E+06
           27009     44.3412E+06     42.4786E+06              0.     8.56359E+06
           27010     43.8346E+06     42.7136E+06              0.     8.74617E+06
           27011     43.3175E+06     42.9513E+06              0.     8.93161E+06
           27012     42.7896E+06     43.1916E+06              0.     9.11993E+06
           27013     42.2509E+06     43.4344E+06              0.     9.31113E+06
           27014     41.7011E+06     43.6797E+06              0.     9.50521E+06
           27015     41.1402E+06     43.9273E+06              0.     9.70217E+06
           27016     40.5679E+06     44.1773E+06              0.     9.90202E+06
           27017     39.9841E+06     44.4295E+06              0.     10.1047E+06
           27018     39.3886E+06     44.6838E+06              0.     10.3103E+06
           27019     38.7813E+06     44.9402E+06              0.     10.5188E+06
           27020     38.1621E+06     45.1986E+06              0.     10.7301E+06
           27021     37.5308E+06     45.4588E+06              0.     10.9443E+06
           27022     36.8872E+06     45.7207E+06              0.     11.1612E+06
           27023     36.2311E+06     45.9842E+06              0.     11.3810E+06
           27024     35.5625E+06     46.2491E+06              0.     11.6035E+06
           27025     34.8813E+06     46.5154E+06              0.     11.8288E+06
           27026     34.1871E+06     46.7828E+06              0.     12.0567E+06
           27027     33.4800E+06     47.0511E+06              0.     12.2874E+06
           27028     32.7597E+06     47.3203E+06              0.     12.5206E+06
           27029     32.0262E+06     47.5900E+06              0.     12.7565E+06
           27030     31.2793E+06     47.8602E+06              0.     12.9948E+06
           27031     30.5189E+06     48.1305E+06              0.     13.2356E+06
           27032     29.7448E+06     48.4008E+06              0.     13.4789E+06
           27033     28.9570E+06     48.6708E+06              0.     13.7244E+06
           27034     28.1553E+06     48.9403E+06              0.     13.9723E+06
           27035     27.3395E+06     49.2090E+06              0.     14.2223E+06
           27036     26.5097E+06     49.4766E+06              0.     14.4744E+06
           27037     25.6657E+06     49.7428E+06              0.     14.7285E+06
           27038     24.8073E+06     50.0072E+06              0.     14.9846E+06
           27039     23.9346E+06     50.2697E+06              0.     15.2424E+06
           27040     23.0473E+06     50.5297E+06              0.     15.5020E+06
           27041     22.1456E+06     50.7870E+06              0.     15.7631E+06
           27042     21.2292E+06     51.0411E+06              0.     16.0257E+06
           27043     20.2980E+06     51.2917E+06              0.     16.2896E+06
           27044     19.3522E+06     51.5383E+06              0.     16.5547E+06
           27045     18.3915E+06     51.7805E+06              0.     16.8208E+06
           27046     17.4160E+06     52.0178E+06              0.     17.0878E+06
           27047     16.4256E+06     52.2498E+06              0.     17.3556E+06
           27048     15.4204E+06     52.4758E+06              0.     17.6238E+06
           27049     14.4002E+06     52.6954E+06              0.     17.8925E+06
           27050     13.3651E+06     52.9080E+06              0.     18.1613E+06
           27051     12.3151E+06     53.1131E+06              0.     18.4300E+06
           27052     11.2502E+06     53.3100E+06              0.     18.6986E+06
           27053     10.1704E+06     53.4981E+06              0.     18.9666E+06
           27054     9.07587E+06     53.6767E+06              0.     19.2340E+06
           27055     7.96655E+06     53.8452E+06              0.     19.5005E+06
           27056     6.84254E+06     54.0028E+06              0.     19.7658E+06
           27057     5.70392E+06     54.1488E+06              0.     20.0296E+06
           27058     4.55078E+06     54.2824E+06              0.     20.2918E+06
           27059     3.38324E+06     54.4027E+06              0.     20.5520E+06
           27060     2.20141E+06     54.5090E+06              0.     20.8099E+06
           27061     1.00544E+06     54.6005E+06              0.     21.0653E+06
           27062    -204.519E+03     54.6761E+06              0.     21.3178E+06
           27063    -1.42829E+06     54.7349E+06              0.     21.5672E+06
           27064    -2.66570E+06     54.7760E+06              0.     21.8130E+06
           27065    -3.91653E+06     54.7984E+06              0.     22.0550E+06
           27066    -5.18056E+06     54.8010E+06              0.     22.2927E+06
           27067    -6.45754E+06     54.7828E+06              0.     22.5259E+06
           27068    -7.74723E+06     54.7426E+06              0.     22.7542E+06
           27069    -9.04933E+06     54.6793E+06              0.     22.9772E+06
           27070    -10.3635E+06     54.5917E+06              0.     23.1944E+06
           27071    -11.6896E+06     54.4786E+06              0.     23.4056E+06
           27072    -13.0270E+06     54.3387E+06              0.     23.6103E+06
           27073    -14.3756E+06     54.1707E+06              0.     23.8080E+06
           27074    -15.7349E+06     53.9733E+06              0.     23.9984E+06
           27075    -17.1045E+06     53.7451E+06              0.     24.1811E+06
           27076    -18.4839E+06     53.4847E+06              0.     24.3555E+06
           27077    -19.8728E+06     53.1905E+06              0.     24.5212E+06
           27078    -21.2706E+06     52.8612E+06              0.     24.6778E+06
           27079    -22.6769E+06     52.4951E+06              0.     24.8249E+06
           27080    -24.0911E+06     52.0907E+06              0.     24.9618E+06
           27081    -25.5127E+06     51.6464E+06              0.     25.0882E+06
           27082    -26.9411E+06     51.1605E+06              0.     25.2037E+06
           27083    -28.3757E+06     50.6314E+06              0.     25.3076E+06
           27084    -29.8159E+06     50.0572E+06              0.     25.3995E+06
           27085    -31.2610E+06     49.4362E+06              0.     25.4790E+06
           27086    -32.7104E+06     48.7666E+06              0.     25.5454E+06
           27087    -34.1634E+06     48.0466E+06              0.     25.5984E+06
           27088    -35.6192E+06     47.2742E+06              0.     25.6375E+06
           27089    -37.0771E+06     46.4476E+06              0.     25.6621E+06
           27090    -38.5363E+06     45.5648E+06              0.     25.6717E+06
           27091    -39.9960E+06     44.6238E+06              0.     25.6658E+06
           27092    -41.4554E+06     43.6226E+06              0.     25.6440E+06
           27093    -42.9135E+06     42.5591E+06              0.     25.6058E+06
           27094    -44.3696E+06     41.4314E+06              0.     25.5506E+06
           27095    -45.8227E+06     40.2372E+06              0.     25.4781E+06
           27096    -47.2719E+06     38.9746E+06              0.     25.3876E+06
           27097    -48.7162E+06     37.6412E+06              0.     25.2788E+06
           27098    -50.1546E+06     36.2350E+06              0.     25.1511E+06
           27099    -51.5861E+06     34.7538E+06              0.     25.0042E+06
           27100    -53.0096E+06     33.1953E+06              0.     24.8376E+06
           27101    -54.4241E+06     31.5575E+06              0.     24.6508E+06
           27102    -55.8284E+06     29.8379E+06              0.     24.4435E+06
           27103    -57.2215E+06     28.0344E+06              0.     24.2151E+06
           27104    -58.6022E+06     26.1448E+06              0.     23.9654E+06
           27105    -59.9693E+06     24.1668E+06              0.     23.6938E+06
           27106    -61.3216E+06     22.0981E+06              0.     23.4001E+06
           27107    -62.6578E+06     19.9366E+06              0.     23.0839E+06
           27108    -63.9768E+06     17.6799E+06              0.     22.7449E+06
           27109    -65.2773E+06     15.3259E+06              0.     22.3826E+06
           27110    -66.5579E+06     12.8723E+06              0.     21.9968E+06
           27111    -67.8173E+06     10.3169E+06              0.     21.5872E+06
           27112    -69.0542E+06     7.65753E+06              0.     21.1535E+06
           27113    -70.2671E+06     4.89200E+06              0.     20.6954E+06
           27114    -71.4547E+06     2.01820E+06              0.     20.2127E+06
           27115    -72.6156E+06    -966.051E+03              0.     19.7051E+06
           27116    -73.7483E+06    -4.06279E+06              0.     19.1724E+06
           27117    -74.8513E+06    -7.27414E+06              0.     18.6144E+06
           27118    -75.9232E+06    -10.6021E+06              0.     18.0310E+06
           27119    -76.9623E+06    -14.0487E+06              0.     17.4219E+06
           27120    -77.9672E+06    -17.6158E+06              0.     16.7869E+06
           27121    -78.9362E+06    -21.3054E+06              0.     16.1260E+06
           27122    -79.8678E+06    -25.1193E+06              0.     15.4390E+06
           27123    -80.7604E+06    -29.0595E+06              0.     14.7257E+06
           27124    -81.6126E+06    -33.1277E+06              0.     13.9861E+06
           27125    -83.2183E+06    -37.7527E+06              0.     13.6344E+06
           27126     64.0137E+06     28.1121E+06              0.     1.30793E+06
           27127     64.0326E+06       28.32E+06              0.     1.30549E+06
           27128     63.9623E+06     28.4845E+06              0.     1.28793E+06
           27129     63.8929E+06     28.6446E+06              0.     1.27296E+06
           27130     63.8242E+06     28.8003E+06              0.     1.26051E+06
           27131     63.7561E+06     28.9520E+06              0.     1.25053E+06
           27132     63.6884E+06     29.0999E+06              0.     1.24295E+06
           27133     63.6210E+06     29.2441E+06              0.     1.23770E+06
           27134     63.5538E+06     29.3848E+06              0.     1.23473E+06
           27135     63.4867E+06     29.5222E+06              0.     1.23398E+06
           27136     63.4195E+06     29.6565E+06              0.     1.23541E+06
           27137     63.3521E+06     29.7878E+06              0.     1.23896E+06
           27138     63.2845E+06     29.9164E+06              0.     1.24459E+06
           27139     63.2164E+06     30.0424E+06              0.     1.25225E+06
           27140     63.1479E+06     30.1659E+06              0.     1.26190E+06
           27141     63.0786E+06     30.2872E+06              0.     1.27351E+06
           27142     63.0087E+06     30.4063E+06              0.     1.28704E+06
           27143     62.9380E+06     30.5234E+06              0.     1.30245E+06
           27144     62.8663E+06     30.6386E+06              0.     1.31972E+06
           27145     62.7935E+06     30.7521E+06              0.     1.33881E+06
           27146     62.7197E+06     30.8640E+06              0.     1.35970E+06
           27147     62.6445E+06     30.9745E+06              0.     1.38237E+06
           27148     62.5681E+06     31.0836E+06              0.     1.40678E+06
           27149     62.4903E+06     31.1915E+06              0.     1.43292E+06
           27150     62.4109E+06     31.2984E+06              0.     1.46077E+06
           27151     62.3299E+06     31.4042E+06              0.     1.49031E+06
           27152     62.2472E+06     31.5092E+06              0.     1.52153E+06
           27153     62.1627E+06     31.6135E+06              0.     1.55442E+06
           27154     62.0763E+06     31.7171E+06              0.     1.58895E+06
           27155     61.9880E+06     31.8201E+06              0.     1.62513E+06
           27156     61.8976E+06     31.9228E+06              0.     1.66294E+06
           27157     61.8050E+06     32.0250E+06              0.     1.70237E+06
           27158     61.7102E+06     32.1271E+06              0.     1.74343E+06
           27159     61.6130E+06     32.2290E+06              0.     1.78610E+06
           27160     61.5135E+06     32.3309E+06              0.     1.83038E+06
           27161     61.4114E+06     32.4328E+06              0.     1.87628E+06
           27162     61.3067E+06     32.5349E+06              0.     1.92379E+06
           27163     61.1994E+06     32.6371E+06              0.     1.97291E+06
           27164     61.0893E+06     32.7397E+06              0.     2.02365E+06
           27165     60.9763E+06     32.8426E+06              0.     2.07601E+06
           27166     60.8604E+06     32.9461E+06              0.     2.13000E+06
           27167     60.7414E+06     33.0500E+06              0.     2.18562E+06
           27168     60.6194E+06     33.1547E+06              0.     2.24288E+06
           27169     60.4941E+06     33.2600E+06              0.     2.30178E+06
           27170     60.3655E+06     33.3661E+06              0.     2.36235E+06
           27171     60.2335E+06      33.473E+06              0.     2.42459E+06
           27172     60.0980E+06     33.5809E+06              0.     2.48851E+06
           27173     59.9590E+06     33.6897E+06              0.     2.55413E+06
           27174     59.8163E+06     33.7997E+06              0.     2.62146E+06
           27175     59.6698E+06     33.9108E+06              0.     2.69051E+06
           27176     59.5195E+06     34.0230E+06              0.     2.76130E+06
           27177     59.3652E+06     34.1366E+06              0.     2.83385E+06
           27178     59.2069E+06     34.2515E+06              0.     2.90818E+06
           27179     59.0444E+06     34.3677E+06              0.     2.98430E+06
           27180     58.8777E+06     34.4855E+06              0.     3.06224E+06
           27181     58.7066E+06     34.6047E+06              0.     3.14201E+06
           27182     58.5311E+06     34.7256E+06              0.     3.22364E+06
           27183     58.3511E+06     34.8480E+06              0.     3.30715E+06
           27184     58.1665E+06     34.9722E+06              0.     3.39255E+06
           27185     57.9771E+06     35.0981E+06              0.     3.47989E+06
           27186     57.7828E+06     35.2259E+06              0.     3.56917E+06
           27187     57.5836E+06     35.3555E+06              0.     3.66042E+06
           27188     57.3793E+06     35.4870E+06              0.     3.75367E+06
           27189     57.1699E+06     35.6205E+06              0.     3.84895E+06
           27190     56.9552E+06     35.7560E+06              0.     3.94628E+06
           27191     56.7351E+06     35.8936E+06              0.     4.04568E+06
           27192     56.5095E+06     36.0333E+06              0.     4.14719E+06
           27193     56.2783E+06     36.1752E+06              0.     4.25084E+06
           27194     56.0414E+06     36.3192E+06              0.     4.35665E+06
           27195     55.7986E+06     36.4656E+06              0.     4.46465E+06
           27196     55.5498E+06     36.6143E+06              0.     4.57486E+06
           27197     55.2950E+06     36.7653E+06              0.     4.68733E+06
           27198      55.034E+06     36.9187E+06              0.     4.80208E+06
           27199     54.7667E+06     37.0745E+06              0.     4.91914E+06
           27200     54.4929E+06     37.2328E+06              0.     5.03854E+06
           27201     54.2125E+06     37.3936E+06              0.     5.16030E+06
           27202     53.9254E+06     37.5569E+06              0.     5.28447E+06
           27203     53.6316E+06     37.7228E+06              0.     5.41107E+06
           27204     53.3307E+06     37.8913E+06              0.     5.54013E+06
           27205     53.0228E+06     38.0625E+06              0.     5.67169E+06
           27206     52.7076E+06     38.2363E+06              0.     5.80577E+06
           27207     52.3851E+06     38.4128E+06              0.      5.9424E+06
           27208     52.0551E+06     38.5921E+06              0.     6.08162E+06
           27209     51.7175E+06     38.7741E+06              0.     6.22345E+06
           27210     51.3721E+06     38.9588E+06              0.     6.36792E+06
           27211     51.0188E+06     39.1463E+06              0.     6.51507E+06
           27212     50.6575E+06     39.3366E+06              0.     6.66492E+06
           27213     50.2880E+06     39.5298E+06              0.      6.8175E+06
           27214     49.9102E+06     39.7257E+06              0.     6.97284E+06
           27215     49.5239E+06     39.9245E+06              0.     7.13096E+06
           27216     49.1289E+06     40.1262E+06              0.     7.29190E+06
           27217     48.7252E+06     40.3306E+06              0.     7.45567E+06
           27218     48.3126E+06     40.5379E+06              0.     7.62231E+06
           27219     47.8909E+06     40.7480E+06              0.     7.79183E+06
           27220       47.46E+06     40.9610E+06              0.     7.96427E+06
           27221     47.0197E+06     41.1768E+06              0.     8.13963E+06
           27222     46.5699E+06     41.3954E+06              0.     8.31795E+06
           27223     46.1105E+06     41.6167E+06              0.     8.49923E+06
           27224     45.6412E+06     41.8408E+06              0.     8.68351E+06
           27225     45.1619E+06     42.0677E+06              0.     8.87079E+06
           27226     44.6725E+06     42.2972E+06              0.     9.06108E+06
           27227     44.1728E+06     42.5294E+06              0.     9.25441E+06
           27228     43.6627E+06     42.7642E+06              0.     9.45079E+06
           27229     43.1420E+06     43.0016E+06              0.     9.65021E+06
           27230     42.6105E+06     43.2414E+06              0.     9.85269E+06
           27231     42.0681E+06     43.4838E+06              0.     10.0582E+06
           27232     41.5146E+06     43.7285E+06              0.     10.2668E+06
           27233     40.9499E+06     43.9756E+06              0.     10.4785E+06
           27234     40.3738E+06     44.2249E+06              0.     10.6932E+06
           27235     39.7862E+06     44.4763E+06              0.     10.9110E+06
           27236     39.1869E+06     44.7298E+06              0.     11.1318E+06
           27237     38.5758E+06     44.9853E+06              0.     11.3557E+06
           27238     37.9526E+06     45.2426E+06              0.     11.5826E+06
           27239     37.3174E+06     45.5017E+06              0.     11.8124E+06
           27240     36.6698E+06     45.7623E+06              0.     12.0453E+06
           27241     36.0098E+06     46.0244E+06              0.     12.2810E+06
           27242     35.3372E+06     46.2879E+06              0.     12.5197E+06
           27243     34.6519E+06     46.5525E+06              0.     12.7613E+06
           27244     33.9537E+06     46.8182E+06              0.     13.0057E+06
           27245     33.2425E+06     47.0847E+06              0.     13.2530E+06
           27246     32.5181E+06     47.3518E+06              0.     13.5029E+06
           27247     31.7805E+06     47.6194E+06              0.     13.7556E+06
           27248     31.0294E+06     47.8872E+06              0.     14.0109E+06
           27249     30.2648E+06     48.1550E+06              0.     14.2687E+06
           27250     29.4865E+06     48.4227E+06              0.     14.5291E+06
           27251     28.6945E+06     48.6898E+06              0.     14.7918E+06
           27252     27.8886E+06     48.9562E+06              0.     15.0569E+06
           27253     27.0686E+06     49.2216E+06              0.     15.3243E+06
           27254     26.2345E+06     49.4857E+06              0.     15.5938E+06
           27255     25.3863E+06     49.7482E+06              0.     15.8654E+06
           27256     24.5237E+06     50.0087E+06              0.     16.1389E+06
           27257     23.6467E+06     50.2670E+06              0.     16.4142E+06
           27258     22.7552E+06     50.5226E+06              0.     16.6913E+06
           27259     21.8492E+06     50.7752E+06              0.     16.9699E+06
           27260     20.9285E+06     51.0243E+06              0.     17.2499E+06
           27261     19.9931E+06     51.2697E+06              0.     17.5313E+06
           27262     19.0430E+06     51.5107E+06              0.     17.8137E+06
           27263     18.0782E+06     51.7470E+06              0.     18.0972E+06
           27264     17.0984E+06     51.9781E+06              0.     18.3814E+06
           27265     16.1039E+06     52.2034E+06              0.     18.6662E+06
           27266     15.0944E+06     52.4225E+06              0.     18.9514E+06
           27267     14.0701E+06     52.6348E+06              0.     19.2369E+06
           27268     13.0309E+06     52.8397E+06              0.     19.5223E+06
           27269     11.9768E+06     53.0367E+06              0.     19.8076E+06
           27270     10.9078E+06     53.2250E+06              0.     20.0924E+06
           27271     9.82408E+06     53.4041E+06              0.     20.3765E+06
           27272     8.72556E+06     53.5732E+06              0.     20.6596E+06
           27273     7.61232E+06     53.7317E+06              0.     20.9416E+06
           27274     6.48445E+06     53.8789E+06              0.     21.2221E+06
           27275     5.34203E+06     54.0138E+06              0.     21.5008E+06
           27276     4.18515E+06     54.1358E+06              0.     21.7775E+06
           27277     3.01393E+06     54.2441E+06              0.     22.0518E+06
           27278     1.82851E+06     54.3377E+06              0.     22.3235E+06
           27279     629.024E+03     54.4158E+06              0.     22.5921E+06
           27280    -584.364E+03     54.4774E+06              0.     22.8575E+06
           27281    -1.81148E+06     54.5216E+06              0.     23.1191E+06
           27282    -3.05212E+06     54.5473E+06              0.     23.3767E+06
           27283    -4.30608E+06     54.5536E+06              0.     23.6299E+06
           27284    -5.57312E+06     54.5394E+06              0.     23.8783E+06
           27285    -6.85300E+06     54.5036E+06              0.     24.1215E+06
           27286    -8.14545E+06     54.4450E+06              0.     24.3591E+06
           27287    -9.45017E+06     54.3624E+06              0.     24.5908E+06
           27288    -10.7669E+06     54.2547E+06              0.     24.8159E+06
           27289    -12.0952E+06     54.1206E+06              0.     25.0343E+06
           27290    -13.4348E+06     53.9587E+06              0.     25.2453E+06
           27291    -14.7854E+06     53.7678E+06              0.     25.4486E+06
           27292    -16.1465E+06     53.5464E+06              0.     25.6437E+06
           27293    -17.5176E+06     53.2932E+06              0.     25.8300E+06
           27294    -18.8985E+06     53.0067E+06              0.     26.0072E+06
           27295    -20.2885E+06     52.6854E+06              0.     26.1748E+06
           27296    -21.6873E+06     52.3278E+06              0.     26.3322E+06
           27297    -23.0943E+06     51.9322E+06              0.     26.4790E+06
           27298    -24.5090E+06     51.4971E+06              0.     26.6146E+06
           27299    -25.9307E+06     51.0208E+06              0.     26.7386E+06
           27300    -27.3590E+06     50.5017E+06              0.     26.8503E+06
           27301    -28.7932E+06     49.9379E+06              0.     26.9494E+06
           27302    -30.2327E+06     49.3277E+06              0.     27.0353E+06
           27303    -31.6768E+06     48.6693E+06              0.     27.1074E+06
           27304    -33.1248E+06     47.9609E+06              0.     27.1652E+06
           27305    -34.5761E+06     47.2005E+06              0.     27.2082E+06
           27306    -36.0297E+06     46.3863E+06              0.     27.2358E+06
           27307    -37.4851E+06     45.5162E+06              0.     27.2476E+06
           27308    -38.9414E+06     44.5884E+06              0.     27.2430E+06
           27309    -40.3978E+06     43.6007E+06              0.     27.2214E+06
           27310    -41.8533E+06     42.5511E+06              0.     27.1824E+06
           27311    -43.3073E+06     41.4376E+06              0.     27.1253E+06
           27312    -44.7586E+06     40.2580E+06              0.     27.0498E+06
           27313    -46.2064E+06     39.0102E+06              0.     26.9553E+06
           27314    -47.6498E+06     37.6921E+06              0.     26.8413E+06
           27315    -49.0878E+06     36.3014E+06              0.     26.7073E+06
           27316    -50.5192E+06     34.8360E+06              0.     26.5528E+06
           27317    -51.9432E+06     33.2936E+06              0.     26.3773E+06
           27318    -53.3586E+06     31.6721E+06              0.     26.1804E+06
           27319    -54.7643E+06     29.9691E+06              0.     25.9616E+06
           27320    -56.1592E+06     28.1825E+06              0.     25.7205E+06
           27321    -57.5422E+06     26.3100E+06              0.     25.4566E+06
           27322    -58.9120E+06     24.3493E+06              0.     25.1695E+06
           27323    -60.2675E+06     22.2981E+06              0.     24.8589E+06
           27324    -61.6075E+06     20.1542E+06              0.     24.5243E+06
           27325    -62.9306E+06     17.9154E+06              0.     24.1654E+06
           27326    -64.2357E+06     15.5793E+06              0.     23.7818E+06
           27327    -65.5214E+06     13.1438E+06              0.     23.3731E+06
           27328    -66.7863E+06     10.6066E+06              0.     22.9391E+06
           27329    -68.0292E+06     7.96549E+06              0.     22.4795E+06
           27330    -69.2486E+06     5.21831E+06              0.     21.9939E+06
           27331    -70.4432E+06     2.36293E+06              0.     21.4821E+06
           27332    -71.6115E+06    -602.870E+03              0.     20.9438E+06
           27333    -72.7520E+06    -3.68112E+06              0.     20.3789E+06
           27334    -73.8633E+06    -6.87398E+06              0.     19.7870E+06
           27335    -74.9439E+06    -10.1834E+06              0.     19.1680E+06
           27336    -75.9922E+06    -13.6115E+06              0.     18.5216E+06
           27337    -77.0067E+06    -17.1602E+06              0.     17.8478E+06
           27338    -77.9857E+06    -20.8313E+06              0.     17.1464E+06
           27339    -78.9278E+06    -24.6268E+06              0.     16.4172E+06
           27340    -79.8312E+06    -28.5486E+06              0.     15.6601E+06
           27341    -80.6939E+06    -32.5981E+06              0.     14.8749E+06
           27342    -82.2988E+06    -37.2047E+06              0.     14.5021E+06
           27343     64.0665E+06     28.1350E+06              0.     1.37800E+06
           27344     64.0850E+06     28.3395E+06              0.     1.37543E+06
           27345     64.0159E+06     28.5014E+06              0.     1.35692E+06
           27346     63.9476E+06     28.6589E+06              0.     1.34115E+06
           27347     63.8800E+06     28.8121E+06              0.     1.32805E+06
           27348      63.813E+06     28.9614E+06              0.     1.31753E+06
           27349     63.7464E+06     29.1069E+06              0.     1.30954E+06
           27350     63.6801E+06     29.2487E+06              0.     1.30401E+06
           27351     63.6140E+06     29.3872E+06              0.     1.30089E+06
           27352     63.5480E+06     29.5224E+06              0.     1.30010E+06
           27353     63.4819E+06     29.6545E+06              0.     1.30161E+06
           27354     63.4156E+06     29.7838E+06              0.     1.30535E+06
           27355     63.3490E+06     29.9103E+06              0.     1.31128E+06
           27356     63.2820E+06     30.0343E+06              0.     1.31935E+06
           27357     63.2146E+06     30.1558E+06              0.     1.32953E+06
           27358     63.1465E+06     30.2751E+06              0.     1.34176E+06
           27359     63.0777E+06     30.3923E+06              0.     1.35602E+06
           27360     63.0080E+06     30.5075E+06              0.     1.37226E+06
           27361     62.9375E+06     30.6209E+06              0.     1.39046E+06
           27362     62.8659E+06     30.7326E+06              0.     1.41057E+06
           27363     62.7932E+06     30.8427E+06              0.     1.43259E+06
           27364     62.7193E+06     30.9514E+06              0.     1.45647E+06
           27365     62.6441E+06     31.0588E+06              0.     1.48219E+06
           27366     62.5675E+06     31.1650E+06              0.     1.50973E+06
           27367     62.4894E+06     31.2701E+06              0.     1.53908E+06
           27368     62.4097E+06     31.3742E+06              0.     1.57021E+06
           27369     62.3283E+06     31.4776E+06              0.     1.60311E+06
           27370     62.2452E+06     31.5801E+06              0.     1.63776E+06
           27371     62.1602E+06     31.6821E+06              0.     1.67415E+06
           27372     62.0732E+06     31.7835E+06              0.     1.71227E+06
           27373     61.9842E+06     31.8845E+06              0.     1.75211E+06
           27374     61.8932E+06     31.9852E+06              0.     1.79367E+06
           27375     61.7999E+06     32.0856E+06              0.     1.83693E+06
           27376     61.7043E+06     32.1859E+06              0.     1.88189E+06
           27377     61.6063E+06     32.2862E+06              0.     1.92856E+06
           27378     61.5058E+06     32.3865E+06              0.     1.97692E+06
           27379     61.4028E+06     32.4869E+06              0.     2.02698E+06
           27380     61.2972E+06     32.5875E+06              0.     2.07874E+06
           27381     61.1888E+06     32.6885E+06              0.     2.13221E+06
           27382     61.0776E+06     32.7898E+06              0.     2.18739E+06
           27383     60.9636E+06     32.8916E+06              0.     2.24428E+06
           27384     60.8465E+06     32.9939E+06              0.     2.30289E+06
           27385     60.7264E+06     33.0969E+06              0.     2.36323E+06
           27386     60.6031E+06     33.2005E+06              0.     2.42530E+06
           27387     60.4765E+06     33.3050E+06              0.     2.48913E+06
           27388     60.3466E+06     33.4102E+06              0.     2.55472E+06
           27389     60.2133E+06     33.5164E+06              0.     2.62208E+06
           27390     60.0764E+06     33.6236E+06              0.     2.69123E+06
           27391     59.9360E+06     33.7318E+06              0.     2.76218E+06
           27392     59.7918E+06     33.8411E+06              0.     2.83495E+06
           27393     59.6438E+06     33.9516E+06              0.     2.90955E+06
           27394     59.4920E+06     34.0634E+06              0.     2.98601E+06
           27395     59.3361E+06     34.1765E+06              0.     3.06434E+06
           27396     59.1762E+06     34.2910E+06              0.     3.14457E+06
           27397     59.0121E+06     34.4069E+06              0.     3.22670E+06
           27398     58.8438E+06     34.5243E+06              0.     3.31078E+06
           27399     58.6711E+06     34.6433E+06              0.     3.39680E+06
           27400     58.4939E+06     34.7638E+06              0.     3.48481E+06
           27401     58.3121E+06     34.8861E+06              0.     3.57483E+06
           27402     58.1256E+06     35.0101E+06              0.     3.66687E+06
           27403     57.9344E+06     35.1359E+06              0.     3.76097E+06
           27404     57.7383E+06     35.2635E+06              0.     3.85714E+06
           27405     57.5373E+06      35.393E+06              0.     3.95543E+06
           27406     57.3311E+06     35.5245E+06              0.     4.05585E+06
           27407     57.1197E+06     35.6579E+06              0.     4.15844E+06
           27408     56.9031E+06     35.7934E+06              0.     4.26321E+06
           27409     56.6810E+06     35.9310E+06              0.     4.37021E+06
           27410     56.4534E+06     36.0707E+06              0.     4.47946E+06
           27411     56.2201E+06     36.2126E+06              0.     4.59098E+06
           27412     55.9811E+06     36.3568E+06              0.     4.70482E+06
           27413     55.7362E+06     36.5032E+06              0.     4.82101E+06
           27414     55.4853E+06     36.6519E+06              0.     4.93956E+06
           27415     55.2284E+06     36.8030E+06              0.     5.06052E+06
           27416     54.9651E+06     36.9565E+06              0.     5.18392E+06
           27417     54.6956E+06     37.1124E+06              0.     5.30978E+06
           27418     54.4195E+06     37.2709E+06              0.     5.43815E+06
           27419     54.1369E+06     37.4318E+06              0.     5.56905E+06
           27420     53.8475E+06     37.5952E+06              0.     5.70252E+06
           27421     53.5513E+06     37.7613E+06              0.     5.83858E+06
           27422     53.2480E+06     37.9299E+06              0.     5.97728E+06
           27423     52.9377E+06     38.1012E+06              0.     6.11864E+06
           27424     52.6201E+06     38.2752E+06              0.     6.26269E+06
           27425     52.2952E+06     38.4518E+06              0.     6.40948E+06
           27426     51.9627E+06     38.6312E+06              0.     6.55902E+06
           27427     51.6225E+06     38.8132E+06              0.     6.71135E+06
           27428     51.2746E+06     38.9981E+06              0.     6.86651E+06
           27429     50.9187E+06     39.1857E+06              0.     7.02452E+06
           27430     50.5548E+06     39.3761E+06              0.     7.18541E+06
           27431     50.1827E+06     39.5692E+06              0.     7.34922E+06
           27432     49.8021E+06     39.7652E+06              0.     7.51597E+06
           27433     49.4131E+06     39.9640E+06              0.     7.68569E+06
           27434     49.0155E+06     40.1656E+06              0.     7.85841E+06
           27435      48.609E+06     40.3700E+06              0.     8.03415E+06
           27436     48.1936E+06     40.5773E+06              0.     8.21294E+06
           27437     47.7691E+06     40.7873E+06              0.     8.39481E+06
           27438     47.3353E+06     41.0001E+06              0.     8.57977E+06
           27439     46.8922E+06     41.2157E+06              0.     8.76786E+06
           27440     46.4395E+06     41.4341E+06              0.     8.95908E+06
           27441     45.9771E+06     41.6552E+06              0.     9.15347E+06
           27442     45.5049E+06     41.8790E+06              0.     9.35103E+06
           27443     45.0226E+06     42.1055E+06              0.     9.55178E+06
           27444     44.5302E+06     42.3346E+06              0.     9.75574E+06
           27445     44.0275E+06     42.5664E+06              0.     9.96292E+06
           27446     43.5143E+06     42.8007E+06              0.     10.1733E+06
           27447     42.9904E+06     43.0375E+06              0.     10.3870E+06
           27448     42.4558E+06     43.2767E+06              0.     10.6038E+06
           27449     41.9103E+06     43.5184E+06              0.     10.8240E+06
           27450     41.3536E+06     43.7624E+06              0.     11.0473E+06
           27451     40.7857E+06     44.0086E+06              0.     11.2739E+06
           27452     40.2064E+06     44.2569E+06              0.     11.5038E+06
           27453     39.6156E+06     44.5074E+06              0.     11.7368E+06
           27454     39.0130E+06     44.7598E+06              0.     11.9731E+06
           27455     38.3986E+06     45.0140E+06              0.     12.2126E+06
           27456     37.7721E+06     45.2700E+06              0.     12.4552E+06
           27457     37.1335E+06     45.5277E+06              0.     12.7010E+06
           27458     36.4826E+06     45.7869E+06              0.     12.9499E+06
           27459     35.8192E+06     46.0474E+06              0.     13.2020E+06
           27460     35.1432E+06     46.3091E+06              0.     13.4570E+06
           27461     34.4545E+06     46.5718E+06              0.     13.7151E+06
           27462     33.7528E+06     46.8355E+06              0.     13.9762E+06
           27463     33.0382E+06     47.0998E+06              0.     14.2402E+06
           27464     32.3103E+06     47.3647E+06              0.     14.5070E+06
           27465     31.5692E+06     47.6298E+06              0.     14.7766E+06
           27466     30.8147E+06     47.8950E+06              0.     15.0490E+06
           27467     30.0466E+06     48.1601E+06              0.     15.3240E+06
           27468     29.2648E+06     48.4247E+06              0.     15.6017E+06
           27469     28.4692E+06     48.6888E+06              0.     15.8818E+06
           27470     27.6598E+06     48.9518E+06              0.     16.1643E+06
           27471     26.8363E+06     49.2137E+06              0.     16.4491E+06
           27472     25.9987E+06     49.4741E+06              0.     16.7361E+06
           27473     25.1468E+06     49.7326E+06              0.     17.0252E+06
           27474     24.2807E+06     49.9889E+06              0.     17.3162E+06
           27475     23.4002E+06     50.2427E+06              0.     17.6091E+06
           27476     22.5051E+06     50.4936E+06              0.     17.9036E+06
           27477     21.5956E+06     50.7412E+06              0.     18.1997E+06
           27478     20.6714E+06     50.9851E+06              0.     18.4972E+06
           27479     19.7325E+06     51.2249E+06              0.     18.7960E+06
           27480     18.7789E+06     51.4601E+06              0.     19.0957E+06
           27481     17.8105E+06     51.6902E+06              0.     19.3964E+06
           27482     16.8273E+06     51.9148E+06              0.     19.6977E+06
           27483     15.8293E+06     52.1333E+06              0.     19.9995E+06
           27484     14.8164E+06     52.3452E+06              0.     20.3016E+06
           27485     13.7887E+06     52.5500E+06              0.     20.6037E+06
           27486     12.7460E+06     52.7469E+06              0.     20.9056E+06
           27487     11.6886E+06     52.9355E+06              0.     21.2071E+06
           27488     10.6163E+06     53.1150E+06              0.     21.5079E+06
           27489     9.52930E+06     53.2849E+06              0.     21.8078E+06
           27490     8.42753E+06     53.4443E+06              0.     22.1065E+06
           27491      7.3111E+06     53.5926E+06              0.     22.4036E+06
           27492     6.18008E+06     53.7290E+06              0.     22.6989E+06
           27493     5.03456E+06     53.8528E+06              0.     22.9921E+06
           27494     3.87465E+06      53.963E+06              0.     23.2829E+06
           27495     2.70047E+06     54.0589E+06              0.     23.5709E+06
           27496     1.51214E+06     54.1395E+06              0.     23.8557E+06
           27497     309.829E+03     54.2040E+06              0.     24.1371E+06
           27498    -906.308E+03     54.2514E+06              0.     24.4147E+06
           27499    -2.13609E+06     54.2808E+06              0.     24.6880E+06
           27500     -3.3793E+06     54.2909E+06              0.     24.9567E+06
           27501    -4.63573E+06     54.2810E+06              0.     25.2204E+06
           27502    -5.90514E+06     54.2497E+06              0.     25.4787E+06
           27503    -7.18728E+06     54.1960E+06              0.     25.7311E+06
           27504    -8.48187E+06     54.1188E+06              0.     25.9772E+06
           27505    -9.78861E+06     54.0167E+06              0.     26.2165E+06
           27506    -11.1072E+06     53.8886E+06              0.     26.4487E+06
           27507    -12.4373E+06     53.7332E+06              0.     26.6732E+06
           27508    -13.7785E+06     53.5491E+06              0.     26.8895E+06
           27509    -15.1305E+06     53.3350E+06              0.     27.0972E+06
           27510    -16.4928E+06     53.0895E+06              0.     27.2957E+06
           27511    -17.8650E+06     52.8110E+06              0.     27.4846E+06
           27512    -19.2468E+06     52.4982E+06              0.     27.6633E+06
           27513    -20.6375E+06     52.1495E+06              0.     27.8313E+06
           27514    -22.0367E+06     51.7632E+06              0.     27.9881E+06
           27515    -23.4439E+06     51.3379E+06              0.     28.1332E+06
           27516    -24.8586E+06     50.8718E+06              0.     28.2659E+06
           27517    -26.2801E+06     50.3632E+06              0.     28.3858E+06
           27518    -27.7079E+06     49.8105E+06              0.     28.4923E+06
           27519    -29.1413E+06     49.2117E+06              0.     28.5848E+06
           27520    -30.5797E+06     48.5653E+06              0.     28.6628E+06
           27521    -32.0224E+06     47.8691E+06              0.     28.7257E+06
           27522    -33.4686E+06     47.1215E+06              0.     28.7729E+06
           27523    -34.9178E+06     46.3203E+06              0.     28.8039E+06
           27524    -36.3690E+06     45.4638E+06              0.     28.8182E+06
           27525    -37.8216E+06     44.5499E+06              0.     28.8150E+06
           27526    -39.2747E+06     43.5765E+06              0.     28.7940E+06
           27527    -40.7274E+06     42.5417E+06              0.     28.7544E+06
           27528    -42.1789E+06     41.4433E+06              0.     28.6959E+06
           27529    -43.6283E+06     40.2791E+06              0.     28.6177E+06
           27530    -45.0747E+06     39.0471E+06              0.     28.5194E+06
           27531    -46.5171E+06     37.7452E+06              0.     28.4005E+06
           27532    -47.9544E+06     36.3710E+06              0.     28.2604E+06
           27533    -49.3858E+06     34.9224E+06              0.     28.0986E+06
           27534    -50.8102E+06     33.3971E+06              0.     27.9145E+06
           27535    -52.2265E+06     31.7930E+06              0.     27.7078E+06
           27536    -53.6336E+06     30.1077E+06              0.     27.4779E+06
           27537    -55.0304E+06     28.3390E+06              0.     27.2242E+06
           27538    -56.4157E+06     26.4846E+06              0.     26.9465E+06
           27539    -57.7884E+06     24.5423E+06              0.     26.6442E+06
           27540    -59.1473E+06     22.5097E+06              0.     26.3169E+06
           27541    -60.4911E+06     20.3846E+06              0.     25.9642E+06
           27542    -61.8187E+06     18.1647E+06              0.     25.5856E+06
           27543    -63.1286E+06     15.8478E+06              0.     25.1809E+06
           27544    -64.4196E+06     13.4315E+06              0.     24.7497E+06
           27545    -65.6904E+06     10.9136E+06              0.     24.2915E+06
           27546    -66.9396E+06     8.29196E+06              0.     23.8061E+06
           27547    -68.1659E+06     5.56430E+06              0.     23.2933E+06
           27548    -69.3678E+06     2.72850E+06              0.     22.7526E+06
           27549    -70.5438E+06    -217.674E+03              0.     22.1838E+06
           27550    -71.6927E+06    -3.27627E+06              0.     21.5868E+06
           27551    -72.8127E+06    -6.44946E+06              0.     20.9612E+06
           27552    -73.9025E+06    -9.73926E+06              0.     20.3068E+06
           27553    -74.9606E+06    -13.1477E+06              0.     19.6234E+06
           27554    -75.9853E+06    -16.6767E+06              0.     18.9109E+06
           27555     -76.975E+06    -20.3282E+06              0.     18.1691E+06
           27556    -77.9282E+06    -24.1042E+06              0.     17.3979E+06
           27557    -78.8434E+06    -28.0065E+06              0.     16.5971E+06
           27558    -79.7189E+06    -32.0370E+06              0.     15.7665E+06
           27559    -81.3246E+06    -36.6250E+06              0.     15.3727E+06
           27560     64.1220E+06     28.1590E+06              0.     1.44691E+06
           27561     64.1402E+06     28.3600E+06              0.     1.44422E+06
           27562     64.0723E+06     28.5191E+06              0.     1.42479E+06
           27563     64.0052E+06     28.6739E+06              0.     1.40823E+06
           27564     63.9388E+06     28.8245E+06              0.     1.39447E+06
           27565     63.8729E+06     28.9712E+06              0.     1.38343E+06
           27566     63.8074E+06     29.1142E+06              0.     1.37504E+06
           27567     63.7423E+06     29.2536E+06              0.     1.36924E+06
           27568     63.6773E+06     29.3897E+06              0.     1.36596E+06
           27569     63.6124E+06     29.5226E+06              0.     1.36514E+06
           27570     63.5474E+06     29.6525E+06              0.     1.36672E+06
           27571     63.4823E+06     29.7795E+06              0.     1.37065E+06
           27572     63.4169E+06     29.9038E+06              0.     1.37688E+06
           27573     63.3511E+06     30.0257E+06              0.     1.38536E+06
           27574     63.2847E+06     30.1451E+06              0.     1.39604E+06
           27575     63.2178E+06     30.2624E+06              0.     1.40889E+06
           27576     63.1502E+06     30.3776E+06              0.     1.42386E+06
           27577     63.0817E+06     30.4908E+06              0.     1.44092E+06
           27578     63.0124E+06     30.6022E+06              0.     1.46003E+06
           27579     62.9421E+06     30.7120E+06              0.     1.48116E+06
           27580     62.8706E+06     30.8203E+06              0.     1.50428E+06
           27581     62.7980E+06     30.9271E+06              0.     1.52935E+06
           27582     62.7240E+06     31.0326E+06              0.     1.55637E+06
           27583     62.6487E+06     31.1370E+06              0.     1.58529E+06
           27584     62.5720E+06     31.2403E+06              0.     1.61611E+06
           27585     62.4936E+06     31.3427E+06              0.     1.64881E+06
           27586     62.4136E+06     31.4443E+06              0.     1.68335E+06
           27587     62.3319E+06     31.5451E+06              0.     1.71974E+06
           27588     62.2484E+06     31.6453E+06              0.     1.75796E+06
           27589     62.1629E+06     31.7450E+06              0.     1.79799E+06
           27590     62.0754E+06     31.8443E+06              0.     1.83983E+06
           27591     61.9859E+06     31.9432E+06              0.     1.88347E+06
           27592     61.8942E+06     32.0420E+06              0.     1.92890E+06
           27593     61.8002E+06     32.1405E+06              0.     1.97612E+06
           27594     61.7039E+06     32.2391E+06              0.     2.02513E+06
           27595     61.6052E+06     32.3377E+06              0.     2.07592E+06
           27596     61.5039E+06     32.4364E+06              0.     2.12850E+06
           27597     61.4001E+06     32.5354E+06              0.     2.18286E+06
           27598     61.2935E+06     32.6346E+06              0.     2.23901E+06
           27599     61.1842E+06     32.7342E+06              0.     2.29696E+06
           27600     61.0721E+06     32.8343E+06              0.     2.35670E+06
           27601     60.9570E+06     32.9349E+06              0.     2.41826E+06
           27602     60.8389E+06     33.0361E+06              0.     2.48163E+06
           27603     60.7177E+06     33.1380E+06              0.     2.54682E+06
           27604     60.5933E+06     33.2407E+06              0.     2.61386E+06
           27605     60.4656E+06     33.3442E+06              0.     2.68274E+06
           27606     60.3345E+06     33.4486E+06              0.     2.75349E+06
           27607     60.1999E+06     33.5540E+06              0.     2.82611E+06
           27608     60.0618E+06     33.6604E+06              0.     2.90063E+06
           27609     59.9201E+06     33.7679E+06              0.     2.97706E+06
           27610     59.7746E+06     33.8766E+06              0.     3.05542E+06
           27611     59.6254E+06     33.9865E+06              0.     3.13572E+06
           27612     59.4721E+06     34.0977E+06              0.     3.21799E+06
           27613     59.3149E+06     34.2102E+06              0.     3.30226E+06
           27614     59.1536E+06     34.3242E+06              0.     3.38853E+06
           27615     58.9881E+06     34.4397E+06              0.     3.47683E+06
           27616     58.8182E+06     34.5567E+06              0.     3.56719E+06
           27617     58.6440E+06     34.6753E+06              0.     3.65963E+06
           27618     58.4653E+06     34.7955E+06              0.     3.75418E+06
           27619     58.2820E+06     34.9175E+06              0.     3.85086E+06
           27620     58.0940E+06     35.0412E+06              0.     3.94970E+06
           27621     57.9011E+06     35.1667E+06              0.     4.05073E+06
           27622     57.7034E+06     35.2941E+06              0.     4.15398E+06
           27623     57.5007E+06     35.4234E+06              0.     4.25946E+06
           27624     57.2929E+06     35.5547E+06              0.     4.36723E+06
           27625     57.0798E+06     35.6880E+06              0.     4.47729E+06
           27626     56.8614E+06     35.8233E+06              0.     4.58969E+06
           27627     56.6376E+06     35.9608E+06              0.     4.70446E+06
           27628     56.4082E+06     36.1004E+06              0.     4.82162E+06
           27629     56.1732E+06     36.2422E+06              0.     4.94121E+06
           27630     55.9323E+06     36.3863E+06              0.     5.06327E+06
           27631     55.6856E+06     36.5327E+06              0.     5.18782E+06
           27632     55.4329E+06     36.6813E+06              0.     5.31490E+06
           27633     55.1740E+06     36.8324E+06              0.     5.44455E+06
           27634     54.9089E+06     36.9858E+06              0.     5.57679E+06
           27635     54.6374E+06     37.1417E+06              0.     5.71166E+06
           27636     54.3594E+06     37.3001E+06              0.     5.84919E+06
           27637     54.0747E+06     37.4610E+06              0.     5.98943E+06
           27638     53.7834E+06     37.6244E+06              0.     6.13240E+06
           27639     53.4851E+06     37.7904E+06              0.     6.27813E+06
           27640     53.1798E+06     37.9590E+06              0.     6.42667E+06
           27641     52.8674E+06     38.1303E+06              0.     6.57804E+06
           27642     52.5478E+06     38.3042E+06              0.     6.73229E+06
           27643     52.2207E+06     38.4807E+06              0.     6.88943E+06
           27644     51.8861E+06     38.6600E+06              0.     7.04952E+06
           27645     51.5438E+06     38.8420E+06              0.     7.21258E+06
           27646     51.1937E+06     39.0268E+06              0.     7.37863E+06
           27647     50.8356E+06     39.2143E+06              0.     7.54773E+06
           27648     50.4695E+06     39.4045E+06              0.     7.71989E+06
           27649     50.0951E+06     39.5975E+06              0.     7.89515E+06
           27650     49.7123E+06     39.7933E+06              0.     8.07353E+06
           27651     49.3210E+06     39.9919E+06              0.     8.25508E+06
           27652     48.9210E+06     40.1933E+06              0.     8.43981E+06
           27653     48.5122E+06     40.3975E+06              0.     8.62775E+06
           27654     48.0945E+06     40.6044E+06              0.     8.81893E+06
           27655     47.6676E+06     40.8141E+06              0.     9.01337E+06
           27656     47.2315E+06     41.0266E+06              0.     9.21110E+06
           27657     46.7859E+06     41.2418E+06              0.     9.41214E+06
           27658     46.3308E+06     41.4597E+06              0.     9.61650E+06
           27659     45.8659E+06     41.6803E+06              0.     9.82422E+06
           27660     45.3912E+06     41.9036E+06              0.     10.0353E+06
           27661     44.9065E+06     42.1295E+06              0.     10.2498E+06
           27662     44.4116E+06     42.3580E+06              0.     10.4676E+06
           27663     43.9063E+06     42.5891E+06              0.     10.6889E+06
           27664     43.3905E+06     42.8227E+06              0.     10.9135E+06
           27665     42.8641E+06     43.0587E+06              0.     11.1416E+06
           27666     42.3269E+06     43.2970E+06              0.     11.3731E+06
           27667     41.7788E+06     43.5377E+06              0.     11.6081E+06
           27668     41.2195E+06     43.7807E+06              0.     11.8464E+06
           27669     40.6490E+06     44.0258E+06              0.     12.0882E+06
           27670     40.0670E+06     44.2730E+06              0.     12.3334E+06
           27671     39.4735E+06     44.5221E+06              0.     12.5819E+06
           27672     38.8683E+06     44.7732E+06              0.     12.8339E+06
           27673     38.2511E+06     45.0260E+06              0.     13.0892E+06
           27674     37.6220E+06     45.2805E+06              0.     13.3478E+06
           27675     36.9806E+06     45.5365E+06              0.     13.6097E+06
           27676     36.3270E+06     45.7939E+06              0.     13.8749E+06
           27677     35.6608E+06     46.0525E+06              0.     14.1434E+06
           27678     34.9821E+06     46.3122E+06              0.     14.4150E+06
           27679     34.2906E+06     46.5728E+06              0.     14.6898E+06
           27680     33.5861E+06     46.8342E+06              0.     14.9677E+06
           27681     32.8687E+06     47.0961E+06              0.     15.2486E+06
           27682     32.1381E+06     47.3584E+06              0.     15.5324E+06
           27683     31.3941E+06     47.6208E+06              0.     15.8192E+06
           27684     30.6368E+06     47.8832E+06              0.     16.1088E+06
           27685     29.8659E+06     48.1452E+06              0.     16.4012E+06
           27686     29.0813E+06     48.4067E+06              0.     16.6961E+06
           27687     28.2829E+06     48.6673E+06              0.     16.9937E+06
           27688     27.4706E+06     48.9268E+06              0.     17.2937E+06
           27689     26.6442E+06     49.1849E+06              0.     17.5960E+06
           27690     25.8038E+06     49.4412E+06              0.     17.9006E+06
           27691     24.9491E+06     49.6955E+06              0.     18.2072E+06
           27692     24.0802E+06     49.9474E+06              0.     18.5159E+06
           27693     23.1968E+06     50.1965E+06              0.     18.8263E+06
           27694     22.2990E+06     50.4424E+06              0.     19.1384E+06
           27695     21.3866E+06     50.6848E+06              0.     19.4520E+06
           27696     20.4596E+06     50.9233E+06              0.     19.7669E+06
           27697     19.5180E+06     51.1573E+06              0.     20.0830E+06
           27698     18.5616E+06     51.3864E+06              0.     20.4000E+06
           27699     17.5904E+06     51.6101E+06              0.     20.7178E+06
           27700     16.6045E+06      51.828E+06              0.     21.0361E+06
           27701     15.6037E+06     52.0394E+06              0.     21.3548E+06
           27702     14.5881E+06     52.2439E+06              0.     21.6735E+06
           27703     13.5577E+06     52.4409E+06              0.     21.9921E+06
           27704     12.5125E+06     52.6296E+06              0.     22.3103E+06
           27705     11.4524E+06     52.8096E+06              0.     22.6278E+06
           27706     10.3775E+06     52.9801E+06              0.     22.9444E+06
           27707     9.28794E+06     53.1405E+06              0.     23.2597E+06
           27708     8.18365E+06     53.2900E+06              0.     23.5735E+06
           27709     7.06474E+06     53.4279E+06              0.     23.8854E+06
           27710     5.93128E+06     53.5534E+06              0.     24.1952E+06
           27711     4.78337E+06     53.6657E+06              0.     24.5024E+06
           27712     3.62113E+06     53.7640E+06              0.     24.8068E+06
           27713     2.44466E+06     53.8474E+06              0.     25.1079E+06
           27714     1.25412E+06     53.9149E+06              0.     25.4055E+06
           27715     49.6490E+03     53.9656E+06              0.     25.6990E+06
           27716    -1.16857E+06     53.9986E+06              0.     25.9882E+06
           27717    -2.40036E+06     54.0129E+06              0.     26.2725E+06
           27718    -3.64550E+06     54.0073E+06              0.     26.5516E+06
           27719    -4.90377E+06     53.9808E+06              0.     26.8250E+06
           27720    -6.17494E+06     53.9323E+06              0.     27.0923E+06
           27721    -7.45873E+06     53.8606E+06              0.     27.3531E+06
           27722    -8.75486E+06     53.7645E+06              0.     27.6067E+06
           27723    -10.0630E+06     53.6428E+06              0.     27.8529E+06
           27724    -11.3829E+06     53.4942E+06              0.     28.0909E+06
           27725    -12.7142E+06     53.3173E+06              0.     28.3205E+06
           27726    -14.0564E+06     53.1108E+06              0.     28.5410E+06
           27727    -15.4093E+06     52.8733E+06              0.     28.7519E+06
           27728    -16.7724E+06     52.6034E+06              0.     28.9527E+06
           27729    -18.1452E+06     52.2995E+06              0.     29.1428E+06
           27730    -19.5273E+06     51.9601E+06              0.     29.3216E+06
           27731    -20.9183E+06     51.5837E+06              0.     29.4887E+06
           27732    -22.3176E+06     51.1686E+06              0.     29.6435E+06
           27733    -23.7246E+06     50.7133E+06              0.     29.7852E+06
           27734    -25.1388E+06     50.2159E+06              0.     29.9135E+06
           27735    -26.5597E+06     49.6748E+06              0.     30.0277E+06
           27736    -27.9866E+06     49.0882E+06              0.     30.1271E+06
           27737    -29.4188E+06     48.4542E+06              0.     30.2113E+06
           27738    -30.8558E+06     47.7711E+06              0.     30.2795E+06
           27739    -32.2967E+06     47.0368E+06              0.     30.3313E+06
           27740     -33.741E+06     46.2496E+06              0.     30.3660E+06
           27741    -35.1878E+06     45.4074E+06              0.     30.3829E+06
           27742    -36.6363E+06     44.5082E+06              0.     30.3816E+06
           27743    -38.0859E+06     43.5500E+06              0.     30.3614E+06
           27744    -39.5355E+06     42.5307E+06              0.     30.3217E+06
           27745    -40.9844E+06     41.4483E+06              0.     30.2619E+06
           27746    -42.4316E+06     40.3005E+06              0.     30.1814E+06
           27747    -43.8763E+06     39.0853E+06              0.     30.0797E+06
           27748    -45.3176E+06     37.8004E+06              0.     29.9562E+06
           27749    -46.7543E+06     36.4436E+06              0.     29.8103E+06
           27750    -48.1855E+06     35.0128E+06              0.     29.6415E+06
           27751    -49.6103E+06     33.5057E+06              0.     29.4492E+06
           27752    -51.0274E+06     31.9200E+06              0.     29.2329E+06
           27753    -52.4359E+06     30.2535E+06              0.     28.9921E+06
           27754    -53.8346E+06     28.5038E+06              0.     28.7263E+06
           27755    -55.2224E+06     26.6687E+06              0.     28.4350E+06
           27756    -56.5981E+06     24.7458E+06              0.     28.1178E+06
           27757    -57.9605E+06     22.7329E+06              0.     27.7740E+06
           27758    -59.3084E+06     20.6277E+06              0.     27.4035E+06
           27759    -60.6405E+06     18.4279E+06              0.     27.0056E+06
           27760    -61.9555E+06     16.1312E+06              0.     26.5800E+06
           27761    -63.2521E+06     13.7353E+06              0.     26.1264E+06
           27762    -64.5291E+06     11.2380E+06              0.     25.6444E+06
           27763    -65.7850E+06     8.63692E+06              0.     25.1335E+06
           27764    -67.0184E+06     5.92995E+06              0.     24.5936E+06
           27765     -68.228E+06     3.11491E+06              0.     24.0243E+06
           27766    -69.4123E+06     189.539E+03              0.     23.4252E+06
           27767    -70.5699E+06    -2.84823E+06              0.     22.7962E+06
           27768    -71.6992E+06    -6.00057E+06              0.     22.1371E+06
           27769    -72.7988E+06    -9.26952E+06              0.     21.4475E+06
           27770    -73.8670E+06    -12.6571E+06              0.     20.7273E+06
           27771    -74.9025E+06    -16.1653E+06              0.     19.9763E+06
           27772    -75.9035E+06    -19.7961E+06              0.     19.1943E+06
           27773    -76.8685E+06    -23.5514E+06              0.     18.3811E+06
           27774    -77.7958E+06    -27.4331E+06              0.     17.5368E+06
           27775    -78.6836E+06    -31.4428E+06              0.     16.6611E+06
           27776    -80.2888E+06    -36.0104E+06              0.     16.2468E+06
           27777     64.1802E+06     28.1842E+06              0.     1.51461E+06
           27778     64.1981E+06     28.3816E+06              0.     1.51179E+06
           27779     64.1314E+06     28.5377E+06              0.     1.49145E+06
           27780     64.0656E+06     28.6897E+06              0.     1.47412E+06
           27781     64.0003E+06     28.8375E+06              0.     1.45972E+06
           27782     63.9357E+06     28.9816E+06              0.     1.44817E+06
           27783     63.8714E+06     29.1219E+06              0.     1.43939E+06
           27784     63.8075E+06     29.2588E+06              0.     1.43332E+06
           27785     63.7437E+06     29.3923E+06              0.     1.42988E+06
           27786     63.6800E+06     29.5228E+06              0.     1.42903E+06
           27787     63.6162E+06     29.6503E+06              0.     1.43068E+06
           27788     63.5523E+06     29.7750E+06              0.     1.43480E+06
           27789     63.4880E+06     29.8971E+06              0.     1.44133E+06
           27790     63.4234E+06     30.0167E+06              0.     1.45021E+06
           27791     63.3583E+06     30.1340E+06              0.     1.46139E+06
           27792     63.2926E+06     30.2491E+06              0.     1.47485E+06
           27793     63.2262E+06     30.3621E+06              0.     1.49052E+06
           27794     63.1590E+06     30.4733E+06              0.     1.50838E+06
           27795     63.0910E+06     30.5827E+06              0.     1.52839E+06
           27796     63.0219E+06     30.6905E+06              0.     1.55051E+06
           27797     62.9518E+06     30.7967E+06              0.     1.57471E+06
           27798     62.8804E+06     30.9016E+06              0.     1.60097E+06
           27799     62.8079E+06     31.0052E+06              0.     1.62925E+06
           27800     62.7339E+06     31.1077E+06              0.     1.65953E+06
           27801     62.6585E+06     31.2092E+06              0.     1.69180E+06
           27802     62.5816E+06     31.3097E+06              0.     1.72603E+06
           27803     62.5031E+06     31.4094E+06              0.     1.76220E+06
           27804     62.4229E+06     31.5084E+06              0.     1.80029E+06
           27805     62.3408E+06     31.6067E+06              0.     1.84031E+06
           27806     62.2569E+06     31.7046E+06              0.     1.88222E+06
           27807     62.1710E+06     31.8021E+06              0.     1.92602E+06
           27808     62.0831E+06     31.8993E+06              0.     1.97171E+06
           27809     61.9931E+06     31.9962E+06              0.     2.01928E+06
           27810     61.9008E+06     32.0930E+06              0.     2.06872E+06
           27811     61.8062E+06     32.1898E+06              0.     2.12002E+06
           27812     61.7093E+06     32.2866E+06              0.     2.17320E+06
           27813     61.6099E+06     32.3835E+06              0.     2.22825E+06
           27814     61.5079E+06     32.4807E+06              0.     2.28516E+06
           27815     61.4033E+06     32.5781E+06              0.     2.34395E+06
           27816     61.2960E+06     32.6759E+06              0.     2.40462E+06
           27817     61.1859E+06     32.7742E+06              0.     2.46718E+06
           27818     61.0729E+06     32.8730E+06              0.     2.53163E+06
           27819     60.9569E+06     32.9724E+06              0.     2.59798E+06
           27820     60.8379E+06     33.0725E+06              0.     2.66624E+06
           27821     60.7157E+06     33.1733E+06              0.     2.73643E+06
           27822     60.5903E+06     33.2749E+06              0.     2.80855E+06
           27823     60.4616E+06     33.3775E+06              0.     2.88263E+06
           27824     60.3295E+06     33.4810E+06              0.     2.95867E+06
           27825     60.1939E+06     33.5855E+06              0.     3.03670E+06
           27826     60.0547E+06     33.6911E+06              0.     3.11672E+06
           27827     59.9118E+06     33.7978E+06              0.     3.19877E+06
           27828     59.7652E+06     33.9058E+06              0.     3.28286E+06
           27829     59.6148E+06      34.015E+06              0.     3.36901E+06
           27830     59.4604E+06     34.1256E+06              0.     3.45724E+06
           27831     59.3019E+06     34.2375E+06              0.     3.54758E+06
           27832     59.1394E+06     34.3510E+06              0.     3.64004E+06
           27833     58.9726E+06     34.4659E+06              0.     3.73467E+06
           27834     58.8015E+06     34.5824E+06              0.     3.83147E+06
           27835     58.6259E+06     34.7005E+06              0.     3.93048E+06
           27836     58.4459E+06     34.8204E+06              0.     4.03172E+06
           27837     58.2612E+06     34.9419E+06              0.     4.13523E+06
           27838     58.0719E+06     35.0652E+06              0.     4.24103E+06
           27839     57.8777E+06     35.1904E+06              0.     4.34915E+06
           27840     57.6786E+06     35.3174E+06              0.     4.45962E+06
           27841     57.4744E+06     35.4464E+06              0.     4.57247E+06
           27842     57.2652E+06     35.5774E+06              0.     4.68774E+06
           27843     57.0506E+06     35.7104E+06              0.     4.80546E+06
           27844     56.8308E+06     35.8455E+06              0.     4.92566E+06
           27845     56.6055E+06     35.9827E+06              0.     5.04837E+06
           27846     56.3746E+06     36.1221E+06              0.     5.17362E+06
           27847     56.1380E+06     36.2637E+06              0.     5.30146E+06
           27848     55.8956E+06     36.4076E+06              0.     5.43192E+06
           27849     55.6474E+06     36.5537E+06              0.     5.56502E+06
           27850     55.3931E+06     36.7022E+06              0.     5.70081E+06
           27851     55.1326E+06     36.8530E+06              0.     5.83933E+06
           27852     54.8659E+06     37.0063E+06              0.     5.98060E+06
           27853     54.5927E+06     37.1620E+06              0.     6.12467E+06
           27854     54.3131E+06     37.3202E+06              0.     6.27157E+06
           27855     54.0268E+06     37.4808E+06              0.     6.42133E+06
           27856     53.7338E+06     37.6441E+06              0.     6.57400E+06
           27857     53.4338E+06     37.8099E+06              0.     6.72961E+06
           27858     53.1269E+06     37.9783E+06              0.     6.88819E+06
           27859     52.8128E+06     38.1493E+06              0.     7.04978E+06
           27860     52.4914E+06     38.3230E+06              0.     7.21442E+06
           27861     52.1626E+06     38.4993E+06              0.     7.38214E+06
           27862     51.8262E+06     38.6783E+06              0.     7.55298E+06
           27863     51.4821E+06     38.8600E+06              0.     7.72697E+06
           27864     51.1302E+06     39.0445E+06              0.     7.90415E+06
           27865     50.7704E+06     39.2317E+06              0.     8.08454E+06
           27866     50.4024E+06     39.4216E+06              0.     8.26819E+06
           27867     50.0262E+06     39.6142E+06              0.     8.45512E+06
           27868     49.6416E+06     39.8097E+06              0.     8.64536E+06
           27869     49.2484E+06     40.0079E+06              0.     8.83895E+06
           27870     48.8466E+06     40.2088E+06              0.     9.03591E+06
           27871     48.4359E+06     40.4125E+06              0.     9.23628E+06
           27872     48.0162E+06     40.6189E+06              0.     9.44007E+06
           27873     47.5875E+06     40.8281E+06              0.     9.64731E+06
           27874     47.1494E+06     41.0400E+06              0.     9.85803E+06
           27875     46.7019E+06     41.2546E+06              0.     10.0722E+06
           27876     46.2449E+06     41.4718E+06              0.     10.2900E+06
           27877     45.7781E+06     41.6917E+06              0.     10.5113E+06
           27878     45.3014E+06     41.9142E+06              0.     10.7361E+06
           27879     44.8147E+06     42.1393E+06              0.     10.9645E+06
           27880     44.3178E+06     42.3670E+06              0.     11.1965E+06
           27881     43.8105E+06     42.5971E+06              0.     11.4320E+06
           27882     43.2928E+06     42.8297E+06              0.     11.6712E+06
           27883     42.7643E+06     43.0646E+06              0.     11.9139E+06
           27884     42.2251E+06     43.3019E+06              0.     12.1603E+06
           27885     41.6749E+06     43.5414E+06              0.     12.4103E+06
           27886     41.1136E+06     43.7831E+06              0.     12.6638E+06
           27887     40.5410E+06     44.0268E+06              0.     12.9210E+06
           27888     39.9570E+06     44.2726E+06              0.     13.1817E+06
           27889     39.3614E+06     44.5202E+06              0.     13.4460E+06
           27890     38.7541E+06     44.7697E+06              0.     13.7138E+06
           27891     38.1349E+06     45.0208E+06              0.     13.9851E+06
           27892     37.5036E+06     45.2734E+06              0.     14.2599E+06
           27893     36.8602E+06     45.5275E+06              0.     14.5382E+06
           27894     36.2045E+06     45.7829E+06              0.     14.8198E+06
           27895     35.5362E+06     46.0394E+06              0.     15.1049E+06
           27896     34.8554E+06     46.2968E+06              0.     15.3933E+06
           27897     34.1617E+06     46.5551E+06              0.     15.6849E+06
           27898     33.4552E+06     46.8139E+06              0.     15.9797E+06
           27899     32.7356E+06     47.0732E+06              0.     16.2777E+06
           27900     32.0029E+06     47.3327E+06              0.     16.5788E+06
           27901     31.2568E+06     47.5921E+06              0.     16.8828E+06
           27902     30.4974E+06     47.8514E+06              0.     17.1898E+06
           27903     29.7243E+06     48.1101E+06              0.     17.4995E+06
           27904     28.9376E+06     48.3681E+06              0.     17.8120E+06
           27905     28.1371E+06     48.6251E+06              0.     18.1271E+06
           27906     27.3227E+06     48.8807E+06              0.     18.4447E+06
           27907     26.4943E+06     49.1348E+06              0.     18.7646E+06
           27908     25.6517E+06     49.3869E+06              0.     19.0868E+06
           27909     24.7950E+06     49.6367E+06              0.     19.4110E+06
           27910     23.9239E+06     49.8839E+06              0.     19.7372E+06
           27911     23.0385E+06     50.1281E+06              0.     20.0652E+06
           27912     22.1386E+06     50.3689E+06              0.     20.3948E+06
           27913     21.2241E+06     50.6058E+06              0.     20.7259E+06
           27914     20.2951E+06     50.8386E+06              0.     21.0582E+06
           27915     19.3513E+06     51.0666E+06              0.     21.3915E+06
           27916     18.3929E+06     51.2894E+06              0.     21.7257E+06
           27917     17.4198E+06     51.5065E+06              0.     22.0605E+06
           27918     16.4318E+06     51.7175E+06              0.     22.3957E+06
           27919     15.4291E+06     51.9217E+06              0.     22.7311E+06
           27920     14.4115E+06     52.1185E+06              0.     23.0663E+06
           27921     13.3792E+06     52.3075E+06              0.     23.4012E+06
           27922     12.3320E+06     52.4879E+06              0.     23.7354E+06
           27923     11.2700E+06     52.6591E+06              0.     24.0687E+06
           27924     10.1933E+06     52.8204E+06              0.     24.4007E+06
           27925     9.10185E+06     52.9711E+06              0.     24.7311E+06
           27926     7.99576E+06     53.1106E+06              0.     25.0597E+06
           27927     6.87507E+06     53.2379E+06              0.     25.3861E+06
           27928     5.73988E+06     53.3523E+06              0.     25.7098E+06
           27929     4.59028E+06     53.4530E+06              0.     26.0306E+06
           27930     3.42639E+06     53.5392E+06              0.     26.3481E+06
           27931     2.24832E+06     53.6098E+06              0.     26.6618E+06
           27932     1.05622E+06     53.6641E+06              0.     26.9714E+06
           27933    -149.744E+03     53.7009E+06              0.     27.2765E+06
           27934    -1.36940E+06     53.7194E+06              0.     27.5765E+06
           27935    -2.60256E+06     53.7184E+06              0.     27.8712E+06
           27936    -3.84901E+06     53.6969E+06              0.     28.1599E+06
           27937    -5.10852E+06     53.6538E+06              0.     28.4422E+06
           27938    -6.38084E+06     53.5879E+06              0.     28.7177E+06
           27939    -7.66570E+06     53.4981E+06              0.     28.9859E+06
           27940    -8.96281E+06     53.3830E+06              0.     29.2462E+06
           27941    -10.2719E+06     53.2415E+06              0.     29.4981E+06
           27942    -11.5925E+06     53.0721E+06              0.     29.7410E+06
           27943    -12.9244E+06     52.8737E+06              0.     29.9745E+06
           27944    -14.2673E+06     52.6446E+06              0.     30.1980E+06
           27945    -15.6205E+06     52.3836E+06              0.     30.4109E+06
           27946    -16.9839E+06     52.0891E+06              0.     30.6126E+06
           27947    -18.3569E+06     51.7595E+06              0.     30.8026E+06
           27948    -19.7390E+06     51.3935E+06              0.     30.9802E+06
           27949    -21.1297E+06     50.9892E+06              0.     31.1449E+06
           27950    -22.5286E+06     50.5451E+06              0.     31.2960E+06
           27951    -23.9351E+06     50.0595E+06              0.     31.4329E+06
           27952    -25.3486E+06     49.5306E+06              0.      31.555E+06
           27953    -26.7685E+06     48.9567E+06              0.     31.6617E+06
           27954    -28.1941E+06     48.3360E+06              0.     31.7523E+06
           27955    -29.6249E+06     47.6665E+06              0.     31.8263E+06
           27956    -31.0602E+06     46.9465E+06              0.     31.8829E+06
           27957    -32.4992E+06     46.1739E+06              0.     31.9215E+06
           27958    -33.9411E+06     45.3467E+06              0.     31.9416E+06
           27959    -35.3854E+06     44.4631E+06              0.     31.9424E+06
           27960    -36.8310E+06     43.5209E+06              0.     31.9233E+06
           27961    -38.2773E+06     42.5180E+06              0.     31.8838E+06
           27962    -39.7233E+06     41.4524E+06              0.     31.8231E+06
           27963    -41.1682E+06     40.3219E+06              0.     31.7407E+06
           27964    -42.6111E+06     39.1244E+06              0.     31.6359E+06
           27965    -44.0510E+06     37.8575E+06              0.     31.5081E+06
           27966    -45.4869E+06     36.5193E+06              0.     31.3568E+06
           27967    -46.9179E+06     35.1073E+06              0.     31.1813E+06
           27968    -48.3430E+06     33.6193E+06              0.     30.9811E+06
           27969    -49.7610E+06     32.0531E+06              0.     30.7556E+06
           27970    -51.1709E+06     30.4063E+06              0.     30.5043E+06
           27971    -52.5716E+06     28.6767E+06              0.     30.2266E+06
           27972    -53.9619E+06     26.8619E+06              0.     29.9221E+06
           27973    -55.3406E+06     24.9597E+06              0.     29.5901E+06
           27974    -56.7066E+06     22.9676E+06              0.     29.2303E+06
           27975    -58.0587E+06     20.8835E+06              0.     28.8422E+06
           27976    -59.3956E+06     18.7049E+06              0.     28.4253E+06
           27977    -60.7159E+06     16.4296E+06              0.     27.9792E+06
           27978    -62.0184E+06     14.0552E+06              0.     27.5034E+06
           27979    -63.3018E+06     11.5796E+06              0.     26.9977E+06
           27980    -64.5647E+06     9.00033E+06              0.     26.4617E+06
           27981    -65.8057E+06     6.31525E+06              0.     25.8949E+06
           27982    -67.0234E+06     3.52215E+06              0.     25.2971E+06
           27983    -68.2164E+06     618.770E+03              0.     24.6680E+06
           27984    -69.3831E+06    -2.39698E+06              0.     24.0074E+06
           27985    -70.5221E+06    -5.52729E+06              0.     23.3148E+06
           27986    -71.6320E+06    -8.77422E+06              0.     22.5902E+06
           27987    -72.7111E+06    -12.1398E+06              0.     21.8333E+06
           27988    -73.7578E+06    -15.6261E+06              0.     21.0440E+06
           27989    -74.7707E+06    -19.2349E+06              0.     20.2219E+06
           27990    -75.7480E+06    -22.9684E+06              0.     19.3671E+06
           27991    -76.6881E+06    -26.8283E+06              0.     18.4793E+06
           27992    -77.5894E+06    -30.8164E+06              0.     17.5584E+06
           27993    -79.1945E+06    -35.3625E+06              0.     17.1235E+06
           27994     64.2411E+06     28.2105E+06              0.     1.58104E+06
           27995     64.2586E+06     28.4040E+06              0.     1.57810E+06
           27996     64.1932E+06     28.5572E+06              0.     1.55687E+06
           27997     64.1286E+06     28.7061E+06              0.     1.53878E+06
           27998     64.0647E+06     28.8511E+06              0.     1.52375E+06
           27999     64.0013E+06     28.9923E+06              0.     1.51169E+06
           28000     63.9383E+06     29.1299E+06              0.     1.50253E+06
           28001     63.8756E+06     29.2641E+06              0.     1.49620E+06
           28002     63.8131E+06     29.3951E+06              0.     1.49261E+06
           28003     63.7506E+06     29.5230E+06              0.     1.49172E+06
           28004     63.6881E+06     29.6480E+06              0.     1.49345E+06
           28005     63.6254E+06     29.7703E+06              0.     1.49776E+06
           28006     63.5624E+06     29.8900E+06              0.     1.50457E+06
           28007     63.4991E+06     30.0073E+06              0.     1.51384E+06
           28008     63.4352E+06     30.1223E+06              0.     1.52552E+06
           28009     63.3708E+06     30.2351E+06              0.     1.53957E+06
           28010     63.3057E+06     30.3460E+06              0.     1.55594E+06
           28011     63.2398E+06     30.4550E+06              0.     1.57458E+06
           28012     63.1731E+06     30.5623E+06              0.     1.59547E+06
           28013     63.1054E+06     30.6679E+06              0.     1.61856E+06
           28014     63.0366E+06     30.7721E+06              0.     1.64383E+06
           28015     62.9666E+06     30.8750E+06              0.     1.67124E+06
           28016     62.8955E+06     30.9766E+06              0.     1.70077E+06
           28017     62.8230E+06     31.0771E+06              0.     1.73239E+06
           28018     62.7490E+06     31.1765E+06              0.     1.76608E+06
           28019     62.6736E+06     31.2751E+06              0.     1.80181E+06
           28020     62.5966E+06     31.3729E+06              0.     1.83957E+06
           28021     62.5179E+06     31.4699E+06              0.     1.87935E+06
           28022     62.4375E+06     31.5664E+06              0.     1.92112E+06
           28023     62.3552E+06     31.6624E+06              0.     1.96488E+06
           28024     62.2710E+06     31.7580E+06              0.     2.01061E+06
           28025     62.1848E+06     31.8533E+06              0.     2.05831E+06
           28026     62.0965E+06     31.9483E+06              0.     2.10798E+06
           28027     62.0060E+06     32.0433E+06              0.     2.15959E+06
           28028     61.9132E+06     32.1382E+06              0.     2.21316E+06
           28029     61.8182E+06     32.2331E+06              0.     2.26868E+06
           28030     61.7207E+06     32.3282E+06              0.     2.32615E+06
           28031     61.6207E+06     32.4235E+06              0.     2.38558E+06
           28032     61.5181E+06     32.5190E+06              0.     2.44696E+06
           28033     61.4128E+06     32.6150E+06              0.     2.51030E+06
           28034     61.3048E+06     32.7114E+06              0.     2.57562E+06
           28035     61.1940E+06     32.8083E+06              0.     2.64291E+06
           28036     61.0803E+06     32.9058E+06              0.     2.71218E+06
           28037     60.9635E+06     33.0039E+06              0.     2.78346E+06
           28038     60.8437E+06     33.1028E+06              0.     2.85674E+06
           28039     60.7207E+06     33.2025E+06              0.     2.93205E+06
           28040     60.5945E+06     33.3031E+06              0.     3.00939E+06
           28041     60.4649E+06     33.4046E+06              0.     3.08879E+06
           28042     60.3319E+06     33.5072E+06              0.     3.17026E+06
           28043     60.1954E+06     33.6108E+06              0.     3.25383E+06
           28044     60.0553E+06     33.7155E+06              0.     3.33950E+06
           28045     59.9114E+06     33.8214E+06              0.     3.42730E+06
           28046     59.7639E+06     33.9286E+06              0.     3.51726E+06
           28047     59.6124E+06     34.0370E+06              0.     3.60939E+06
           28048     59.4570E+06     34.1469E+06              0.     3.70372E+06
           28049     59.2976E+06     34.2582E+06              0.     3.80028E+06
           28050     59.1339E+06     34.3710E+06              0.     3.89908E+06
           28051     58.9661E+06     34.4853E+06              0.     4.00017E+06
           28052     58.7939E+06     34.6012E+06              0.     4.10356E+06
           28053     58.6173E+06     34.7188E+06              0.     4.20929E+06
           28054     58.4362E+06     34.8381E+06              0.     4.31738E+06
           28055     58.2504E+06     34.9591E+06              0.     4.42787E+06
           28056     58.0599E+06     35.0819E+06              0.     4.54078E+06
           28057     57.8646E+06     35.2066E+06              0.     4.65615E+06
           28058     57.6643E+06     35.3332E+06              0.     4.77401E+06
           28059     57.4590E+06     35.4618E+06              0.     4.89440E+06
           28060     57.2485E+06     35.5924E+06              0.     5.01734E+06
           28061     57.0328E+06     35.7250E+06              0.     5.14287E+06
           28062     56.8118E+06     35.8597E+06              0.     5.27103E+06
           28063     56.5852E+06     35.9965E+06              0.     5.40186E+06
           28064     56.3531E+06     36.1355E+06              0.     5.53538E+06
           28065     56.1153E+06     36.2767E+06              0.     5.67164E+06
           28066     55.8717E+06     36.4202E+06              0.     5.81067E+06
           28067     55.6221E+06     36.5660E+06              0.     5.95251E+06
           28068     55.3666E+06     36.7141E+06              0.     6.09720E+06
           28069     55.1048E+06     36.8646E+06              0.     6.24477E+06
           28070     54.8368E+06     37.0175E+06              0.     6.39526E+06
           28071     54.5624E+06     37.1729E+06              0.     6.54871E+06
           28072     54.2815E+06     37.3307E+06              0.     6.70516E+06
           28073     53.9939E+06     37.4910E+06              0.     6.86465E+06
           28074     53.6995E+06     37.6538E+06              0.     7.02721E+06
           28075     53.3983E+06     37.8193E+06              0.     7.19289E+06
           28076     53.0900E+06     37.9873E+06              0.     7.36171E+06
           28077     52.7745E+06     38.1579E+06              0.     7.53372E+06
           28078     52.4518E+06     38.3311E+06              0.     7.70896E+06
           28079     52.1216E+06     38.5070E+06              0.     7.88746E+06
           28080     51.7839E+06     38.6856E+06              0.     8.06926E+06
           28081     51.4384E+06     38.8668E+06              0.     8.25439E+06
           28082     51.0852E+06     39.0508E+06              0.     8.44289E+06
           28083     50.7239E+06     39.2375E+06              0.     8.63480E+06
           28084     50.3546E+06     39.4268E+06              0.     8.83014E+06
           28085     49.9769E+06     39.6189E+06              0.     9.02895E+06
           28086     49.5909E+06     39.8138E+06              0.     9.23127E+06
           28087     49.1964E+06     40.0113E+06              0.     9.43712E+06
           28088     48.7931E+06     40.2116E+06              0.     9.64653E+06
           28089     48.3811E+06     40.4146E+06              0.     9.85953E+06
           28090     47.9600E+06     40.6203E+06              0.     10.0762E+06
           28091     47.5298E+06     40.8287E+06              0.     10.2964E+06
           28092     47.0903E+06     41.0398E+06              0.     10.5203E+06
           28093     46.6414E+06     41.2535E+06              0.     10.7480E+06
           28094     46.1829E+06     41.4699E+06              0.     10.9793E+06
           28095     45.7147E+06     41.6889E+06              0.     11.2143E+06
           28096     45.2366E+06     41.9104E+06              0.     11.4531E+06
           28097     44.7484E+06     42.1344E+06              0.     11.6957E+06
           28098     44.2501E+06     42.3610E+06              0.      11.942E+06
           28099     43.7414E+06     42.5899E+06              0.     12.1921E+06
           28100     43.2222E+06     42.8213E+06              0.     12.4460E+06
           28101     42.6923E+06     43.0549E+06              0.     12.7036E+06
           28102     42.1517E+06     43.2908E+06              0.     12.9650E+06
           28103     41.6000E+06     43.5289E+06              0.     13.2302E+06
           28104     41.0373E+06     43.7690E+06              0.     13.4992E+06
           28105     40.4632E+06     44.0112E+06              0.     13.7719E+06
           28106     39.8778E+06     44.2553E+06              0.     14.0484E+06
           28107     39.2807E+06     44.5011E+06              0.     14.3286E+06
           28108     38.6720E+06     44.7487E+06              0.     14.6124E+06
           28109     38.0513E+06     44.9979E+06              0.     14.9000E+06
           28110     37.4186E+06     45.2485E+06              0.     15.1911E+06
           28111     36.7738E+06     45.5004E+06              0.     15.4859E+06
           28112     36.1166E+06     45.7535E+06              0.     15.7842E+06
           28113     35.4469E+06     46.0076E+06              0.     16.0861E+06
           28114     34.7646E+06     46.2625E+06              0.     16.3913E+06
           28115     34.0695E+06     46.5181E+06              0.     16.7000E+06
           28116     33.3616E+06     46.7742E+06              0.     17.0119E+06
           28117     32.6406E+06     47.0306E+06              0.     17.3271E+06
           28118     31.9065E+06     47.2870E+06              0.     17.6455E+06
           28119     31.1590E+06     47.5433E+06              0.     17.9669E+06
           28120     30.3981E+06     47.7992E+06              0.     18.2913E+06
           28121     29.6237E+06     48.0544E+06              0.     18.6186E+06
           28122     28.8356E+06     48.3087E+06              0.     18.9487E+06
           28123     28.0337E+06     48.5618E+06              0.     19.2814E+06
           28124     27.2179E+06     48.8134E+06              0.     19.6166E+06
           28125     26.3881E+06     49.0632E+06              0.     19.9541E+06
           28126     25.5442E+06     49.3108E+06              0.     20.2940E+06
           28127     24.6861E+06     49.5560E+06              0.     20.6359E+06
           28128     23.8136E+06     49.7982E+06              0.     20.9797E+06
           28129     22.9269E+06     50.0373E+06              0.     21.3252E+06
           28130     22.0256E+06     50.2727E+06              0.     21.6723E+06
           28131     21.1099E+06     50.5040E+06              0.     22.0207E+06
           28132     20.1795E+06     50.7308E+06              0.     22.3703E+06
           28133     19.2345E+06     50.9527E+06              0.     22.7209E+06
           28134     18.2748E+06     51.1690E+06              0.     23.0721E+06
           28135     17.3004E+06     51.3794E+06              0.     23.4238E+06
           28136     16.3112E+06     51.5832E+06              0.     23.7757E+06
           28137     15.3072E+06     51.7800E+06              0.     24.1276E+06
           28138     14.2884E+06     51.9690E+06              0.     24.4791E+06
           28139     13.2548E+06     52.1498E+06              0.     24.8300E+06
           28140     12.2065E+06     52.3217E+06              0.     25.1799E+06
           28141     11.1433E+06     52.4840E+06              0.     25.5286E+06
           28142     10.0655E+06     52.6360E+06              0.     25.8758E+06
           28143     8.97290E+06     52.7769E+06              0.     26.2210E+06
           28144     7.86571E+06     52.9061E+06              0.     26.5640E+06
           28145     6.74395E+06     53.0227E+06              0.     26.9043E+06
           28146     5.60772E+06     53.1260E+06              0.     27.2416E+06
           28147     4.45711E+06     53.2150E+06              0.     27.5755E+06
           28148     3.29224E+06     53.2889E+06              0.     27.9055E+06
           28149     2.11323E+06     53.3467E+06              0.     28.2313E+06
           28150     920.227E+03     53.3875E+06              0.     28.5523E+06
           28151    -286.598E+03     53.4104E+06              0.     28.8682E+06
           28152    -1.50707E+06     53.4142E+06              0.     29.1785E+06
           28153    -2.74099E+06     53.3979E+06              0.     29.4826E+06
           28154    -3.98815E+06     53.3604E+06              0.     29.7802E+06
           28155    -5.24831E+06     53.3006E+06              0.     30.0706E+06
           28156    -6.52121E+06     53.2173E+06              0.     30.3534E+06
           28157    -7.80659E+06     53.1091E+06              0.     30.6280E+06
           28158    -9.10414E+06     52.9750E+06              0.     30.8939E+06
           28159    -10.4136E+06     52.8135E+06              0.     31.1505E+06
           28160    -11.7345E+06     52.6234E+06              0.     31.3972E+06
           28161    -13.0666E+06     52.4032E+06              0.     31.6335E+06
           28162    -14.4095E+06     52.1515E+06              0.     31.8587E+06
           28163    -15.7628E+06     51.8668E+06              0.     32.0723E+06
           28164    -17.1260E+06     51.5476E+06              0.     32.2736E+06
           28165    -18.4987E+06     51.1923E+06              0.     32.4620E+06
           28166    -19.8804E+06     50.7994E+06              0.     32.6369E+06
           28167    -21.2706E+06     50.3671E+06              0.     32.7976E+06
           28168    -22.6688E+06     49.8939E+06              0.     32.9434E+06
           28169    -24.0744E+06     49.3779E+06              0.     33.0738E+06
           28170    -25.4868E+06     48.8173E+06              0.     33.1881E+06
           28171    -26.9054E+06     48.2104E+06              0.     33.2855E+06
           28172    -28.3296E+06     47.5554E+06              0.     33.3655E+06
           28173    -29.7587E+06     46.8502E+06              0.     33.4273E+06
           28174    -31.1921E+06     46.0929E+06              0.     33.4702E+06
           28175    -32.6289E+06     45.2817E+06              0.     33.4937E+06
           28176    -34.0684E+06     44.4144E+06              0.     33.4970E+06
           28177    -35.5099E+06     43.4890E+06              0.     33.4795E+06
           28178    -36.9525E+06     42.5034E+06              0.     33.4404E+06
           28179    -38.3954E+06     41.4555E+06              0.     33.3792E+06
           28180    -39.8377E+06     40.3432E+06              0.     33.2951E+06
           28181    -41.2786E+06     39.1643E+06              0.     33.1876E+06
           28182    -42.7170E+06     37.9165E+06              0.     33.0560E+06
           28183     -44.152E+06     36.5976E+06              0.     32.8996E+06
           28184    -45.5827E+06     35.2054E+06              0.     32.7178E+06
           28185    -47.0079E+06     33.7376E+06              0.     32.5100E+06
           28186    -48.4267E+06     32.1919E+06              0.     32.2757E+06
           28187    -49.8380E+06     30.5660E+06              0.     32.0142E+06
           28188    -51.2407E+06     28.8576E+06              0.     31.7250E+06
           28189    -52.6336E+06     27.0643E+06              0.     31.4075E+06
           28190    -54.0155E+06     25.1838E+06              0.     31.0612E+06
           28191    -55.3853E+06     23.2137E+06              0.     30.6856E+06
           28192    -56.7417E+06     21.1517E+06              0.     30.2803E+06
           28193    -58.0835E+06     18.9956E+06              0.     29.8446E+06
           28194    -59.4094E+06     16.7428E+06              0.     29.3782E+06
           28195    -60.7180E+06     14.3912E+06              0.     28.8807E+06
           28196    -62.0081E+06     11.9384E+06              0.     28.3516E+06
           28197    -63.2783E+06     9.38217E+06              0.     27.7906E+06
           28198    -64.5273E+06     6.72016E+06              0.     27.1972E+06
           28199    -65.7534E+06     3.95020E+06              0.     26.5712E+06
           28200    -66.9554E+06     1.07002E+06              0.     25.9123E+06
           28201    -68.1318E+06    -1.92251E+06              0.     25.2202E+06
           28202    -69.2811E+06    -5.02959E+06              0.     24.4945E+06
           28203    -70.4017E+06    -8.25331E+06              0.     23.7351E+06
           28204    -71.4921E+06    -11.5957E+06              0.     22.9417E+06
           28205    -72.5507E+06    -15.0588E+06              0.     22.1142E+06
           28206    -73.5760E+06    -18.6446E+06              0.     21.2523E+06
           28207    -74.5664E+06    -22.3551E+06              0.     20.3559E+06
           28208    -75.5201E+06    -26.1920E+06              0.     19.4248E+06
           28209    -76.4353E+06    -30.1571E+06              0.     18.4589E+06
           28210    -78.0403E+06    -34.6808E+06              0.     18.0036E+06
           28211     64.3045E+06     28.2380E+06              0.     1.64615E+06
           28212     64.3217E+06     28.4275E+06              0.     1.64309E+06
           28213     64.2577E+06     28.5774E+06              0.     1.62099E+06
           28214     64.1944E+06     28.7233E+06              0.     1.60215E+06
           28215     64.1318E+06     28.8653E+06              0.     1.58650E+06
           28216     64.0698E+06     29.0036E+06              0.     1.57395E+06
           28217     64.0081E+06     29.1383E+06              0.     1.56442E+06
           28218     63.9467E+06     29.2697E+06              0.     1.55782E+06
           28219     63.8854E+06     29.3980E+06              0.     1.55409E+06
           28220     63.8243E+06     29.5232E+06              0.     1.55317E+06
           28221     63.7630E+06     29.6457E+06              0.     1.55497E+06
           28222     63.7016E+06     29.7654E+06              0.     1.55946E+06
           28223     63.6400E+06     29.8826E+06              0.     1.56655E+06
           28224     63.5779E+06     29.9975E+06              0.     1.57621E+06
           28225     63.5154E+06     30.1101E+06              0.     1.58838E+06
           28226     63.4523E+06     30.2206E+06              0.     1.60300E+06
           28227     63.3886E+06     30.3292E+06              0.     1.62005E+06
           28228     63.3240E+06     30.4359E+06              0.     1.63947E+06
           28229     63.2587E+06     30.5410E+06              0.     1.66122E+06
           28230     63.1924E+06     30.6445E+06              0.     1.68527E+06
           28231     63.1250E+06     30.7465E+06              0.     1.71158E+06
           28232     63.0565E+06     30.8472E+06              0.     1.74013E+06
           28233     62.9868E+06     30.9467E+06              0.     1.77088E+06
           28234     62.9158E+06     31.0451E+06              0.     1.80380E+06
           28235     62.8434E+06     31.1425E+06              0.     1.83888E+06
           28236     62.7695E+06     31.2391E+06              0.     1.87609E+06
           28237     62.6941E+06     31.3348E+06              0.     1.91542E+06
           28238     62.6171E+06     31.4299E+06              0.     1.95684E+06
           28239     62.5383E+06     31.5244E+06              0.     2.00034E+06
           28240     62.4577E+06     31.6184E+06              0.     2.04591E+06
           28241     62.3752E+06     31.7120E+06              0.     2.09353E+06
           28242     62.2908E+06     31.8053E+06              0.     2.14321E+06
           28243     62.2043E+06     31.8984E+06              0.     2.19492E+06
           28244     62.1156E+06     31.9914E+06              0.     2.24868E+06
           28245     62.0248E+06     32.0844E+06              0.     2.30446E+06
           28246     61.9317E+06     32.1774E+06              0.     2.36228E+06
           28247     61.8362E+06     32.2705E+06              0.     2.42213E+06
           28248     61.7382E+06     32.3638E+06              0.     2.48401E+06
           28249     61.6378E+06     32.4575E+06              0.     2.54794E+06
           28250     61.5347E+06     32.5514E+06              0.     2.61391E+06
           28251     61.4289E+06     32.6459E+06              0.     2.68192E+06
           28252     61.3203E+06     32.7408E+06              0.     2.75200E+06
           28253     61.2089E+06     32.8363E+06              0.     2.82415E+06
           28254     61.0945E+06     32.9325E+06              0.     2.89837E+06
           28255     60.9772E+06     33.0294E+06              0.     2.97470E+06
           28256     60.8567E+06     33.1270E+06              0.     3.05312E+06
           28257     60.7330E+06     33.2256E+06              0.     3.13368E+06
           28258     60.6061E+06     33.3251E+06              0.     3.21637E+06
           28259     60.4758E+06     33.4255E+06              0.     3.30122E+06
           28260     60.3421E+06     33.5270E+06              0.     3.38825E+06
           28261     60.2048E+06     33.6296E+06              0.     3.47748E+06
           28262     60.0639E+06     33.7334E+06              0.     3.56893E+06
           28263     59.9194E+06     33.8384E+06              0.     3.66262E+06
           28264     59.7710E+06     33.9447E+06              0.     3.75858E+06
           28265     59.6187E+06     34.0524E+06              0.     3.85683E+06
           28266     59.4625E+06     34.1614E+06              0.     3.95740E+06
           28267     59.3022E+06     34.2720E+06              0.     4.06031E+06
           28268     59.1378E+06     34.3840E+06              0.     4.16560E+06
           28269     58.9691E+06     34.4976E+06              0.     4.27330E+06
           28270     58.7961E+06     34.6129E+06              0.     4.38343E+06
           28271     58.6186E+06     34.7298E+06              0.     4.49602E+06
           28272     58.4366E+06     34.8484E+06              0.     4.61110E+06
           28273     58.2499E+06     34.9688E+06              0.     4.72872E+06
           28274     58.0585E+06     35.0911E+06              0.     4.84890E+06
           28275     57.8623E+06     35.2152E+06              0.     4.97168E+06
           28276     57.6611E+06     35.3412E+06              0.     5.09708E+06
           28277     57.4549E+06     35.4692E+06              0.     5.22516E+06
           28278     57.2435E+06     35.5992E+06              0.     5.35593E+06
           28279     57.0269E+06     35.7313E+06              0.     5.48944E+06
           28280     56.8049E+06     35.8654E+06              0.     5.62573E+06
           28281     56.5775E+06     36.0018E+06              0.     5.76484E+06
           28282     56.3444E+06     36.1402E+06              0.     5.90680E+06
           28283     56.1057E+06     36.2810E+06              0.     6.05165E+06
           28284     55.8611E+06     36.4239E+06              0.     6.19942E+06
           28285     55.6106E+06     36.5692E+06              0.     6.35017E+06
           28286     55.3541E+06     36.7168E+06              0.     6.50393E+06
           28287     55.0914E+06     36.8668E+06              0.     6.66073E+06
           28288     54.8225E+06     37.0192E+06              0.     6.82063E+06
           28289     54.5471E+06     37.1740E+06              0.     6.98365E+06
           28290     54.2652E+06     37.3313E+06              0.     7.14984E+06
           28291     53.9767E+06     37.4911E+06              0.     7.31924E+06
           28292     53.6814E+06     37.6534E+06              0.     7.49188E+06
           28293     53.3791E+06     37.8182E+06              0.     7.66782E+06
           28294     53.0699E+06     37.9856E+06              0.     7.84708E+06
           28295     52.7535E+06     38.1557E+06              0.     8.02970E+06
           28296     52.4298E+06     38.3283E+06              0.     8.21574E+06
           28297     52.0987E+06     38.5036E+06              0.     8.40521E+06
           28298     51.7600E+06     38.6815E+06              0.     8.59817E+06
           28299     51.4136E+06     38.8621E+06              0.     8.79465E+06
           28300     51.0594E+06     39.0453E+06              0.     8.99468E+06
           28301     50.6972E+06     39.2313E+06              0.     9.19830E+06
           28302     50.3269E+06     39.4199E+06              0.     9.40554E+06
           28303     49.9484E+06     39.6112E+06              0.     9.61645E+06
           28304     49.5614E+06     39.8053E+06              0.     9.83104E+06
           28305     49.1659E+06     40.0020E+06              0.     10.0494E+06
           28306     48.7618E+06     40.2014E+06              0.     10.2714E+06
           28307     48.3488E+06     40.4035E+06              0.     10.4973E+06
           28308     47.9268E+06     40.6082E+06              0.     10.7269E+06
           28309     47.4957E+06     40.8156E+06              0.     10.9604E+06
           28310     47.0553E+06     41.0257E+06              0.     11.1978E+06
           28311     46.6055E+06     41.2383E+06              0.     11.4390E+06
           28312     46.1461E+06     41.4536E+06              0.     11.6841E+06
           28313     45.6770E+06     41.6713E+06              0.     11.9332E+06
           28314     45.1980E+06     41.8916E+06              0.     12.1862E+06
           28315     44.7089E+06     42.1144E+06              0.     12.4431E+06
           28316     44.2097E+06     42.3396E+06              0.     12.7039E+06
           28317     43.7002E+06     42.5671E+06              0.     12.9687E+06
           28318     43.1801E+06     42.7970E+06              0.     13.2375E+06
           28319     42.6494E+06     43.0291E+06              0.     13.5103E+06
           28320     42.1079E+06     43.2634E+06              0.     13.7869E+06
           28321     41.5554E+06     43.4998E+06              0.     14.0676E+06
           28322     40.9918E+06     43.7381E+06              0.     14.3522E+06
           28323     40.4170E+06     43.9785E+06              0.     14.6407E+06
           28324     39.8307E+06     44.2206E+06              0.     14.9331E+06
           28325     39.2329E+06     44.4645E+06              0.     15.2293E+06
           28326     38.6233E+06     44.7100E+06              0.     15.5295E+06
           28327     38.0019E+06     44.9569E+06              0.     15.8334E+06
           28328     37.3684E+06     45.2052E+06              0.     16.1411E+06
           28329     36.7228E+06     45.4547E+06              0.     16.4525E+06
           28330     36.0648E+06     45.7053E+06              0.     16.7677E+06
           28331     35.3944E+06     45.9568E+06              0.     17.0864E+06
           28332     34.7114E+06     46.2090E+06              0.     17.4087E+06
           28333     34.0156E+06     46.4617E+06              0.     17.7345E+06
           28334     33.3070E+06     46.7148E+06              0.     18.0637E+06
           28335     32.5853E+06     46.9680E+06              0.     18.3963E+06
           28336     31.8504E+06     47.2212E+06              0.     18.7321E+06
           28337     31.1023E+06     47.4740E+06              0.     19.0710E+06
           28338     30.3407E+06     47.7263E+06              0.     19.4130E+06
           28339     29.5656E+06     47.9778E+06              0.     19.7578E+06
           28340     28.7768E+06     48.2281E+06              0.     20.1055E+06
           28341     27.9743E+06     48.4771E+06              0.     20.4559E+06
           28342     27.1579E+06     48.7245E+06              0.     20.8088E+06
           28343     26.3274E+06     48.9698E+06              0.     21.1640E+06
           28344     25.4829E+06     49.2128E+06              0.     21.5215E+06
           28345     24.6242E+06     49.4530E+06              0.     21.8810E+06
           28346     23.7512E+06     49.6902E+06              0.     22.2424E+06
           28347     22.8638E+06     49.9240E+06              0.     22.6055E+06
           28348     21.9620E+06     50.1538E+06              0.     22.9700E+06
           28349     21.0457E+06     50.3793E+06              0.     23.3358E+06
           28350     20.1148E+06     50.6000E+06              0.     23.7026E+06
           28351     19.1693E+06     50.8155E+06              0.     24.0702E+06
           28352     18.2090E+06     51.0252E+06              0.     24.4383E+06
           28353     17.2341E+06     51.2286E+06              0.     24.8068E+06
           28354     16.2444E+06     51.4252E+06              0.     25.1752E+06
           28355     15.2399E+06     51.6144E+06              0.     25.5433E+06
           28356     14.2207E+06     51.7955E+06              0.     25.9109E+06
           28357     13.1866E+06     51.9680E+06              0.     26.2775E+06
           28358     12.1378E+06     52.1313E+06              0.     26.6429E+06
           28359     11.0742E+06     52.2845E+06              0.     27.0068E+06
           28360     9.99591E+06     52.4270E+06              0.     27.3687E+06
           28361     8.90293E+06     52.5581E+06              0.     27.7283E+06
           28362     7.79534E+06     52.6770E+06              0.     28.0852E+06
           28363     6.67320E+06     52.7828E+06              0.     28.4391E+06
           28364     5.53661E+06     52.8748E+06              0.     28.7894E+06
           28365     4.38566E+06     52.9520E+06              0.     29.1358E+06
           28366     3.22047E+06     53.0135E+06              0.     29.4778E+06
           28367     2.04116E+06     53.0585E+06              0.     29.8150E+06
           28368     847.891E+03     53.0859E+06              0.     30.1468E+06
           28369    -359.174E+03     53.0946E+06              0.     30.4728E+06
           28370    -1.57986E+06     53.0837E+06              0.     30.7925E+06
           28371    -2.81395E+06     53.0521E+06              0.     31.1054E+06
           28372    -4.06125E+06     52.9985E+06              0.     31.4109E+06
           28373    -5.32151E+06     52.9219E+06              0.     31.7085E+06
           28374    -6.59446E+06     52.8211E+06              0.     31.9976E+06
           28375    -7.87984E+06     52.6946E+06              0.     32.2777E+06
           28376    -9.17734E+06     52.5414E+06              0.     32.5481E+06
           28377    -10.4866E+06     52.3599E+06              0.     32.8083E+06
           28378    -11.8074E+06     52.1489E+06              0.     33.0576E+06
           28379    -13.1393E+06     51.9070E+06              0.     33.2954E+06
           28380    -14.4818E+06     51.6325E+06              0.     33.5211E+06
           28381    -15.8347E+06     51.3241E+06              0.     33.7340E+06
           28382    -17.1973E+06     50.9801E+06              0.     33.9335E+06
           28383    -18.5694E+06     50.5990E+06              0.     34.1189E+06
           28384    -19.9504E+06     50.1792E+06              0.     34.2895E+06
           28385    -21.3397E+06     49.7188E+06              0.     34.4446E+06
           28386    -22.7369E+06     49.2163E+06              0.     34.5836E+06
           28387    -24.1414E+06     48.6697E+06              0.     34.7058E+06
           28388    -25.5525E+06     48.0774E+06              0.     34.8103E+06
           28389    -26.9696E+06     47.4373E+06              0.     34.8966E+06
           28390    -28.3922E+06     46.7477E+06              0.     34.9640E+06
           28391    -29.8195E+06     46.0066E+06              0.     35.0116E+06
           28392    -31.2507E+06     45.2120E+06              0.     35.0389E+06
           28393    -32.6852E+06     44.3618E+06              0.     35.0451E+06
           28394    -34.1222E+06     43.4541E+06              0.     35.0294E+06
           28395    -35.5608E+06     42.4867E+06              0.     34.9912E+06
           28396    -37.0003E+06     41.4574E+06              0.     34.9298E+06
           28397    -38.4398E+06     40.3642E+06              0.     34.8446E+06
           28398    -39.8784E+06     39.2048E+06              0.     34.7347E+06
           28399    -41.3152E+06     37.9770E+06              0.     34.5995E+06
           28400    -42.7491E+06     36.6786E+06              0.     34.4384E+06
           28401    -44.1793E+06     35.3072E+06              0.     34.2507E+06
           28402    -45.6047E+06     33.8606E+06              0.     34.0358E+06
           28403    -47.0243E+06     32.3365E+06              0.     33.7929E+06
           28404    -48.4369E+06     30.7326E+06              0.     33.5216E+06
           28405    -49.8416E+06     29.0464E+06              0.     33.2213E+06
           28406    -51.2370E+06     27.2756E+06              0.     32.8912E+06
           28407    -52.6222E+06     25.4180E+06              0.     32.5310E+06
           28408    -53.9958E+06     23.4710E+06              0.     32.1399E+06
           28409    -55.3568E+06     21.4324E+06              0.     31.7176E+06
           28410    -56.7037E+06     19.2998E+06              0.     31.2635E+06
           28411    -58.0353E+06     17.0709E+06              0.     30.7772E+06
           28412    -59.3504E+06     14.7432E+06              0.     30.2581E+06
           28413    -60.6475E+06     12.3145E+06              0.     29.7060E+06
           28414    -61.9253E+06      9.7824E+06              0.     29.1202E+06
           28415    -63.1825E+06     7.14468E+06              0.     28.5006E+06
           28416    -64.4175E+06     4.39907E+06              0.     27.8467E+06
           28417    -65.6290E+06     1.54329E+06              0.     27.1582E+06
           28418    -66.8154E+06    -1.42481E+06              0.     26.4348E+06
           28419    -67.9754E+06    -4.50746E+06              0.     25.6762E+06
           28420    -69.1073E+06    -7.70676E+06              0.     24.8822E+06
           28421    -70.2095E+06    -11.0248E+06              0.     24.0525E+06
           28422    -71.2806E+06    -14.4636E+06              0.     23.1870E+06
           28423    -72.3190E+06    -18.0251E+06              0.     22.2854E+06
           28424    -73.3229E+06    -21.7114E+06              0.     21.3476E+06
           28425    -74.2908E+06    -25.5242E+06              0.     20.3735E+06
           28426    -75.2214E+06    -29.4656E+06              0.     19.3629E+06
           28427    -76.8267E+06    -33.9659E+06              0.     18.8876E+06
           28428     64.3705E+06     28.2665E+06              0.     1.70987E+06
           28429     64.3873E+06     28.4518E+06              0.     1.70669E+06
           28430     64.3247E+06     28.5985E+06              0.     1.68374E+06
           28431     64.2628E+06     28.7412E+06              0.     1.66418E+06
           28432     64.2016E+06     28.8800E+06              0.     1.64793E+06
           28433     64.1409E+06     29.0152E+06              0.     1.63489E+06
           28434     64.0806E+06     29.1470E+06              0.     1.62499E+06
           28435     64.0206E+06     29.2755E+06              0.     1.61814E+06
           28436     63.9607E+06     29.4010E+06              0.     1.61427E+06
           28437     63.9009E+06     29.5235E+06              0.     1.61331E+06
           28438     63.8410E+06     29.6432E+06              0.     1.61519E+06
           28439     63.7809E+06     29.7603E+06              0.     1.61985E+06
           28440     63.7206E+06     29.8749E+06              0.     1.62723E+06
           28441     63.6599E+06     29.9872E+06              0.     1.63726E+06
           28442     63.5988E+06     30.0974E+06              0.     1.64990E+06
           28443     63.5371E+06     30.2055E+06              0.     1.66510E+06
           28444     63.4747E+06     30.3117E+06              0.     1.68281E+06
           28445     63.4116E+06     30.4161E+06              0.     1.70298E+06
           28446     63.3477E+06     30.5188E+06              0.     1.72558E+06
           28447     63.2828E+06     30.6200E+06              0.     1.75057E+06
           28448     63.2170E+06     30.7198E+06              0.     1.77790E+06
           28449     63.1500E+06     30.8183E+06              0.     1.80756E+06
           28450     63.0818E+06     30.9156E+06              0.     1.83950E+06
           28451     63.0124E+06     31.0119E+06              0.     1.87371E+06
           28452     62.9415E+06     31.1072E+06              0.     1.91016E+06
           28453     62.8693E+06     31.2016E+06              0.     1.94882E+06
           28454     62.7955E+06     31.2952E+06              0.     1.98967E+06
           28455     62.7202E+06     31.3882E+06              0.      2.0327E+06
           28456     62.6431E+06     31.4807E+06              0.     2.07789E+06
           28457     62.5643E+06     31.5726E+06              0.     2.12523E+06
           28458     62.4836E+06     31.6642E+06              0.     2.17471E+06
           28459     62.4010E+06     31.7555E+06              0.     2.22632E+06
           28460     62.3164E+06     31.8465E+06              0.     2.28005E+06
           28461     62.2297E+06     31.9375E+06              0.     2.33589E+06
           28462     62.1408E+06     32.0284E+06              0.     2.39385E+06
           28463     62.0497E+06     32.1194E+06              0.     2.45392E+06
           28464     61.9563E+06     32.2105E+06              0.     2.51610E+06
           28465     61.8605E+06     32.3018E+06              0.     2.58039E+06
           28466     61.7622E+06     32.3934E+06              0.     2.64680E+06
           28467     61.6614E+06     32.4853E+06              0.     2.71534E+06
           28468     61.5579E+06     32.5777E+06              0.     2.78601E+06
           28469     61.4517E+06     32.6706E+06              0.     2.85882E+06
           28470     61.3427E+06     32.7640E+06              0.     2.93378E+06
           28471     61.2308E+06     32.8581E+06              0.     3.01090E+06
           28472     61.1160E+06     32.9529E+06              0.     3.09019E+06
           28473     60.9981E+06     33.0485E+06              0.     3.17168E+06
           28474     60.8771E+06     33.1449E+06              0.     3.25538E+06
           28475     60.7530E+06     33.2423E+06              0.     3.34130E+06
           28476     60.6255E+06     33.3406E+06              0.     3.42946E+06
           28477     60.4947E+06     33.4399E+06              0.     3.51988E+06
           28478     60.3604E+06     33.5403E+06              0.     3.61260E+06
           28479     60.2225E+06     33.6419E+06              0.     3.70762E+06
           28480     60.0811E+06     33.7446E+06              0.     3.80497E+06
           28481     59.9359E+06     33.8487E+06              0.     3.90468E+06
           28482     59.7870E+06     33.9541E+06              0.     4.00677E+06
           28483     59.6341E+06     34.0608E+06              0.     4.11127E+06
           28484     59.4773E+06     34.1690E+06              0.     4.21822E+06
           28485     59.3164E+06     34.2787E+06              0.     4.32763E+06
           28486     59.1513E+06     34.3899E+06              0.     4.43954E+06
           28487     58.9820E+06     34.5027E+06              0.     4.55398E+06
           28488     58.8084E+06     34.6171E+06              0.     4.67098E+06
           28489     58.6302E+06     34.7333E+06              0.     4.79058E+06
           28490     58.4476E+06     34.8511E+06              0.     4.91281E+06
           28491     58.2603E+06     34.9708E+06              0.     5.03770E+06
           28492     58.0683E+06     35.0923E+06              0.     5.16530E+06
           28493     57.8714E+06     35.2157E+06              0.     5.29563E+06
           28494     57.6696E+06     35.3411E+06              0.     5.42873E+06
           28495     57.4628E+06     35.4684E+06              0.     5.56465E+06
           28496     57.2508E+06     35.5977E+06              0.     5.70341E+06
           28497     57.0335E+06     35.7291E+06              0.     5.84507E+06
           28498     56.8109E+06     35.8626E+06              0.     5.98965E+06
           28499     56.5828E+06     35.9982E+06              0.     6.13720E+06
           28500     56.3491E+06     36.1361E+06              0.     6.28775E+06
           28501     56.1098E+06     36.2761E+06              0.     6.44136E+06
           28502     55.8646E+06     36.4184E+06              0.     6.59805E+06
           28503     55.6135E+06     36.5630E+06              0.     6.75788E+06
           28504     55.3564E+06     36.7100E+06              0.     6.92088E+06
           28505     55.0931E+06     36.8592E+06              0.     7.08710E+06
           28506     54.8235E+06     37.0109E+06              0.     7.25657E+06
           28507     54.5476E+06     37.1651E+06              0.     7.42933E+06
           28508     54.2651E+06     37.3216E+06              0.     7.60544E+06
           28509     53.9760E+06     37.4807E+06              0.     7.78493E+06
           28510     53.6801E+06     37.6422E+06              0.     7.96785E+06
           28511     53.3773E+06     37.8064E+06              0.     8.15423E+06
           28512     53.0675E+06     37.9730E+06              0.     8.34411E+06
           28513     52.7506E+06     38.1422E+06              0.     8.53754E+06
           28514     52.4263E+06     38.3141E+06              0.     8.73456E+06
           28515     52.0947E+06     38.4885E+06              0.     8.93520E+06
           28516     51.7555E+06     38.6656E+06              0.     9.13952E+06
           28517     51.4086E+06     38.8453E+06              0.     9.34753E+06
           28518     51.0539E+06     39.0276E+06              0.     9.55929E+06
           28519     50.6912E+06     39.2127E+06              0.     9.77482E+06
           28520     50.3204E+06     39.4003E+06              0.     9.99417E+06
           28521     49.9414E+06     39.5907E+06              0.     10.2174E+06
           28522     49.5540E+06     39.7837E+06              0.     10.4444E+06
           28523     49.1581E+06     39.9793E+06              0.     10.6754E+06
           28524     48.7535E+06     40.1777E+06              0.     10.9104E+06
           28525     48.3401E+06     40.3786E+06              0.     11.1493E+06
           28526     47.9177E+06     40.5822E+06              0.     11.3922E+06
           28527     47.4862E+06     40.7884E+06              0.     11.6391E+06
           28528     47.0455E+06     40.9971E+06              0.     11.8901E+06
           28529     46.5953E+06     41.2085E+06              0.     12.1451E+06
           28530     46.1356E+06     41.4223E+06              0.     12.4043E+06
           28531     45.6661E+06     41.6387E+06              0.     12.6675E+06
           28532     45.1868E+06     41.8575E+06              0.     12.9348E+06
           28533     44.6975E+06     42.0788E+06              0.     13.2063E+06
           28534     44.1980E+06     42.3024E+06              0.     13.4819E+06
           28535     43.6881E+06     42.5283E+06              0.     13.7617E+06
           28536     43.1678E+06     42.7564E+06              0.     14.0456E+06
           28537     42.6369E+06     42.9867E+06              0.     14.3336E+06
           28538     42.0952E+06     43.2191E+06              0.     14.6257E+06
           28539     41.5425E+06     43.4536E+06              0.     14.9220E+06
           28540     40.9787E+06       43.69E+06              0.     15.2224E+06
           28541     40.4037E+06     43.9282E+06              0.     15.5268E+06
           28542     39.8173E+06     44.1682E+06              0.     15.8353E+06
           28543     39.2193E+06     44.4098E+06              0.     16.1479E+06
           28544     38.6096E+06     44.6529E+06              0.     16.4644E+06
           28545     37.9881E+06     44.8975E+06              0.     16.7849E+06
           28546     37.3545E+06     45.1432E+06              0.     17.1093E+06
           28547     36.7088E+06     45.3901E+06              0.     17.4376E+06
           28548     36.0508E+06     45.6379E+06              0.     17.7697E+06
           28549     35.3804E+06     45.8865E+06              0.     18.1055E+06
           28550     34.6973E+06     46.1357E+06              0.     18.4450E+06
           28551     34.0015E+06     46.3854E+06              0.     18.7880E+06
           28552     33.2929E+06     46.6352E+06              0.     19.1346E+06
           28553     32.5712E+06     46.8851E+06              0.     19.4846E+06
           28554     31.8364E+06     47.1347E+06              0.     19.8379E+06
           28555     31.0883E+06     47.3839E+06              0.     20.1944E+06
           28556     30.3268E+06     47.6324E+06              0.     20.5540E+06
           28557     29.5518E+06     47.8799E+06              0.     20.9166E+06
           28558     28.7632E+06     48.1262E+06              0.     21.2820E+06
           28559     27.9607E+06     48.3709E+06              0.     21.6500E+06
           28560     27.1444E+06     48.6138E+06              0.     22.0206E+06
           28561     26.3142E+06     48.8544E+06              0.     22.3936E+06
           28562     25.4698E+06     49.0926E+06              0.     22.7687E+06
           28563     24.6112E+06     49.3278E+06              0.     23.1458E+06
           28564     23.7384E+06     49.5597E+06              0.     23.5248E+06
           28565     22.8512E+06     49.7879E+06              0.     23.9053E+06
           28566     21.9496E+06     50.0120E+06              0.     24.2872E+06
           28567     21.0335E+06     50.2316E+06              0.     24.6702E+06
           28568     20.1028E+06     50.4461E+06              0.     25.0541E+06
           28569     19.1575E+06     50.6551E+06              0.     25.4386E+06
           28570     18.1975E+06     50.8580E+06              0.     25.8235E+06
           28571     17.2228E+06     51.0544E+06              0.     26.2085E+06
           28572     16.2333E+06     51.2436E+06              0.     26.5932E+06
           28573     15.2291E+06     51.4250E+06              0.     26.9774E+06
           28574     14.2101E+06     51.5982E+06              0.     27.3607E+06
           28575     13.1763E+06     51.7623E+06              0.     27.7429E+06
           28576     12.1278E+06     51.9168E+06              0.     28.1234E+06
           28577     11.0645E+06     52.0609E+06              0.     28.5020E+06
           28578     9.98647E+06     52.1939E+06              0.     28.8783E+06
           28579     8.89378E+06     52.3150E+06              0.     29.2519E+06
           28580     7.78648E+06     52.4235E+06              0.     29.6223E+06
           28581     6.66465E+06     52.5185E+06              0.     29.9892E+06
           28582     5.52836E+06     52.5991E+06              0.     30.3520E+06
           28583     4.37772E+06     52.6645E+06              0.     30.7103E+06
           28584     3.21284E+06     52.7137E+06              0.     31.0637E+06
           28585     2.03387E+06     52.7457E+06              0.     31.4116E+06
           28586     840.943E+03     52.7596E+06              0.     31.7535E+06
           28587    -365.769E+03     52.7543E+06              0.     32.0889E+06
           28588    -1.58609E+06     52.7287E+06              0.     32.4173E+06
           28589    -2.81980E+06     52.6816E+06              0.     32.7381E+06
           28590    -4.06669E+06     52.6120E+06              0.     33.0506E+06
           28591    -5.32652E+06     52.5187E+06              0.     33.3545E+06
           28592    -6.59902E+06     52.4003E+06              0.     33.6489E+06
           28593    -7.88392E+06     52.2555E+06              0.     33.9334E+06
           28594    -9.18091E+06     52.0831E+06              0.     34.2072E+06
           28595    -10.4897E+06     51.8817E+06              0.     34.4698E+06
           28596    -11.8098E+06     51.6499E+06              0.     34.7205E+06
           28597    -13.1410E+06     51.3861E+06              0.     34.9586E+06
           28598    -14.4829E+06     51.0889E+06              0.     35.1834E+06
           28599    -15.8349E+06     50.7567E+06              0.     35.3942E+06
           28600    -17.1968E+06     50.3880E+06              0.     35.5904E+06
           28601    -18.5679E+06     49.9810E+06              0.     35.7712E+06
           28602    -19.9479E+06     49.5341E+06              0.     35.9360E+06
           28603    -21.3361E+06     49.0456E+06              0.     36.0839E+06
           28604    -22.7321E+06     48.5137E+06              0.     36.2142E+06
           28605    -24.1352E+06     47.9365E+06              0.     36.3263E+06
           28606    -25.5448E+06     47.3122E+06              0.     36.4193E+06
           28607    -26.9603E+06     46.6389E+06              0.     36.4926E+06
           28608    -28.3811E+06     45.9147E+06              0.     36.5453E+06
           28609    -29.8064E+06     45.1375E+06              0.     36.5767E+06
           28610    -31.2355E+06     44.3053E+06              0.     36.5861E+06
           28611    -32.6676E+06     43.4160E+06              0.     36.5727E+06
           28612    -34.1020E+06     42.4676E+06              0.     36.5359E+06
           28613    -35.5378E+06     41.4579E+06              0.     36.4747E+06
           28614    -36.9742E+06     40.3847E+06              0.     36.3886E+06
           28615    -38.4103E+06     39.2458E+06              0.     36.2767E+06
           28616    -39.8451E+06     38.0390E+06              0.     36.1385E+06
           28617    -41.2778E+06     36.7619E+06              0.     35.9731E+06
           28618    -42.7074E+06     35.4124E+06              0.     35.7798E+06
           28619    -44.1328E+06     33.9881E+06              0.     35.5581E+06
           28620    -45.5531E+06     32.4866E+06              0.     35.3072E+06
           28621    -46.9671E+06     30.9057E+06              0.     35.0265E+06
           28622    -48.3737E+06     29.2429E+06              0.     34.7153E+06
           28623    -49.7718E+06     27.4958E+06              0.     34.3731E+06
           28624    -51.1603E+06     25.6622E+06              0.     33.9992E+06
           28625    -52.5379E+06     23.7395E+06              0.     33.5931E+06
           28626    -53.9034E+06     21.7255E+06              0.     33.1542E+06
           28627    -55.2556E+06     19.6176E+06              0.     32.6820E+06
           28628    -56.5932E+06     17.4136E+06              0.     32.1761E+06
           28629    -57.9149E+06     15.1111E+06              0.     31.6358E+06
           28630    -59.2193E+06     12.7077E+06              0.     31.0609E+06
           28631    -60.5050E+06     10.2010E+06              0.     30.4507E+06
           28632    -61.7708E+06     7.58876E+06              0.     29.8051E+06
           28633    -63.0150E+06     4.86873E+06              0.     29.1235E+06
           28634    -64.2364E+06     2.03857E+06              0.     28.4057E+06
           28635    -65.4334E+06    -903.876E+03              0.     27.6513E+06
           28636    -66.6045E+06    -3.96087E+06              0.     26.8600E+06
           28637    -67.7481E+06    -7.13454E+06              0.     26.0316E+06
           28638    -68.8628E+06    -10.4269E+06              0.     25.1659E+06
           28639    -69.9469E+06    -13.8402E+06              0.     24.2625E+06
           28640    -70.9988E+06    -17.3763E+06              0.     23.3214E+06
           28641    -72.0170E+06    -21.0372E+06              0.     22.3424E+06
           28642    -72.9995E+06    -24.8247E+06              0.     21.3253E+06
           28643    -73.9445E+06    -28.7405E+06              0.     20.2700E+06
           28644    -75.5487E+06    -33.2155E+06              0.     19.7748E+06
           28645     64.4389E+06     28.2961E+06              0.     1.77216E+06
           28646     64.4554E+06     28.4771E+06              0.     1.76887E+06
           28647     64.3942E+06     28.6203E+06              0.     1.74508E+06
           28648     64.3338E+06     28.7597E+06              0.     1.72481E+06
           28649     64.2740E+06     28.8953E+06              0.     1.70797E+06
           28650     64.2148E+06     29.0273E+06              0.     1.69446E+06
           28651     64.1559E+06     29.1560E+06              0.      1.6842E+06
           28652     64.0972E+06     29.2816E+06              0.     1.67711E+06
           28653     64.0387E+06     29.4041E+06              0.     1.67310E+06
           28654     63.9803E+06     29.5237E+06              0.     1.67211E+06
           28655     63.9218E+06     29.6406E+06              0.     1.67406E+06
           28656     63.8632E+06     29.7550E+06              0.     1.67889E+06
           28657     63.8043E+06     29.8669E+06              0.     1.68654E+06
           28658     63.7450E+06     29.9766E+06              0.     1.69694E+06
           28659     63.6853E+06     30.0842E+06              0.     1.71005E+06
           28660     63.6251E+06     30.1898E+06              0.     1.72580E+06
           28661     63.5642E+06     30.2935E+06              0.     1.74416E+06
           28662     63.5025E+06     30.3954E+06              0.     1.76507E+06
           28663     63.4401E+06     30.4958E+06              0.     1.78850E+06
           28664     63.3767E+06     30.5946E+06              0.     1.81440E+06
           28665     63.3124E+06     30.6921E+06              0.     1.84274E+06
           28666     63.2470E+06     30.7883E+06              0.     1.87348E+06
           28667     63.1804E+06     30.8834E+06              0.     1.90660E+06
           28668     63.1125E+06     30.9774E+06              0.     1.94206E+06
           28669     63.0434E+06     31.0705E+06              0.     1.97984E+06
           28670     62.9728E+06     31.1627E+06              0.     2.01991E+06
           28671     62.9008E+06     31.2542E+06              0.     2.06226E+06
           28672     62.8271E+06     31.3450E+06              0.     2.10687E+06
           28673     62.7519E+06     31.4353E+06              0.     2.15372E+06
           28674     62.6749E+06     31.5251E+06              0.     2.20279E+06
           28675     62.5960E+06     31.6145E+06              0.     2.25408E+06
           28676     62.5154E+06     31.7037E+06              0.     2.30758E+06
           28677     62.4327E+06     31.7927E+06              0.     2.36328E+06
           28678     62.3480E+06     31.8815E+06              0.     2.42117E+06
           28679     62.2612E+06     31.9704E+06              0.     2.48125E+06
           28680     62.1722E+06     32.0592E+06              0.     2.54352E+06
           28681     62.0810E+06     32.1482E+06              0.     2.60798E+06
           28682     61.9874E+06     32.2374E+06              0.     2.67463E+06
           28683     61.8914E+06     32.3269E+06              0.     2.74348E+06
           28684     61.7929E+06     32.4168E+06              0.     2.81453E+06
           28685     61.6918E+06     32.5070E+06              0.     2.88779E+06
           28686     61.5880E+06     32.5977E+06              0.     2.96327E+06
           28687     61.4815E+06     32.6891E+06              0.     3.04098E+06
           28688     61.3722E+06     32.7810E+06              0.     3.12093E+06
           28689     61.2601E+06     32.8736E+06              0.     3.20314E+06
           28690     61.1449E+06     32.9670E+06              0.     3.28762E+06
           28691     61.0267E+06     33.0612E+06              0.     3.37439E+06
           28692     60.9054E+06     33.1564E+06              0.     3.46347E+06
           28693     60.7809E+06     33.2524E+06              0.     3.55487E+06
           28694     60.6530E+06     33.3495E+06              0.     3.64862E+06
           28695     60.5218E+06     33.4476E+06              0.     3.74474E+06
           28696     60.3872E+06     33.5469E+06              0.     3.84326E+06
           28697     60.2490E+06     33.6473E+06              0.     3.94419E+06
           28698     60.1071E+06     33.7490E+06              0.     4.04757E+06
           28699     59.9616E+06      33.852E+06              0.     4.15343E+06
           28700     59.8122E+06     33.9563E+06              0.     4.26178E+06
           28701     59.6590E+06     34.0621E+06              0.     4.37266E+06
           28702     59.5018E+06     34.1693E+06              0.     4.48611E+06
           28703     59.3405E+06     34.2780E+06              0.     4.60215E+06
           28704     59.1750E+06     34.3883E+06              0.     4.72081E+06
           28705     59.0053E+06     34.5002E+06              0.     4.84213E+06
           28706     58.8313E+06     34.6137E+06              0.     4.96615E+06
           28707     58.6528E+06     34.7290E+06              0.     5.09290E+06
           28708     58.4698E+06     34.8460E+06              0.     5.22241E+06
           28709     58.2821E+06     34.9648E+06              0.     5.35472E+06
           28710     58.0897E+06     35.0855E+06              0.     5.48987E+06
           28711     57.8925E+06     35.2081E+06              0.     5.62790E+06
           28712     57.6903E+06     35.3326E+06              0.     5.76885E+06
           28713     57.4831E+06     35.4591E+06              0.     5.91276E+06
           28714     57.2708E+06     35.5876E+06              0.     6.05967E+06
           28715     57.0532E+06     35.7181E+06              0.     6.20962E+06
           28716     56.8303E+06     35.8508E+06              0.     6.36264E+06
           28717     56.6019E+06     35.9856E+06              0.     6.51879E+06
           28718     56.3679E+06     36.1226E+06              0.     6.67811E+06
           28719     56.1282E+06     36.2619E+06              0.     6.84064E+06
           28720     55.8828E+06     36.4033E+06              0.     7.00641E+06
           28721     55.6314E+06     36.5471E+06              0.     7.17548E+06
           28722     55.3740E+06     36.6932E+06              0.     7.34790E+06
           28723     55.1105E+06     36.8416E+06              0.     7.52369E+06
           28724     54.8407E+06     36.9925E+06              0.     7.70291E+06
           28725     54.5646E+06     37.1457E+06              0.     7.88560E+06
           28726     54.2819E+06     37.3014E+06              0.     8.07180E+06
           28727     53.9926E+06     37.4595E+06              0.     8.26156E+06
           28728     53.6965E+06     37.6202E+06              0.     8.45492E+06
           28729     53.3936E+06     37.7833E+06              0.     8.65192E+06
           28730     53.0837E+06     37.9490E+06              0.     8.85262E+06
           28731     52.7666E+06     38.1173E+06              0.     9.05703E+06
           28732     52.4423E+06     38.2881E+06              0.     9.26523E+06
           28733     52.1105E+06     38.4615E+06              0.     9.47723E+06
           28734     51.7712E+06     38.6375E+06              0.     9.69308E+06
           28735     51.4243E+06     38.8161E+06              0.     9.91282E+06
           28736     51.0696E+06     38.9974E+06              0.     10.1365E+06
           28737     50.7069E+06     39.1813E+06              0.     10.3641E+06
           28738     50.3361E+06     39.3678E+06              0.     10.5958E+06
           28739     49.9572E+06     39.5569E+06              0.     10.8315E+06
           28740     49.5698E+06     39.7487E+06              0.     11.0712E+06
           28741     49.1740E+06     39.9430E+06              0.     11.3151E+06
           28742     48.7695E+06     40.1400E+06              0.     11.5631E+06
           28743     48.3562E+06     40.3396E+06              0.     11.8152E+06
           28744     47.9339E+06     40.5418E+06              0.     12.0716E+06
           28745     47.5026E+06     40.7465E+06              0.     12.3321E+06
           28746     47.0620E+06     40.9538E+06              0.     12.5969E+06
           28747     46.6121E+06     41.1636E+06              0.     12.8660E+06
           28748     46.1525E+06     41.3758E+06              0.     13.1393E+06
           28749     45.6834E+06     41.5905E+06              0.     13.4169E+06
           28750     45.2043E+06     41.8077E+06              0.     13.6988E+06
           28751     44.7153E+06     42.0271E+06              0.     13.9851E+06
           28752     44.2161E+06     42.2489E+06              0.     14.2756E+06
           28753     43.7066E+06     42.4729E+06              0.     14.5705E+06
           28754     43.1867E+06     42.6991E+06              0.     14.8697E+06
           28755     42.6562E+06     42.9274E+06              0.     15.1731E+06
           28756     42.1149E+06     43.1577E+06              0.     15.4809E+06
           28757     41.5626E+06     43.3900E+06              0.      15.793E+06
           28758     40.9993E+06     43.6242E+06              0.     16.1093E+06
           28759     40.4248E+06     43.8601E+06              0.     16.4299E+06
           28760     39.8389E+06     44.0976E+06              0.     16.7547E+06
           28761     39.2415E+06     44.3368E+06              0.     17.0837E+06
           28762     38.6324E+06     44.5773E+06              0.     17.4168E+06
           28763     38.0114E+06     44.8191E+06              0.     17.7540E+06
           28764     37.3785E+06     45.0621E+06              0.     18.0953E+06
           28765     36.7335E+06     45.3061E+06              0.     18.4405E+06
           28766     36.0761E+06     45.5510E+06              0.     18.7897E+06
           28767     35.4063E+06     45.7965E+06              0.     19.1427E+06
           28768     34.7240E+06     46.0425E+06              0.     19.4995E+06
           28769     34.0290E+06     46.2888E+06              0.     19.8599E+06
           28770     33.3211E+06     46.5352E+06              0.     20.2240E+06
           28771     32.6002E+06     46.7815E+06              0.     20.5915E+06
           28772     31.8662E+06     47.0275E+06              0.     20.9625E+06
           28773     31.1189E+06     47.2728E+06              0.     21.3366E+06
           28774     30.3583E+06     47.5173E+06              0.     21.7139E+06
           28775     29.5841E+06     47.7607E+06              0.     22.0942E+06
           28776     28.7963E+06     48.0027E+06              0.     22.4773E+06
           28777     27.9948E+06     48.2429E+06              0.     22.8631E+06
           28778     27.1794E+06     48.4811E+06              0.     23.2514E+06
           28779     26.3500E+06     48.7170E+06              0.     23.6421E+06
           28780     25.5066E+06     48.9501E+06              0.     24.0348E+06
           28781     24.6490E+06     49.1801E+06              0.     24.4295E+06
           28782     23.7771E+06     49.4066E+06              0.     24.8260E+06
           28783     22.8909E+06     49.6292E+06              0.     25.2239E+06
           28784     21.9902E+06     49.8474E+06              0.      25.623E+06
           28785     21.0751E+06     50.0609E+06              0.     26.0231E+06
           28786     20.1454E+06     50.2690E+06              0.     26.4240E+06
           28787     19.2011E+06     50.4714E+06              0.     26.8253E+06
           28788     18.2421E+06     50.6674E+06              0.     27.2268E+06
           28789     17.2684E+06     50.8566E+06              0.     27.6281E+06
           28790     16.2799E+06     51.0384E+06              0.     28.0289E+06
           28791     15.2767E+06     51.2121E+06              0.     28.4289E+06
           28792     14.2587E+06     51.3771E+06              0.     28.8277E+06
           28793     13.2259E+06     51.5328E+06              0.     29.2250E+06
           28794     12.1783E+06     51.6785E+06              0.     29.6203E+06
           28795     11.1160E+06     51.8134E+06              0.     30.0133E+06
           28796      10.039E+06     51.9369E+06              0.     30.4035E+06
           28797     8.94729E+06     52.0480E+06              0.     30.7906E+06
           28798     7.84097E+06     52.1461E+06              0.     31.1741E+06
           28799     6.72010E+06     52.2302E+06              0.     31.5534E+06
           28800     5.58476E+06     52.2995E+06              0.     31.9281E+06
           28801     4.43507E+06     52.3531E+06              0.     32.2978E+06
           28802     3.27114E+06     52.3899E+06              0.     32.6619E+06
           28803     2.09310E+06     52.4091E+06              0.     33.0198E+06
           28804     901.103E+03     52.4095E+06              0.     33.3711E+06
           28805    -304.689E+03     52.3901E+06              0.     33.7151E+06
           28806    -1.52409E+06     52.3498E+06              0.     34.0513E+06
           28807    -2.75689E+06     52.2875E+06              0.     34.3791E+06
           28808    -4.00287E+06     52.2018E+06              0.     34.6978E+06
           28809    -5.26178E+06     52.0917E+06              0.     35.0068E+06
           28810    -6.53337E+06     51.9558E+06              0.     35.3056E+06
           28811    -7.81734E+06     51.7928E+06              0.     35.5933E+06
           28812    -9.11339E+06     51.6013E+06              0.     35.8694E+06
           28813    -10.4212E+06       51.38E+06              0.     36.1332E+06
           28814    -11.7404E+06     51.1273E+06              0.     36.3840E+06
           28815    -13.0706E+06     50.8418E+06              0.     36.6210E+06
           28816    -14.4114E+06     50.5219E+06              0.     36.8435E+06
           28817    -15.7624E+06     50.1660E+06              0.     37.0508E+06
           28818    -17.1231E+06     49.7724E+06              0.     37.2422E+06
           28819    -18.4931E+06     49.3396E+06              0.     37.4168E+06
           28820    -19.8718E+06     48.8657E+06              0.      37.574E+06
           28821    -21.2587E+06     48.3490E+06              0.     37.7129E+06
           28822    -22.6533E+06     47.7877E+06              0.     37.8329E+06
           28823    -24.0549E+06     47.1799E+06              0.     37.9330E+06
           28824    -25.4629E+06     46.5236E+06              0.     38.0125E+06
           28825    -26.8767E+06     45.8169E+06              0.     38.0707E+06
           28826    -28.2956E+06     45.0579E+06              0.     38.1067E+06
           28827    -29.7189E+06     44.2445E+06              0.     38.1198E+06
           28828    -31.1458E+06     43.3745E+06              0.     38.1091E+06
           28829    -32.5755E+06     42.4460E+06              0.     38.0739E+06
           28830    -34.0073E+06     41.4567E+06              0.     38.0134E+06
           28831    -35.4404E+06     40.4044E+06              0.     37.9269E+06
           28832    -36.8737E+06     39.2870E+06              0.     37.8135E+06
           28833    -38.3065E+06     38.1021E+06              0.     37.6726E+06
           28834    -39.7378E+06     36.8475E+06              0.     37.5033E+06
           28835    -41.1666E+06     35.5208E+06              0.     37.3050E+06
           28836    -42.5919E+06     34.1198E+06              0.     37.0769E+06
           28837    -44.0127E+06     32.6421E+06              0.     36.8183E+06
           28838    -45.4279E+06     31.0853E+06              0.     36.5285E+06
           28839    -46.8365E+06     29.4470E+06              0.     36.2070E+06
           28840    -48.2373E+06     27.7248E+06              0.     35.8530E+06
           28841    -49.6291E+06     25.9163E+06              0.     35.4659E+06
           28842    -51.0108E+06     24.0191E+06              0.     35.0450E+06
           28843    -52.3811E+06     22.0307E+06              0.     34.5900E+06
           28844    -53.7387E+06     19.9488E+06              0.     34.1001E+06
           28845    -55.0824E+06     17.7710E+06              0.     33.5748E+06
           28846    -56.4110E+06     15.4948E+06              0.     33.0137E+06
           28847    -57.7229E+06     13.1179E+06              0.     32.4163E+06
           28848    -59.0169E+06     10.6379E+06              0.     31.7821E+06
           28849    -60.2915E+06     8.05239E+06              0.     31.1107E+06
           28850    -61.5454E+06     5.35917E+06              0.     30.4018E+06
           28851    -62.7770E+06     2.55588E+06              0.     29.6549E+06
           28852    -63.9850E+06    -359.682E+03              0.     28.8697E+06
           28853    -65.1677E+06    -3.38979E+06              0.     28.0460E+06
           28854    -66.3236E+06    -6.53659E+06              0.     27.1835E+06
           28855    -67.4512E+06    -9.80218E+06              0.     26.2818E+06
           28856    -68.5489E+06    -13.1887E+06              0.     25.3409E+06
           28857    -69.6150E+06    -16.6981E+06              0.     24.3605E+06
           28858    -70.6480E+06    -20.3324E+06              0.     23.3404E+06
           28859    -71.6462E+06    -24.0936E+06              0.     22.2805E+06
           28860    -72.6083E+06    -27.9836E+06              0.     21.1808E+06
           28861    -74.2131E+06    -32.4330E+06              0.     20.6658E+06
           28862     64.5098E+06     28.3267E+06              0.     1.83296E+06
           28863     64.5258E+06     28.5033E+06              0.     1.82956E+06
           28864     64.4662E+06     28.6429E+06              0.     1.80496E+06
           28865     64.4073E+06     28.7788E+06              0.     1.78400E+06
           28866     64.3490E+06     28.9111E+06              0.     1.76658E+06
           28867     64.2912E+06     29.0399E+06              0.     1.75261E+06
           28868     64.2338E+06     29.1654E+06              0.     1.74200E+06
           28869     64.1766E+06     29.2878E+06              0.     1.73466E+06
           28870     64.1196E+06     29.4073E+06              0.     1.73052E+06
           28871     64.0626E+06     29.5239E+06              0.     1.72950E+06
           28872     64.0056E+06     29.6380E+06              0.     1.73152E+06
           28873     63.9484E+06     29.7495E+06              0.     1.73652E+06
           28874     63.8909E+06     29.8587E+06              0.     1.74444E+06
           28875     63.8331E+06     29.9657E+06              0.     1.75520E+06
           28876     63.7749E+06     30.0706E+06              0.     1.76876E+06
           28877     63.7161E+06     30.1735E+06              0.     1.78506E+06
           28878     63.6567E+06     30.2747E+06              0.     1.80406E+06
           28879     63.5966E+06     30.3741E+06              0.     1.82569E+06
           28880     63.5357E+06     30.4720E+06              0.     1.84993E+06
           28881     63.4740E+06     30.5684E+06              0.     1.87672E+06
           28882     63.4112E+06     30.6634E+06              0.     1.90604E+06
           28883     63.3474E+06     30.7573E+06              0.     1.93784E+06
           28884     63.2824E+06     30.8500E+06              0.     1.97210E+06
           28885     63.2163E+06     30.9417E+06              0.     2.00878E+06
           28886     63.1488E+06     31.0324E+06              0.     2.04787E+06
           28887     63.0800E+06     31.1224E+06              0.     2.08932E+06
           28888     63.0097E+06     31.2116E+06              0.     2.13314E+06
           28889     62.9379E+06     31.3002E+06              0.     2.17928E+06
           28890     62.8645E+06     31.3883E+06              0.     2.22775E+06
           28891     62.7894E+06     31.4759E+06              0.     2.27852E+06
           28892     62.7125E+06     31.5631E+06              0.     2.33158E+06
           28893     62.6338E+06     31.6501E+06              0.     2.38692E+06
           28894     62.5532E+06     31.7369E+06              0.     2.44454E+06
           28895     62.4706E+06     31.8236E+06              0.     2.50443E+06
           28896     62.3859E+06     31.9102E+06              0.     2.56659E+06
           28897     62.2991E+06     31.9969E+06              0.     2.63101E+06
           28898     62.2101E+06     32.0838E+06              0.     2.69769E+06
           28899     62.1188E+06     32.1708E+06              0.     2.76665E+06
           28900     62.0251E+06     32.2581E+06              0.     2.83788E+06
           28901     61.9290E+06     32.3457E+06              0.     2.91138E+06
           28902     61.8304E+06     32.4338E+06              0.     2.98718E+06
           28903     61.7292E+06     32.5223E+06              0.     3.06527E+06
           28904     61.6253E+06     32.6114E+06              0.     3.14566E+06
           28905     61.5187E+06     32.7011E+06              0.     3.22838E+06
           28906     61.4093E+06     32.7915E+06              0.     3.31344E+06
           28907     61.2969E+06     32.8826E+06              0.     3.40084E+06
           28908     61.1816E+06     32.9746E+06              0.     3.49061E+06
           28909     61.0632E+06     33.0674E+06              0.     3.58278E+06
           28910     60.9417E+06     33.1611E+06              0.     3.67735E+06
           28911     60.8170E+06     33.2558E+06              0.     3.77435E+06
           28912     60.6890E+06     33.3516E+06              0.     3.87380E+06
           28913     60.5576E+06     33.4485E+06              0.     3.97574E+06
           28914     60.4228E+06     33.5465E+06              0.     4.08017E+06
           28915     60.2844E+06     33.6458E+06              0.     4.18714E+06
           28916     60.1424E+06     33.7463E+06              0.     4.29667E+06
           28917     59.9967E+06     33.8481E+06              0.     4.40879E+06
           28918     59.8472E+06     33.9514E+06              0.     4.52353E+06
           28919     59.6938E+06     34.0560E+06              0.     4.64091E+06
           28920     59.5364E+06     34.1622E+06              0.     4.76099E+06
           28921     59.3749E+06     34.2698E+06              0.     4.88378E+06
           28922     59.2093E+06     34.3790E+06              0.     5.00933E+06
           28923     59.0395E+06     34.4899E+06              0.     5.13766E+06
           28924     58.8653E+06     34.6025E+06              0.     5.26883E+06
           28925     58.6867E+06     34.7167E+06              0.     5.40285E+06
           28926     58.5036E+06     34.8327E+06              0.     5.53978E+06
           28927     58.3158E+06     34.9506E+06              0.     5.67965E+06
           28928     58.1233E+06     35.0703E+06              0.     5.82251E+06
           28929     57.9260E+06     35.1919E+06              0.     5.96838E+06
           28930     57.7238E+06     35.3154E+06              0.     6.11732E+06
           28931     57.5166E+06     35.4409E+06              0.     6.26937E+06
           28932     57.3042E+06     35.5685E+06              0.     6.42456E+06
           28933     57.0866E+06     35.6981E+06              0.     6.58295E+06
           28934     56.8637E+06     35.8298E+06              0.     6.74458E+06
           28935     56.6353E+06     35.9636E+06              0.     6.90948E+06
           28936     56.4014E+06     36.0996E+06              0.     7.07771E+06
           28937     56.1618E+06     36.2379E+06              0.     7.24931E+06
           28938     55.9164E+06     36.3784E+06              0.     7.42433E+06
           28939     55.6651E+06     36.5211E+06              0.     7.60281E+06
           28940     55.4079E+06     36.6662E+06              0.     7.78479E+06
           28941     55.1445E+06     36.8136E+06              0.     7.97033E+06
           28942     54.8748E+06     36.9634E+06              0.     8.15947E+06
           28943     54.5988E+06     37.1156E+06              0.     8.35224E+06
           28944     54.3164E+06     37.2702E+06              0.     8.54871E+06
           28945     54.0273E+06     37.4272E+06              0.     8.74891E+06
           28946     53.7315E+06     37.5867E+06              0.     8.95289E+06
           28947     53.4288E+06     37.7488E+06              0.     9.16070E+06
           28948     53.1192E+06     37.9133E+06              0.     9.37237E+06
           28949     52.8024E+06     38.0804E+06              0.     9.58795E+06
           28950     52.4785E+06     38.2500E+06              0.     9.80749E+06
           28951     52.1471E+06     38.4222E+06              0.     10.0310E+06
           28952     51.8082E+06     38.5969E+06              0.     10.2586E+06
           28953     51.4617E+06     38.7742E+06              0.     10.4903E+06
           28954     51.1074E+06     38.9542E+06              0.     10.7260E+06
           28955     50.7453E+06     39.1367E+06              0.     10.9660E+06
           28956     50.3750E+06     39.3218E+06              0.     11.2101E+06
           28957     49.9966E+06     39.5095E+06              0.     11.4584E+06
           28958     49.6098E+06     39.6997E+06              0.     11.7111E+06
           28959     49.2146E+06     39.8926E+06              0.     11.9680E+06
           28960     48.8107E+06     40.0881E+06              0.     12.2292E+06
           28961     48.3981E+06     40.2861E+06              0.     12.4948E+06
           28962     47.9765E+06     40.4866E+06              0.     12.7648E+06
           28963     47.5459E+06     40.6896E+06              0.     13.0391E+06
           28964     47.1061E+06     40.8952E+06              0.     13.3180E+06
           28965     46.6569E+06     41.1032E+06              0.     13.6012E+06
           28966     46.1982E+06     41.3136E+06              0.     13.8889E+06
           28967     45.7299E+06     41.5264E+06              0.     14.1811E+06
           28968     45.2518E+06     41.7416E+06              0.     14.4778E+06
           28969     44.7637E+06     41.9591E+06              0.     14.7790E+06
           28970     44.2654E+06     42.1788E+06              0.     15.0846E+06
           28971     43.7570E+06     42.4006E+06              0.     15.3948E+06
           28972     43.2380E+06     42.6246E+06              0.     15.7094E+06
           28973     42.7086E+06     42.8507E+06              0.     16.0286E+06
           28974     42.1683E+06     43.0787E+06              0.     16.3521E+06
           28975     41.6172E+06     43.3086E+06              0.     16.6802E+06
           28976     41.0551E+06     43.5402E+06              0.     17.0127E+06
           28977     40.4818E+06     43.7736E+06              0.     17.3495E+06
           28978     39.8971E+06     44.0085E+06              0.     17.6908E+06
           28979     39.3009E+06     44.2449E+06              0.     18.0363E+06
           28980     38.6931E+06     44.4827E+06              0.     18.3862E+06
           28981     38.0735E+06     44.7216E+06              0.     18.7403E+06
           28982     37.4419E+06     44.9616E+06              0.     19.0985E+06
           28983     36.7982E+06     45.2025E+06              0.     19.4608E+06
           28984     36.1423E+06     45.4442E+06              0.     19.8272E+06
           28985     35.4740E+06     45.6864E+06              0.     20.1975E+06
           28986     34.7931E+06     45.9290E+06              0.     20.5717E+06
           28987     34.0995E+06     46.1718E+06              0.     20.9497E+06
           28988     33.3932E+06     46.4145E+06              0.     21.3313E+06
           28989     32.6738E+06     46.6571E+06              0.     21.7165E+06
           28990     31.9414E+06     46.8991E+06              0.     22.1051E+06
           28991     31.1957E+06     47.1404E+06              0.     22.4970E+06
           28992     30.4367E+06     47.3808E+06              0.     22.8920E+06
           28993     29.6641E+06     47.6198E+06              0.     23.2900E+06
           28994     28.8780E+06     47.8573E+06              0.     23.6909E+06
           28995     28.0781E+06     48.0929E+06              0.     24.0945E+06
           28996     27.2644E+06     48.3263E+06              0.     24.5005E+06
           28997     26.4368E+06     48.5572E+06              0.     24.9088E+06
           28998     25.5951E+06     48.7852E+06              0.     25.3191E+06
           28999     24.7392E+06     49.0098E+06              0.     25.7314E+06
           29000     23.8691E+06     49.2308E+06              0.     26.1452E+06
           29001     22.9846E+06     49.4476E+06              0.     26.5604E+06
           29002     22.0857E+06     49.6599E+06              0.     26.9767E+06
           29003     21.1724E+06     49.8671E+06              0.     27.3938E+06
           29004     20.2444E+06     50.0689E+06              0.     27.8115E+06
           29005     19.3019E+06     50.2646E+06              0.     28.2294E+06
           29006     18.3446E+06     50.4537E+06              0.     28.6472E+06
           29007     17.3727E+06     50.6356E+06              0.     29.0646E+06
           29008     16.3860E+06     50.8099E+06              0.     29.4812E+06
           29009     15.3845E+06     50.9758E+06              0.     29.8967E+06
           29010     14.3682E+06     51.1327E+06              0.     30.3107E+06
           29011     13.3372E+06     51.2799E+06              0.     30.7228E+06
           29012     12.2913E+06     51.4168E+06              0.     31.1325E+06
           29013     11.2307E+06     51.5426E+06              0.     31.5395E+06
           29014     10.1553E+06     51.6564E+06              0.     31.9432E+06
           29015     9.06529E+06     51.7577E+06              0.     32.3433E+06
           29016     7.96060E+06     51.8453E+06              0.     32.7392E+06
           29017     6.84134E+06     51.9186E+06              0.     33.1305E+06
           29018     5.70760E+06     51.9766E+06              0.     33.5166E+06
           29019     4.55948E+06     52.0184E+06              0.     33.8970E+06
           29020     3.39709E+06     52.0430E+06              0.     34.2710E+06
           29021     2.22057E+06     52.0493E+06              0.     34.6383E+06
           29022     1.03006E+06     52.0363E+06              0.     34.9981E+06
           29023    -174.271E+03     52.0030E+06              0.     35.3499E+06
           29024    -1.39223E+06     51.9481E+06              0.     35.6930E+06
           29025    -2.62362E+06     51.8705E+06              0.     36.0268E+06
           29026    -3.86821E+06     51.7689E+06              0.     36.3507E+06
           29027    -5.12575E+06     51.6421E+06              0.     36.6640E+06
           29028    -6.39599E+06     51.4888E+06              0.     36.9659E+06
           29029    -7.67864E+06     51.3077E+06              0.     37.2558E+06
           29030    -8.97337E+06     51.0972E+06              0.     37.5330E+06
           29031    -10.2799E+06     50.8560E+06              0.     37.7967E+06
           29032    -11.5977E+06     50.5826E+06              0.     38.0462E+06
           29033    -12.9267E+06     50.2754E+06              0.     38.2807E+06
           29034    -14.2662E+06     49.9328E+06              0.     38.4994E+06
           29035    -15.6158E+06     49.5533E+06              0.     38.7017E+06
           29036    -16.9752E+06     49.1350E+06              0.     38.8866E+06
           29037    -18.3439E+06     48.6764E+06              0.     39.0535E+06
           29038    -19.7212E+06     48.1756E+06              0.     39.2014E+06
           29039    -21.1066E+06     47.6307E+06              0.     39.3295E+06
           29040    -22.4997E+06     47.0400E+06              0.     39.4372E+06
           29041    -23.8997E+06     46.4014E+06              0.     39.5234E+06
           29042    -25.3061E+06     45.7131E+06              0.     39.5874E+06
           29043    -26.7182E+06     44.9730E+06              0.     39.6285E+06
           29044    -28.1352E+06     44.1792E+06              0.     39.6456E+06
           29045    -29.5565E+06     43.3294E+06              0.     39.6381E+06
           29046    -30.9812E+06     42.4216E+06              0.     39.6050E+06
           29047    -32.4087E+06     41.4536E+06              0.     39.5457E+06
           29048    -33.8380E+06     40.4232E+06              0.     39.4592E+06
           29049    -35.2683E+06     39.3281E+06              0.     39.3447E+06
           29050    -36.6988E+06     38.1662E+06              0.     39.2015E+06
           29051    -38.1284E+06     36.9350E+06              0.     39.0288E+06
           29052    -39.5562E+06     35.6323E+06              0.     38.8258E+06
           29053    -40.9813E+06     34.2556E+06              0.     38.5918E+06
           29054    -42.4026E+06     32.8027E+06              0.     38.3260E+06
           29055    -43.8190E+06     31.2711E+06              0.     38.0277E+06
           29056    -45.2295E+06     29.6584E+06              0.     37.6961E+06
           29057    -46.6330E+06     27.9622E+06              0.     37.3307E+06
           29058    -48.0282E+06     26.1801E+06              0.     36.9308E+06
           29059    -49.4139E+06     24.3095E+06              0.     36.4957E+06
           29060    -50.7891E+06     22.3481E+06              0.     36.0248E+06
           29061    -52.1523E+06     20.2934E+06              0.     35.5175E+06
           29062    -53.5024E+06     18.1429E+06              0.     34.9734E+06
           29063    -54.8380E+06     15.8943E+06              0.     34.3918E+06
           29064    -56.1577E+06     13.5452E+06              0.     33.7722E+06
           29065    -57.4602E+06     11.0930E+06              0.     33.1143E+06
           29066    -58.7441E+06     8.53553E+06              0.     32.4175E+06
           29067    -60.0079E+06     5.87038E+06              0.     31.6815E+06
           29068    -61.2502E+06     3.09521E+06              0.     30.9058E+06
           29069    -62.4695E+06     207.780E+03              0.     30.0902E+06
           29070    -63.6643E+06    -2.79420E+06              0.     29.2343E+06
           29071    -64.8330E+06    -5.91290E+06              0.     28.3378E+06
           29072    -65.9740E+06    -9.15044E+06              0.     27.4006E+06
           29073    -67.0859E+06    -12.5090E+06              0.     26.4223E+06
           29074    -68.1668E+06    -15.9905E+06              0.     25.4027E+06
           29075    -69.2153E+06    -19.5971E+06              0.     24.3418E+06
           29076    -70.2295E+06    -23.3305E+06              0.     23.2393E+06
           29077    -71.2074E+06    -27.1926E+06              0.     22.0952E+06
           29078    -72.8112E+06    -31.6147E+06              0.     21.5609E+06
           29079     64.5831E+06     28.3584E+06              0.     1.89223E+06
           29080     64.5987E+06     28.5303E+06              0.     1.88872E+06
           29081     64.5406E+06     28.6663E+06              0.     1.86332E+06
           29082     64.4833E+06     28.7986E+06              0.     1.84169E+06
           29083     64.4265E+06     28.9274E+06              0.     1.82371E+06
           29084     64.3702E+06     29.0528E+06              0.     1.80929E+06
           29085     64.3143E+06     29.1750E+06              0.     1.79834E+06
           29086     64.2586E+06     29.2942E+06              0.     1.79077E+06
           29087     64.2031E+06     29.4105E+06              0.     1.78650E+06
           29088     64.1476E+06     29.5242E+06              0.     1.78545E+06
           29089     64.0921E+06     29.6352E+06              0.     1.78754E+06
           29090     64.0364E+06     29.7438E+06              0.     1.79270E+06
           29091     63.9805E+06     29.8501E+06              0.     1.80088E+06
           29092     63.9242E+06     29.9543E+06              0.     1.81199E+06
           29093     63.8675E+06     30.0564E+06              0.     1.82600E+06
           29094     63.8103E+06     30.1567E+06              0.     1.84283E+06
           29095     63.7524E+06     30.2552E+06              0.     1.86244E+06
           29096     63.6939E+06     30.3520E+06              0.     1.88478E+06
           29097     63.6346E+06     30.4473E+06              0.     1.90981E+06
           29098     63.5744E+06     30.5412E+06              0.     1.93747E+06
           29099     63.5133E+06     30.6338E+06              0.     1.96775E+06
           29100     63.4512E+06     30.7252E+06              0.     2.00058E+06
           29101     63.3879E+06     30.8155E+06              0.     2.03596E+06
           29102     63.3235E+06     30.9048E+06              0.     2.07383E+06
           29103     63.2578E+06     30.9932E+06              0.     2.11419E+06
           29104     63.1908E+06     31.0808E+06              0.     2.15699E+06
           29105     63.1223E+06     31.1677E+06              0.     2.20223E+06
           29106     63.0524E+06     31.2539E+06              0.     2.24988E+06
           29107     62.9809E+06     31.3397E+06              0.     2.29992E+06
           29108     62.9077E+06     31.4250E+06              0.     2.35234E+06
           29109     62.8328E+06     31.5100E+06              0.     2.40713E+06
           29110     62.7562E+06     31.5947E+06              0.     2.46428E+06
           29111     62.6777E+06     31.6793E+06              0.     2.52377E+06
           29112     62.5972E+06     31.7637E+06              0.     2.58561E+06
           29113     62.5148E+06     31.8481E+06              0.     2.64979E+06
           29114     62.4302E+06     31.9325E+06              0.     2.71631E+06
           29115     62.3435E+06     32.0171E+06              0.     2.78517E+06
           29116     62.2546E+06     32.1019E+06              0.     2.85637E+06
           29117     62.1633E+06     32.1869E+06              0.     2.92992E+06
           29118     62.0697E+06     32.2723E+06              0.     3.00582E+06
           29119     61.9737E+06     32.3581E+06              0.     3.08409E+06
           29120     61.8751E+06     32.4443E+06              0.     3.16472E+06
           29121     61.7739E+06     32.5311E+06              0.     3.24775E+06
           29122     61.6701E+06     32.6185E+06              0.     3.33316E+06
           29123     61.5635E+06     32.7066E+06              0.     3.42099E+06
           29124     61.4540E+06     32.7954E+06              0.     3.51125E+06
           29125     61.3417E+06     32.8850E+06              0.     3.60396E+06
           29126     61.2264E+06     32.9754E+06              0.     3.69913E+06
           29127     61.1080E+06     33.0667E+06              0.     3.79679E+06
           29128     60.9865E+06     33.1590E+06              0.     3.89696E+06
           29129     60.8618E+06     33.2524E+06              0.     3.99967E+06
           29130     60.7339E+06     33.3468E+06              0.     4.10494E+06
           29131     60.6025E+06     33.4423E+06              0.     4.21279E+06
           29132     60.4677E+06     33.5391E+06              0.     4.32327E+06
           29133     60.3293E+06     33.6370E+06              0.     4.43638E+06
           29134     60.1873E+06     33.7363E+06              0.     4.55217E+06
           29135     60.0417E+06     33.8369E+06              0.     4.67067E+06
           29136     59.8922E+06     33.9389E+06              0.     4.79191E+06
           29137     59.7389E+06     34.0424E+06              0.     4.91593E+06
           29138     59.5816E+06     34.1473E+06              0.     5.04275E+06
           29139     59.4202E+06     34.2538E+06              0.     5.17243E+06
           29140     59.2547E+06     34.3619E+06              0.     5.30498E+06
           29141     59.0850E+06     34.4716E+06              0.     5.44046E+06
           29142     58.9110E+06     34.5831E+06              0.     5.57889E+06
           29143     58.7325E+06     34.6962E+06              0.     5.72033E+06
           29144     58.5496E+06     34.8111E+06              0.     5.86481E+06
           29145     58.3620E+06     34.9278E+06              0.     6.01237E+06
           29146     58.1697E+06     35.0464E+06              0.     6.16306E+06
           29147     57.9727E+06     35.1669E+06              0.     6.31691E+06
           29148     57.7707E+06     35.2893E+06              0.     6.47398E+06
           29149     57.5637E+06     35.4137E+06              0.     6.63431E+06
           29150     57.3517E+06     35.5401E+06              0.     6.79794E+06
           29151     57.1344E+06     35.6686E+06              0.     6.96491E+06
           29152     56.9118E+06     35.7992E+06              0.     7.13528E+06
           29153     56.6838E+06     35.9319E+06              0.     7.30909E+06
           29154     56.4502E+06     36.0668E+06              0.     7.48639E+06
           29155     56.2111E+06     36.2039E+06              0.     7.66722E+06
           29156     55.9661E+06     36.3432E+06              0.     7.85163E+06
           29157     55.7153E+06     36.4848E+06              0.     8.03967E+06
           29158     55.4586E+06     36.6286E+06              0.     8.23138E+06
           29159     55.1957E+06     36.7748E+06              0.     8.42682E+06
           29160     54.9266E+06     36.9234E+06              0.     8.62603E+06
           29161     54.6512E+06     37.0743E+06              0.     8.82906E+06
           29162     54.3694E+06     37.2276E+06              0.     9.03595E+06
           29163     54.0809E+06     37.3834E+06              0.     9.24676E+06
           29164     53.7858E+06     37.5416E+06              0.     9.46153E+06
           29165     53.4839E+06     37.7023E+06              0.     9.68030E+06
           29166     53.1750E+06     37.8655E+06              0.     9.90313E+06
           29167     52.8590E+06     38.0312E+06              0.     10.1300E+06
           29168     52.5359E+06     38.1994E+06              0.     10.3611E+06
           29169     52.2054E+06     38.3701E+06              0.     10.5964E+06
           29170     51.8674E+06     38.5433E+06              0.     10.8358E+06
           29171     51.5218E+06     38.7192E+06              0.     11.0796E+06
           29172     51.1685E+06     38.8975E+06              0.     11.3276E+06
           29173     50.8073E+06     39.0785E+06              0.     11.5800E+06
           29174     50.4381E+06     39.2620E+06              0.     11.8368E+06
           29175     50.0607E+06     39.4480E+06              0.     12.0980E+06
           29176     49.6751E+06     39.6366E+06              0.     12.3637E+06
           29177     49.2810E+06     39.8277E+06              0.     12.6338E+06
           29178     48.8783E+06     40.0214E+06              0.     12.9085E+06
           29179     48.4669E+06     40.2175E+06              0.     13.1877E+06
           29180     48.0466E+06     40.4162E+06              0.     13.4715E+06
           29181     47.6174E+06     40.6173E+06              0.     13.7598E+06
           29182     47.1789E+06     40.8209E+06              0.     14.0528E+06
           29183     46.7311E+06     41.0269E+06              0.     14.3505E+06
           29184     46.2739E+06     41.2353E+06              0.     14.6527E+06
           29185     45.8071E+06     41.4460E+06              0.     14.9597E+06
           29186     45.3304E+06     41.6589E+06              0.     15.2713E+06
           29187     44.8439E+06     41.8742E+06              0.     15.5876E+06
           29188     44.3473E+06     42.0916E+06              0.     15.9085E+06
           29189     43.8404E+06     42.3111E+06              0.     16.2341E+06
           29190     43.3232E+06     42.5327E+06              0.     16.5644E+06
           29191     42.7955E+06     42.7562E+06              0.     16.8994E+06
           29192     42.2570E+06     42.9817E+06              0.     17.2389E+06
           29193     41.7078E+06     43.2089E+06              0.     17.5831E+06
           29194     41.1475E+06     43.4379E+06              0.     17.9319E+06
           29195     40.5760E+06     43.6684E+06              0.     18.2852E+06
           29196     39.9933E+06     43.9005E+06              0.     18.6430E+06
           29197     39.3991E+06     44.1340E+06              0.     19.0053E+06
           29198     38.7933E+06     44.3687E+06              0.     19.3720E+06
           29199     38.1757E+06     44.6045E+06              0.     19.7431E+06
           29200     37.5463E+06     44.8413E+06              0.     20.1184E+06
           29201     36.9047E+06     45.0789E+06              0.     20.4980E+06
           29202     36.2509E+06     45.3171E+06              0.     20.8817E+06
           29203     35.5848E+06     45.5559E+06              0.     21.2694E+06
           29204     34.9062E+06     45.7949E+06              0.     21.6611E+06
           29205     34.2149E+06     46.0339E+06              0.     22.0566E+06
           29206     33.5108E+06     46.2729E+06              0.     22.4559E+06
           29207     32.7938E+06     46.5115E+06              0.     22.8588E+06
           29208     32.0637E+06     46.7494E+06              0.     23.2651E+06
           29209     31.3205E+06     46.9865E+06              0.     23.6747E+06
           29210     30.5638E+06     47.2225E+06              0.     24.0876E+06
           29211     29.7937E+06     47.4571E+06              0.     24.5034E+06
           29212     29.0101E+06     47.6900E+06              0.     24.9220E+06
           29213     28.2127E+06     47.9208E+06              0.     25.3433E+06
           29214     27.4015E+06     48.1493E+06              0.     25.7670E+06
           29215     26.5763E+06     48.3751E+06              0.     26.1929E+06
           29216     25.7371E+06     48.5978E+06              0.     26.6208E+06
           29217     24.8838E+06     48.8170E+06              0.     27.0505E+06
           29218     24.0162E+06     49.0323E+06              0.     27.4816E+06
           29219     23.1343E+06     49.2433E+06              0.     27.9140E+06
           29220     22.2380E+06     49.4495E+06              0.     28.3473E+06
           29221     21.3271E+06     49.6505E+06              0.     28.7813E+06
           29222     20.4017E+06     49.8458E+06              0.     29.2156E+06
           29223     19.4617E+06     50.0347E+06              0.     29.6499E+06
           29224     18.5070E+06     50.2168E+06              0.     30.0838E+06
           29225     17.5376E+06     50.3916E+06              0.     30.5171E+06
           29226     16.5534E+06     50.5583E+06              0.     30.9492E+06
           29227     15.5544E+06     50.7164E+06              0.     31.3799E+06
           29228     14.5406E+06     50.8652E+06              0.     31.8087E+06
           29229     13.5120E+06     51.0040E+06              0.     32.2352E+06
           29230     12.4686E+06     51.1321E+06              0.     32.6590E+06
           29231     11.4103E+06     51.2487E+06              0.     33.0795E+06
           29232     10.3373E+06     51.3531E+06              0.     33.4963E+06
           29233     9.24960E+06     51.4444E+06              0.     33.9088E+06
           29234     8.14720E+06     51.5218E+06              0.     34.3167E+06
           29235     7.03019E+06     51.5843E+06              0.     34.7193E+06
           29236     5.89866E+06     51.6311E+06              0.     35.1161E+06
           29237     4.75270E+06     51.6612E+06              0.     35.5064E+06
           29238     3.59243E+06     51.6736E+06              0.     35.8898E+06
           29239     2.41797E+06     51.6672E+06              0.     36.2656E+06
           29240     1.22949E+06     51.6410E+06              0.     36.6332E+06
           29241     27.1338E+03     51.5938E+06              0.     36.9919E+06
           29242    -1.18890E+06     51.5244E+06              0.     37.3410E+06
           29243    -2.41841E+06     51.4317E+06              0.     37.6799E+06
           29244    -3.66117E+06     51.3143E+06              0.     38.0079E+06
           29245    -4.91694E+06     51.1711E+06              0.     38.3242E+06
           29246    -6.18544E+06     51.0005E+06              0.     38.6282E+06
           29247    -7.46639E+06     50.8013E+06              0.     38.9191E+06
           29248    -8.75948E+06     50.5720E+06              0.     39.1960E+06
           29249    -10.0644E+06     50.3111E+06              0.     39.4583E+06
           29250    -11.3807E+06     50.0171E+06              0.     39.7051E+06
           29251    -12.7080E+06     49.6884E+06              0.     39.9357E+06
           29252    -14.0460E+06     49.3233E+06              0.     40.1492E+06
           29253    -15.3942E+06     48.9202E+06              0.     40.3448E+06
           29254    -16.7521E+06     48.4773E+06              0.     40.5217E+06
           29255    -18.1192E+06     47.9930E+06              0.     40.6790E+06
           29256    -19.4950E+06     47.4652E+06              0.     40.8158E+06
           29257    -20.8790E+06     46.8923E+06              0.     40.9313E+06
           29258    -22.2705E+06     46.2722E+06              0.     41.0247E+06
           29259    -23.6689E+06     45.6029E+06              0.     41.0950E+06
           29260    -25.0737E+06     44.8826E+06              0.     41.1415E+06
           29261     -26.484E+06     44.1091E+06              0.     41.1632E+06
           29262    -27.8992E+06     43.2803E+06              0.     41.1592E+06
           29263    -29.3186E+06     42.3941E+06              0.     41.1288E+06
           29264    -30.7413E+06     41.4483E+06              0.      41.071E+06
           29265    -32.1666E+06     40.4407E+06              0.     40.9850E+06
           29266    -33.5937E+06      39.369E+06              0.     40.8699E+06
           29267    -35.0215E+06     38.2310E+06              0.     40.7250E+06
           29268    -36.4492E+06     37.0242E+06              0.     40.5493E+06
           29269    -37.8759E+06     35.7465E+06              0.     40.3421E+06
           29270    -39.3006E+06     34.3953E+06              0.     40.1026E+06
           29271    -40.7222E+06     32.9683E+06              0.     39.8301E+06
           29272    -42.1398E+06     31.4631E+06              0.     39.5236E+06
           29273    -43.5522E+06     29.8771E+06              0.     39.1826E+06
           29274    -44.9582E+06     28.2081E+06              0.     38.8062E+06
           29275    -46.3568E+06     26.4534E+06              0.     38.3939E+06
           29276    -47.7468E+06     24.6107E+06              0.     37.9449E+06
           29277    -49.1269E+06     22.6774E+06              0.     37.4586E+06
           29278    -50.4958E+06     20.6511E+06              0.     36.9344E+06
           29279    -51.8524E+06     18.5293E+06              0.     36.3717E+06
           29280    -53.1952E+06     16.3095E+06              0.     35.7700E+06
           29281    -54.5230E+06     13.9894E+06              0.     35.1287E+06
           29282    -55.8343E+06     11.5664E+06              0.     34.4474E+06
           29283    -57.1277E+06     9.03815E+06              0.     33.7255E+06
           29284    -58.4018E+06     6.40234E+06              0.     32.9627E+06
           29285    -59.6552E+06     3.65655E+06              0.     32.1586E+06
           29286    -60.8863E+06     798.526E+03              0.     31.3128E+06
           29287    -62.0936E+06    -2.17406E+06              0.     30.4250E+06
           29288    -63.2756E+06    -5.26340E+06              0.     29.4949E+06
           29289    -64.4306E+06    -8.47165E+06              0.     28.5222E+06
           29290    -65.5572E+06    -11.8010E+06              0.     27.5067E+06
           29291    -66.6535E+06    -15.2534E+06              0.     26.4483E+06
           29292    -67.7181E+06    -18.8310E+06              0.     25.3467E+06
           29293    -68.7493E+06    -22.5357E+06              0.     24.2018E+06
           29294    -69.7455E+06    -26.3694E+06              0.     23.0135E+06
           29295    -71.3498E+06    -30.7639E+06              0.     22.4599E+06
           29296     64.6586E+06     28.3910E+06              0.     1.94990E+06
           29297     64.6738E+06     28.5581E+06              0.     1.94629E+06
           29298     64.6174E+06     28.6904E+06              0.     1.92012E+06
           29299     64.5616E+06     28.8190E+06              0.     1.89783E+06
           29300     64.5065E+06     28.9442E+06              0.     1.87930E+06
           29301     64.4517E+06     29.0661E+06              0.     1.86445E+06
           29302     64.3974E+06     29.1849E+06              0.     1.85317E+06
           29303     64.3432E+06     29.3008E+06              0.     1.84537E+06
           29304     64.2893E+06     29.4139E+06              0.     1.84098E+06
           29305     64.2353E+06     29.5244E+06              0.     1.83990E+06
           29306     64.1813E+06     29.6323E+06              0.     1.84205E+06
           29307     64.1272E+06     29.7379E+06              0.     1.84738E+06
           29308     64.0728E+06     29.8413E+06              0.     1.85581E+06
           29309     64.0181E+06     29.9426E+06              0.     1.86727E+06
           29310     63.9630E+06     30.0419E+06              0.     1.88170E+06
           29311     63.9073E+06     30.1394E+06              0.     1.89906E+06
           29312     63.8511E+06     30.2351E+06              0.     1.91927E+06
           29313     63.7942E+06     30.3293E+06              0.     1.94230E+06
           29314     63.7366E+06     30.4219E+06              0.     1.96809E+06
           29315     63.6780E+06     30.5132E+06              0.     1.99661E+06
           29316     63.6186E+06     30.6032E+06              0.     2.02781E+06
           29317     63.5582E+06     30.6921E+06              0.     2.06165E+06
           29318     63.4967E+06     30.7799E+06              0.     2.09811E+06
           29319     63.4341E+06     30.8667E+06              0.     2.13715E+06
           29320     63.3702E+06     30.9526E+06              0.     2.17874E+06
           29321     63.3050E+06     31.0378E+06              0.     2.22286E+06
           29322     63.2385E+06     31.1223E+06              0.     2.26949E+06
           29323     63.1704E+06     31.2062E+06              0.      2.3186E+06
           29324     63.1009E+06     31.2896E+06              0.     2.37018E+06
           29325     63.0298E+06     31.3726E+06              0.     2.42421E+06
           29326     62.9570E+06     31.4552E+06              0.     2.48068E+06
           29327     62.8825E+06     31.5376E+06              0.     2.53958E+06
           29328     62.8061E+06     31.6198E+06              0.     2.60090E+06
           29329     62.7279E+06     31.7019E+06              0.     2.66464E+06
           29330     62.6477E+06     31.7840E+06              0.     2.73079E+06
           29331     62.5655E+06     31.8661E+06              0.     2.79935E+06
           29332     62.4811E+06     31.9484E+06              0.     2.87033E+06
           29333     62.3947E+06     32.0308E+06              0.     2.94372E+06
           29334     62.3059E+06     32.1135E+06              0.     3.01953E+06
           29335     62.2149E+06     32.1966E+06              0.     3.09777E+06
           29336     62.1215E+06     32.2800E+06              0.     3.17844E+06
           29337     62.0256E+06     32.3639E+06              0.     3.26156E+06
           29338     61.9272E+06     32.4483E+06              0.     3.34713E+06
           29339     61.8262E+06     32.5333E+06              0.     3.43518E+06
           29340     61.7225E+06     32.6190E+06              0.     3.52572E+06
           29341     61.6161E+06     32.7054E+06              0.     3.61876E+06
           29342     61.5069E+06     32.7925E+06              0.     3.71432E+06
           29343     61.3947E+06     32.8805E+06              0.     3.81243E+06
           29344     61.2796E+06     32.9694E+06              0.      3.9131E+06
           29345     61.1614E+06     33.0592E+06              0.     4.01636E+06
           29346     61.0401E+06     33.1500E+06              0.     4.12224E+06
           29347     60.9156E+06     33.2418E+06              0.     4.23076E+06
           29348     60.7879E+06     33.3348E+06              0.     4.34195E+06
           29349     60.6567E+06     33.4290E+06              0.     4.45583E+06
           29350     60.5222E+06     33.5243E+06              0.     4.57245E+06
           29351     60.3841E+06     33.6209E+06              0.     4.69182E+06
           29352     60.2424E+06     33.7188E+06              0.     4.81399E+06
           29353     60.0970E+06     33.8181E+06              0.     4.93898E+06
           29354     59.9478E+06     33.9188E+06              0.     5.06684E+06
           29355     59.7948E+06     34.0210E+06              0.     5.19759E+06
           29356     59.6378E+06     34.1246E+06              0.     5.33129E+06
           29357     59.4768E+06     34.2298E+06              0.     5.46795E+06
           29358     59.3117E+06     34.3366E+06              0.     5.60764E+06
           29359     59.1424E+06     34.4451E+06              0.     5.75038E+06
           29360     58.9688E+06     34.5553E+06              0.     5.89621E+06
           29361     58.7908E+06     34.6671E+06              0.     6.04518E+06
           29362     58.6083E+06     34.7808E+06              0.     6.19734E+06
           29363     58.4212E+06     34.8963E+06              0.     6.35272E+06
           29364     58.2295E+06     35.0136E+06              0.     6.51138E+06
           29365     58.0330E+06     35.1328E+06              0.     6.67335E+06
           29366     57.8316E+06     35.2540E+06              0.     6.83868E+06
           29367     57.6252E+06     35.3771E+06              0.     7.00742E+06
           29368     57.4138E+06     35.5023E+06              0.     7.17962E+06
           29369     57.1972E+06     35.6295E+06              0.     7.35532E+06
           29370     56.9753E+06     35.7588E+06              0.     7.53458E+06
           29371     56.7480E+06     35.8902E+06              0.     7.71743E+06
           29372     56.5152E+06     36.0237E+06              0.     7.90394E+06
           29373     56.2768E+06     36.1595E+06              0.     8.09414E+06
           29374     56.0327E+06     36.2975E+06              0.     8.28809E+06
           29375     55.7828E+06     36.4377E+06              0.     8.48584E+06
           29376     55.5269E+06     36.5802E+06              0.     8.68744E+06
           29377     55.2650E+06     36.7250E+06              0.     8.89293E+06
           29378     54.9969E+06     36.8721E+06              0.     9.10237E+06
           29379     54.7225E+06     37.0216E+06              0.     9.31581E+06
           29380     54.4417E+06     37.1735E+06              0.     9.53329E+06
           29381     54.1544E+06     37.3278E+06              0.     9.75486E+06
           29382     53.8604E+06     37.4844E+06              0.     9.98058E+06
           29383     53.5596E+06     37.6436E+06              0.     10.2105E+06
           29384     53.2520E+06     37.8052E+06              0.     10.4446E+06
           29385     52.9373E+06     37.9693E+06              0.     10.6830E+06
           29386     52.6154E+06     38.1358E+06              0.     10.9258E+06
           29387     52.2862E+06     38.3049E+06              0.     11.1729E+06
           29388     51.9497E+06     38.4765E+06              0.     11.4245E+06
           29389     51.6055E+06     38.6506E+06              0.     11.6804E+06
           29390     51.2537E+06     38.8272E+06              0.     11.9409E+06
           29391     50.8940E+06     39.0063E+06              0.     12.2060E+06
           29392     50.5264E+06     39.1879E+06              0.     12.4756E+06
           29393     50.1507E+06     39.3721E+06              0.     12.7498E+06
           29394     49.7667E+06     39.5588E+06              0.     13.0287E+06
           29395     49.3744E+06     39.7479E+06              0.     13.3122E+06
           29396     48.9735E+06     39.9396E+06              0.     13.6005E+06
           29397     48.5639E+06     40.1337E+06              0.     13.8935E+06
           29398     48.1455E+06     40.3303E+06              0.     14.1913E+06
           29399     47.7181E+06     40.5292E+06              0.     14.4938E+06
           29400     47.2817E+06     40.7306E+06              0.     14.8012E+06
           29401     46.8359E+06     40.9344E+06              0.     15.1133E+06
           29402     46.3808E+06     41.1404E+06              0.     15.4303E+06
           29403     45.9160E+06     41.3487E+06              0.     15.7522E+06
           29404     45.4416E+06     41.5593E+06              0.     16.0789E+06
           29405     44.9573E+06     41.7721E+06              0.     16.4104E+06
           29406     44.4630E+06     41.9869E+06              0.     16.7468E+06
           29407     43.9585E+06     42.2039E+06              0.     17.0881E+06
           29408     43.4436E+06     42.4228E+06              0.     17.4342E+06
           29409     42.9183E+06     42.6436E+06              0.     17.7851E+06
           29410     42.3824E+06     42.8662E+06              0.     18.1408E+06
           29411     41.8356E+06     43.0906E+06              0.     18.5012E+06
           29412     41.2779E+06     43.3167E+06              0.     18.8664E+06
           29413     40.7091E+06     43.5442E+06              0.     19.2363E+06
           29414     40.1291E+06     43.7732E+06              0.     19.6109E+06
           29415     39.5376E+06     44.0035E+06              0.     19.9900E+06
           29416     38.9346E+06     44.2350E+06              0.     20.3737E+06
           29417     38.3198E+06     44.4675E+06              0.     20.7619E+06
           29418     37.6932E+06     44.7009E+06              0.     21.1544E+06
           29419     37.0546E+06     44.9350E+06              0.     21.5513E+06
           29420     36.4037E+06     45.1696E+06              0.     21.9524E+06
           29421     35.7406E+06     45.4047E+06              0.     22.3577E+06
           29422     35.0650E+06     45.6399E+06              0.     22.7670E+06
           29423     34.3768E+06     45.8751E+06              0.     23.1801E+06
           29424     33.6758E+06       46.11E+06              0.     23.5971E+06
           29425     32.9619E+06     46.3445E+06              0.     24.0177E+06
           29426     32.2350E+06     46.5782E+06              0.     24.4418E+06
           29427     31.4949E+06     46.8110E+06              0.     24.8693E+06
           29428     30.7415E+06     47.0425E+06              0.     25.2999E+06
           29429     29.9747E+06     47.2725E+06              0.     25.7335E+06
           29430     29.1943E+06     47.5006E+06              0.     26.1699E+06
           29431     28.4002E+06     47.7266E+06              0.     26.6089E+06
           29432     27.5923E+06       47.95E+06              0.     27.0502E+06
           29433     26.7705E+06     48.1706E+06              0.     27.4937E+06
           29434     25.9346E+06     48.3879E+06              0.     27.9391E+06
           29435     25.0846E+06     48.6016E+06              0.     28.3861E+06
           29436     24.2204E+06     48.8112E+06              0.     28.8345E+06
           29437     23.3418E+06     49.0163E+06              0.     29.2839E+06
           29438     22.4488E+06     49.2165E+06              0.     29.7341E+06
           29439     21.5413E+06     49.4111E+06              0.     30.1847E+06
           29440     20.6193E+06     49.5999E+06              0.     30.6354E+06
           29441     19.6826E+06     49.7821E+06              0.     31.0859E+06
           29442     18.7312E+06     49.9572E+06              0.     31.5357E+06
           29443     17.7650E+06     50.1247E+06              0.     31.9845E+06
           29444     16.7841E+06     50.2840E+06              0.     32.4319E+06
           29445     15.7883E+06     50.4343E+06              0.     32.8775E+06
           29446     14.7777E+06     50.5750E+06              0.     33.3207E+06
           29447     13.7522E+06     50.7054E+06              0.     33.7612E+06
           29448     12.7119E+06     50.8248E+06              0.     34.1985E+06
           29449     11.6568E+06     50.9324E+06              0.     34.6321E+06
           29450     10.5868E+06     51.0273E+06              0.     35.0614E+06
           29451     9.50206E+06     51.1089E+06              0.     35.4860E+06
           29452     8.40258E+06     51.1761E+06              0.     35.9052E+06
           29453     7.28843E+06     51.2280E+06              0.     36.3185E+06
           29454     6.15969E+06     51.2637E+06              0.     36.7253E+06
           29455     5.01647E+06     51.2823E+06              0.     37.1249E+06
           29456     3.85887E+06     51.2827E+06              0.     37.5169E+06
           29457     2.68701E+06     51.2637E+06              0.     37.9004E+06
           29458     1.50105E+06     51.2244E+06              0.     38.2748E+06
           29459     301.155E+03     51.1635E+06              0.     38.6395E+06
           29460    -912.498E+03     51.0799E+06              0.     38.9937E+06
           29461    -2.13971E+06     50.9722E+06              0.     39.3366E+06
           29462    -3.38024E+06     50.8393E+06              0.     39.6677E+06
           29463    -4.63386E+06     50.6797E+06              0.     39.9860E+06
           29464    -5.90028E+06     50.4922E+06              0.     40.2908E+06
           29465    -7.17923E+06     50.2751E+06              0.     40.5813E+06
           29466    -8.47038E+06     50.0272E+06              0.     40.8567E+06
           29467    -9.77340E+06     49.7468E+06              0.     41.1163E+06
           29468    -11.0879E+06     49.4324E+06              0.     41.3590E+06
           29469    -12.4135E+06     49.0823E+06              0.     41.5841E+06
           29470    -13.7498E+06     48.6948E+06              0.     41.7908E+06
           29471    -15.0964E+06     48.2684E+06              0.     41.9780E+06
           29472    -16.4527E+06     47.8010E+06              0.     42.1451E+06
           29473    -17.8182E+06     47.2911E+06              0.     42.2910E+06
           29474    -19.1925E+06     46.7366E+06              0.     42.4149E+06
           29475    -20.5749E+06     46.1356E+06              0.     42.5158E+06
           29476    -21.9649E+06     45.4862E+06              0.     42.5930E+06
           29477    -23.3618E+06     44.7864E+06              0.     42.6453E+06
           29478    -24.7650E+06      44.034E+06              0.     42.6720E+06
           29479    -26.1737E+06     43.2270E+06              0.     42.6721E+06
           29480    -27.5873E+06     42.3633E+06              0.     42.6448E+06
           29481    -29.0050E+06     41.4406E+06              0.     42.5891E+06
           29482    -30.4259E+06     40.4567E+06              0.     42.5041E+06
           29483    -31.8493E+06     39.4094E+06              0.     42.3889E+06
           29484    -33.2742E+06     38.2962E+06              0.     42.2427E+06
           29485    -34.6998E+06     37.1150E+06              0.     42.0645E+06
           29486    -36.1251E+06     35.8632E+06              0.     41.8537E+06
           29487    -37.5492E+06     34.5386E+06              0.     41.6092E+06
           29488    -38.9710E+06     33.1386E+06              0.     41.3303E+06
           29489    -40.3896E+06     31.6609E+06              0.     41.0162E+06
           29490    -41.8037E+06     30.1029E+06              0.     40.6661E+06
           29491    -43.2124E+06     28.4621E+06              0.     40.2793E+06
           29492    -44.6144E+06     26.7362E+06              0.     39.8551E+06
           29493    -46.0086E+06     24.9225E+06              0.     39.3927E+06
           29494    -47.3937E+06     23.0186E+06              0.     38.8914E+06
           29495    -48.7685E+06     21.0219E+06              0.     38.3507E+06
           29496    -50.1317E+06     18.9300E+06              0.     37.7699E+06
           29497    -51.4820E+06     16.7403E+06              0.     37.1484E+06
           29498    -52.8180E+06     14.4505E+06              0.     36.4857E+06
           29499    -54.1383E+06     12.0579E+06              0.     35.7813E+06
           29500    -55.4416E+06     9.56023E+06              0.     35.0347E+06
           29501    -56.7264E+06     6.95504E+06              0.     34.2455E+06
           29502    -57.9912E+06     4.23992E+06              0.     33.4132E+06
           29503    -59.2345E+06     1.41257E+06              0.     32.5375E+06
           29504    -60.4548E+06    -1.52935E+06              0.     31.6181E+06
           29505    -61.6506E+06    -4.58806E+06              0.     30.6546E+06
           29506    -62.8201E+06    -7.76575E+06              0.     29.6468E+06
           29507    -63.9619E+06    -11.0646E+06              0.     28.5944E+06
           29508    -65.0743E+06    -14.4867E+06              0.     27.4973E+06
           29509    -66.1556E+06    -18.0341E+06              0.     26.3553E+06
           29510    -67.2042E+06    -21.7087E+06              0.     25.1682E+06
           29511    -68.2182E+06    -25.5124E+06              0.     23.9360E+06
           29512    -69.8218E+06    -29.8774E+06              0.     23.3637E+06
           29513     64.7364E+06     28.4246E+06              0.     2.00594E+06
           29514     64.7511E+06     28.5868E+06              0.     2.00223E+06
           29515     64.6964E+06     28.7152E+06              0.     1.97531E+06
           29516     64.6423E+06     28.8400E+06              0.     1.95238E+06
           29517     64.5887E+06     28.9615E+06              0.     1.93333E+06
           29518     64.5356E+06     29.0798E+06              0.     1.91805E+06
           29519     64.4829E+06     29.1952E+06              0.     1.90645E+06
           29520     64.4304E+06     29.3076E+06              0.     1.89843E+06
           29521     64.3780E+06     29.4174E+06              0.     1.89391E+06
           29522     64.3256E+06     29.5246E+06              0.     1.89280E+06
           29523     64.2732E+06     29.6294E+06              0.     1.89503E+06
           29524     64.2207E+06     29.7319E+06              0.     1.90051E+06
           29525     64.1679E+06     29.8322E+06              0.     1.90919E+06
           29526     64.1148E+06     29.9305E+06              0.     1.92098E+06
           29527     64.0613E+06     30.0269E+06              0.     1.93584E+06
           29528     64.0073E+06     30.1215E+06              0.     1.95369E+06
           29529     63.9527E+06     30.2144E+06              0.     1.97449E+06
           29530     63.8975E+06     30.3058E+06              0.     1.99819E+06
           29531     63.8415E+06     30.3958E+06              0.     2.02473E+06
           29532     63.7848E+06     30.4844E+06              0.     2.05407E+06
           29533     63.7271E+06     30.5717E+06              0.     2.08617E+06
           29534     63.6684E+06     30.6580E+06              0.     2.12100E+06
           29535     63.6087E+06     30.7432E+06              0.     2.15852E+06
           29536     63.5479E+06     30.8274E+06              0.     2.19869E+06
           29537     63.4859E+06     30.9109E+06              0.     2.24148E+06
           29538     63.4227E+06     30.9936E+06              0.     2.28688E+06
           29539     63.3581E+06     31.0756E+06              0.     2.33486E+06
           29540     63.2920E+06     31.1570E+06              0.     2.38539E+06
           29541     63.2245E+06     31.2380E+06              0.     2.43846E+06
           29542     63.1555E+06     31.3185E+06              0.     2.49405E+06
           29543     63.0848E+06     31.3988E+06              0.     2.55216E+06
           29544     63.0125E+06     31.4787E+06              0.     2.61277E+06
           29545     62.9383E+06     31.5585E+06              0.     2.67587E+06
           29546     62.8624E+06     31.6383E+06              0.     2.74145E+06
           29547     62.7845E+06     31.7179E+06              0.     2.80952E+06
           29548     62.7047E+06     31.7977E+06              0.     2.88007E+06
           29549     62.6229E+06     31.8775E+06              0.     2.95311E+06
           29550     62.5389E+06     31.9576E+06              0.     3.02862E+06
           29551     62.4528E+06     32.0379E+06              0.     3.10663E+06
           29552     62.3644E+06     32.1185E+06              0.     3.18714E+06
           29553     62.2737E+06     32.1996E+06              0.     3.27016E+06
           29554     62.1806E+06     32.2810E+06              0.     3.35569E+06
           29555     62.0851E+06     32.3630E+06              0.     3.44375E+06
           29556     61.9870E+06     32.4456E+06              0.     3.53436E+06
           29557     61.8864E+06     32.5288E+06              0.     3.62752E+06
           29558     61.7830E+06     32.6127E+06              0.     3.72327E+06
           29559     61.6770E+06     32.6973E+06              0.     3.82161E+06
           29560     61.5681E+06     32.7828E+06              0.     3.92257E+06
           29561     61.4563E+06     32.8691E+06              0.     4.02617E+06
           29562     61.3416E+06     32.9563E+06              0.     4.13244E+06
           29563     61.2238E+06     33.0445E+06              0.     4.24141E+06
           29564     61.1029E+06     33.1338E+06              0.     4.35309E+06
           29565     60.9788E+06     33.2241E+06              0.     4.46752E+06
           29566     60.8515E+06     33.3155E+06              0.     4.58473E+06
           29567     60.7208E+06     33.4082E+06              0.     4.70474E+06
           29568     60.5867E+06     33.5020E+06              0.     4.82760E+06
           29569     60.4491E+06     33.5972E+06              0.     4.95334E+06
           29570     60.3079E+06     33.6937E+06              0.     5.08199E+06
           29571     60.1630E+06     33.7915E+06              0.     5.21359E+06
           29572     60.0144E+06     33.8908E+06              0.     5.34817E+06
           29573     59.8620E+06     33.9915E+06              0.     5.48578E+06
           29574     59.7056E+06     34.0938E+06              0.     5.62646E+06
           29575     59.5453E+06     34.1976E+06              0.     5.77023E+06
           29576     59.3808E+06     34.3030E+06              0.     5.91716E+06
           29577     59.2122E+06     34.4101E+06              0.     6.06728E+06
           29578     59.0393E+06     34.5188E+06              0.     6.22063E+06
           29579     58.8620E+06     34.6293E+06              0.     6.37726E+06
           29580     58.6803E+06     34.7416E+06              0.     6.53722E+06
           29581     58.4940E+06     34.8557E+06              0.     6.70054E+06
           29582     58.3031E+06     34.9716E+06              0.     6.86729E+06
           29583     58.1075E+06     35.0894E+06              0.      7.0375E+06
           29584     57.9070E+06     35.2092E+06              0.     7.21123E+06
           29585     57.7016E+06     35.3309E+06              0.     7.38851E+06
           29586     57.4911E+06     35.4546E+06              0.     7.56941E+06
           29587     57.2756E+06     35.5804E+06              0.     7.75398E+06
           29588     57.0547E+06     35.7082E+06              0.     7.94225E+06
           29589     56.8285E+06     35.8381E+06              0.     8.13429E+06
           29590     56.5969E+06     35.9702E+06              0.     8.33014E+06
           29591     56.3597E+06     36.1045E+06              0.     8.52986E+06
           29592     56.1168E+06     36.2409E+06              0.     8.73350E+06
           29593     55.8682E+06     36.3796E+06              0.     8.94110E+06
           29594     55.6136E+06     36.5205E+06              0.     9.15273E+06
           29595     55.3531E+06     36.6637E+06              0.     9.36842E+06
           29596     55.0864E+06     36.8092E+06              0.     9.58825E+06
           29597     54.8135E+06     36.9571E+06              0.     9.81224E+06
           29598     54.5342E+06     37.1073E+06              0.     10.0405E+06
           29599     54.2484E+06     37.2599E+06              0.     10.2729E+06
           29600     53.9560E+06     37.4149E+06              0.     10.5098E+06
           29601     53.6569E+06     37.5722E+06              0.     10.7509E+06
           29602     53.3510E+06     37.7321E+06              0.     10.9966E+06
           29603     53.0380E+06     37.8943E+06              0.     11.2466E+06
           29604     52.7180E+06     38.0591E+06              0.     11.5012E+06
           29605     52.3907E+06     38.2262E+06              0.     11.7604E+06
           29606     52.0561E+06     38.3959E+06              0.     12.0242E+06
           29607     51.7139E+06     38.5680E+06              0.     12.2926E+06
           29608     51.3641E+06     38.7426E+06              0.     12.5657E+06
           29609     51.0066E+06     38.9197E+06              0.     12.8435E+06
           29610     50.6411E+06     39.0993E+06              0.     13.1261E+06
           29611     50.2675E+06     39.2814E+06              0.     13.4135E+06
           29612     49.8858E+06     39.4659E+06              0.     13.7058E+06
           29613     49.4958E+06     39.6529E+06              0.     14.0029E+06
           29614     49.0973E+06     39.8423E+06              0.     14.3049E+06
           29615     48.6901E+06     40.0341E+06              0.     14.6118E+06
           29616     48.2742E+06     40.2283E+06              0.     14.9238E+06
           29617     47.8494E+06     40.4249E+06              0.     15.2406E+06
           29618     47.4156E+06     40.6239E+06              0.     15.5625E+06
           29619     46.9725E+06     40.8251E+06              0.     15.8894E+06
           29620     46.5201E+06     41.0286E+06              0.     16.2213E+06
           29621     46.0582E+06     41.2344E+06              0.     16.5582E+06
           29622     45.5866E+06     41.4423E+06              0.     16.9001E+06
           29623     45.1052E+06     41.6523E+06              0.     17.2471E+06
           29624     44.6139E+06     41.8645E+06              0.     17.5991E+06
           29625     44.1124E+06     42.0786E+06              0.     17.9562E+06
           29626     43.6007E+06     42.2946E+06              0.     18.3182E+06
           29627     43.0785E+06     42.5125E+06              0.     18.6852E+06
           29628     42.5458E+06     42.7321E+06              0.     19.0571E+06
           29629     42.0023E+06     42.9534E+06              0.     19.4340E+06
           29630     41.4479E+06     43.1763E+06              0.     19.8158E+06
           29631     40.8825E+06     43.4007E+06              0.     20.2024E+06
           29632     40.3059E+06     43.6264E+06              0.     20.5938E+06
           29633     39.7179E+06     43.8533E+06              0.     20.9899E+06
           29634     39.1184E+06     44.0813E+06              0.     21.3907E+06
           29635     38.5073E+06     44.3103E+06              0.     21.7961E+06
           29636     37.8843E+06     44.5401E+06              0.     22.2060E+06
           29637     37.2494E+06     44.7705E+06              0.     22.6203E+06
           29638     36.6023E+06     45.0014E+06              0.     23.0389E+06
           29639     35.9430E+06     45.2326E+06              0.     23.4617E+06
           29640     35.2712E+06     45.4638E+06              0.     23.8886E+06
           29641     34.5869E+06     45.6949E+06              0.     24.3195E+06
           29642     33.8898E+06     45.9257E+06              0.     24.7543E+06
           29643     33.1799E+06     46.1559E+06              0.     25.1927E+06
           29644     32.4570E+06     46.3853E+06              0.     25.6346E+06
           29645     31.7209E+06     46.6136E+06              0.     26.0798E+06
           29646     30.9716E+06     46.8405E+06              0.     26.5282E+06
           29647     30.2088E+06     47.0658E+06              0.     26.9796E+06
           29648     29.4325E+06     47.2890E+06              0.     27.4337E+06
           29649     28.6425E+06     47.5100E+06              0.     27.8904E+06
           29650     27.8387E+06     47.7284E+06              0.     28.3493E+06
           29651     27.0211E+06     47.9437E+06              0.     28.8103E+06
           29652     26.1893E+06     48.1556E+06              0.     29.2731E+06
           29653     25.3435E+06     48.3637E+06              0.     29.7373E+06
           29654     24.4834E+06     48.5676E+06              0.     30.2028E+06
           29655     23.6090E+06     48.7668E+06              0.     30.6691E+06
           29656     22.7202E+06     48.9608E+06              0.     31.1360E+06
           29657     21.8168E+06     49.1492E+06              0.     31.6031E+06
           29658     20.8989E+06     49.3314E+06              0.     32.0700E+06
           29659     19.9663E+06     49.5069E+06              0.     32.5364E+06
           29660     19.0189E+06     49.6751E+06              0.     33.0018E+06
           29661     18.0568E+06     49.8354E+06              0.     33.4659E+06
           29662     17.0799E+06     49.9872E+06              0.     33.9282E+06
           29663     16.0881E+06     50.1298E+06              0.     34.3883E+06
           29664     15.0814E+06     50.2626E+06              0.     34.8456E+06
           29665     14.0598E+06     50.3847E+06              0.     35.2997E+06
           29666     13.0233E+06     50.4955E+06              0.     35.7501E+06
           29667     11.9719E+06     50.5942E+06              0.     36.1962E+06
           29668     10.9056E+06     50.6799E+06              0.     36.6376E+06
           29669     9.82446E+06     50.7518E+06              0.     37.0735E+06
           29670     8.72851E+06     50.8090E+06              0.     37.5034E+06
           29671     7.61781E+06     50.8505E+06              0.     37.9268E+06
           29672     6.49245E+06     50.8754E+06              0.     38.3429E+06
           29673     5.35251E+06     50.8826E+06              0.     38.7511E+06
           29674     4.19810E+06     50.8712E+06              0.     39.1507E+06
           29675     3.02934E+06     50.8399E+06              0.     39.5411E+06
           29676     1.84638E+06     50.7877E+06              0.     39.9215E+06
           29677     649.382E+03     50.7134E+06              0.     40.2912E+06
           29678    -561.477E+03     50.6157E+06              0.     40.6495E+06
           29679    -1.78599E+06     50.4934E+06              0.     40.9954E+06
           29680    -3.02394E+06     50.3451E+06              0.     41.3284E+06
           29681    -4.27508E+06     50.1695E+06              0.     41.6475E+06
           29682    -5.53913E+06     49.9651E+06              0.     41.9519E+06
           29683    -6.81581E+06     49.7305E+06              0.     42.2408E+06
           29684    -8.10480E+06     49.4642E+06              0.     42.5133E+06
           29685    -9.40575E+06     49.1645E+06              0.     42.7686E+06
           29686    -10.7183E+06     48.8299E+06              0.     43.0057E+06
           29687    -12.0420E+06     48.4587E+06              0.     43.2238E+06
           29688    -13.3766E+06     48.0492E+06              0.     43.4219E+06
           29689    -14.7214E+06     47.5995E+06              0.     43.5992E+06
           29690    -16.0761E+06     47.1079E+06              0.     43.7546E+06
           29691    -17.4401E+06     46.5725E+06              0.     43.8873E+06
           29692    -18.8128E+06     45.9914E+06              0.     43.9963E+06
           29693    -20.1938E+06     45.3626E+06              0.     44.0807E+06
           29694    -21.5824E+06     44.6840E+06              0.     44.1394E+06
           29695    -22.9779E+06     43.9536E+06              0.     44.1716E+06
           29696    -24.3796E+06     43.1693E+06              0.     44.1763E+06
           29697    -25.7870E+06     42.3289E+06              0.     44.1526E+06
           29698    -27.1991E+06     41.4302E+06              0.     44.0994E+06
           29699    -28.6153E+06     40.4710E+06              0.     44.0159E+06
           29700    -30.0346E+06     39.4490E+06              0.     43.9012E+06
           29701    -31.4564E+06     38.3617E+06              0.     43.7542E+06
           29702    -32.8796E+06     37.2070E+06              0.     43.5741E+06
           29703    -34.3033E+06     35.9823E+06              0.     43.3601E+06
           29704    -35.7266E+06     34.6853E+06              0.     43.1111E+06
           29705    -37.1484E+06     33.3134E+06              0.     42.8265E+06
           29706    -38.5678E+06     31.8643E+06              0.     42.5052E+06
           29707    -39.9837E+06     30.3354E+06              0.     42.1466E+06
           29708    -41.3948E+06     28.7242E+06              0.     41.7499E+06
           29709    -42.8002E+06     27.0282E+06              0.     41.3141E+06
           29710    -44.1986E+06     25.2448E+06              0.     40.8387E+06
           29711    -45.5888E+06     23.3715E+06              0.     40.3230E+06
           29712    -46.9696E+06     21.4057E+06              0.     39.7662E+06
           29713    -48.3396E+06     19.3450E+06              0.     39.1677E+06
           29714    -49.6975E+06     17.1867E+06              0.     38.5269E+06
           29715     -51.042E+06     14.9284E+06              0.     37.8432E+06
           29716    -52.3717E+06     12.5676E+06              0.     37.1161E+06
           29717    -53.6851E+06     10.1017E+06              0.     36.3452E+06
           29718    -54.9809E+06     7.52845E+06              0.     35.5299E+06
           29719    -56.2575E+06     4.84529E+06              0.     34.6698E+06
           29720    -57.5134E+06     2.04993E+06              0.     33.7645E+06
           29721    -58.7472E+06    -860.027E+03              0.     32.8137E+06
           29722    -59.9571E+06    -3.88684E+06              0.     31.8172E+06
           29723    -61.1417E+06    -7.03269E+06              0.     30.7745E+06
           29724    -62.2993E+06    -10.2998E+06              0.     29.6855E+06
           29725    -63.4283E+06    -13.6903E+06              0.     28.5499E+06
           29726    -64.5269E+06    -17.2063E+06              0.     27.3677E+06
           29727    -65.5935E+06    -20.8496E+06              0.     26.1386E+06
           29728    -66.6263E+06    -24.6223E+06              0.     24.8625E+06
           29729    -68.2293E+06    -28.9567E+06              0.     24.2715E+06
           29730     64.8164E+06     28.4591E+06              0.     2.06029E+06
           29731     64.8307E+06     28.6163E+06              0.     2.05648E+06
           29732     64.7776E+06     28.7406E+06              0.     2.02884E+06
           29733     64.7252E+06     28.8616E+06              0.     2.00529E+06
           29734     64.6733E+06     28.9793E+06              0.     1.98572E+06
           29735     64.6219E+06     29.0939E+06              0.     1.97004E+06
           29736     64.5708E+06     29.2057E+06              0.     1.95812E+06
           29737     64.5199E+06     29.3146E+06              0.     1.94989E+06
           29738     64.4692E+06     29.4210E+06              0.     1.94525E+06
           29739     64.4185E+06     29.5248E+06              0.     1.94412E+06
           29740     64.3677E+06     29.6263E+06              0.     1.94641E+06
           29741     64.3168E+06     29.7256E+06              0.     1.95205E+06
           29742     64.2657E+06     29.8228E+06              0.     1.96096E+06
           29743     64.2142E+06     29.9181E+06              0.     1.97308E+06
           29744     64.1624E+06     30.0114E+06              0.     1.98834E+06
           29745     64.1101E+06     30.1031E+06              0.     2.00669E+06
           29746     64.0572E+06     30.1932E+06              0.     2.02806E+06
           29747     64.0037E+06     30.2817E+06              0.     2.05240E+06
           29748     63.9495E+06     30.3688E+06              0.     2.07967E+06
           29749     63.8944E+06     30.4547E+06              0.     2.10982E+06
           29750     63.8386E+06     30.5393E+06              0.     2.14280E+06
           29751     63.7817E+06     30.6229E+06              0.     2.17858E+06
           29752     63.7239E+06     30.7055E+06              0.     2.21711E+06
           29753     63.6650E+06     30.7871E+06              0.     2.25838E+06
           29754     63.6049E+06     30.8680E+06              0.     2.30235E+06
           29755     63.5436E+06     30.9481E+06              0.     2.34899E+06
           29756      63.481E+06     31.0276E+06              0.     2.39827E+06
           29757     63.4170E+06     31.1065E+06              0.     2.45018E+06
           29758     63.3516E+06     31.1849E+06              0.     2.50471E+06
           29759     63.2847E+06     31.2630E+06              0.     2.56182E+06
           29760     63.2162E+06     31.3407E+06              0.     2.62151E+06
           29761     63.1461E+06     31.4182E+06              0.     2.68378E+06
           29762     63.0743E+06     31.4956E+06              0.     2.74860E+06
           29763     63.0007E+06     31.5728E+06              0.     2.81598E+06
           29764     62.9253E+06     31.6501E+06              0.     2.88591E+06
           29765     62.8479E+06     31.7273E+06              0.     2.95839E+06
           29766     62.7686E+06     31.8047E+06              0.     3.03342E+06
           29767     62.6872E+06     31.8823E+06              0.     3.11101E+06
           29768     62.6037E+06     31.9602E+06              0.     3.19116E+06
           29769     62.5181E+06     32.0383E+06              0.     3.27387E+06
           29770     62.4302E+06     32.1169E+06              0.     3.35916E+06
           29771     62.3400E+06     32.1959E+06              0.     3.44703E+06
           29772     62.2474E+06     32.2753E+06              0.     3.53751E+06
           29773     62.1524E+06     32.3554E+06              0.     3.63060E+06
           29774     62.0548E+06     32.4360E+06              0.     3.72632E+06
           29775     61.9546E+06     32.5174E+06              0.     3.82469E+06
           29776     61.8518E+06     32.5994E+06              0.     3.92574E+06
           29777     61.7463E+06     32.6823E+06              0.     4.02947E+06
           29778     61.6380E+06     32.7660E+06              0.     4.13592E+06
           29779     61.5267E+06     32.8506E+06              0.     4.24511E+06
           29780     61.4126E+06     32.9361E+06              0.     4.35707E+06
           29781     61.2954E+06     33.0226E+06              0.     4.47183E+06
           29782     61.1751E+06     33.1102E+06              0.     4.58941E+06
           29783     61.0517E+06     33.1989E+06              0.     4.70984E+06
           29784     60.9250E+06     33.2888E+06              0.     4.83317E+06
           29785     60.7950E+06     33.3798E+06              0.     4.95942E+06
           29786     60.6616E+06     33.4721E+06              0.     5.08862E+06
           29787     60.5248E+06     33.5657E+06              0.     5.22082E+06
           29788     60.3843E+06     33.6606E+06              0.     5.35606E+06
           29789     60.2403E+06     33.7569E+06              0.     5.49436E+06
           29790     60.0925E+06     33.8546E+06              0.     5.63578E+06
           29791     59.9409E+06     33.9538E+06              0.     5.78034E+06
           29792     59.7854E+06     34.0546E+06              0.     5.92810E+06
           29793     59.6260E+06     34.1569E+06              0.     6.07910E+06
           29794     59.4625E+06     34.2608E+06              0.     6.23339E+06
           29795     59.2948E+06     34.3663E+06              0.     6.39100E+06
           29796     59.1230E+06     34.4736E+06              0.     6.55198E+06
           29797     58.9468E+06     34.5825E+06              0.     6.71638E+06
           29798     58.7661E+06     34.6932E+06              0.     6.88426E+06
           29799     58.5810E+06     34.8058E+06              0.     7.05565E+06
           29800     58.3913E+06     34.9202E+06              0.     7.23060E+06
           29801     58.1969E+06     35.0364E+06              0.     7.40918E+06
           29802     57.9977E+06     35.1546E+06              0.     7.59142E+06
           29803     57.7936E+06     35.2747E+06              0.     7.77738E+06
           29804     57.5845E+06     35.3969E+06              0.     7.96711E+06
           29805     57.3703E+06     35.5210E+06              0.     8.16066E+06
           29806     57.1509E+06     35.6472E+06              0.     8.35808E+06
           29807     56.9262E+06     35.7755E+06              0.     8.55944E+06
           29808     56.6961E+06     35.9059E+06              0.     8.76477E+06
           29809     56.4605E+06     36.0384E+06              0.     8.97414E+06
           29810     56.2193E+06     36.1732E+06              0.     9.18760E+06
           29811     55.9724E+06     36.3101E+06              0.     9.40520E+06
           29812     55.7196E+06     36.4493E+06              0.     9.62699E+06
           29813     55.4608E+06     36.5907E+06              0.     9.85303E+06
           29814     55.1960E+06     36.7344E+06              0.     10.0834E+06
           29815     54.9250E+06     36.8804E+06              0.     10.3181E+06
           29816     54.6477E+06     37.0288E+06              0.     10.5572E+06
           29817     54.3640E+06     37.1794E+06              0.     10.8007E+06
           29818     54.0737E+06     37.3325E+06              0.     11.0488E+06
           29819     53.7767E+06     37.4879E+06              0.     11.3014E+06
           29820     53.4730E+06     37.6458E+06              0.     11.5586E+06
           29821     53.1623E+06      37.806E+06              0.     11.8205E+06
           29822     52.8446E+06     37.9686E+06              0.     12.0871E+06
           29823     52.5198E+06     38.1337E+06              0.     12.3585E+06
           29824     52.1876E+06     38.3013E+06              0.     12.6346E+06
           29825     51.8480E+06     38.4712E+06              0.     12.9156E+06
           29826     51.5008E+06     38.6436E+06              0.     13.2014E+06
           29827     51.1459E+06     38.8185E+06              0.     13.4922E+06
           29828     50.7831E+06     38.9957E+06              0.     13.7880E+06
           29829     50.4124E+06     39.1755E+06              0.     14.0887E+06
           29830     50.0335E+06     39.3576E+06              0.     14.3945E+06
           29831     49.6464E+06     39.5421E+06              0.     14.7053E+06
           29832     49.2509E+06     39.7291E+06              0.     15.0213E+06
           29833     48.8468E+06     39.9184E+06              0.     15.3423E+06
           29834     48.4341E+06     40.1100E+06              0.     15.6685E+06
           29835     48.0125E+06     40.3040E+06              0.     15.9999E+06
           29836     47.5819E+06     40.5003E+06              0.     16.3364E+06
           29837     47.1422E+06     40.6988E+06              0.     16.6782E+06
           29838     46.6932E+06     40.8996E+06              0.     17.0251E+06
           29839     46.2348E+06     41.1025E+06              0.     17.3772E+06
           29840     45.7667E+06     41.3076E+06              0.     17.7346E+06
           29841     45.2890E+06     41.5147E+06              0.     18.0971E+06
           29842     44.8013E+06     41.7238E+06              0.     18.4649E+06
           29843     44.3036E+06     41.9348E+06              0.     18.8378E+06
           29844     43.7957E+06     42.1478E+06              0.     19.2159E+06
           29845     43.2775E+06     42.3625E+06              0.     19.5992E+06
           29846     42.7487E+06     42.5789E+06              0.     19.9875E+06
           29847     42.2092E+06     42.7969E+06              0.     20.3810E+06
           29848     41.6590E+06     43.0165E+06              0.     20.7794E+06
           29849     41.0977E+06     43.2374E+06              0.     21.1828E+06
           29850     40.5253E+06     43.4596E+06              0.     21.5912E+06
           29851     39.9416E+06      43.683E+06              0.     22.0044E+06
           29852     39.3465E+06     43.9074E+06              0.     22.4224E+06
           29853     38.7398E+06     44.1327E+06              0.     22.8451E+06
           29854     38.1213E+06     44.3587E+06              0.     23.2723E+06
           29855     37.4908E+06     44.5852E+06              0.     23.7042E+06
           29856     36.8483E+06     44.8122E+06              0.     24.1404E+06
           29857     36.1936E+06     45.0393E+06              0.     24.5808E+06
           29858     35.5265E+06     45.2664E+06              0.     25.0255E+06
           29859     34.8469E+06     45.4934E+06              0.     25.4741E+06
           29860     34.1546E+06     45.7199E+06              0.     25.9266E+06
           29861     33.4494E+06     45.9457E+06              0.     26.3828E+06
           29862     32.7314E+06     46.1706E+06              0.     26.8426E+06
           29863     32.0001E+06     46.3943E+06              0.     27.3056E+06
           29864     31.2557E+06     46.6165E+06              0.     27.7718E+06
           29865     30.4978E+06     46.8370E+06              0.     28.2410E+06
           29866     29.7265E+06     47.0553E+06              0.     28.7128E+06
           29867     28.9415E+06     47.2713E+06              0.     29.1870E+06
           29868     28.1427E+06     47.4844E+06              0.     29.6635E+06
           29869     27.3300E+06     47.6944E+06              0.     30.1419E+06
           29870     26.5032E+06     47.9009E+06              0.     30.6219E+06
           29871     25.6624E+06     48.1034E+06              0.     31.1033E+06
           29872     24.8073E+06     48.3015E+06              0.     31.5857E+06
           29873     23.9378E+06     48.4948E+06              0.     32.0687E+06
           29874     23.0540E+06     48.6828E+06              0.     32.5521E+06
           29875     22.1555E+06     48.8649E+06              0.     33.0355E+06
           29876     21.2425E+06     49.0407E+06              0.     33.5183E+06
           29877     20.3148E+06     49.2095E+06              0.     34.0004E+06
           29878     19.3723E+06     49.3709E+06              0.     34.4812E+06
           29879     18.4149E+06     49.5241E+06              0.     34.9602E+06
           29880     17.4428E+06     49.6686E+06              0.     35.4371E+06
           29881     16.4556E+06     49.8036E+06              0.     35.9112E+06
           29882     15.4536E+06     49.9285E+06              0.     36.3822E+06
           29883     14.4365E+06     50.0426E+06              0.     36.8495E+06
           29884     13.4045E+06     50.1450E+06              0.     37.3125E+06
           29885     12.3575E+06     50.2349E+06              0.     37.7707E+06
           29886     11.2955E+06     50.3115E+06              0.     38.2234E+06
           29887     10.2186E+06     50.3740E+06              0.     38.6701E+06
           29888     9.12680E+06     50.4214E+06              0.     39.1101E+06
           29889     8.02013E+06     50.4527E+06              0.     39.5428E+06
           29890     6.89869E+06     50.4669E+06              0.     39.9675E+06
           29891     5.76255E+06     50.4631E+06              0.     40.3835E+06
           29892     4.61182E+06     50.4401E+06              0.     40.7901E+06
           29893     3.44662E+06     50.3968E+06              0.     41.1864E+06
           29894     2.26710E+06     50.3320E+06              0.     41.5719E+06
           29895     1.07340E+06     50.2446E+06              0.     41.9456E+06
           29896    -134.287E+03     50.1332E+06              0.     42.3068E+06
           29897    -1.35577E+06     49.9965E+06              0.     42.6547E+06
           29898    -2.59082E+06     49.8332E+06              0.     42.9884E+06
           29899    -3.83919E+06     49.6418E+06              0.     43.3070E+06
           29900    -5.10063E+06     49.4210E+06              0.     43.6098E+06
           29901    -6.37482E+06     49.1691E+06              0.     43.8957E+06
           29902    -7.66147E+06     48.8847E+06              0.     44.1638E+06
           29903    -8.96021E+06     48.5660E+06              0.     44.4134E+06
           29904    -10.2707E+06     48.2116E+06              0.     44.6433E+06
           29905    -11.5925E+06     47.8195E+06              0.     44.8527E+06
           29906    -12.9252E+06     47.3881E+06              0.     45.0406E+06
           29907    -14.2683E+06     46.9155E+06              0.     45.2061E+06
           29908    -15.6214E+06     46.3999E+06              0.     45.3480E+06
           29909    -16.9839E+06     45.8393E+06              0.     45.4656E+06
           29910    -18.3553E+06     45.2318E+06              0.     45.5577E+06
           29911    -19.7349E+06     44.5752E+06              0.     45.6233E+06
           29912    -21.1222E+06     43.8676E+06              0.     45.6616E+06
           29913    -22.5165E+06     43.1068E+06              0.     45.6714E+06
           29914    -23.9171E+06     42.2906E+06              0.     45.6517E+06
           29915    -25.3233E+06     41.4169E+06              0.     45.6017E+06
           29916    -26.7343E+06     40.4832E+06              0.     45.5202E+06
           29917    -28.1493E+06     39.4875E+06              0.     45.4064E+06
           29918    -29.5675E+06     38.4271E+06              0.     45.2593E+06
           29919    -30.9879E+06     37.2999E+06              0.     45.0778E+06
           29920    -32.4098E+06     36.1034E+06              0.     44.8611E+06
           29921    -33.8320E+06     34.8351E+06              0.     44.6082E+06
           29922    -35.2537E+06     33.4925E+06              0.     44.3183E+06
           29923    -36.6738E+06     32.0732E+06              0.     43.9905E+06
           29924    -38.0912E+06     30.5745E+06              0.     43.6239E+06
           29925    -39.5049E+06     28.9941E+06              0.     43.2176E+06
           29926    -40.9136E+06     27.3292E+06              0.     42.7710E+06
           29927    -42.3163E+06     25.5773E+06              0.     42.2831E+06
           29928    -43.7116E+06     23.7359E+06              0.     41.7533E+06
           29929    -45.0984E+06     21.8023E+06              0.     41.1809E+06
           29930    -46.4753E+06     19.7740E+06              0.     40.5651E+06
           29931    -47.8410E+06     17.6484E+06              0.     39.9054E+06
           29932    -49.1942E+06     15.4230E+06              0.     39.2012E+06
           29933    -50.5335E+06     13.0953E+06              0.     38.4519E+06
           29934    -51.8574E+06     10.6626E+06              0.     37.6570E+06
           29935    -53.1644E+06     8.12256E+06              0.     36.8159E+06
           29936    -54.4532E+06     5.47269E+06              0.     35.9283E+06
           29937    -55.7222E+06     2.71062E+06              0.     34.9938E+06
           29938    -56.9698E+06    -166.064E+03              0.     34.0120E+06
           29939    -58.1944E+06    -3.15966E+06              0.     32.9826E+06
           29940    -59.3945E+06    -6.27240E+06              0.     31.9053E+06
           29941    -60.5685E+06    -9.50655E+06              0.     30.7799E+06
           29942    -61.7146E+06    -12.8642E+06              0.     29.6062E+06
           29943    -62.8312E+06    -16.3474E+06              0.     28.3839E+06
           29944    -63.9167E+06    -19.9583E+06              0.     27.1130E+06
           29945    -64.9690E+06    -23.6987E+06              0.     25.7934E+06
           29946    -66.5718E+06    -28.0017E+06              0.     25.1838E+06
           29947     64.8985E+06     28.4945E+06              0.     2.11292E+06
           29948     64.9123E+06     28.6465E+06              0.     2.10901E+06
           29949     64.8610E+06     28.7668E+06              0.     2.08066E+06
           29950     64.8103E+06     28.8837E+06              0.     2.05652E+06
           29951     64.7602E+06     28.9975E+06              0.     2.03646E+06
           29952     64.7105E+06     29.1084E+06              0.     2.02037E+06
           29953     64.6610E+06     29.2164E+06              0.     2.00816E+06
           29954     64.6118E+06     29.3218E+06              0.     1.99972E+06
           29955     64.5628E+06     29.4246E+06              0.     1.99497E+06
           29956     64.5137E+06     29.5250E+06              0.     1.99381E+06
           29957     64.4647E+06     29.6232E+06              0.     1.99616E+06
           29958     64.4154E+06     29.7192E+06              0.     2.00195E+06
           29959     64.3660E+06     29.8132E+06              0.     2.01110E+06
           29960     64.3163E+06     29.9053E+06              0.     2.02353E+06
           29961     64.2661E+06     29.9956E+06              0.     2.03919E+06
           29962     64.2156E+06     30.0842E+06              0.     2.05801E+06
           29963     64.1644E+06     30.1713E+06              0.     2.07993E+06
           29964     64.1127E+06     30.2569E+06              0.     2.10490E+06
           29965     64.0602E+06     30.3412E+06              0.     2.13287E+06
           29966     64.0070E+06     30.4242E+06              0.     2.16380E+06
           29967      63.953E+06     30.5061E+06              0.     2.19763E+06
           29968     63.8980E+06     30.5869E+06              0.     2.23433E+06
           29969     63.8421E+06     30.6667E+06              0.     2.27386E+06
           29970     63.7851E+06     30.7457E+06              0.     2.31619E+06
           29971     63.7270E+06     30.8239E+06              0.     2.36129E+06
           29972     63.6677E+06     30.9014E+06              0.     2.40913E+06
           29973     63.6072E+06     30.9782E+06              0.     2.45969E+06
           29974     63.5453E+06     31.0546E+06              0.     2.51294E+06
           29975     63.4821E+06     31.1305E+06              0.     2.56886E+06
           29976     63.4174E+06     31.2060E+06              0.     2.62745E+06
           29977     63.3511E+06     31.2811E+06              0.     2.68868E+06
           29978     63.2833E+06     31.3561E+06              0.     2.75255E+06
           29979     63.2138E+06     31.4309E+06              0.     2.81905E+06
           29980     63.1427E+06     31.5057E+06              0.     2.88816E+06
           29981     63.0697E+06     31.5804E+06              0.     2.95990E+06
           29982     62.9949E+06     31.6551E+06              0.     3.03425E+06
           29983     62.9182E+06     31.7300E+06              0.     3.11122E+06
           29984     62.8395E+06     31.8051E+06              0.     3.19081E+06
           29985     62.7587E+06     31.8804E+06              0.     3.27302E+06
           29986     62.6759E+06     31.9560E+06              0.     3.35787E+06
           29987     62.5908E+06     32.0320E+06              0.     3.44537E+06
           29988     62.5036E+06     32.1084E+06              0.     3.53551E+06
           29989     62.4140E+06     32.1853E+06              0.     3.62833E+06
           29990     62.3221E+06     32.2627E+06              0.     3.72383E+06
           29991     62.2277E+06     32.3408E+06              0.     3.82203E+06
           29992     62.1308E+06     32.4195E+06              0.     3.92295E+06
           29993     62.0314E+06     32.4989E+06              0.     4.02661E+06
           29994     61.9293E+06     32.5791E+06              0.     4.13303E+06
           29995     61.8245E+06     32.6601E+06              0.     4.24224E+06
           29996     61.7169E+06     32.7420E+06              0.     4.35427E+06
           29997     61.6064E+06     32.8248E+06              0.     4.46913E+06
           29998     61.4931E+06     32.9085E+06              0.     4.58687E+06
           29999     61.3767E+06     32.9933E+06              0.     4.70750E+06
           30000     61.2573E+06     33.0792E+06              0.     4.83107E+06
           30001     61.1347E+06     33.1662E+06              0.     4.95761E+06
           30002     61.0089E+06     33.2543E+06              0.     5.08714E+06
           30003     60.8799E+06     33.3436E+06              0.     5.21971E+06
           30004     60.7474E+06     33.4343E+06              0.     5.35536E+06
           30005     60.6116E+06     33.5262E+06              0.     5.49412E+06
           30006     60.4722E+06     33.6194E+06              0.     5.63603E+06
           30007     60.3292E+06     33.7141E+06              0.     5.78114E+06
           30008     60.1825E+06     33.8102E+06              0.     5.92949E+06
           30009     60.0320E+06     33.9077E+06              0.     6.08112E+06
           30010     59.8777E+06     34.0068E+06              0.     6.23607E+06
           30011     59.7195E+06     34.1074E+06              0.     6.39440E+06
           30012     59.5572E+06     34.2097E+06              0.     6.55614E+06
           30013     59.3909E+06     34.3136E+06              0.     6.72135E+06
           30014     59.2204E+06     34.4191E+06              0.     6.89007E+06
           30015     59.0456E+06     34.5264E+06              0.     7.06236E+06
           30016     58.8664E+06     34.6355E+06              0.     7.23826E+06
           30017     58.6827E+06     34.7463E+06              0.     7.41783E+06
           30018     58.4946E+06     34.8590E+06              0.     7.60111E+06
           30019     58.3017E+06     34.9735E+06              0.     7.78816E+06
           30020     58.1041E+06     35.0900E+06              0.     7.97904E+06
           30021     57.9017E+06     35.2083E+06              0.     8.17379E+06
           30022     57.6944E+06     35.3287E+06              0.     8.37247E+06
           30023     57.4820E+06     35.4510E+06              0.     8.57513E+06
           30024     57.2645E+06     35.5754E+06              0.     8.78183E+06
           30025     57.0417E+06     35.7019E+06              0.     8.99263E+06
           30026     56.8136E+06     35.8304E+06              0.     9.20757E+06
           30027     56.5800E+06     35.9611E+06              0.     9.42672E+06
           30028     56.3409E+06     36.0939E+06              0.     9.65012E+06
           30029     56.0960E+06     36.2289E+06              0.     9.87784E+06
           30030     55.8455E+06     36.3662E+06              0.     10.1099E+06
           30031      55.589E+06     36.5056E+06              0.     10.3464E+06
           30032     55.3265E+06     36.6473E+06              0.     10.5874E+06
           30033     55.0579E+06     36.7913E+06              0.     10.8330E+06
           30034     54.7831E+06     36.9375E+06              0.     11.0831E+06
           30035     54.5019E+06     37.0861E+06              0.     11.3378E+06
           30036     54.2142E+06     37.2370E+06              0.     11.5973E+06
           30037     53.9199E+06     37.3903E+06              0.     11.8615E+06
           30038     53.6189E+06     37.5459E+06              0.     12.1305E+06
           30039     53.3111E+06     37.7039E+06              0.     12.4043E+06
           30040     52.9963E+06     37.8643E+06              0.     12.6831E+06
           30041     52.6744E+06     38.0270E+06              0.     12.9667E+06
           30042     52.3452E+06     38.1922E+06              0.     13.2554E+06
           30043     52.0087E+06     38.3597E+06              0.     13.5491E+06
           30044     51.6647E+06     38.5297E+06              0.     13.8479E+06
           30045     51.3130E+06     38.7021E+06              0.     14.1517E+06
           30046     50.9536E+06     38.8768E+06              0.     14.4608E+06
           30047     50.5863E+06     39.0540E+06              0.     14.7750E+06
           30048     50.2110E+06     39.2335E+06              0.     15.0945E+06
           30049     49.8274E+06     39.4154E+06              0.     15.4192E+06
           30050     49.4355E+06     39.5996E+06              0.     15.7492E+06
           30051     49.0352E+06     39.7862E+06              0.     16.0845E+06
           30052     48.6263E+06     39.9750E+06              0.     16.4251E+06
           30053     48.2085E+06     40.1662E+06              0.     16.7711E+06
           30054     47.7819E+06     40.3596E+06              0.     17.1225E+06
           30055     47.3462E+06     40.5551E+06              0.     17.4792E+06
           30056     46.9014E+06     40.7529E+06              0.     17.8413E+06
           30057     46.4471E+06     40.9528E+06              0.     18.2088E+06
           30058     45.9834E+06     41.1547E+06              0.     18.5817E+06
           30059     45.5100E+06     41.3587E+06              0.     18.9599E+06
           30060     45.0268E+06     41.5646E+06              0.     19.3436E+06
           30061     44.5336E+06     41.7724E+06              0.     19.7326E+06
           30062     44.0302E+06      41.982E+06              0.     20.1269E+06
           30063     43.5167E+06     42.1933E+06              0.     20.5265E+06
           30064     42.9926E+06     42.4063E+06              0.     20.9313E+06
           30065     42.4580E+06     42.6209E+06              0.     21.3414E+06
           30066     41.9126E+06     42.8368E+06              0.     21.7567E+06
           30067     41.3563E+06     43.0542E+06              0.     22.1770E+06
           30068     40.7890E+06     43.2727E+06              0.     22.6024E+06
           30069     40.2104E+06     43.4923E+06              0.     23.0328E+06
           30070     39.6204E+06     43.7129E+06              0.     23.4681E+06
           30071     39.0189E+06     43.9343E+06              0.     23.9082E+06
           30072     38.4057E+06     44.1564E+06              0.     24.3529E+06
           30073     37.7806E+06     44.3789E+06              0.     24.8023E+06
           30074     37.1435E+06     44.6018E+06              0.     25.2561E+06
           30075     36.4942E+06     44.8247E+06              0.     25.7143E+06
           30076     35.8326E+06     45.0476E+06              0.     26.1767E+06
           30077     35.1586E+06     45.2702E+06              0.     26.6432E+06
           30078     34.4719E+06     45.4923E+06              0.     27.1135E+06
           30079     33.7724E+06     45.7137E+06              0.     27.5875E+06
           30080     33.0600E+06     45.9340E+06              0.     28.0651E+06
           30081     32.3345E+06     46.1530E+06              0.     28.5459E+06
           30082     31.5958E+06     46.3705E+06              0.     29.0299E+06
           30083     30.8437E+06     46.5860E+06              0.     29.5167E+06
           30084     30.0781E+06     46.7994E+06              0.     30.0062E+06
           30085     29.2989E+06     47.0103E+06              0.     30.4980E+06
           30086     28.5059E+06     47.2182E+06              0.     30.9919E+06
           30087     27.6991E+06     47.4229E+06              0.     31.4876E+06
           30088     26.8782E+06     47.6240E+06              0.     31.9848E+06
           30089     26.0431E+06     47.8209E+06              0.     32.4831E+06
           30090     25.1938E+06     48.0133E+06              0.     32.9823E+06
           30091     24.3302E+06     48.2007E+06              0.     33.4819E+06
           30092     23.4521E+06     48.3827E+06              0.     33.9816E+06
           30093     22.5594E+06     48.5586E+06              0.     34.4809E+06
           30094     21.6520E+06     48.7280E+06              0.     34.9795E+06
           30095     20.7299E+06     48.8903E+06              0.     35.4769E+06
           30096     19.7931E+06     49.0450E+06              0.     35.9727E+06
           30097     18.8413E+06     49.1912E+06              0.     36.4664E+06
           30098     17.8746E+06     49.3286E+06              0.     36.9574E+06
           30099     16.8928E+06     49.4562E+06              0.     37.4453E+06
           30100     15.8961E+06     49.5734E+06              0.     37.9295E+06
           30101     14.8843E+06     49.6796E+06              0.     38.4094E+06
           30102     13.8574E+06     49.7738E+06              0.     38.8845E+06
           30103     12.8155E+06     49.8552E+06              0.     39.3542E+06
           30104     11.7584E+06      49.923E+06              0.     39.8178E+06
           30105     10.6863E+06     49.9763E+06              0.     40.2746E+06
           30106     9.59922E+06     50.0142E+06              0.     40.7241E+06
           30107     8.49712E+06     50.0356E+06              0.     41.1654E+06
           30108     7.38011E+06     50.0395E+06              0.     41.5979E+06
           30109     6.24826E+06     50.0249E+06              0.     42.0208E+06
           30110     5.10168E+06     49.9907E+06              0.     42.4334E+06
           30111     3.94048E+06     49.9357E+06              0.     42.8348E+06
           30112     2.76479E+06     49.8587E+06              0.     43.2243E+06
           30113     1.57476E+06     49.7585E+06              0.     43.6010E+06
           30114     370.578E+03     49.6337E+06              0.     43.9642E+06
           30115    -847.565E+03     49.4830E+06              0.     44.3127E+06
           30116    -2.07945E+06     49.3050E+06              0.     44.6460E+06
           30117    -3.32484E+06     49.0983E+06              0.     44.9629E+06
           30118    -4.58346E+06     48.8613E+06              0.     45.2625E+06
           30119    -5.85502E+06     48.5925E+06              0.     45.5440E+06
           30120    -7.13920E+06     48.2904E+06              0.     45.8064E+06
           30121    -8.43565E+06     47.9531E+06              0.     46.0486E+06
           30122    -9.74401E+06     47.5791E+06              0.     46.2698E+06
           30123    -11.0639E+06     47.1665E+06              0.     46.4688E+06
           30124    -12.3948E+06     46.7136E+06              0.     46.6447E+06
           30125    -13.7363E+06     46.2184E+06              0.     46.7964E+06
           30126    -15.0878E+06      45.679E+06              0.      46.923E+06
           30127    -16.4490E+06     45.0935E+06              0.     47.0233E+06
           30128    -17.8191E+06     44.4597E+06              0.     47.0964E+06
           30129    -19.1977E+06     43.7757E+06              0.     47.1412E+06
           30130    -20.5840E+06     43.0392E+06              0.     47.1567E+06
           30131    -21.9773E+06     42.2481E+06              0.     47.1417E+06
           30132    -23.3771E+06     41.4002E+06              0.     47.0954E+06
           30133    -24.7825E+06     40.4931E+06              0.     47.0165E+06
           30134    -26.1927E+06     39.5246E+06              0.     46.9042E+06
           30135    -27.6069E+06     38.4922E+06              0.     46.7574E+06
           30136    -29.0243E+06     37.3936E+06              0.     46.5752E+06
           30137    -30.4440E+06     36.2263E+06              0.     46.3564E+06
           30138    -31.8650E+06     34.9878E+06              0.     46.1002E+06
           30139    -33.2863E+06     33.6756E+06              0.     45.8056E+06
           30140    -34.7069E+06     32.2872E+06              0.     45.4717E+06
           30141    -36.1258E+06     30.8201E+06              0.     45.0976E+06
           30142    -37.5418E+06     29.2715E+06              0.     44.6824E+06
           30143    -38.9538E+06     27.6390E+06              0.     44.2254E+06
           30144    -40.3607E+06     25.9200E+06              0.     43.7255E+06
           30145    -41.7612E+06     24.1117E+06              0.     43.1822E+06
           30146    -43.1540E+06     22.2116E+06              0.     42.5947E+06
           30147    -44.5380E+06     20.2171E+06              0.     41.9622E+06
           30148    -45.9117E+06     18.1255E+06              0.     41.2841E+06
           30149    -47.2737E+06     15.9343E+06              0.     40.5597E+06
           30150    -48.6228E+06     13.6409E+06              0.     39.7885E+06
           30151    -49.9574E+06     11.2428E+06              0.     38.9700E+06
           30152    -51.2761E+06     8.73734E+06              0.     38.1036E+06
           30153    -52.5775E+06     6.12210E+06              0.     37.1889E+06
           30154    -53.8598E+06     3.39467E+06              0.     36.2255E+06
           30155    -55.1217E+06     552.579E+03              0.     35.2130E+06
           30156    -56.3615E+06    -2.40650E+06              0.     34.1511E+06
           30157    -57.5777E+06    -5.48482E+06              0.     33.0395E+06
           30158    -58.7685E+06    -8.68468E+06              0.     31.8780E+06
           30159    -59.9323E+06    -12.0082E+06              0.     30.6663E+06
           30160    -61.0676E+06    -15.4575E+06              0.     29.4043E+06
           30161    -62.1724E+06    -19.0345E+06              0.     28.0918E+06
           30162    -63.2454E+06    -22.7417E+06              0.     26.7288E+06
           30163    -64.8479E+06    -27.0121E+06              0.     26.1015E+06
           30164     64.9826E+06     28.5308E+06              0.     2.16376E+06
           30165     64.9959E+06     28.6775E+06              0.     2.15977E+06
           30166     64.9464E+06     28.7935E+06              0.     2.13074E+06
           30167     64.8976E+06     28.9064E+06              0.     2.10602E+06
           30168     64.8492E+06     29.0162E+06              0.     2.08548E+06
           30169     64.8012E+06     29.1232E+06              0.     2.06901E+06
           30170     64.7535E+06     29.2274E+06              0.     2.05651E+06
           30171     64.7060E+06     29.3291E+06              0.     2.04787E+06
           30172     64.6587E+06     29.4283E+06              0.     2.04301E+06
           30173     64.6114E+06     29.5252E+06              0.     2.04183E+06
           30174     64.5640E+06     29.6200E+06              0.     2.04424E+06
           30175     64.5165E+06     29.7126E+06              0.     2.05017E+06
           30176     64.4688E+06     29.8033E+06              0.     2.05954E+06
           30177     64.4208E+06     29.8922E+06              0.     2.07228E+06
           30178     64.3725E+06     29.9793E+06              0.     2.08832E+06
           30179     64.3237E+06     30.0649E+06              0.     2.10760E+06
           30180     64.2743E+06     30.1489E+06              0.     2.13006E+06
           30181     64.2244E+06     30.2315E+06              0.     2.15564E+06
           30182     64.1738E+06     30.3129E+06              0.     2.18429E+06
           30183     64.1224E+06     30.3930E+06              0.     2.21596E+06
           30184     64.0703E+06     30.4720E+06              0.     2.25062E+06
           30185     64.0172E+06     30.5500E+06              0.     2.28821E+06
           30186     63.9633E+06     30.6270E+06              0.     2.32870E+06
           30187     63.9083E+06     30.7033E+06              0.     2.37206E+06
           30188     63.8522E+06     30.7787E+06              0.     2.41826E+06
           30189     63.7950E+06     30.8535E+06              0.     2.46726E+06
           30190     63.7365E+06     30.9277E+06              0.     2.51904E+06
           30191     63.6768E+06     31.0014E+06              0.     2.57359E+06
           30192     63.6158E+06     31.0746E+06              0.     2.63088E+06
           30193     63.5533E+06     31.1475E+06              0.     2.69089E+06
           30194     63.4894E+06     31.2201E+06              0.     2.75361E+06
           30195     63.4239E+06     31.2924E+06              0.     2.81903E+06
           30196     63.3569E+06     31.3647E+06              0.     2.88714E+06
           30197     63.2882E+06     31.4368E+06              0.     2.95794E+06
           30198     63.2178E+06     31.5089E+06              0.     3.03142E+06
           30199     63.1455E+06     31.5811E+06              0.     3.10758E+06
           30200     63.0715E+06     31.6534E+06              0.     3.18642E+06
           30201     62.9955E+06     31.7259E+06              0.     3.26795E+06
           30202     62.9176E+06     31.7986E+06              0.     3.35217E+06
           30203     62.8376E+06     31.8716E+06              0.     3.43909E+06
           30204     62.7555E+06     31.9450E+06              0.     3.52871E+06
           30205     62.6713E+06     32.0187E+06              0.     3.62106E+06
           30206     62.5848E+06     32.0930E+06              0.     3.71614E+06
           30207     62.4961E+06     32.1678E+06              0.     3.81397E+06
           30208     62.4049E+06     32.2432E+06              0.     3.91457E+06
           30209     62.3114E+06     32.3192E+06              0.     4.01795E+06
           30210     62.2154E+06     32.3959E+06              0.     4.12414E+06
           30211     62.1168E+06     32.4733E+06              0.     4.23317E+06
           30212     62.0156E+06     32.5516E+06              0.     4.34505E+06
           30213     61.9118E+06     32.6307E+06              0.     4.45982E+06
           30214     61.8051E+06     32.7106E+06              0.     4.57750E+06
           30215     61.6957E+06     32.7916E+06              0.     4.69812E+06
           30216     61.5833E+06     32.8735E+06              0.     4.82171E+06
           30217     61.4680E+06     32.9564E+06              0.     4.94831E+06
           30218     61.3497E+06     33.0404E+06              0.     5.07795E+06
           30219     61.2282E+06     33.1256E+06              0.     5.21067E+06
           30220     61.1036E+06     33.2120E+06              0.     5.34650E+06
           30221     60.9757E+06     33.2995E+06              0.     5.48549E+06
           30222     60.8445E+06     33.3883E+06              0.     5.62766E+06
           30223     60.7099E+06     33.4785E+06              0.     5.77307E+06
           30224     60.5718E+06     33.5700E+06              0.     5.92176E+06
           30225     60.4301E+06     33.6628E+06              0.     6.07377E+06
           30226     60.2848E+06     33.7571E+06              0.     6.22914E+06
           30227     60.1358E+06     33.8529E+06              0.     6.38793E+06
           30228     59.9830E+06     33.9502E+06              0.     6.55017E+06
           30229     59.8263E+06     34.0491E+06              0.     6.71592E+06
           30230     59.6657E+06     34.1495E+06              0.     6.88522E+06
           30231     59.5009E+06     34.2516E+06              0.     7.05813E+06
           30232     59.3321E+06     34.3554E+06              0.     7.23470E+06
           30233     59.1590E+06     34.4608E+06              0.     7.41497E+06
           30234     58.9816E+06     34.5680E+06              0.     7.59901E+06
           30235     58.7998E+06      34.677E+06              0.     7.78686E+06
           30236     58.6135E+06     34.7878E+06              0.     7.97858E+06
           30237     58.4227E+06     34.9005E+06              0.     8.17422E+06
           30238     58.2271E+06     35.0150E+06              0.     8.37384E+06
           30239     58.0268E+06     35.1314E+06              0.     8.57750E+06
           30240     57.8215E+06     35.2498E+06              0.     8.78524E+06
           30241     57.6114E+06     35.3702E+06              0.     8.99713E+06
           30242     57.3961E+06     35.4926E+06              0.     9.21322E+06
           30243     57.1757E+06     35.6171E+06              0.     9.43358E+06
           30244     56.9499E+06     35.7436E+06              0.     9.65825E+06
           30245     56.7188E+06     35.8722E+06              0.     9.88729E+06
           30246     56.4822E+06     36.0029E+06              0.     10.1208E+06
           30247     56.2400E+06     36.1358E+06              0.     10.3587E+06
           30248     55.9921E+06     36.2708E+06              0.     10.6013E+06
           30249     55.7384E+06     36.4081E+06              0.     10.8484E+06
           30250     55.4788E+06     36.5476E+06              0.     11.1002E+06
           30251     55.2131E+06     36.6893E+06              0.     11.3566E+06
           30252     54.9412E+06     36.8333E+06              0.     11.6179E+06
           30253     54.6631E+06     36.9795E+06              0.     11.8840E+06
           30254     54.3785E+06     37.1281E+06              0.     12.1550E+06
           30255     54.0874E+06     37.2790E+06              0.     12.4309E+06
           30256     53.7897E+06     37.4321E+06              0.     12.7118E+06
           30257     53.4853E+06     37.5877E+06              0.     12.9977E+06
           30258     53.1739E+06     37.7455E+06              0.     13.2887E+06
           30259     52.8555E+06     37.9058E+06              0.     13.5848E+06
           30260     52.5300E+06     38.0683E+06              0.     13.8862E+06
           30261     52.1972E+06     38.2333E+06              0.     14.1927E+06
           30262     51.8570E+06     38.4006E+06              0.     14.5045E+06
           30263     51.5092E+06     38.5702E+06              0.     14.8216E+06
           30264     51.1537E+06     38.7422E+06              0.     15.1441E+06
           30265     50.7905E+06     38.9165E+06              0.     15.4720E+06
           30266     50.4193E+06     39.0932E+06              0.     15.8052E+06
           30267     50.0399E+06     39.2722E+06              0.     16.1439E+06
           30268     49.6524E+06     39.4535E+06              0.     16.4881E+06
           30269     49.2564E+06     39.6371E+06              0.     16.8378E+06
           30270     48.8520E+06     39.8229E+06              0.     17.1930E+06
           30271     48.4388E+06      40.011E+06              0.     17.5538E+06
           30272     48.0169E+06     40.2013E+06              0.     17.9201E+06
           30273     47.5860E+06     40.3937E+06              0.     18.2919E+06
           30274     47.1459E+06     40.5882E+06              0.     18.6694E+06
           30275     46.6966E+06     40.7848E+06              0.     19.0523E+06
           30276     46.2379E+06     40.9835E+06              0.     19.4409E+06
           30277     45.7696E+06     41.1840E+06              0.     19.8350E+06
           30278     45.2916E+06     41.3865E+06              0.     20.2346E+06
           30279     44.8037E+06     41.5909E+06              0.     20.6397E+06
           30280     44.3057E+06     41.7969E+06              0.     21.0504E+06
           30281     43.7976E+06     42.0047E+06              0.     21.4664E+06
           30282     43.2791E+06     42.2141E+06              0.     21.8879E+06
           30283     42.7501E+06     42.4249E+06              0.     22.3148E+06
           30284     42.2104E+06     42.6371E+06              0.     22.7469E+06
           30285     41.6599E+06     42.8507E+06              0.     23.1843E+06
           30286     41.0983E+06     43.0653E+06              0.     23.6269E+06
           30287     40.5257E+06     43.2811E+06              0.     24.0745E+06
           30288     39.9417E+06     43.4977E+06              0.     24.5271E+06
           30289     39.3463E+06     43.7150E+06              0.     24.9847E+06
           30290     38.7392E+06     43.9330E+06              0.     25.4470E+06
           30291     38.1203E+06     44.1514E+06              0.      25.914E+06
           30292     37.4895E+06       44.37E+06              0.     26.3855E+06
           30293     36.8465E+06     44.5887E+06              0.     26.8615E+06
           30294     36.1913E+06     44.8072E+06              0.     27.3416E+06
           30295     35.5237E+06     45.0254E+06              0.     27.8259E+06
           30296     34.8434E+06      45.243E+06              0.     28.3140E+06
           30297     34.1505E+06     45.4598E+06              0.     28.8059E+06
           30298     33.4446E+06     45.6754E+06              0.     29.3012E+06
           30299     32.7257E+06     45.8897E+06              0.     29.7999E+06
           30300     31.9936E+06     46.1024E+06              0.     30.3016E+06
           30301     31.2482E+06     46.3130E+06              0.     30.8061E+06
           30302     30.4893E+06     46.5214E+06              0.     31.3131E+06
           30303     29.7167E+06     46.7272E+06              0.     31.8224E+06
           30304     28.9304E+06     46.9300E+06              0.     32.3336E+06
           30305     28.1302E+06     47.1294E+06              0.     32.8465E+06
           30306     27.3160E+06     47.3250E+06              0.     33.3607E+06
           30307     26.4876E+06     47.5164E+06              0.     33.8758E+06
           30308     25.6450E+06     47.7032E+06              0.     34.3916E+06
           30309     24.7880E+06     47.8848E+06              0.     34.9076E+06
           30310     23.9164E+06     48.0608E+06              0.     35.4233E+06
           30311     23.0303E+06     48.2307E+06              0.     35.9384E+06
           30312     22.1294E+06     48.3939E+06              0.     36.4525E+06
           30313     21.2137E+06     48.5498E+06              0.     36.9650E+06
           30314     20.2832E+06     48.6979E+06              0.     37.4754E+06
           30315     19.3377E+06     48.8374E+06              0.     37.9833E+06
           30316     18.3772E+06     48.9677E+06              0.     38.4881E+06
           30317     17.4016E+06     49.0882E+06              0.     38.9893E+06
           30318     16.4109E+06     49.1980E+06              0.     39.4862E+06
           30319     15.4050E+06     49.2965E+06              0.     39.9784E+06
           30320     14.3839E+06     49.3827E+06              0.     40.4650E+06
           30321     13.3476E+06     49.4560E+06              0.     40.9456E+06
           30322     12.2961E+06     49.5153E+06              0.     41.4194E+06
           30323     11.2294E+06     49.5597E+06              0.     41.8858E+06
           30324     10.1476E+06     49.5884E+06              0.     42.3439E+06
           30325     9.05055E+06     49.6002E+06              0.     42.7931E+06
           30326     7.93846E+06     49.5942E+06              0.     43.2326E+06
           30327     6.81136E+06     49.5693E+06              0.     43.6616E+06
           30328     5.66935E+06     49.5242E+06              0.     44.0793E+06
           30329     4.51253E+06     49.4579E+06              0.     44.4848E+06
           30330     3.34103E+06     49.3691E+06              0.     44.8773E+06
           30331     2.15500E+06     49.2564E+06              0.     45.2560E+06
           30332     954.611E+03     49.1187E+06              0.     45.6198E+06
           30333    -259.946E+03     48.9544E+06              0.     45.9679E+06
           30334    -1.48846E+06     48.7622E+06              0.     46.2994E+06
           30335    -2.73068E+06     48.5405E+06              0.     46.6132E+06
           30336    -3.98635E+06     48.2878E+06              0.     46.9084E+06
           30337    -5.25517E+06     48.0026E+06              0.     47.1841E+06
           30338    -6.53683E+06     47.6831E+06              0.     47.4390E+06
           30339    -7.83098E+06     47.3276E+06              0.     47.6723E+06
           30340    -9.13723E+06     46.9345E+06              0.     47.8830E+06
           30341    -10.4552E+06     46.5018E+06              0.     48.0698E+06
           30342    -11.7844E+06     46.0276E+06              0.     48.2319E+06
           30343    -13.1244E+06     45.5102E+06              0.     48.3680E+06
           30344    -14.4747E+06     44.9474E+06              0.     48.4771E+06
           30345    -15.8347E+06     44.3372E+06              0.     48.5582E+06
           30346    -17.2039E+06     43.6775E+06              0.     48.6101E+06
           30347    -18.5816E+06     42.9662E+06              0.     48.6318E+06
           30348    -19.9672E+06     42.2011E+06              0.     48.6221E+06
           30349    -21.3600E+06     41.3799E+06              0.     48.5800E+06
           30350    -22.7593E+06     40.5003E+06              0.     48.5044E+06
           30351    -24.1643E+06     39.5600E+06              0.     48.3942E+06
           30352    -25.5742E+06     38.5566E+06              0.     48.2484E+06
           30353    -26.9882E+06     37.4876E+06              0.     48.0659E+06
           30354    -28.4054E+06     36.3506E+06              0.     47.8457E+06
           30355    -29.8247E+06     35.1431E+06              0.     47.5867E+06
           30356    -31.2454E+06     33.8625E+06              0.     47.2880E+06
           30357    -32.6663E+06     32.5062E+06              0.     46.9487E+06
           30358    -34.0865E+06     31.0717E+06              0.     46.5677E+06
           30359    -35.5048E+06     29.5564E+06              0.     46.1441E+06
           30360      -36.92E+06     27.9575E+06              0.     45.6772E+06
           30361    -38.3311E+06     26.2725E+06              0.     45.1660E+06
           30362    -39.7367E+06     24.4987E+06              0.     44.6097E+06
           30363    -41.1357E+06     22.6334E+06              0.     44.0075E+06
           30364    -42.5268E+06     20.6740E+06              0.     43.3587E+06
           30365    -43.9086E+06     18.6178E+06              0.     42.6627E+06
           30366    -45.2797E+06     16.4622E+06              0.     41.9186E+06
           30367    -46.6388E+06     14.2045E+06              0.     41.1261E+06
           30368    -47.9844E+06     11.8422E+06              0.     40.2844E+06
           30369    -49.3151E+06     9.37276E+06              0.     39.3931E+06
           30370    -50.6293E+06     6.79353E+06              0.     38.4516E+06
           30371    -51.9255E+06     4.10209E+06              0.     37.4597E+06
           30372    -53.2021E+06     1.29595E+06              0.     36.4168E+06
           30373    -54.4575E+06    -1.62726E+06              0.     35.3227E+06
           30374    -55.6901E+06    -4.66984E+06              0.     34.1770E+06
           30375    -56.8984E+06    -7.83412E+06              0.     32.9796E+06
           30376    -58.0805E+06    -11.1222E+06              0.     31.7303E+06
           30377    -59.2349E+06    -14.5363E+06              0.     30.4288E+06
           30378    -60.3597E+06    -18.0784E+06              0.     29.0750E+06
           30379    -61.4526E+06    -21.7500E+06              0.     27.6688E+06
           30380    -63.0538E+06    -25.9863E+06              0.     27.0233E+06
           30381     65.0687E+06     28.5680E+06              0.     2.21279E+06
           30382     65.0815E+06     28.7092E+06              0.     2.20871E+06
           30383     65.0339E+06     28.8209E+06              0.     2.17903E+06
           30384     64.9868E+06     28.9295E+06              0.     2.15375E+06
           30385     64.9403E+06     29.0353E+06              0.     2.13275E+06
           30386     64.8941E+06     29.1383E+06              0.     2.11591E+06
           30387     64.8482E+06     29.2387E+06              0.     2.10313E+06
           30388     64.8025E+06     29.3366E+06              0.      2.0943E+06
           30389     64.7569E+06     29.4321E+06              0.     2.08933E+06
           30390     64.7113E+06     29.5255E+06              0.     2.08813E+06
           30391     64.6657E+06     29.6167E+06              0.     2.09060E+06
           30392     64.6200E+06     29.7059E+06              0.     2.09667E+06
           30393     64.5741E+06     29.7932E+06              0.     2.10626E+06
           30394     64.5279E+06     29.8788E+06              0.     2.11930E+06
           30395     64.4813E+06     29.9627E+06              0.     2.13571E+06
           30396     64.4343E+06     30.0451E+06              0.     2.15543E+06
           30397     64.3868E+06     30.1260E+06              0.     2.17840E+06
           30398     64.3387E+06     30.2055E+06              0.     2.20457E+06
           30399     64.2900E+06     30.2839E+06              0.     2.23388E+06
           30400     64.2405E+06     30.3610E+06              0.     2.26628E+06
           30401     64.1903E+06     30.4371E+06              0.     2.30173E+06
           30402     64.1392E+06     30.5122E+06              0.     2.34018E+06
           30403     64.0873E+06     30.5864E+06              0.     2.38160E+06
           30404     64.0343E+06     30.6598E+06              0.     2.42595E+06
           30405     63.9803E+06     30.7325E+06              0.     2.47320E+06
           30406     63.9252E+06     30.8045E+06              0.     2.52333E+06
           30407     63.8689E+06     30.8760E+06              0.     2.57630E+06
           30408     63.8114E+06     30.9469E+06              0.     2.63209E+06
           30409     63.7526E+06     31.0175E+06              0.     2.69069E+06
           30410     63.6925E+06     31.0876E+06              0.     2.75207E+06
           30411     63.6309E+06     31.1576E+06              0.     2.81623E+06
           30412     63.5679E+06     31.2273E+06              0.     2.88315E+06
           30413     63.5033E+06     31.2968E+06              0.     2.95283E+06
           30414     63.4371E+06     31.3663E+06              0.     3.02525E+06
           30415     63.3693E+06     31.4358E+06              0.     3.10041E+06
           30416     63.2997E+06     31.5053E+06              0.     3.17832E+06
           30417     63.2284E+06     31.5750E+06              0.     3.25897E+06
           30418     63.1552E+06     31.6448E+06              0.     3.34237E+06
           30419     63.0802E+06     31.7148E+06              0.     3.42852E+06
           30420     63.0031E+06     31.7852E+06              0.     3.51744E+06
           30421     62.9241E+06     31.8559E+06              0.     3.60912E+06
           30422     62.8429E+06     31.9270E+06              0.     3.70359E+06
           30423     62.7596E+06     31.9985E+06              0.     3.80086E+06
           30424     62.6741E+06     32.0706E+06              0.     3.90094E+06
           30425     62.5864E+06     32.1432E+06              0.     4.00385E+06
           30426     62.4963E+06     32.2165E+06              0.     4.10962E+06
           30427     62.4038E+06     32.2904E+06              0.     4.21826E+06
           30428     62.3088E+06     32.3651E+06              0.     4.32980E+06
           30429     62.2114E+06     32.4405E+06              0.     4.44426E+06
           30430     62.1113E+06     32.5167E+06              0.     4.56168E+06
           30431     62.0086E+06     32.5938E+06              0.     4.68207E+06
           30432     61.9031E+06     32.6718E+06              0.     4.80548E+06
           30433     61.7949E+06     32.7508E+06              0.     4.93193E+06
           30434     61.6838E+06     32.8307E+06              0.     5.06146E+06
           30435     61.5698E+06     32.9118E+06              0.     5.19411E+06
           30436     61.4528E+06     32.9939E+06              0.     5.32990E+06
           30437     61.3327E+06     33.0771E+06              0.     5.46888E+06
           30438     61.2095E+06     33.1616E+06              0.     5.61109E+06
           30439     61.0830E+06     33.2472E+06              0.     5.75657E+06
           30440     60.9533E+06     33.3341E+06              0.     5.90536E+06
           30441     60.8202E+06     33.4224E+06              0.     6.05751E+06
           30442     60.6837E+06     33.5120E+06              0.     6.21305E+06
           30443     60.5437E+06     33.6029E+06              0.     6.37205E+06
           30444     60.4001E+06     33.6953E+06              0.     6.53454E+06
           30445     60.2528E+06     33.7892E+06              0.     6.70057E+06
           30446     60.1018E+06     33.8846E+06              0.     6.87019E+06
           30447     59.9470E+06     33.9815E+06              0.     7.04346E+06
           30448     59.7882E+06     34.0800E+06              0.     7.22042E+06
           30449     59.6255E+06     34.1802E+06              0.     7.40113E+06
           30450     59.4587E+06     34.2819E+06              0.     7.58563E+06
           30451     59.2877E+06     34.3854E+06              0.     7.77400E+06
           30452     59.1124E+06     34.4906E+06              0.     7.96627E+06
           30453     58.9329E+06     34.5976E+06              0.     8.16250E+06
           30454     58.7489E+06     34.7064E+06              0.     8.36276E+06
           30455     58.5603E+06     34.8170E+06              0.     8.56710E+06
           30456     58.3672E+06     34.9294E+06              0.     8.77557E+06
           30457     58.1693E+06     35.0438E+06              0.     8.98823E+06
           30458     57.9667E+06     35.1600E+06              0.     9.20515E+06
           30459     57.7591E+06     35.2783E+06              0.     9.42638E+06
           30460     57.5465E+06     35.3985E+06              0.     9.65197E+06
           30461     57.3289E+06     35.5207E+06              0.     9.88200E+06
           30462     57.1060E+06     35.6450E+06              0.     10.1165E+06
           30463     56.8778E+06     35.7713E+06              0.     10.3556E+06
           30464     56.6442E+06     35.8998E+06              0.     10.5992E+06
           30465     56.4051E+06     36.0303E+06              0.     10.8476E+06
           30466     56.1604E+06     36.1630E+06              0.     11.1006E+06
           30467     55.9099E+06     36.2979E+06              0.     11.3585E+06
           30468     55.6536E+06     36.4349E+06              0.     11.6211E+06
           30469     55.3913E+06     36.5742E+06              0.     11.8887E+06
           30470     55.1229E+06     36.7157E+06              0.     12.1613E+06
           30471     54.8484E+06     36.8594E+06              0.     12.4388E+06
           30472     54.5675E+06     37.0054E+06              0.     12.7214E+06
           30473     54.2802E+06     37.1536E+06              0.     13.0092E+06
           30474     53.9864E+06     37.3042E+06              0.     13.3021E+06
           30475     53.6858E+06     37.4570E+06              0.     13.6002E+06
           30476     53.3785E+06     37.6121E+06              0.     13.9036E+06
           30477     53.0643E+06     37.7696E+06              0.     14.2123E+06
           30478     52.7430E+06     37.9293E+06              0.     14.5265E+06
           30479     52.4145E+06     38.0914E+06              0.     14.8460E+06
           30480     52.0787E+06     38.2558E+06              0.     15.1710E+06
           30481     51.7354E+06     38.4225E+06              0.     15.5014E+06
           30482     51.3846E+06     38.5915E+06              0.     15.8375E+06
           30483     51.0260E+06     38.7628E+06              0.     16.1791E+06
           30484     50.6596E+06     38.9364E+06              0.     16.5263E+06
           30485     50.2852E+06     39.1123E+06              0.     16.8791E+06
           30486     49.9026E+06     39.2905E+06              0.     17.2376E+06
           30487     49.5117E+06     39.4708E+06              0.     17.6018E+06
           30488     49.1125E+06     39.6534E+06              0.     17.9718E+06
           30489     48.7046E+06     39.8382E+06              0.     18.3474E+06
           30490     48.2881E+06     40.0251E+06              0.     18.7288E+06
           30491     47.8627E+06     40.2141E+06              0.     19.1159E+06
           30492     47.4282E+06     40.4052E+06              0.     19.5087E+06
           30493     46.9846E+06     40.5983E+06              0.     19.9073E+06
           30494     46.5316E+06     40.7934E+06              0.     20.3116E+06
           30495     46.0692E+06     40.9904E+06              0.     20.7217E+06
           30496     45.5972E+06     41.1893E+06              0.     21.1374E+06
           30497     45.1154E+06     41.3899E+06              0.     21.5588E+06
           30498     44.6236E+06     41.5923E+06              0.     21.9858E+06
           30499     44.1217E+06     41.7963E+06              0.     22.4185E+06
           30500     43.6095E+06     42.0018E+06              0.     22.8567E+06
           30501     43.0870E+06     42.2088E+06              0.     23.3004E+06
           30502     42.5538E+06     42.4171E+06              0.     23.7495E+06
           30503     42.0099E+06     42.6267E+06              0.     24.2040E+06
           30504     41.4551E+06     42.8373E+06              0.     24.6638E+06
           30505     40.8892E+06     43.0490E+06              0.     25.1288E+06
           30506     40.3121E+06     43.2614E+06              0.     25.5989E+06
           30507     39.7236E+06     43.4746E+06              0.     26.0739E+06
           30508     39.1235E+06     43.6884E+06              0.     26.5538E+06
           30509     38.5117E+06     43.9025E+06              0.     27.0385E+06
           30510     37.8880E+06     44.1167E+06              0.     27.5278E+06
           30511     37.2523E+06     44.3310E+06              0.     28.0215E+06
           30512     36.6043E+06     44.5451E+06              0.     28.5194E+06
           30513     35.9440E+06     44.7588E+06              0.     29.0215E+06
           30514     35.2711E+06     44.9718E+06              0.     29.5275E+06
           30515     34.5856E+06     45.1839E+06              0.     30.0372E+06
           30516     33.8871E+06     45.3949E+06              0.     30.5503E+06
           30517     33.1757E+06     45.6044E+06              0.     31.0667E+06
           30518     32.4511E+06     45.8122E+06              0.     31.5860E+06
           30519     31.7132E+06     46.0180E+06              0.     32.1081E+06
           30520     30.9619E+06     46.2214E+06              0.     32.6326E+06
           30521     30.1969E+06     46.4221E+06              0.     33.1593E+06
           30522     29.4181E+06     46.6197E+06              0.     33.6877E+06
           30523     28.6255E+06     46.8139E+06              0.     34.2177E+06
           30524     27.8188E+06     47.0042E+06              0.     34.7487E+06
           30525     26.9979E+06     47.1902E+06              0.     35.2805E+06
           30526     26.1627E+06     47.3714E+06              0.     35.8127E+06
           30527     25.3131E+06     47.5474E+06              0.     36.3448E+06
           30528     24.4490E+06     47.7176E+06              0.     36.8764E+06
           30529     23.5701E+06     47.8816E+06              0.     37.4070E+06
           30530     22.6766E+06     48.0388E+06              0.     37.9362E+06
           30531     21.7681E+06     48.1885E+06              0.     38.4634E+06
           30532     20.8447E+06     48.3302E+06              0.     38.9882E+06
           30533     19.9062E+06     48.4632E+06              0.     39.5099E+06
           30534     18.9527E+06     48.5868E+06              0.     40.0281E+06
           30535     17.9839E+06     48.7003E+06              0.     40.5421E+06
           30536     16.9999E+06     48.8031E+06              0.     41.0514E+06
           30537     16.0005E+06     48.8941E+06              0.     41.5551E+06
           30538     14.9859E+06     48.9728E+06              0.     42.0528E+06
           30539     13.9559E+06     49.0382E+06              0.     42.5437E+06
           30540     12.9105E+06     49.0893E+06              0.     43.0271E+06
           30541     11.8497E+06     49.1253E+06              0.     43.5022E+06
           30542     10.7736E+06     49.1452E+06              0.     43.9683E+06
           30543     9.68216E+06     49.1479E+06              0.     44.4245E+06
           30544     8.57545E+06     49.1323E+06              0.     44.8702E+06
           30545     7.45352E+06     49.0974E+06              0.     45.3044E+06
           30546     6.31647E+06     49.0420E+06              0.     45.7262E+06
           30547     5.16438E+06     48.9648E+06              0.     46.1349E+06
           30548     3.99739E+06     48.8646E+06              0.     46.5294E+06
           30549     2.81563E+06     48.7401E+06              0.     46.9088E+06
           30550     1.61928E+06     48.5898E+06              0.     47.2722E+06
           30551     408.506E+03     48.4125E+06              0.     47.6186E+06
           30552    -816.469E+03     48.2065E+06              0.     47.9470E+06
           30553    -2.05541E+06     47.9703E+06              0.     48.2563E+06
           30554    -3.30805E+06     47.7025E+06              0.     48.5456E+06
           30555    -4.57410E+06     47.4012E+06              0.     48.8138E+06
           30556    -5.85324E+06     47.0649E+06              0.     49.0598E+06
           30557    -7.14513E+06     46.6917E+06              0.     49.2825E+06
           30558    -8.44937E+06     46.2798E+06              0.     49.4808E+06
           30559    -9.76557E+06     45.8274E+06              0.     49.6537E+06
           30560    -11.0933E+06     45.3325E+06              0.     49.7999E+06
           30561    -12.4320E+06     44.7931E+06              0.     49.9184E+06
           30562    -13.7812E+06     44.2072E+06              0.     50.0081E+06
           30563    -15.1404E+06     43.5727E+06              0.     50.0677E+06
           30564    -16.5089E+06     42.8874E+06              0.     50.0962E+06
           30565    -17.8862E+06     42.1492E+06              0.     50.0924E+06
           30566    -19.2715E+06     41.3556E+06              0.     50.0551E+06
           30567    -20.6642E+06     40.5045E+06              0.     49.9834E+06
           30568    -22.0636E+06     39.5934E+06              0.     49.8759E+06
           30569    -23.4687E+06     38.6199E+06              0.     49.7317E+06
           30570    -24.8789E+06     37.5817E+06              0.     49.5496E+06
           30571    -26.2932E+06     36.4761E+06              0.     49.3285E+06
           30572    -27.7107E+06     35.3006E+06              0.     49.0674E+06
           30573    -29.1304E+06     34.0528E+06              0.     48.7653E+06
           30574    -30.5514E+06     32.7298E+06              0.     48.4211E+06
           30575    -31.9727E+06     31.3292E+06              0.     48.0338E+06
           30576    -33.3930E+06     29.8483E+06              0.     47.6025E+06
           30577    -34.8114E+06     28.2844E+06              0.     47.1263E+06
           30578    -36.2266E+06     26.6347E+06              0.     46.6042E+06
           30579    -37.6374E+06     24.8967E+06              0.     46.0355E+06
           30580    -39.0426E+06     23.0676E+06              0.     45.4192E+06
           30581    -40.4408E+06     21.1446E+06              0.     44.7547E+06
           30582    -41.8308E+06     19.1251E+06              0.     44.0412E+06
           30583    -43.2112E+06     17.0065E+06              0.     43.2780E+06
           30584    -44.5805E+06     14.7860E+06              0.     42.4645E+06
           30585    -45.9374E+06     12.4609E+06              0.     41.6001E+06
           30586    -47.2803E+06     10.0288E+06              0.     40.6843E+06
           30587    -48.6077E+06     7.48697E+06              0.     39.7165E+06
           30588    -49.9181E+06     4.83290E+06              0.     38.6963E+06
           30589    -51.2098E+06     2.06409E+06              0.     37.6234E+06
           30590    -52.4814E+06    -821.888E+03              0.     36.4974E+06
           30591    -53.7310E+06    -3.82737E+06              0.     35.3180E+06
           30592    -54.9571E+06    -6.95473E+06              0.     34.0850E+06
           30593    -56.1580E+06    -10.2062E+06              0.     32.7982E+06
           30594    -57.3320E+06    -13.5839E+06              0.     31.4575E+06
           30595    -58.4778E+06    -17.0900E+06              0.     30.0628E+06
           30596    -59.5944E+06    -20.7264E+06              0.     28.6140E+06
           30597    -61.1966E+06    -24.9280E+06              0.     27.9517E+06
           30598     65.1567E+06     28.6059E+06              0.     2.25996E+06
           30599     65.1690E+06     28.7416E+06              0.     2.25579E+06
           30600     65.1233E+06     28.8489E+06              0.     2.22549E+06
           30601     65.0781E+06     28.9532E+06              0.     2.19967E+06
           30602     65.0333E+06     29.0548E+06              0.     2.17822E+06
           30603     64.9890E+06     29.1538E+06              0.     2.16103E+06
           30604     64.9449E+06     29.2502E+06              0.     2.14798E+06
           30605      64.901E+06     29.3442E+06              0.     2.13897E+06
           30606     64.8572E+06     29.4360E+06              0.     2.13390E+06
           30607     64.8135E+06     29.5257E+06              0.     2.13268E+06
           30608     64.7697E+06     29.6133E+06              0.     2.13521E+06
           30609     64.7258E+06     29.6990E+06              0.     2.14142E+06
           30610     64.6816E+06     29.7829E+06              0.     2.15122E+06
           30611     64.6373E+06     29.8651E+06              0.     2.16453E+06
           30612     64.5925E+06     29.9457E+06              0.     2.18130E+06
           30613     64.5474E+06     30.0248E+06              0.     2.20145E+06
           30614     64.5017E+06     30.1025E+06              0.     2.22492E+06
           30615     64.4555E+06     30.1790E+06              0.     2.25165E+06
           30616     64.4087E+06     30.2542E+06              0.     2.28159E+06
           30617     64.3612E+06     30.3283E+06              0.     2.31469E+06
           30618     64.3130E+06     30.4014E+06              0.     2.35090E+06
           30619     64.2639E+06     30.4736E+06              0.     2.39019E+06
           30620      64.214E+06     30.5449E+06              0.     2.43250E+06
           30621     64.1631E+06     30.6154E+06              0.     2.47781E+06
           30622     64.1112E+06     30.6852E+06              0.     2.52608E+06
           30623     64.0583E+06     30.7544E+06              0.     2.57728E+06
           30624     64.0042E+06     30.8231E+06              0.     2.63140E+06
           30625     63.9490E+06     30.8912E+06              0.     2.68839E+06
           30626     63.8925E+06     30.9590E+06              0.     2.74825E+06
           30627     63.8347E+06     31.0265E+06              0.     2.81096E+06
           30628     63.7756E+06     31.0937E+06              0.     2.87651E+06
           30629     63.7150E+06     31.1606E+06              0.     2.94487E+06
           30630     63.6529E+06     31.2275E+06              0.     3.01605E+06
           30631     63.5894E+06     31.2943E+06              0.     3.09003E+06
           30632     63.5242E+06     31.3610E+06              0.     3.16682E+06
           30633     63.4573E+06     31.4279E+06              0.     3.24641E+06
           30634     63.3888E+06     31.4948E+06              0.     3.32881E+06
           30635     63.3185E+06     31.5619E+06              0.     3.41401E+06
           30636     63.2464E+06     31.6292E+06              0.     3.50202E+06
           30637     63.1723E+06     31.6969E+06              0.     3.59286E+06
           30638     63.0964E+06     31.7648E+06              0.     3.68653E+06
           30639     63.0184E+06     31.8332E+06              0.     3.78304E+06
           30640     62.9383E+06     31.9020E+06              0.     3.88242E+06
           30641     62.8562E+06     31.9712E+06              0.     3.98467E+06
           30642     62.7719E+06     32.0411E+06              0.     4.08981E+06
           30643     62.6853E+06     32.1115E+06              0.     4.19787E+06
           30644     62.5964E+06     32.1826E+06              0.     4.30887E+06
           30645     62.5051E+06     32.2544E+06              0.     4.42283E+06
           30646     62.4114E+06     32.3269E+06              0.     4.53979E+06
           30647     62.3153E+06     32.4002E+06              0.     4.65975E+06
           30648     62.2165E+06     32.4743E+06              0.     4.78277E+06
           30649     62.1152E+06     32.5494E+06              0.     4.90887E+06
           30650     62.0112E+06     32.6253E+06              0.     5.03807E+06
           30651     61.9044E+06     32.7022E+06              0.     5.17043E+06
           30652     61.7948E+06     32.7802E+06              0.     5.30597E+06
           30653     61.6823E+06     32.8592E+06              0.     5.44472E+06
           30654     61.5669E+06     32.9393E+06              0.     5.58674E+06
           30655     61.4484E+06     33.0205E+06              0.     5.73206E+06
           30656     61.3269E+06     33.1029E+06              0.     5.88073E+06
           30657     61.2022E+06     33.1866E+06              0.     6.03278E+06
           30658     61.0743E+06     33.2715E+06              0.     6.18827E+06
           30659     60.9430E+06     33.3577E+06              0.     6.34723E+06
           30660     60.8084E+06     33.4453E+06              0.     6.50972E+06
           30661     60.6704E+06     33.5342E+06              0.     6.67578E+06
           30662     60.5288E+06     33.6246E+06              0.     6.84547E+06
           30663     60.3836E+06     33.7164E+06              0.     7.01883E+06
           30664     60.2347E+06     33.8097E+06              0.     7.19592E+06
           30665     60.0820E+06     33.9046E+06              0.     7.37680E+06
           30666     59.9255E+06     34.0010E+06              0.      7.5615E+06
           30667     59.7651E+06      34.099E+06              0.     7.75010E+06
           30668     59.6007E+06     34.1987E+06              0.     7.94264E+06
           30669     59.4322E+06     34.3000E+06              0.     8.13918E+06
           30670     59.2595E+06     34.4030E+06              0.     8.33978E+06
           30671     59.0825E+06     34.5078E+06              0.     8.54449E+06
           30672     58.9011E+06     34.6144E+06              0.     8.75338E+06
           30673     58.7154E+06     34.7227E+06              0.     8.96651E+06
           30674     58.5251E+06     34.8329E+06              0.     9.18393E+06
           30675     58.3301E+06     34.9450E+06              0.     9.40571E+06
           30676     58.1304E+06     35.0590E+06              0.      9.6319E+06
           30677     57.9259E+06     35.1749E+06              0.     9.86257E+06
           30678     57.7165E+06     35.2927E+06              0.     10.0978E+06
           30679     57.5021E+06     35.4125E+06              0.     10.3376E+06
           30680     57.2825E+06     35.5344E+06              0.     10.5820E+06
           30681     57.0577E+06     35.6583E+06              0.     10.8312E+06
           30682     56.8276E+06     35.7842E+06              0.     11.0852E+06
           30683     56.5921E+06     35.9122E+06              0.     11.3440E+06
           30684     56.3510E+06     36.0423E+06              0.     11.6077E+06
           30685     56.1043E+06     36.1746E+06              0.     11.8764E+06
           30686     55.8519E+06     36.3090E+06              0.     12.1501E+06
           30687     55.5935E+06     36.4456E+06              0.     12.4288E+06
           30688     55.3292E+06     36.5844E+06              0.     12.7128E+06
           30689     55.0588E+06     36.7253E+06              0.     13.0019E+06
           30690     54.7822E+06     36.8685E+06              0.     13.2963E+06
           30691     54.4992E+06     37.0139E+06              0.     13.5959E+06
           30692     54.2098E+06     37.1616E+06              0.     13.9010E+06
           30693     53.9138E+06     37.3115E+06              0.     14.2114E+06
           30694     53.6111E+06     37.4637E+06              0.     14.5274E+06
           30695     53.3016E+06     37.6181E+06              0.     14.8488E+06
           30696     52.9852E+06     37.7749E+06              0.     15.1758E+06
           30697     52.6616E+06     37.9338E+06              0.     15.5085E+06
           30698     52.3309E+06     38.0951E+06              0.     15.8467E+06
           30699     51.9928E+06     38.2587E+06              0.     16.1907E+06
           30700     51.6472E+06     38.4244E+06              0.     16.5404E+06
           30701     51.2940E+06     38.5925E+06              0.     16.8959E+06
           30702     50.9331E+06     38.7628E+06              0.     17.2571E+06
           30703     50.5643E+06     38.9353E+06              0.     17.6242E+06
           30704     50.1874E+06     39.1101E+06              0.     17.9972E+06
           30705     49.8024E+06     39.2870E+06              0.     18.3760E+06
           30706     49.4091E+06     39.4661E+06              0.     18.7607E+06
           30707     49.0072E+06     39.6474E+06              0.     19.1514E+06
           30708     48.5968E+06     39.8307E+06              0.     19.5479E+06
           30709     48.1776E+06     40.0161E+06              0.     19.9504E+06
           30710     47.7496E+06     40.2036E+06              0.     20.3588E+06
           30711     47.3124E+06     40.3930E+06              0.     20.7731E+06
           30712     46.8660E+06     40.5843E+06              0.     21.1933E+06
           30713     46.4103E+06     40.7776E+06              0.     21.6194E+06
           30714     45.9450E+06     40.9726E+06              0.     22.0513E+06
           30715     45.4701E+06     41.1694E+06              0.     22.4891E+06
           30716     44.9853E+06     41.3678E+06              0.     22.9326E+06
           30717     44.4905E+06     41.5678E+06              0.     23.3820E+06
           30718     43.9856E+06     41.7694E+06              0.     23.8370E+06
           30719     43.4703E+06     41.9723E+06              0.     24.2976E+06
           30720     42.9445E+06     42.1765E+06              0.     24.7638E+06
           30721     42.4081E+06     42.3819E+06              0.     25.2355E+06
           30722     41.8608E+06     42.5884E+06              0.     25.7126E+06
           30723     41.3026E+06     42.7958E+06              0.     26.1949E+06
           30724     40.7332E+06     43.0041E+06              0.     26.6825E+06
           30725     40.1525E+06     43.2129E+06              0.     27.1751E+06
           30726     39.5603E+06     43.4223E+06              0.     27.6727E+06
           30727     38.9565E+06     43.6320E+06              0.     28.1751E+06
           30728     38.3409E+06     43.8419E+06              0.     28.6821E+06
           30729     37.7132E+06     44.0517E+06              0.     29.1936E+06
           30730     37.0734E+06     44.2613E+06              0.     29.7094E+06
           30731     36.4213E+06     44.4704E+06              0.     30.2292E+06
           30732     35.7567E+06     44.6788E+06              0.     30.7530E+06
           30733     35.0795E+06     44.8862E+06              0.     31.2805E+06
           30734     34.3894E+06     45.0925E+06              0.     31.8114E+06
           30735     33.6863E+06     45.2972E+06              0.     32.3454E+06
           30736     32.9702E+06     45.5002E+06              0.     32.8824E+06
           30737     32.2407E+06     45.7011E+06              0.     33.4220E+06
           30738     31.4977E+06     45.8996E+06              0.     33.9639E+06
           30739     30.7412E+06     46.0953E+06              0.     34.5078E+06
           30740     29.9708E+06     46.2878E+06              0.     35.0534E+06
           30741     29.1866E+06     46.4768E+06              0.     35.6002E+06
           30742     28.3883E+06     46.6619E+06              0.     36.1480E+06
           30743     27.5758E+06     46.8426E+06              0.     36.6962E+06
           30744     26.7489E+06     47.0184E+06              0.     37.2446E+06
           30745     25.9076E+06     47.1889E+06              0.     37.7925E+06
           30746     25.0517E+06     47.3535E+06              0.     38.3397E+06
           30747     24.1810E+06     47.5118E+06              0.     38.8855E+06
           30748     23.2955E+06     47.6631E+06              0.     39.4295E+06
           30749      22.395E+06     47.8069E+06              0.     39.9712E+06
           30750     21.4795E+06     47.9425E+06              0.     40.5099E+06
           30751     20.5488E+06     48.0693E+06              0.     41.0452E+06
           30752     19.6028E+06     48.1865E+06              0.     41.5763E+06
           30753     18.6415E+06     48.2935E+06              0.     42.1027E+06
           30754     17.6649E+06     48.3894E+06              0.     42.6236E+06
           30755     16.6728E+06     48.4735E+06              0.     43.1385E+06
           30756     15.6651E+06     48.5449E+06              0.     43.6466E+06
           30757     14.6420E+06     48.6028E+06              0.     44.1471E+06
           30758     13.6032E+06     48.6462E+06              0.     44.6394E+06
           30759     12.5489E+06     48.6742E+06              0.     45.1226E+06
           30760     11.4791E+06     48.6857E+06              0.     45.5959E+06
           30761     10.3937E+06     48.6798E+06              0.     46.0584E+06
           30762     9.29277E+06     48.6552E+06              0.     46.5093E+06
           30763     8.17640E+06     48.6108E+06              0.     46.9478E+06
           30764     7.04465E+06     48.5455E+06              0.     47.3728E+06
           30765     5.89761E+06      48.458E+06              0.     47.7835E+06
           30766     4.73540E+06     48.3470E+06              0.     48.1788E+06
           30767     3.55814E+06     48.2111E+06              0.     48.5579E+06
           30768     2.36601E+06     48.0489E+06              0.     48.9196E+06
           30769     1.15916E+06     47.8590E+06              0.     49.2629E+06
           30770    -62.1712E+03     47.6397E+06              0.     49.5869E+06
           30771    -1.29777E+06     47.3897E+06              0.     49.8903E+06
           30772    -2.54736E+06     47.1072E+06              0.     50.1722E+06
           30773    -3.81068E+06     46.7904E+06              0.     50.4313E+06
           30774    -5.08738E+06     46.4377E+06              0.     50.6666E+06
           30775    -6.37712E+06     46.0473E+06              0.     50.8770E+06
           30776    -7.67952E+06     45.6172E+06              0.     51.0612E+06
           30777    -8.99416E+06     45.1456E+06              0.     51.2181E+06
           30778    -10.3206E+06     44.6304E+06              0.     51.3466E+06
           30779    -11.6583E+06     44.0696E+06              0.     51.4454E+06
           30780    -13.0068E+06      43.461E+06              0.     51.5133E+06
           30781    -14.3655E+06     42.8025E+06              0.     51.5492E+06
           30782    -15.7339E+06     42.0920E+06              0.     51.5519E+06
           30783    -17.1112E+06     41.3270E+06              0.     51.5202E+06
           30784    -18.4967E+06     40.5052E+06              0.     51.4529E+06
           30785    -19.8899E+06     39.6244E+06              0.     51.3489E+06
           30786    -21.2898E+06     38.6819E+06              0.     51.2069E+06
           30787    -22.6957E+06     37.6754E+06              0.     51.0258E+06
           30788    -24.1067E+06     36.6024E+06              0.     50.8046E+06
           30789    -25.5220E+06     35.4602E+06              0.     50.5420E+06
           30790    -26.9405E+06     34.2462E+06              0.     50.2371E+06
           30791    -28.3613E+06     32.9578E+06              0.     49.8887E+06
           30792    -29.7834E+06     31.5923E+06              0.     49.4957E+06
           30793    -31.2057E+06     30.1471E+06              0.     49.0573E+06
           30794    -32.6271E+06     28.6194E+06              0.     48.5724E+06
           30795    -34.0463E+06     27.0065E+06              0.     48.0401E+06
           30796    -35.4622E+06     25.3055E+06              0.     47.4595E+06
           30797    -36.8736E+06     23.5139E+06              0.     46.8298E+06
           30798    -38.2791E+06     21.6288E+06              0.     46.1501E+06
           30799    -39.6774E+06     19.6475E+06              0.     45.4197E+06
           30800    -41.0672E+06     17.5672E+06              0.     44.6378E+06
           30801    -42.4470E+06     15.3852E+06              0.     43.8038E+06
           30802    -43.8153E+06     13.0988E+06              0.     42.9172E+06
           30803    -45.1707E+06     10.7055E+06              0.     41.9773E+06
           30804    -46.5117E+06     8.20241E+06              0.     40.9836E+06
           30805    -47.8366E+06     5.58713E+06              0.     39.9356E+06
           30806    -49.1440E+06     2.85705E+06              0.     38.8330E+06
           30807    -50.4321E+06     9.69529E+03              0.     37.6754E+06
           30808    -51.6993E+06    -2.95731E+06              0.     36.4626E+06
           30809    -52.9438E+06    -6.04638E+06              0.     35.1942E+06
           30810    -54.1640E+06    -9.25973E+06              0.     33.8701E+06
           30811    -55.3579E+06    -12.5996E+06              0.     32.4902E+06
           30812    -56.5237E+06    -16.0682E+06              0.     31.0545E+06
           30813    -57.6593E+06    -19.6667E+06              0.     29.5630E+06
           30814    -59.2570E+06    -23.8285E+06              0.     28.8845E+06
           30815     65.2465E+06     28.6446E+06              0.     2.30523E+06
           30816     65.2583E+06     28.7746E+06              0.     2.30098E+06
           30817     65.2145E+06     28.8774E+06              0.     2.27007E+06
           30818     65.1712E+06     28.9774E+06              0.     2.24374E+06
           30819     65.1284E+06     29.0747E+06              0.     2.22187E+06
           30820     65.0859E+06     29.1695E+06              0.     2.20434E+06
           30821     65.0436E+06     29.2619E+06              0.     2.19103E+06
           30822     65.0016E+06     29.3520E+06              0.     2.18185E+06
           30823     64.9596E+06     29.4400E+06              0.     2.17668E+06
           30824     64.9177E+06     29.5258E+06              0.     2.17544E+06
           30825     64.8758E+06     29.6098E+06              0.     2.17803E+06
           30826     64.8337E+06     29.6919E+06              0.     2.18436E+06
           30827     64.7914E+06     29.7723E+06              0.     2.19436E+06
           30828     64.7489E+06     29.8510E+06              0.     2.20796E+06
           30829     64.7061E+06     29.9283E+06              0.     2.22506E+06
           30830     64.6628E+06     30.0041E+06              0.     2.24562E+06
           30831     64.6191E+06     30.0786E+06              0.     2.26957E+06
           30832     64.5748E+06     30.1518E+06              0.     2.29685E+06
           30833     64.5300E+06     30.2239E+06              0.     2.32740E+06
           30834     64.4845E+06     30.2949E+06              0.     2.36117E+06
           30835     64.4382E+06     30.3650E+06              0.     2.39811E+06
           30836     64.3912E+06     30.4341E+06              0.     2.43819E+06
           30837     64.3434E+06     30.5025E+06              0.     2.48137E+06
           30838     64.2946E+06     30.5700E+06              0.     2.52759E+06
           30839     64.2449E+06     30.6369E+06              0.     2.57684E+06
           30840     64.1942E+06     30.7033E+06              0.     2.62908E+06
           30841     64.1424E+06     30.7691E+06              0.     2.68430E+06
           30842     64.0894E+06     30.8344E+06              0.     2.74245E+06
           30843     64.0353E+06     30.8994E+06              0.     2.80352E+06
           30844     63.9799E+06     30.9640E+06              0.     2.86750E+06
           30845     63.9232E+06     31.0284E+06              0.     2.93438E+06
           30846     63.8652E+06     31.0926E+06              0.     3.00413E+06
           30847     63.8057E+06     31.1567E+06              0.     3.07675E+06
           30848     63.7448E+06     31.2207E+06              0.     3.15224E+06
           30849     63.6823E+06     31.2847E+06              0.     3.23059E+06
           30850     63.6182E+06     31.3488E+06              0.     3.31179E+06
           30851     63.5526E+06     31.4130E+06              0.     3.39586E+06
           30852     63.4852E+06     31.4773E+06              0.     3.48280E+06
           30853     63.4160E+06     31.5418E+06              0.     3.57260E+06
           30854     63.3451E+06     31.6067E+06              0.     3.66529E+06
           30855     63.2723E+06     31.6718E+06              0.     3.76087E+06
           30856     63.1975E+06     31.7374E+06              0.     3.85935E+06
           30857     63.1208E+06     31.8033E+06              0.     3.96075E+06
           30858     63.0421E+06     31.8698E+06              0.     4.06508E+06
           30859     62.9612E+06     31.9368E+06              0.     4.17237E+06
           30860     62.8782E+06     32.0043E+06              0.     4.28264E+06
           30861      62.793E+06     32.0725E+06              0.     4.39590E+06
           30862     62.7055E+06     32.1413E+06              0.     4.51220E+06
           30863     62.6157E+06     32.2109E+06              0.     4.63154E+06
           30864     62.5235E+06     32.2812E+06              0.     4.75397E+06
           30865     62.4289E+06     32.3523E+06              0.     4.87950E+06
           30866     62.3317E+06     32.4243E+06              0.     5.00818E+06
           30867     62.2320E+06     32.4972E+06              0.     5.14004E+06
           30868     62.1296E+06     32.5710E+06              0.     5.27511E+06
           30869     62.0245E+06     32.6458E+06              0.     5.41343E+06
           30870     61.9167E+06     32.7216E+06              0.     5.55505E+06
           30871     61.8060E+06     32.7985E+06              0.     5.69999E+06
           30872     61.6924E+06     32.8765E+06              0.     5.84830E+06
           30873     61.5759E+06     32.9556E+06              0.     6.00003E+06
           30874     61.4563E+06     33.0359E+06              0.     6.15523E+06
           30875     61.3337E+06     33.1174E+06              0.     6.31392E+06
           30876     61.2078E+06     33.2002E+06              0.     6.47618E+06
           30877     61.0787E+06     33.2842E+06              0.     6.64203E+06
           30878     60.9463E+06     33.3696E+06              0.     6.81153E+06
           30879     60.8105E+06     33.4564E+06              0.     6.98474E+06
           30880     60.6713E+06     33.5446E+06              0.     7.16171E+06
           30881     60.5285E+06     33.6342E+06              0.     7.34248E+06
           30882     60.3821E+06     33.7253E+06              0.     7.52712E+06
           30883     60.2320E+06     33.8180E+06              0.     7.71568E+06
           30884     60.0781E+06     33.9121E+06              0.     7.90821E+06
           30885     59.9204E+06     34.0079E+06              0.     8.10478E+06
           30886     59.7587E+06     34.1053E+06              0.     8.30544E+06
           30887     59.5930E+06     34.2043E+06              0.     8.51024E+06
           30888     59.4233E+06     34.3050E+06              0.     8.71926E+06
           30889     59.2493E+06     34.4074E+06              0.     8.93254E+06
           30890     59.0710E+06     34.5116E+06              0.     9.15016E+06
           30891     58.8884E+06     34.6176E+06              0.     9.37217E+06
           30892     58.7014E+06     34.7253E+06              0.     9.59864E+06
           30893     58.5098E+06     34.8349E+06              0.     9.82962E+06
           30894     58.3135E+06     34.9464E+06              0.     10.0652E+06
           30895     58.1125E+06     35.0597E+06              0.     10.3054E+06
           30896     57.9067E+06     35.1750E+06              0.     10.5503E+06
           30897     57.6960E+06     35.2922E+06              0.     10.8000E+06
           30898     57.4803E+06     35.4115E+06              0.     11.0545E+06
           30899     57.2594E+06     35.5327E+06              0.     11.3139E+06
           30900     57.0333E+06     35.6559E+06              0.     11.5782E+06
           30901     56.8018E+06     35.7812E+06              0.     11.8476E+06
           30902     56.5650E+06     35.9085E+06              0.     12.1221E+06
           30903     56.3225E+06     36.0380E+06              0.     12.4017E+06
           30904     56.0745E+06     36.1695E+06              0.     12.6865E+06
           30905     55.8206E+06     36.3032E+06              0.     12.9766E+06
           30906     55.5609E+06     36.4390E+06              0.     13.2720E+06
           30907     55.2952E+06     36.5770E+06              0.     13.5728E+06
           30908     55.0234E+06     36.7172E+06              0.     13.8790E+06
           30909     54.7454E+06     36.8596E+06              0.     14.1908E+06
           30910     54.4610E+06     37.0041E+06              0.     14.5081E+06
           30911     54.1702E+06     37.1509E+06              0.     14.8310E+06
           30912     53.8728E+06     37.2999E+06              0.     15.1595E+06
           30913     53.5686E+06     37.4511E+06              0.     15.4938E+06
           30914     53.2577E+06     37.6046E+06              0.     15.8338E+06
           30915     52.9397E+06     37.7602E+06              0.     16.1796E+06
           30916     52.6147E+06     37.9182E+06              0.     16.5313E+06
           30917     52.2825E+06     38.0783E+06              0.     16.8889E+06
           30918     51.9429E+06     38.2406E+06              0.     17.2524E+06
           30919     51.5958E+06     38.4052E+06              0.     17.6218E+06
           30920     51.2410E+06     38.5720E+06              0.     17.9973E+06
           30921     50.8785E+06     38.7409E+06              0.     18.3787E+06
           30922     50.5081E+06     38.9121E+06              0.     18.7662E+06
           30923     50.1296E+06     39.0854E+06              0.     19.1598E+06
           30924     49.7430E+06     39.2608E+06              0.     19.5594E+06
           30925     49.3480E+06     39.4383E+06              0.     19.9652E+06
           30926     48.9444E+06     39.6178E+06              0.     20.3770E+06
           30927     48.5323E+06     39.7994E+06              0.     20.7949E+06
           30928     48.1114E+06     39.9830E+06              0.     21.2189E+06
           30929     47.6815E+06     40.1685E+06              0.     21.6490E+06
           30930     47.2425E+06     40.3559E+06              0.     22.0852E+06
           30931     46.7943E+06     40.5451E+06              0.     22.5274E+06
           30932     46.3366E+06     40.7362E+06              0.     22.9757E+06
           30933     45.8694E+06     40.9289E+06              0.     23.4299E+06
           30934     45.3924E+06     41.1232E+06              0.     23.8901E+06
           30935     44.9056E+06     41.3191E+06              0.     24.3561E+06
           30936     44.4087E+06     41.5164E+06              0.     24.8280E+06
           30937     43.9016E+06     41.7152E+06              0.     25.3057E+06
           30938     43.3840E+06     41.9151E+06              0.     25.7890E+06
           30939     42.8560E+06     42.1163E+06              0.     26.2779E+06
           30940     42.3172E+06     42.3185E+06              0.     26.7724E+06
           30941     41.7675E+06     42.5215E+06              0.     27.2722E+06
           30942     41.2068E+06     42.7254E+06              0.     27.7773E+06
           30943     40.6348E+06     42.9299E+06              0.     28.2875E+06
           30944     40.0514E+06     43.1348E+06              0.     28.8028E+06
           30945     39.4565E+06     43.3400E+06              0.     29.3229E+06
           30946     38.8498E+06     43.5454E+06              0.     29.8476E+06
           30947     38.2311E+06     43.7506E+06              0.     30.3769E+06
           30948     37.6004E+06     43.9556E+06              0.     30.9105E+06
           30949     36.9575E+06     44.1601E+06              0.     31.4482E+06
           30950     36.3020E+06     44.3639E+06              0.     31.9898E+06
           30951     35.6340E+06     44.5667E+06              0.     32.5350E+06
           30952     34.9532E+06     44.7682E+06              0.     33.0836E+06
           30953     34.2595E+06     44.9682E+06              0.     33.6353E+06
           30954     33.5526E+06     45.1664E+06              0.     34.1898E+06
           30955     32.8324E+06     45.3625E+06              0.     34.7468E+06
           30956     32.0988E+06     45.5561E+06              0.     35.3060E+06
           30957     31.3516E+06     45.7468E+06              0.     35.8670E+06
           30958     30.5906E+06     45.9344E+06              0.     36.4295E+06
           30959     29.8156E+06     46.1184E+06              0.     36.9931E+06
           30960     29.0266E+06     46.2984E+06              0.     37.5574E+06
           30961     28.2233E+06     46.4740E+06              0.     38.1219E+06
           30962     27.4056E+06     46.6446E+06              0.     38.6862E+06
           30963     26.5734E+06     46.8098E+06              0.     39.2498E+06
           30964     25.7265E+06     46.9691E+06              0.     39.8123E+06
           30965     24.8648E+06     47.1219E+06              0.     40.3731E+06
           30966     23.9881E+06     47.2677E+06              0.     40.9316E+06
           30967     23.0964E+06     47.4058E+06              0.     41.4873E+06
           30968     22.1894E+06     47.5356E+06              0.     42.0396E+06
           30969     21.2672E+06     47.6565E+06              0.     42.5878E+06
           30970     20.3296E+06     47.7677E+06              0.     43.1314E+06
           30971     19.3765E+06     47.8684E+06              0.     43.6697E+06
           30972     18.4079E+06     47.9580E+06              0.     44.2019E+06
           30973     17.4236E+06     48.0356E+06              0.     44.7273E+06
           30974     16.4236E+06     48.1002E+06              0.     45.2452E+06
           30975     15.4078E+06     48.1511E+06              0.     45.7547E+06
           30976     14.3763E+06     48.1873E+06              0.     46.2552E+06
           30977     13.3290E+06     48.2077E+06              0.     46.7457E+06
           30978     12.2658E+06     48.2114E+06              0.     47.2253E+06
           30979     11.1869E+06     48.1973E+06              0.     47.6933E+06
           30980     10.0921E+06     48.1642E+06              0.     48.1486E+06
           30981     8.98166E+06     48.1110E+06              0.     48.5903E+06
           30982     7.85552E+06     48.0364E+06              0.     49.0175E+06
           30983     6.71380E+06     47.9391E+06              0.     49.4291E+06
           30984     5.55658E+06     47.8178E+06              0.     49.8242E+06
           30985     4.38401E+06     47.6712E+06              0.     50.2016E+06
           30986     3.19622E+06     47.4977E+06              0.     50.5604E+06
           30987     1.99340E+06     47.2958E+06              0.     50.8993E+06
           30988     775.744E+03     47.0640E+06              0.     51.2174E+06
           30989    -456.515E+03     46.8006E+06              0.     51.5134E+06
           30990    -1.70312E+06      46.504E+06              0.     51.7862E+06
           30991    -2.96379E+06     46.1724E+06              0.     52.0347E+06
           30992    -4.23820E+06     45.8040E+06              0.     52.2576E+06
           30993    -5.52599E+06     45.3968E+06              0.     52.4537E+06
           30994    -6.82679E+06     44.9491E+06              0.     52.6219E+06
           30995    -8.14017E+06     44.4588E+06              0.     52.7609E+06
           30996    -9.46567E+06     43.9238E+06              0.     52.8695E+06
           30997    -10.8028E+06     43.3419E+06              0.     52.9464E+06
           30998    -12.1510E+06     42.7111E+06              0.     52.9904E+06
           30999    -13.5097E+06     42.0291E+06              0.     53.0002E+06
           31000    -14.8783E+06     41.2936E+06              0.     52.9747E+06
           31001    -16.2562E+06     40.5023E+06              0.     52.9126E+06
           31002    -17.6426E+06     39.6526E+06              0.     52.8126E+06
           31003    -19.0368E+06     38.7422E+06              0.     52.6736E+06
           31004    -20.4380E+06     37.7686E+06              0.     52.4943E+06
           31005    -21.8453E+06     36.7291E+06              0.     52.2735E+06
           31006    -23.2579E+06     35.6213E+06              0.     52.0102E+06
           31007    -24.6749E+06     34.4424E+06              0.     51.7031E+06
           31008    -26.0953E+06     33.1898E+06              0.     51.3511E+06
           31009    -27.5180E+06     31.8607E+06              0.     50.9532E+06
           31010    -28.9420E+06     30.4525E+06              0.     50.5083E+06
           31011    -30.3661E+06     28.9623E+06              0.     50.0154E+06
           31012    -31.7893E+06     27.3874E+06              0.     49.4735E+06
           31013    -33.2103E+06      25.725E+06              0.     48.8817E+06
           31014    -34.6279E+06     23.9722E+06              0.     48.2390E+06
           31015    -36.0407E+06     22.1264E+06              0.     47.5447E+06
           31016    -37.4474E+06     20.1846E+06              0.     46.7979E+06
           31017    -38.8467E+06     18.1441E+06              0.     45.9979E+06
           31018    -40.2371E+06     16.0021E+06              0.     45.1440E+06
           31019    -41.6171E+06     13.7558E+06              0.     44.2356E+06
           31020    -42.9854E+06     11.4027E+06              0.     43.2721E+06
           31021    -44.3402E+06     8.93986E+06              0.     42.2529E+06
           31022    -45.6801E+06     6.36480E+06              0.     41.1775E+06
           31023    -47.0034E+06     3.67487E+06              0.     40.0456E+06
           31024    -48.3085E+06     867.560E+03              0.     38.8569E+06
           31025    -49.5938E+06    -2.05956E+06              0.     37.6109E+06
           31026    -50.8574E+06    -5.10894E+06              0.     36.3074E+06
           31027    -52.0977E+06    -8.28282E+06              0.     34.9463E+06
           31028    -53.3125E+06    -11.5835E+06              0.     33.5273E+06
           31029    -54.4999E+06    -15.0131E+06              0.     32.0503E+06
           31030    -55.6587E+06    -18.5741E+06              0.     30.5157E+06
           31031    -57.2557E+06    -22.6979E+06              0.     29.8195E+06
           31032     65.3381E+06     28.6840E+06              0.     2.34856E+06
           31033     65.3494E+06     28.8083E+06              0.     2.34424E+06
           31034     65.3075E+06     28.9065E+06              0.     2.31275E+06
           31035     65.2662E+06     29.0020E+06              0.     2.28593E+06
           31036     65.2252E+06     29.0950E+06              0.     2.26365E+06
           31037     65.1846E+06     29.1856E+06              0.     2.24579E+06
           31038     65.1443E+06     29.2739E+06              0.     2.23224E+06
           31039     65.1041E+06     29.3599E+06              0.     2.22289E+06
           31040     65.0641E+06     29.4440E+06              0.     2.21763E+06
           31041     65.0240E+06     29.5260E+06              0.     2.21637E+06
           31042     64.9840E+06     29.6062E+06              0.     2.21901E+06
           31043     64.9438E+06     29.6847E+06              0.     2.22547E+06
           31044     64.9034E+06     29.7615E+06              0.     2.23567E+06
           31045     64.8627E+06     29.8367E+06              0.     2.24952E+06
           31046     64.8218E+06     29.9106E+06              0.     2.26696E+06
           31047     64.7805E+06     29.9830E+06              0.     2.28791E+06
           31048     64.7387E+06     30.0542E+06              0.     2.31232E+06
           31049     64.6964E+06     30.1242E+06              0.     2.34011E+06
           31050     64.6536E+06     30.1930E+06              0.     2.37125E+06
           31051     64.6101E+06     30.2609E+06              0.     2.40566E+06
           31052     64.5659E+06     30.3278E+06              0.     2.44331E+06
           31053     64.5210E+06     30.3939E+06              0.     2.48416E+06
           31054     64.4753E+06     30.4592E+06              0.     2.52815E+06
           31055     64.4287E+06     30.5238E+06              0.     2.57526E+06
           31056     64.3812E+06     30.5877E+06              0.     2.62545E+06
           31057     64.3327E+06     30.6511E+06              0.     2.67868E+06
           31058     64.2832E+06     30.7140E+06              0.     2.73495E+06
           31059     64.2326E+06     30.7765E+06              0.     2.79421E+06
           31060     64.1809E+06     30.8385E+06              0.     2.85645E+06
           31061     64.1279E+06     30.9003E+06              0.     2.92165E+06
           31062     64.0738E+06     30.9619E+06              0.     2.98979E+06
           31063     64.0183E+06     31.0232E+06              0.     3.06088E+06
           31064     63.9615E+06     31.0845E+06              0.     3.13488E+06
           31065     63.9032E+06     31.1457E+06              0.     3.21181E+06
           31066     63.8435E+06     31.2069E+06              0.     3.29165E+06
           31067     63.7823E+06     31.2681E+06              0.     3.37441E+06
           31068     63.7195E+06     31.3295E+06              0.     3.46009E+06
           31069     63.6551E+06     31.3910E+06              0.     3.54868E+06
           31070     63.5890E+06     31.4527E+06              0.     3.64020E+06
           31071     63.5212E+06     31.5147E+06              0.     3.73466E+06
           31072     63.4516E+06     31.5770E+06              0.     3.83207E+06
           31073     63.3802E+06     31.6397E+06              0.     3.93243E+06
           31074     63.3069E+06     31.7028E+06              0.     4.03577E+06
           31075     63.2316E+06     31.7663E+06              0.     4.14211E+06
           31076     63.1543E+06     31.8304E+06              0.     4.25146E+06
           31077     63.0750E+06     31.8950E+06              0.     4.36384E+06
           31078     62.9935E+06     31.9602E+06              0.     4.47928E+06
           31079     62.9099E+06     32.0261E+06              0.     4.59781E+06
           31080     62.8240E+06     32.0926E+06              0.     4.71945E+06
           31081     62.7359E+06     32.1599E+06              0.     4.84423E+06
           31082     62.6454E+06     32.2279E+06              0.     4.97218E+06
           31083     62.5525E+06     32.2968E+06              0.     5.10334E+06
           31084     62.4572E+06     32.3666E+06              0.     5.23775E+06
           31085     62.3593E+06     32.4372E+06              0.     5.37542E+06
           31086     62.2588E+06     32.5088E+06              0.     5.51642E+06
           31087     62.1557E+06     32.5813E+06              0.     5.66077E+06
           31088     62.0499E+06     32.6549E+06              0.     5.80852E+06
           31089     61.9413E+06     32.7295E+06              0.     5.95971E+06
           31090     61.8299E+06     32.8053E+06              0.     6.11438E+06
           31091     61.7156E+06     32.8822E+06              0.     6.27259E+06
           31092     61.5982E+06     32.9602E+06              0.     6.43437E+06
           31093     61.4779E+06     33.0395E+06              0.     6.59978E+06
           31094     61.3545E+06     33.1200E+06              0.     6.76886E+06
           31095     61.2278E+06     33.2018E+06              0.     6.94168E+06
           31096     61.0980E+06     33.2849E+06              0.     7.11827E+06
           31097     60.9648E+06     33.3693E+06              0.     7.29870E+06
           31098     60.8282E+06     33.4552E+06              0.     7.48301E+06
           31099     60.6882E+06     33.5425E+06              0.     7.67127E+06
           31100     60.5446E+06     33.6312E+06              0.     7.86353E+06
           31101     60.3974E+06     33.7215E+06              0.     8.05985E+06
           31102     60.2465E+06     33.8133E+06              0.     8.26029E+06
           31103     60.0919E+06     33.9066E+06              0.     8.46490E+06
           31104     59.9334E+06     34.0015E+06              0.     8.67375E+06
           31105     59.7709E+06     34.0981E+06              0.     8.88691E+06
           31106     59.6045E+06     34.1963E+06              0.     9.10442E+06
           31107     59.4339E+06     34.2962E+06              0.     9.32636E+06
           31108     59.2592E+06     34.3978E+06              0.     9.55278E+06
           31109     59.0802E+06     34.5011E+06              0.     9.78376E+06
           31110     58.8968E+06     34.6063E+06              0.     10.0194E+06
           31111     58.7090E+06     34.7132E+06              0.     10.2596E+06
           31112     58.5167E+06     34.8220E+06              0.     10.5046E+06
           31113     58.3197E+06     34.9326E+06              0.     10.7545E+06
           31114     58.1180E+06     35.0451E+06              0.     11.0092E+06
           31115     57.9114E+06     35.1595E+06              0.     11.2688E+06
           31116     57.7000E+06     35.2759E+06              0.     11.5334E+06
           31117     57.4835E+06     35.3943E+06              0.     11.8032E+06
           31118     57.2619E+06     35.5146E+06              0.     12.0780E+06
           31119     57.0351E+06     35.6369E+06              0.     12.3581E+06
           31120     56.8029E+06     35.7613E+06              0.     12.6434E+06
           31121     56.5654E+06     35.8877E+06              0.     12.9340E+06
           31122     56.3223E+06     36.0162E+06              0.     13.2301E+06
           31123     56.0735E+06     36.1467E+06              0.     13.5315E+06
           31124     55.8190E+06     36.2794E+06              0.     13.8385E+06
           31125     55.5586E+06     36.4142E+06              0.     14.1511E+06
           31126     55.2922E+06     36.5511E+06              0.     14.4693E+06
           31127     55.0197E+06     36.6902E+06              0.     14.7932E+06
           31128     54.7410E+06     36.8314E+06              0.     15.1228E+06
           31129     54.4560E+06     36.9748E+06              0.     15.4583E+06
           31130     54.1644E+06     37.1204E+06              0.     15.7996E+06
           31131     53.8664E+06     37.2682E+06              0.     16.1468E+06
           31132     53.5616E+06     37.4181E+06              0.     16.4999E+06
           31133     53.2499E+06     37.5703E+06              0.     16.8590E+06
           31134     52.9313E+06     37.7246E+06              0.     17.2242E+06
           31135     52.6056E+06     37.8811E+06              0.     17.5955E+06
           31136     52.2727E+06     38.0398E+06              0.     17.9728E+06
           31137     51.9324E+06     38.2006E+06              0.     18.3564E+06
           31138     51.5845E+06     38.3637E+06              0.     18.7461E+06
           31139     51.2291E+06     38.5288E+06              0.     19.1420E+06
           31140     50.8659E+06     38.6961E+06              0.     19.5441E+06
           31141     50.4947E+06     38.8655E+06              0.     19.9525E+06
           31142     50.1155E+06     39.0370E+06              0.     20.3672E+06
           31143     49.7281E+06     39.2106E+06              0.     20.7881E+06
           31144     49.3323E+06     39.3861E+06              0.     21.2153E+06
           31145     48.9280E+06     39.5637E+06              0.     21.6488E+06
           31146     48.5150E+06     39.7432E+06              0.     22.0885E+06
           31147     48.0932E+06     39.9246E+06              0.     22.5345E+06
           31148     47.6624E+06     40.1079E+06              0.     22.9868E+06
           31149     47.2225E+06     40.2929E+06              0.     23.4452E+06
           31150     46.7734E+06     40.4797E+06              0.     23.9099E+06
           31151     46.3147E+06     40.6682E+06              0.     24.3806E+06
           31152     45.8465E+06     40.8583E+06              0.     24.8575E+06
           31153     45.3684E+06     41.0499E+06              0.     25.3403E+06
           31154     44.8805E+06     41.2429E+06              0.     25.8292E+06
           31155     44.3824E+06     41.4372E+06              0.     26.3239E+06
           31156     43.8741E+06     41.6328E+06              0.     26.8244E+06
           31157     43.3553E+06     41.8296E+06              0.     27.3306E+06
           31158     42.8258E+06     42.0273E+06              0.     27.8425E+06
           31159     42.2856E+06     42.2259E+06              0.     28.3598E+06
           31160     41.7344E+06     42.4253E+06              0.     28.8824E+06
           31161     41.1721E+06     42.6252E+06              0.     29.4103E+06
           31162     40.5985E+06     42.8257E+06              0.     29.9433E+06
           31163     40.0133E+06     43.0263E+06              0.     30.4811E+06
           31164     39.4165E+06     43.2271E+06              0.     31.0236E+06
           31165     38.8079E+06     43.4278E+06              0.     31.5707E+06
           31166     38.1872E+06     43.6282E+06              0.     32.1221E+06
           31167     37.5543E+06     43.8281E+06              0.     32.6776E+06
           31168     36.9090E+06     44.0272E+06              0.     33.2369E+06
           31169     36.2511E+06     44.2253E+06              0.     33.7998E+06
           31170     35.5805E+06     44.4222E+06              0.     34.3660E+06
           31171     34.8970E+06     44.6175E+06              0.     34.9353E+06
           31172     34.2004E+06     44.8110E+06              0.     35.5072E+06
           31173     33.4905E+06     45.0023E+06              0.     36.0816E+06
           31174     32.7671E+06     45.1912E+06              0.     36.6579E+06
           31175     32.0301E+06     45.3772E+06              0.     37.2360E+06
           31176     31.2793E+06     45.5599E+06              0.     37.8153E+06
           31177     30.5146E+06     45.7391E+06              0.     38.3954E+06
           31178     29.7357E+06     45.9142E+06              0.     38.9760E+06
           31179     28.9425E+06     46.0848E+06              0.     39.5566E+06
           31180     28.1348E+06     46.2505E+06              0.     40.1366E+06
           31181     27.3125E+06     46.4107E+06              0.     40.7156E+06
           31182     26.4755E+06     46.5649E+06              0.     41.2931E+06
           31183     25.6235E+06     46.7126E+06              0.     41.8685E+06
           31184     24.7564E+06     46.8531E+06              0.     42.4411E+06
           31185     23.8742E+06     46.9860E+06              0.     43.0105E+06
           31186     22.9766E+06     47.1104E+06              0.     43.5760E+06
           31187     22.0636E+06     47.2257E+06              0.     44.1368E+06
           31188     21.1350E+06     47.3313E+06              0.     44.6924E+06
           31189     20.1908E+06     47.4263E+06              0.     45.2420E+06
           31190     19.2308E+06     47.5099E+06              0.     45.7849E+06
           31191     18.2549E+06     47.5814E+06              0.     46.3203E+06
           31192     17.2631E+06     47.6398E+06              0.     46.8473E+06
           31193     16.2553E+06     47.6842E+06              0.     47.3652E+06
           31194     15.2314E+06     47.7137E+06              0.     47.8731E+06
           31195     14.1915E+06     47.7272E+06              0.     48.3701E+06
           31196     13.1355E+06     47.7236E+06              0.     48.8554E+06
           31197     12.0634E+06     47.7020E+06              0.     49.3278E+06
           31198     10.9752E+06     47.6610E+06              0.     49.7866E+06
           31199     9.87095E+06     47.5995E+06              0.     50.2306E+06
           31200     8.75068E+06     47.5163E+06              0.     50.6588E+06
           31201     7.61448E+06     47.4099E+06              0.     51.0703E+06
           31202     6.46243E+06     47.2791E+06              0.     51.4638E+06
           31203     5.29466E+06     47.1223E+06              0.     51.8384E+06
           31204     4.11130E+06     46.9382E+06              0.     52.1928E+06
           31205     2.91252E+06     46.7250E+06              0.     52.5259E+06
           31206     1.69852E+06     46.4813E+06              0.     52.8366E+06
           31207     469.527E+03     46.2053E+06              0.     53.1236E+06
           31208    -774.214E+03     45.8952E+06              0.     53.3858E+06
           31209    -2.03241E+06     45.5494E+06              0.     53.6218E+06
           31210    -3.30475E+06     45.1659E+06              0.     53.8305E+06
           31211    -4.59087E+06     44.7427E+06              0.     54.0106E+06
           31212    -5.89038E+06     44.2779E+06              0.     54.1607E+06
           31213    -7.20287E+06     43.7694E+06              0.     54.2797E+06
           31214    -8.52785E+06     43.2151E+06              0.     54.3662E+06
           31215    -9.86484E+06     42.6128E+06              0.     54.4190E+06
           31216    -11.2133E+06     41.9603E+06              0.     54.4367E+06
           31217    -12.5726E+06     41.2552E+06              0.     54.4181E+06
           31218    -13.9421E+06     40.4951E+06              0.     54.3618E+06
           31219    -15.3212E+06     39.6777E+06              0.     54.2666E+06
           31220    -16.7091E+06     38.8004E+06              0.     54.1312E+06
           31221    -18.1050E+06     37.8607E+06              0.     53.9544E+06
           31222    -19.5082E+06     36.8560E+06              0.     53.7349E+06
           31223    -20.9178E+06     35.7837E+06              0.     53.4715E+06
           31224    -22.3328E+06     34.6411E+06              0.     53.1629E+06
           31225    -23.7524E+06     33.4255E+06              0.     52.8082E+06
           31226    -25.1754E+06     32.1341E+06              0.     52.4060E+06
           31227    -26.6009E+06     30.7642E+06              0.     51.9553E+06
           31228    -28.0277E+06     29.3129E+06              0.     51.4550E+06
           31229    -29.4547E+06     27.7774E+06              0.     50.9042E+06
           31230    -30.8806E+06     26.1548E+06              0.     50.3018E+06
           31231    -32.3043E+06     24.4424E+06              0.     49.6468E+06
           31232    -33.7244E+06     22.6372E+06              0.     48.9385E+06
           31233    -35.1396E+06     20.7364E+06              0.     48.1759E+06
           31234    -36.5485E+06     18.7371E+06              0.     47.3584E+06
           31235    -37.9497E+06     16.6366E+06              0.     46.4851E+06
           31236    -39.3417E+06     14.4319E+06              0.     45.5554E+06
           31237    -40.7230E+06     12.1204E+06              0.     44.5687E+06
           31238    -42.0920E+06     9.69929E+06              0.     43.5244E+06
           31239    -43.4472E+06     7.16592E+06              0.     42.4222E+06
           31240    -44.7869E+06     4.51759E+06              0.     41.2614E+06
           31241    -46.1096E+06     1.75177E+06              0.     40.0418E+06
           31242    -47.4134E+06    -1.13404E+06              0.     38.7630E+06
           31243    -48.6967E+06    -4.14233E+06              0.     37.4249E+06
           31244    -49.9579E+06    -7.27538E+06              0.     36.0271E+06
           31245    -51.1950E+06    -10.5355E+06              0.     34.5694E+06
           31246    -52.4061E+06    -13.9246E+06              0.     33.0516E+06
           31247    -53.5884E+06    -17.4450E+06              0.     31.4740E+06
           31248    -55.1857E+06    -21.5330E+06              0.     30.7599E+06
           31249     65.4313E+06     28.7242E+06              0.     2.38991E+06
           31250     65.4421E+06     28.8425E+06              0.     2.38552E+06
           31251     65.4022E+06     28.9361E+06              0.     2.35348E+06
           31252     65.3629E+06     29.0271E+06              0.     2.32619E+06
           31253     65.3239E+06     29.1157E+06              0.     2.30353E+06
           31254     65.2852E+06     29.2019E+06              0.     2.28536E+06
           31255     65.2468E+06     29.2860E+06              0.     2.27157E+06
           31256     65.2086E+06      29.368E+06              0.     2.26206E+06
           31257     65.1704E+06     29.4480E+06              0.     2.25671E+06
           31258     65.1323E+06     29.5262E+06              0.     2.25544E+06
           31259     65.0941E+06     29.6026E+06              0.     2.25813E+06
           31260     65.0558E+06     29.6773E+06              0.     2.26471E+06
           31261     65.0174E+06     29.7505E+06              0.     2.27510E+06
           31262     64.9787E+06     29.8222E+06              0.     2.28920E+06
           31263     64.9397E+06     29.8925E+06              0.     2.30695E+06
           31264     64.9003E+06     29.9615E+06              0.     2.32828E+06
           31265     64.8605E+06     30.0293E+06              0.     2.35313E+06
           31266     64.8202E+06     30.0960E+06              0.     2.38142E+06
           31267     64.7794E+06     30.1616E+06              0.     2.41311E+06
           31268     64.7380E+06     30.2262E+06              0.     2.44814E+06
           31269     64.6959E+06       30.29E+06              0.     2.48647E+06
           31270     64.6531E+06     30.3529E+06              0.     2.52804E+06
           31271     64.6096E+06     30.4151E+06              0.     2.57282E+06
           31272     64.5652E+06     30.4767E+06              0.     2.62077E+06
           31273     64.5199E+06     30.5376E+06              0.     2.67185E+06
           31274     64.4738E+06     30.5980E+06              0.     2.72604E+06
           31275     64.4266E+06     30.6579E+06              0.     2.78331E+06
           31276     64.3784E+06     30.7174E+06              0.     2.84363E+06
           31277     64.3291E+06     30.7766E+06              0.     2.90698E+06
           31278     64.2787E+06     30.8355E+06              0.     2.97334E+06
           31279     64.2271E+06     30.8941E+06              0.     3.04271E+06
           31280     64.1742E+06     30.9526E+06              0.     3.11506E+06
           31281     64.1201E+06     31.0110E+06              0.     3.19039E+06
           31282     64.0646E+06     31.0693E+06              0.     3.26870E+06
           31283     64.0077E+06     31.1276E+06              0.     3.34997E+06
           31284     63.9494E+06     31.1860E+06              0.     3.43421E+06
           31285     63.8896E+06     31.2445E+06              0.     3.52142E+06
           31286     63.8282E+06     31.3031E+06              0.     3.61160E+06
           31287     63.7652E+06     31.3620E+06              0.     3.70477E+06
           31288     63.7006E+06     31.4210E+06              0.     3.80092E+06
           31289     63.6343E+06     31.4805E+06              0.     3.90007E+06
           31290     63.5662E+06     31.5402E+06              0.     4.00224E+06
           31291     63.4963E+06     31.6004E+06              0.     4.10744E+06
           31292     63.4246E+06     31.6610E+06              0.     4.21569E+06
           31293     63.3510E+06     31.7220E+06              0.     4.32700E+06
           31294     63.2754E+06     31.7837E+06              0.     4.44141E+06
           31295     63.1977E+06     31.8458E+06              0.     4.55893E+06
           31296     63.1180E+06     31.9087E+06              0.     4.67960E+06
           31297     63.0362E+06     31.9721E+06              0.     4.80343E+06
           31298     62.9522E+06     32.0363E+06              0.     4.93047E+06
           31299     62.8660E+06     32.1012E+06              0.     5.06073E+06
           31300     62.7774E+06     32.1669E+06              0.     5.19427E+06
           31301     62.6865E+06     32.2335E+06              0.     5.33110E+06
           31302     62.5933E+06     32.3009E+06              0.     5.47128E+06
           31303     62.4975E+06     32.3692E+06              0.     5.61483E+06
           31304     62.3992E+06     32.4384E+06              0.     5.76181E+06
           31305     62.2983E+06     32.5086E+06              0.     5.91224E+06
           31306     62.1948E+06     32.5799E+06              0.     6.06618E+06
           31307     62.0886E+06     32.6522E+06              0.     6.22368E+06
           31308     61.9796E+06     32.7255E+06              0.     6.38477E+06
           31309     61.8678E+06     32.8001E+06              0.     6.54950E+06
           31310     61.7530E+06     32.8757E+06              0.     6.71794E+06
           31311     61.6353E+06     32.9526E+06              0.     6.89012E+06
           31312     61.5146E+06     33.0307E+06              0.     7.06610E+06
           31313     61.3908E+06     33.1101E+06              0.     7.24593E+06
           31314     61.2638E+06     33.1908E+06              0.     7.42968E+06
           31315     61.1336E+06     33.2728E+06              0.     7.61738E+06
           31316     61.0000E+06     33.3562E+06              0.     7.80911E+06
           31317     60.8631E+06     33.4410E+06              0.     8.00492E+06
           31318     60.7227E+06     33.5272E+06              0.     8.20487E+06
           31319     60.5788E+06     33.6149E+06              0.     8.40902E+06
           31320     60.4313E+06     33.7041E+06              0.     8.61743E+06
           31321     60.2801E+06     33.7949E+06              0.     8.83017E+06
           31322     60.1252E+06     33.8872E+06              0.     9.04729E+06
           31323     59.9664E+06     33.9810E+06              0.     9.26886E+06
           31324     59.8037E+06     34.0766E+06              0.     9.49494E+06
           31325     59.6370E+06     34.1737E+06              0.     9.72560E+06
           31326     59.4663E+06     34.2726E+06              0.     9.96091E+06
           31327     59.2913E+06     34.3732E+06              0.     10.2009E+06
           31328     59.1121E+06     34.4755E+06              0.     10.4457E+06
           31329     58.9286E+06     34.5796E+06              0.     10.6954E+06
           31330     58.7406E+06     34.6855E+06              0.     10.9499E+06
           31331     58.5481E+06     34.7932E+06              0.     11.2094E+06
           31332     58.3509E+06     34.9027E+06              0.     11.4740E+06
           31333     58.1491E+06     35.0142E+06              0.     11.7437E+06
           31334     57.9425E+06     35.1275E+06              0.     12.0186E+06
           31335     57.7309E+06     35.2427E+06              0.     12.2987E+06
           31336     57.5144E+06     35.3599E+06              0.     12.5841E+06
           31337     57.2927E+06     35.4791E+06              0.     12.8749E+06
           31338     57.0659E+06     35.6002E+06              0.     13.1712E+06
           31339     56.8337E+06     35.7234E+06              0.     13.4729E+06
           31340     56.5961E+06     35.8486E+06              0.     13.7803E+06
           31341     56.3530E+06     35.9758E+06              0.     14.0932E+06
           31342     56.1043E+06     36.1051E+06              0.     14.4119E+06
           31343     55.8498E+06     36.2365E+06              0.     14.7364E+06
           31344     55.5895E+06     36.3699E+06              0.     15.0666E+06
           31345     55.3232E+06     36.5055E+06              0.     15.4027E+06
           31346     55.0508E+06     36.6432E+06              0.     15.7448E+06
           31347     54.7722E+06     36.7830E+06              0.     16.0929E+06
           31348     54.4872E+06     36.9249E+06              0.     16.4470E+06
           31349     54.1958E+06     37.0690E+06              0.     16.8072E+06
           31350     53.8979E+06     37.2152E+06              0.     17.1735E+06
           31351     53.5932E+06     37.3636E+06              0.     17.5461E+06
           31352     53.2818E+06     37.5141E+06              0.     17.9248E+06
           31353     52.9633E+06     37.6668E+06              0.     18.3099E+06
           31354     52.6378E+06     37.8216E+06              0.     18.7012E+06
           31355     52.3050E+06     37.9785E+06              0.     19.0989E+06
           31356     51.9649E+06     38.1375E+06              0.     19.5030E+06
           31357     51.6173E+06     38.2987E+06              0.     19.9134E+06
           31358      51.262E+06     38.4619E+06              0.     20.3303E+06
           31359     50.8990E+06     38.6272E+06              0.     20.7536E+06
           31360     50.5280E+06     38.7946E+06              0.     21.1834E+06
           31361     50.1489E+06     38.9640E+06              0.     21.6196E+06
           31362     49.7617E+06     39.1353E+06              0.     22.0622E+06
           31363     49.3660E+06     39.3086E+06              0.     22.5114E+06
           31364     48.9618E+06     39.4839E+06              0.     22.9669E+06
           31365     48.5490E+06     39.6610E+06              0.     23.4289E+06
           31366     48.1273E+06     39.8399E+06              0.     23.8973E+06
           31367     47.6966E+06     40.0206E+06              0.     24.3720E+06
           31368     47.2568E+06     40.2031E+06              0.     24.8531E+06
           31369     46.8076E+06     40.3871E+06              0.     25.3404E+06
           31370     46.3490E+06     40.5728E+06              0.     25.8340E+06
           31371     45.8807E+06     40.7599E+06              0.     26.3338E+06
           31372     45.4025E+06     40.9484E+06              0.     26.8396E+06
           31373     44.9144E+06     41.1383E+06              0.     27.3514E+06
           31374     44.4162E+06     41.3294E+06              0.     27.8692E+06
           31375     43.9075E+06     41.5216E+06              0.     28.3928E+06
           31376     43.3884E+06     41.7148E+06              0.     28.9220E+06
           31377     42.8586E+06     41.9089E+06              0.     29.4568E+06
           31378     42.3179E+06     42.1037E+06              0.     29.9971E+06
           31379     41.7662E+06     42.2991E+06              0.     30.5426E+06
           31380     41.2033E+06     42.4949E+06              0.     31.0933E+06
           31381     40.6289E+06      42.691E+06              0.     31.6489E+06
           31382     40.0429E+06     42.8872E+06              0.     32.2092E+06
           31383     39.4452E+06     43.0833E+06              0.     32.7740E+06
           31384     38.8355E+06     43.2791E+06              0.     33.3432E+06
           31385     38.2136E+06     43.4744E+06              0.     33.9164E+06
           31386     37.5794E+06     43.6689E+06              0.     34.4934E+06
           31387     36.9327E+06     43.8624E+06              0.     35.0740E+06
           31388     36.2732E+06     44.0547E+06              0.     35.6578E+06
           31389     35.6009E+06     44.2454E+06              0.     36.2445E+06
           31390     34.9154E+06     44.4343E+06              0.     36.8338E+06
           31391     34.2167E+06     44.6210E+06              0.     37.4254E+06
           31392     33.5045E+06     44.8052E+06              0.     38.0188E+06
           31393     32.7787E+06     44.9866E+06              0.     38.6137E+06
           31394     32.0390E+06     45.1647E+06              0.     39.2096E+06
           31395     31.2854E+06     45.3393E+06              0.     39.8062E+06
           31396     30.5175E+06     45.5097E+06              0.     40.4029E+06
           31397     29.7352E+06     45.6757E+06              0.     40.9992E+06
           31398     28.9385E+06     45.8367E+06              0.     41.5947E+06
           31399     28.1269E+06     45.9921E+06              0.     42.1889E+06
           31400     27.3006E+06     46.1416E+06              0.     42.7811E+06
           31401     26.4591E+06     46.2845E+06              0.     43.3707E+06
           31402     25.6025E+06     46.4202E+06              0.     43.9572E+06
           31403     24.7305E+06     46.5481E+06              0.     44.5398E+06
           31404     23.8430E+06     46.6676E+06              0.     45.1180E+06
           31405     22.9399E+06     46.7779E+06              0.     45.6910E+06
           31406     22.0210E+06     46.8783E+06              0.     46.2581E+06
           31407     21.0863E+06     46.9680E+06              0.     46.8186E+06
           31408     20.1355E+06     47.0463E+06              0.     47.3715E+06
           31409     19.1686E+06     47.1123E+06              0.     47.9162E+06
           31410     18.1855E+06     47.1650E+06              0.     48.4518E+06
           31411     17.1862E+06     47.2035E+06              0.     48.9773E+06
           31412     16.1705E+06     47.2269E+06              0.     49.4919E+06
           31413     15.1385E+06     47.2341E+06              0.     49.9946E+06
           31414     14.0900E+06     47.2240E+06              0.     50.4845E+06
           31415     13.0251E+06     47.1954E+06              0.     50.9606E+06
           31416     11.9437E+06     47.1473E+06              0.     51.4217E+06
           31417     10.8459E+06     47.0783E+06              0.     51.8670E+06
           31418     9.73173E+06     46.9871E+06              0.     52.2952E+06
           31419     8.60121E+06     46.8723E+06              0.     52.7053E+06
           31420     7.45444E+06     46.7327E+06              0.     53.0961E+06
           31421     6.29153E+06     46.5666E+06              0.     53.4665E+06
           31422     5.11261E+06     46.3725E+06              0.     53.8152E+06
           31423     3.91784E+06     46.1488E+06              0.     54.1411E+06
           31424     2.70740E+06     45.8939E+06              0.     54.4428E+06
           31425     1.48153E+06     45.6060E+06              0.     54.7192E+06
           31426     240.456E+03     45.2832E+06              0.     54.9690E+06
           31427    -1.01552E+06     44.9239E+06              0.     55.1908E+06
           31428    -2.28609E+06     44.5259E+06              0.     55.3833E+06
           31429    -3.57089E+06     44.0874E+06              0.     55.5453E+06
           31430    -4.86954E+06     43.6062E+06              0.     55.6754E+06
           31431    -6.18159E+06     43.0802E+06              0.     55.7722E+06
           31432    -7.50657E+06     42.5072E+06              0.     55.8344E+06
           31433    -8.84397E+06     41.8850E+06              0.     55.8607E+06
           31434    -10.1932E+06     41.2112E+06              0.     55.8497E+06
           31435    -11.5538E+06     40.4834E+06              0.     55.8000E+06
           31436    -12.9249E+06     39.6991E+06              0.     55.7103E+06
           31437    -14.3059E+06     38.8560E+06              0.     55.5793E+06
           31438    -15.6961E+06     37.9513E+06              0.     55.4057E+06
           31439    -17.0946E+06     36.9826E+06              0.     55.1882E+06
           31440    -18.5007E+06     35.9470E+06              0.     54.9255E+06
           31441    -19.9134E+06     34.8419E+06              0.     54.6163E+06
           31442    -21.3317E+06     33.6646E+06              0.     54.2594E+06
           31443    -22.7548E+06     32.4122E+06              0.     53.8537E+06
           31444    -24.1815E+06     31.0818E+06              0.     53.3979E+06
           31445    -25.6107E+06     29.6708E+06              0.     52.8910E+06
           31446    -27.0413E+06     28.1761E+06              0.     52.3319E+06
           31447    -28.4722E+06     26.5948E+06              0.     51.7196E+06
           31448    -29.9019E+06     24.9241E+06              0.     51.0530E+06
           31449    -31.3293E+06     23.1610E+06              0.     50.3313E+06
           31450    -32.7530E+06     21.3027E+06              0.     49.5536E+06
           31451    -34.1717E+06     19.3461E+06              0.     48.7191E+06
           31452    -35.5838E+06     17.2885E+06              0.     47.8269E+06
           31453    -36.9879E+06     15.1269E+06              0.     46.8765E+06
           31454    -38.3825E+06     12.8586E+06              0.     45.8672E+06
           31455    -39.7660E+06     10.4807E+06              0.     44.7984E+06
           31456    -41.1368E+06     7.99051E+06              0.     43.6696E+06
           31457    -42.4933E+06     5.38527E+06              0.     42.4804E+06
           31458    -43.8339E+06     2.66238E+06              0.     41.2303E+06
           31459    -45.1568E+06    -180.678E+03              0.     39.9192E+06
           31460    -46.4603E+06    -3.14646E+06              0.     38.5467E+06
           31461    -47.7429E+06    -6.23732E+06              0.     37.1127E+06
           31462    -49.0029E+06    -9.45565E+06              0.     35.6170E+06
           31463    -50.2395E+06    -12.8038E+06              0.     34.0596E+06
           31464    -51.4501E+06    -16.2832E+06              0.     32.4404E+06
           31465    -53.0512E+06    -20.3363E+06              0.     31.7102E+06
           31466     65.5262E+06     28.7650E+06              0.     2.42925E+06
           31467     65.5364E+06     28.8773E+06              0.     2.42480E+06
           31468     65.4986E+06     28.9661E+06              0.     2.39223E+06
           31469     65.4612E+06     29.0525E+06              0.     2.36450E+06
           31470     65.4242E+06     29.1366E+06              0.     2.34146E+06
           31471     65.3875E+06     29.2185E+06              0.     2.32300E+06
           31472     65.3511E+06     29.2983E+06              0.     2.30899E+06
           31473     65.3148E+06     29.3762E+06              0.     2.29933E+06
           31474     65.2786E+06     29.4522E+06              0.     2.29390E+06
           31475     65.2424E+06     29.5264E+06              0.     2.29261E+06
           31476     65.2061E+06     29.5989E+06              0.     2.29536E+06
           31477     65.1698E+06     29.6698E+06              0.     2.30205E+06
           31478     65.1333E+06     29.7393E+06              0.     2.31261E+06
           31479     65.0966E+06     29.8073E+06              0.     2.32696E+06
           31480     65.0595E+06     29.8741E+06              0.     2.34501E+06
           31481     65.0222E+06     29.9396E+06              0.     2.36670E+06
           31482     64.9844E+06     30.0040E+06              0.     2.39196E+06
           31483     64.9462E+06     30.0673E+06              0.     2.42073E+06
           31484     64.9074E+06     30.1296E+06              0.     2.45295E+06
           31485     64.8681E+06     30.1910E+06              0.     2.48856E+06
           31486     64.8282E+06     30.2515E+06              0.     2.52753E+06
           31487     64.7875E+06     30.3113E+06              0.     2.56980E+06
           31488     64.7462E+06     30.3703E+06              0.     2.61533E+06
           31489     64.7041E+06     30.4288E+06              0.     2.66408E+06
           31490     64.6611E+06     30.4866E+06              0.     2.71602E+06
           31491     64.6173E+06     30.5440E+06              0.     2.77111E+06
           31492     64.5725E+06     30.6009E+06              0.     2.82934E+06
           31493     64.5267E+06     30.6574E+06              0.     2.89066E+06
           31494     64.4799E+06     30.7136E+06              0.     2.95508E+06
           31495     64.4320E+06     30.7695E+06              0.     3.02255E+06
           31496     64.3830E+06     30.8252E+06              0.     3.09308E+06
           31497     64.3328E+06     30.8807E+06              0.     3.16664E+06
           31498     64.2814E+06     30.9362E+06              0.     3.24324E+06
           31499     64.2287E+06     30.9916E+06              0.     3.32285E+06
           31500     64.1747E+06     31.0470E+06              0.     3.40549E+06
           31501     64.1193E+06     31.1024E+06              0.     3.49114E+06
           31502     64.0625E+06     31.1580E+06              0.     3.57981E+06
           31503     64.0043E+06     31.2137E+06              0.     3.67151E+06
           31504     63.9444E+06     31.2696E+06              0.     3.76624E+06
           31505     63.8831E+06     31.3258E+06              0.     3.86401E+06
           31506     63.8201E+06     31.3822E+06              0.     3.96483E+06
           31507     63.7555E+06     31.4390E+06              0.     4.06871E+06
           31508     63.6891E+06     31.4961E+06              0.     4.17568E+06
           31509     63.6210E+06     31.5537E+06              0.     4.28575E+06
           31510     63.5510E+06     31.6118E+06              0.     4.39894E+06
           31511     63.4792E+06     31.6704E+06              0.     4.51528E+06
           31512     63.4055E+06     31.7295E+06              0.     4.63479E+06
           31513     63.3298E+06     31.7892E+06              0.     4.75749E+06
           31514     63.2521E+06     31.8495E+06              0.     4.88342E+06
           31515     63.1723E+06     31.9106E+06              0.     5.01260E+06
           31516     63.0904E+06     31.9723E+06              0.     5.14508E+06
           31517     63.0063E+06     32.0348E+06              0.     5.28088E+06
           31518     62.9199E+06     32.0980E+06              0.     5.42004E+06
           31519     62.8313E+06     32.1621E+06              0.     5.56259E+06
           31520     62.7403E+06     32.2271E+06              0.     5.70859E+06
           31521     62.6470E+06     32.2930E+06              0.     5.85806E+06
           31522     62.5511E+06     32.3598E+06              0.     6.01106E+06
           31523     62.4528E+06     32.4276E+06              0.     6.16763E+06
           31524     62.3519E+06     32.4963E+06              0.     6.32781E+06
           31525     62.2483E+06     32.5662E+06              0.     6.49166E+06
           31526     62.1420E+06     32.6371E+06              0.     6.65922E+06
           31527     62.0330E+06     32.7091E+06              0.     6.83054E+06
           31528     61.9212E+06     32.7823E+06              0.     7.00568E+06
           31529     61.8065E+06     32.8566E+06              0.     7.18469E+06
           31530     61.6888E+06     32.9322E+06              0.     7.36762E+06
           31531     61.5681E+06     33.0090E+06              0.     7.55453E+06
           31532     61.4443E+06     33.0871E+06              0.     7.74548E+06
           31533     61.3174E+06     33.1666E+06              0.     7.94053E+06
           31534     61.1873E+06     33.2473E+06              0.     8.13973E+06
           31535     61.0538E+06     33.3295E+06              0.     8.34315E+06
           31536     60.9171E+06     33.4130E+06              0.     8.55085E+06
           31537     60.7768E+06     33.4980E+06              0.     8.76289E+06
           31538     60.6331E+06     33.5845E+06              0.     8.97934E+06
           31539     60.4858E+06     33.6725E+06              0.     9.20026E+06
           31540     60.3349E+06     33.7620E+06              0.     9.42571E+06
           31541     60.1802E+06     33.8530E+06              0.     9.65576E+06
           31542     60.0217E+06     33.9457E+06              0.     9.89049E+06
           31543     59.8593E+06     34.0400E+06              0.     10.1299E+06
           31544     59.6929E+06     34.1359E+06              0.     10.3742E+06
           31545     59.5225E+06     34.2335E+06              0.     10.6233E+06
           31546     59.3479E+06     34.3328E+06              0.     10.8774E+06
           31547     59.1691E+06     34.4338E+06              0.     11.1365E+06
           31548     58.9860E+06     34.5366E+06              0.     11.4006E+06
           31549     58.7984E+06     34.6412E+06              0.     11.6699E+06
           31550     58.6064E+06     34.7476E+06              0.     11.9445E+06
           31551     58.4098E+06     34.8558E+06              0.     12.2243E+06
           31552     58.2085E+06     34.9659E+06              0.     12.5094E+06
           31553     58.0025E+06     35.0778E+06              0.     12.8000E+06
           31554     57.7915E+06     35.1917E+06              0.     13.0961E+06
           31555     57.5756E+06     35.3074E+06              0.     13.3977E+06
           31556     57.3546E+06     35.4252E+06              0.     13.7050E+06
           31557     57.1284E+06     35.5449E+06              0.     14.0180E+06
           31558     56.8970E+06     35.6665E+06              0.     14.3367E+06
           31559     56.6602E+06     35.7902E+06              0.     14.6612E+06
           31560     56.4178E+06     35.9159E+06              0.     14.9916E+06
           31561     56.1699E+06     36.0436E+06              0.     15.3280E+06
           31562     55.9162E+06     36.1734E+06              0.     15.6704E+06
           31563     55.6568E+06     36.3052E+06              0.     16.0189E+06
           31564     55.3913E+06     36.4391E+06              0.     16.3735E+06
           31565     55.1198E+06     36.5751E+06              0.     16.7342E+06
           31566     54.8422E+06     36.7132E+06              0.     17.1012E+06
           31567     54.5582E+06     36.8533E+06              0.     17.4745E+06
           31568     54.2678E+06     36.9956E+06              0.     17.8542E+06
           31569     53.9708E+06     37.1400E+06              0.     18.2402E+06
           31570     53.6672E+06     37.2864E+06              0.     18.6326E+06
           31571     53.3568E+06     37.4350E+06              0.     19.0315E+06
           31572     53.0394E+06     37.5857E+06              0.     19.4369E+06
           31573     52.7149E+06     37.7384E+06              0.     19.8489E+06
           31574     52.3833E+06     37.8933E+06              0.     20.2674E+06
           31575     52.0443E+06     38.0502E+06              0.     20.6924E+06
           31576     51.6978E+06     38.2092E+06              0.     21.1241E+06
           31577     51.3436E+06     38.3702E+06              0.     21.5624E+06
           31578     50.9817E+06     38.5332E+06              0.     22.0074E+06
           31579     50.6119E+06     38.6982E+06              0.     22.4589E+06
           31580     50.2340E+06     38.8652E+06              0.     22.9171E+06
           31581     49.8478E+06     39.0341E+06              0.     23.3819E+06
           31582     49.4533E+06     39.2049E+06              0.     23.8533E+06
           31583     49.0503E+06     39.3775E+06              0.     24.3314E+06
           31584     48.6386E+06     39.5519E+06              0.     24.8159E+06
           31585     48.2180E+06     39.7281E+06              0.     25.3070E+06
           31586     47.7884E+06     39.9060E+06              0.     25.8046E+06
           31587     47.3496E+06     40.0855E+06              0.     26.3086E+06
           31588     46.9014E+06     40.2665E+06              0.     26.8190E+06
           31589     46.4438E+06     40.4491E+06              0.     27.3357E+06
           31590     45.9764E+06     40.6330E+06              0.     27.8585E+06
           31591     45.4992E+06     40.8183E+06              0.     28.3876E+06
           31592      45.012E+06     41.0047E+06              0.     28.9226E+06
           31593     44.5145E+06     41.1923E+06              0.     29.4635E+06
           31594     44.0067E+06     41.3809E+06              0.     30.0102E+06
           31595     43.4882E+06     41.5703E+06              0.     30.5626E+06
           31596     42.9590E+06     41.7605E+06              0.     31.1205E+06
           31597     42.4189E+06     41.9513E+06              0.     31.6837E+06
           31598     41.8676E+06     42.1425E+06              0.     32.2520E+06
           31599     41.3050E+06     42.3340E+06              0.     32.8253E+06
           31600     40.7308E+06     42.5256E+06              0.     33.4034E+06
           31601     40.1450E+06     42.7171E+06              0.     33.9860E+06
           31602     39.5472E+06     42.9083E+06              0.     34.5729E+06
           31603     38.9374E+06     43.0990E+06              0.     35.1638E+06
           31604     38.3152E+06     43.2890E+06              0.     35.7585E+06
           31605     37.6806E+06     43.4780E+06              0.     36.3566E+06
           31606     37.0333E+06     43.6658E+06              0.     36.9579E+06
           31607     36.3731E+06     43.8520E+06              0.     37.5620E+06
           31608     35.6998E+06     44.0365E+06              0.     38.1686E+06
           31609     35.0132E+06     44.2187E+06              0.     38.7772E+06
           31610     34.3131E+06     44.3985E+06              0.     39.3875E+06
           31611     33.5994E+06     44.5755E+06              0.     39.9991E+06
           31612     32.8717E+06     44.7493E+06              0.     40.6115E+06
           31613     32.1301E+06     44.9194E+06              0.     41.2243E+06
           31614     31.3741E+06     45.0855E+06              0.     41.8369E+06
           31615     30.6037E+06     45.2471E+06              0.     42.4488E+06
           31616     29.8186E+06     45.4037E+06              0.     43.0595E+06
           31617     29.0187E+06     45.5549E+06              0.     43.6685E+06
           31618     28.2038E+06     45.7000E+06              0.     44.2751E+06
           31619     27.3738E+06     45.8385E+06              0.     44.8786E+06
           31620     26.5283E+06     45.9698E+06              0.     45.4785E+06
           31621     25.6673E+06     46.0933E+06              0.     46.0741E+06
           31622     24.7906E+06     46.2083E+06              0.     46.6646E+06
           31623     23.8981E+06     46.3140E+06              0.     47.2493E+06
           31624     22.9896E+06     46.4099E+06              0.     47.8274E+06
           31625     22.0649E+06     46.4949E+06              0.     48.3981E+06
           31626     21.1240E+06     46.5684E+06              0.     48.9605E+06
           31627     20.1667E+06     46.6294E+06              0.     49.5139E+06
           31628     19.1929E+06     46.6771E+06              0.     50.0572E+06
           31629     18.2025E+06     46.7104E+06              0.     50.5897E+06
           31630     17.1954E+06     46.7284E+06              0.     51.1102E+06
           31631     16.1716E+06     46.7300E+06              0.     51.6178E+06
           31632     15.1310E+06     46.7140E+06              0.     52.1115E+06
           31633     14.0736E+06     46.6794E+06              0.     52.5901E+06
           31634     12.9993E+06     46.6248E+06              0.     53.0527E+06
           31635     11.9082E+06     46.5490E+06              0.     53.4981E+06
           31636     10.8002E+06     46.4507E+06              0.     53.9252E+06
           31637     9.67551E+06     46.3284E+06              0.     54.3327E+06
           31638     8.53408E+06     46.1807E+06              0.     54.7195E+06
           31639     7.37603E+06     46.0060E+06              0.     55.0843E+06
           31640      6.2015E+06     45.8029E+06              0.     55.4258E+06
           31641     5.01062E+06     45.5695E+06              0.     55.7429E+06
           31642     3.80359E+06     45.3042E+06              0.     56.0341E+06
           31643     2.58061E+06     45.0051E+06              0.     56.2982E+06
           31644     1.34194E+06     44.6705E+06              0.     56.5337E+06
           31645     87.8453E+03     44.2984E+06              0.     56.7395E+06
           31646    -1.18134E+06     43.8868E+06              0.     56.9139E+06
           31647    -2.46527E+06     43.4336E+06              0.     57.0558E+06
           31648    -3.76354E+06     42.9367E+06              0.     57.1636E+06
           31649    -5.07571E+06     42.3938E+06              0.     57.2360E+06
           31650     -6.4013E+06     41.8028E+06              0.     57.2716E+06
           31651    -7.73978E+06     41.1612E+06              0.     57.2689E+06
           31652    -9.09057E+06     40.4666E+06              0.     57.2266E+06
           31653    -10.4531E+06     39.7166E+06              0.     57.1432E+06
           31654    -11.8266E+06     38.9087E+06              0.     57.0174E+06
           31655    -13.2104E+06     38.0401E+06              0.     56.8478E+06
           31656    -14.6037E+06     37.1084E+06              0.     56.6331E+06
           31657    -16.0058E+06     36.1108E+06              0.     56.3718E+06
           31658    -17.4157E+06     35.0444E+06              0.     56.0627E+06
           31659    -18.8325E+06     33.9066E+06              0.     55.7045E+06
           31660    -20.2552E+06     32.6945E+06              0.     55.2960E+06
           31661    -21.6828E+06     31.4052E+06              0.     54.8360E+06
           31662    -23.1142E+06     30.0357E+06              0.     54.3232E+06
           31663    -24.5482E+06     28.5832E+06              0.     53.7566E+06
           31664    -25.9838E+06     27.0447E+06              0.     53.1350E+06
           31665    -27.4195E+06     25.4172E+06              0.     52.4575E+06
           31666    -28.8542E+06     23.6977E+06              0.     51.7231E+06
           31667    -30.2864E+06     21.8833E+06              0.     50.9309E+06
           31668    -31.7148E+06     19.9710E+06              0.     50.0800E+06
           31669    -33.1380E+06     17.9578E+06              0.     49.1696E+06
           31670    -34.5544E+06     15.8409E+06              0.     48.1990E+06
           31671    -35.9625E+06     13.6173E+06              0.     47.1675E+06
           31672    -37.3608E+06     11.2841E+06              0.     46.0747E+06
           31673    -38.7476E+06     8.83858E+06              0.     44.9198E+06
           31674    -40.1212E+06     6.27793E+06              0.     43.7026E+06
           31675    -41.4801E+06     3.59948E+06              0.     42.4225E+06
           31676    -42.8225E+06     800.633E+03              0.     41.0794E+06
           31677    -44.1467E+06    -2.12121E+06              0.     39.6730E+06
           31678    -45.4508E+06    -5.16845E+06              0.     38.2031E+06
           31679    -46.7333E+06    -8.34356E+06              0.     36.6697E+06
           31680    -47.9926E+06    -11.6490E+06              0.     35.0731E+06
           31681    -49.2285E+06    -15.0877E+06              0.     33.4130E+06
           31682    -50.8264E+06    -19.0962E+06              0.     32.6709E+06
           31683     65.6225E+06     28.8065E+06              0.     2.46655E+06
           31684     65.6322E+06     28.9127E+06              0.     2.46203E+06
           31685     65.5965E+06     28.9967E+06              0.     2.42897E+06
           31686     65.5611E+06     29.0784E+06              0.     2.40082E+06
           31687     65.5262E+06     29.1579E+06              0.     2.37743E+06
           31688     65.4915E+06     29.2354E+06              0.     2.35869E+06
           31689     65.4570E+06     29.3109E+06              0.     2.34447E+06
           31690     65.4227E+06     29.3845E+06              0.     2.33467E+06
           31691     65.3884E+06     29.4563E+06              0.     2.32916E+06
           31692     65.3542E+06     29.5265E+06              0.     2.32786E+06
           31693     65.3200E+06     29.5951E+06              0.     2.33065E+06
           31694     65.2856E+06     29.6622E+06              0.     2.33746E+06
           31695     65.2511E+06     29.7279E+06              0.     2.34818E+06
           31696     65.2164E+06     29.7923E+06              0.     2.36276E+06
           31697     65.1814E+06     29.8554E+06              0.     2.38109E+06
           31698     65.1460E+06     29.9173E+06              0.     2.40312E+06
           31699     65.1103E+06     29.9782E+06              0.     2.42878E+06
           31700     65.0741E+06     30.0381E+06              0.       2.458E+06
           31701     65.0375E+06     30.0970E+06              0.     2.49072E+06
           31702     65.0003E+06     30.1551E+06              0.      2.5269E+06
           31703     64.9625E+06     30.2124E+06              0.     2.56648E+06
           31704     64.9241E+06     30.2689E+06              0.     2.60940E+06
           31705     64.8850E+06     30.3248E+06              0.     2.65564E+06
           31706     64.8452E+06     30.3800E+06              0.     2.70516E+06
           31707     64.8045E+06     30.4348E+06              0.     2.75791E+06
           31708     64.7630E+06     30.4890E+06              0.     2.81386E+06
           31709     64.7207E+06     30.5429E+06              0.     2.87299E+06
           31710     64.6774E+06     30.5963E+06              0.     2.93528E+06
           31711     64.6331E+06     30.6495E+06              0.     3.00070E+06
           31712     64.5879E+06     30.7024E+06              0.     3.06923E+06
           31713     64.5415E+06     30.7551E+06              0.     3.14086E+06
           31714     64.4940E+06     30.8077E+06              0.     3.21557E+06
           31715     64.4454E+06     30.8602E+06              0.     3.29336E+06
           31716     64.3955E+06     30.9126E+06              0.     3.37422E+06
           31717     64.3444E+06     30.9650E+06              0.     3.45815E+06
           31718     64.2920E+06     31.0175E+06              0.     3.54515E+06
           31719     64.2383E+06     31.0701E+06              0.     3.63521E+06
           31720     64.1832E+06     31.1228E+06              0.     3.72834E+06
           31721     64.1266E+06     31.1758E+06              0.     3.82456E+06
           31722     64.0685E+06     31.2289E+06              0.     3.92386E+06
           31723     64.0089E+06     31.2824E+06              0.     4.02627E+06
           31724     63.9478E+06     31.3361E+06              0.     4.13179E+06
           31725     63.8850E+06     31.3902E+06              0.     4.24044E+06
           31726     63.8205E+06     31.4448E+06              0.     4.35224E+06
           31727     63.7543E+06     31.4998E+06              0.     4.46722E+06
           31728     63.6864E+06     31.5552E+06              0.     4.58539E+06
           31729     63.6166E+06     31.6112E+06              0.     4.70678E+06
           31730     63.5450E+06     31.6678E+06              0.     4.83142E+06
           31731     63.4714E+06     31.7250E+06              0.     4.95934E+06
           31732     63.3959E+06     31.7828E+06              0.     5.09057E+06
           31733     63.3184E+06     31.8412E+06              0.     5.22514E+06
           31734     63.2388E+06     31.9005E+06              0.     5.36309E+06
           31735     63.1571E+06     31.9604E+06              0.     5.50446E+06
           31736     63.0732E+06     32.0212E+06              0.     5.64928E+06
           31737     62.9871E+06     32.0827E+06              0.     5.79760E+06
           31738     62.8988E+06     32.1452E+06              0.     5.94946E+06
           31739     62.8081E+06     32.2085E+06              0.     6.10490E+06
           31740     62.7150E+06     32.2727E+06              0.     6.26396E+06
           31741     62.6194E+06     32.3380E+06              0.     6.42671E+06
           31742     62.5214E+06     32.4042E+06              0.     6.59318E+06
           31743     62.4208E+06     32.4714E+06              0.     6.76342E+06
           31744     62.3176E+06     32.5397E+06              0.     6.93750E+06
           31745     62.2117E+06     32.6091E+06              0.     7.11545E+06
           31746     62.1031E+06     32.6797E+06              0.     7.29734E+06
           31747     61.9917E+06     32.7514E+06              0.     7.48322E+06
           31748     61.8774E+06     32.8243E+06              0.     7.67315E+06
           31749     61.7602E+06     32.8984E+06              0.     7.86719E+06
           31750     61.6401E+06     32.9738E+06              0.     8.06540E+06
           31751     61.5168E+06     33.0504E+06              0.     8.26784E+06
           31752     61.3905E+06     33.1284E+06              0.     8.47457E+06
           31753     61.2609E+06     33.2078E+06              0.     8.68565E+06
           31754     61.1281E+06     33.2885E+06              0.     8.90116E+06
           31755      60.992E+06     33.3706E+06              0.     9.12114E+06
           31756     60.8525E+06     33.4541E+06              0.     9.34568E+06
           31757     60.7095E+06     33.5392E+06              0.     9.57484E+06
           31758     60.5629E+06     33.6257E+06              0.     9.80868E+06
           31759     60.4128E+06     33.7137E+06              0.     10.0473E+06
           31760     60.2589E+06     33.8033E+06              0.     10.2907E+06
           31761     60.1013E+06     33.8945E+06              0.      10.539E+06
           31762     59.9398E+06     33.9873E+06              0.     10.7923E+06
           31763     59.7743E+06     34.0818E+06              0.     11.0506E+06
           31764     59.6049E+06     34.1778E+06              0.     11.3140E+06
           31765     59.4313E+06     34.2756E+06              0.     11.5826E+06
           31766     59.2536E+06     34.3751E+06              0.     11.8564E+06
           31767     59.0716E+06     34.4764E+06              0.     12.1355E+06
           31768     58.8852E+06     34.5794E+06              0.     12.4201E+06
           31769     58.6943E+06     34.6842E+06              0.     12.7101E+06
           31770     58.4989E+06     34.7908E+06              0.     13.0056E+06
           31771     58.2989E+06     34.8992E+06              0.     13.3067E+06
           31772     58.0941E+06     35.0095E+06              0.     13.6135E+06
           31773     57.8845E+06     35.1217E+06              0.     13.9260E+06
           31774     57.6700E+06     35.2358E+06              0.     14.2444E+06
           31775     57.4504E+06     35.3518E+06              0.     14.5686E+06
           31776     57.2257E+06     35.4697E+06              0.     14.8988E+06
           31777     56.9958E+06     35.5896E+06              0.     15.2350E+06
           31778     56.7605E+06     35.7114E+06              0.     15.5772E+06
           31779     56.5198E+06     35.8353E+06              0.     15.9256E+06
           31780     56.2735E+06     35.9611E+06              0.     16.2802E+06
           31781     56.0215E+06      36.089E+06              0.     16.6411E+06
           31782     55.7637E+06     36.2189E+06              0.     17.0082E+06
           31783     55.5000E+06     36.3508E+06              0.     17.3818E+06
           31784     55.2303E+06     36.4848E+06              0.     17.7618E+06
           31785     54.9545E+06     36.6208E+06              0.     18.1482E+06
           31786     54.6724E+06     36.7589E+06              0.     18.5412E+06
           31787     54.3839E+06     36.8990E+06              0.     18.9408E+06
           31788     54.0888E+06     37.0413E+06              0.     19.3470E+06
           31789     53.7872E+06     37.1855E+06              0.     19.7598E+06
           31790     53.4787E+06     37.3319E+06              0.     20.1793E+06
           31791     53.1634E+06     37.4802E+06              0.     20.6056E+06
           31792     52.8410E+06     37.6307E+06              0.     21.0386E+06
           31793     52.5114E+06     37.7831E+06              0.     21.4783E+06
           31794     52.1744E+06     37.9376E+06              0.     21.9249E+06
           31795     51.8300E+06     38.0941E+06              0.     22.3782E+06
           31796     51.4780E+06     38.2526E+06              0.     22.8384E+06
           31797     51.1183E+06     38.4131E+06              0.     23.3054E+06
           31798     50.7506E+06     38.5754E+06              0.     23.7792E+06
           31799     50.3749E+06     38.7397E+06              0.     24.2597E+06
           31800     49.9909E+06     38.9058E+06              0.     24.7471E+06
           31801     49.5986E+06     39.0738E+06              0.     25.2412E+06
           31802     49.1977E+06     39.2436E+06              0.     25.7420E+06
           31803     48.7881E+06     39.4151E+06              0.     26.2495E+06
           31804     48.3697E+06     39.5883E+06              0.     26.7637E+06
           31805     47.9422E+06     39.7630E+06              0.     27.2844E+06
           31806     47.5055E+06     39.9394E+06              0.     27.8116E+06
           31807     47.0595E+06     40.1172E+06              0.     28.3452E+06
           31808     46.6038E+06     40.2964E+06              0.     28.8852E+06
           31809     46.1385E+06     40.4770E+06              0.     29.4314E+06
           31810     45.6633E+06     40.6587E+06              0.     29.9837E+06
           31811     45.1779E+06     40.8416E+06              0.     30.5420E+06
           31812     44.6823E+06     41.0255E+06              0.     31.1062E+06
           31813     44.1762E+06     41.2102E+06              0.     31.6762E+06
           31814     43.6595E+06     41.3957E+06              0.     32.2516E+06
           31815     43.1319E+06     41.5819E+06              0.     32.8325E+06
           31816     42.5932E+06     41.7684E+06              0.     33.4186E+06
           31817     42.0434E+06     41.9553E+06              0.     34.0096E+06
           31818     41.4821E+06     42.1424E+06              0.     34.6054E+06
           31819     40.9091E+06     42.3293E+06              0.     35.2057E+06
           31820     40.3243E+06     42.5161E+06              0.     35.8103E+06
           31821     39.7275E+06     42.7023E+06              0.     36.4189E+06
           31822     39.1184E+06     42.8878E+06              0.     37.0311E+06
           31823     38.4968E+06     43.0725E+06              0.     37.6468E+06
           31824     37.8626E+06     43.2558E+06              0.     38.2655E+06
           31825     37.2155E+06     43.4378E+06              0.     38.8868E+06
           31826     36.5553E+06     43.6179E+06              0.     39.5105E+06
           31827     35.8818E+06     43.7960E+06              0.     40.1361E+06
           31828     35.1949E+06     43.9716E+06              0.     40.7632E+06
           31829     34.4941E+06     44.1444E+06              0.     41.3913E+06
           31830     33.7795E+06     44.3140E+06              0.     42.0200E+06
           31831     33.0507E+06     44.4801E+06              0.     42.6487E+06
           31832     32.3076E+06     44.6422E+06              0.     43.2770E+06
           31833     31.5499E+06     44.7998E+06              0.     43.9043E+06
           31834     30.7774E+06     44.9525E+06              0.     44.5299E+06
           31835     29.9900E+06     45.0997E+06              0.     45.1534E+06
           31836     29.1874E+06     45.2408E+06              0.     45.7741E+06
           31837     28.3694E+06     45.3754E+06              0.     46.3912E+06
           31838     27.5359E+06     45.5029E+06              0.     47.0042E+06
           31839     26.6867E+06     45.6224E+06              0.     47.6122E+06
           31840     25.8215E+06     45.7335E+06              0.     48.2145E+06
           31841     24.9403E+06     45.8353E+06              0.     48.8104E+06
           31842     24.0427E+06     45.9271E+06              0.     49.3989E+06
           31843     23.1288E+06     46.0081E+06              0.     49.9793E+06
           31844     22.1983E+06     46.0775E+06              0.     50.5507E+06
           31845     21.2511E+06     46.1343E+06              0.     51.1120E+06
           31846     20.2870E+06     46.1776E+06              0.     51.6625E+06
           31847     19.3060E+06     46.2065E+06              0.     52.2010E+06
           31848     18.3080E+06     46.2199E+06              0.     52.7266E+06
           31849     17.2928E+06     46.2166E+06              0.     53.2383E+06
           31850     16.2604E+06     46.1956E+06              0.     53.7348E+06
           31851     15.2107E+06     46.1557E+06              0.     54.2151E+06
           31852     14.1437E+06     46.0955E+06              0.     54.6781E+06
           31853     13.0594E+06     46.0138E+06              0.     55.1225E+06
           31854     11.9578E+06     45.9092E+06              0.     55.5472E+06
           31855     10.8389E+06     45.7802E+06              0.     55.9508E+06
           31856     9.70279E+06     45.6254E+06              0.     56.3322E+06
           31857     8.54955E+06     45.4431E+06              0.     56.6900E+06
           31858     7.37927E+06     45.2317E+06              0.     57.0229E+06
           31859     6.19211E+06     44.9895E+06              0.     57.3296E+06
           31860     4.98823E+06     44.7146E+06              0.     57.6086E+06
           31861     3.76786E+06     44.4054E+06              0.     57.8586E+06
           31862     2.53121E+06     44.0597E+06              0.     58.0781E+06
           31863     1.27859E+06     43.6757E+06              0.     58.2658E+06
           31864     10.2981E+03     43.2512E+06              0.     58.4201E+06
           31865    -1.27329E+06     42.7841E+06              0.     58.5397E+06
           31866    -2.57178E+06     42.2722E+06              0.     58.6230E+06
           31867    -3.88472E+06     41.7132E+06              0.     58.6687E+06
           31868    -5.21161E+06     41.1047E+06              0.     58.6751E+06
           31869    -6.55192E+06     40.4444E+06              0.     58.6410E+06
           31870    -7.90506E+06     39.7296E+06              0.     58.5647E+06
           31871    -9.27037E+06     38.9579E+06              0.     58.4449E+06
           31872    -10.6472E+06     38.1267E+06              0.     58.2801E+06
           31873    -12.0347E+06     37.2331E+06              0.     58.0690E+06
           31874    -13.4322E+06     36.2746E+06              0.     57.8100E+06
           31875    -14.8388E+06     35.2483E+06              0.     57.5018E+06
           31876    -16.2536E+06     34.1513E+06              0.     57.1432E+06
           31877    -17.6755E+06     32.9808E+06              0.     56.7327E+06
           31878    -19.1037E+06     31.7338E+06              0.     56.2691E+06
           31879    -20.5370E+06     30.4073E+06              0.     55.7512E+06
           31880    -21.9742E+06     28.9985E+06              0.     55.1778E+06
           31881    -23.4143E+06     27.5041E+06              0.     54.5478E+06
           31882    -24.8559E+06     25.9213E+06              0.     53.8601E+06
           31883    -26.2978E+06     24.2470E+06              0.     53.1137E+06
           31884    -27.7385E+06     22.4781E+06              0.     52.3076E+06
           31885    -29.1768E+06     20.6116E+06              0.     51.4410E+06
           31886    -30.6111E+06     18.6444E+06              0.     50.5130E+06
           31887    -32.0399E+06     16.5737E+06              0.     49.5228E+06
           31888    -33.4618E+06     14.3963E+06              0.     48.4698E+06
           31889    -34.8751E+06     12.1094E+06              0.     47.3534E+06
           31890    -36.2782E+06     9.71015E+06              0.     46.1730E+06
           31891    -37.6694E+06     7.19563E+06              0.     44.9281E+06
           31892    -39.0470E+06     4.56313E+06              0.     43.6185E+06
           31893    -40.4093E+06     1.81000E+06              0.     42.2437E+06
           31894    -41.7545E+06    -1.06643E+06              0.     40.8036E+06
           31895    -43.0807E+06    -4.06861E+06              0.     39.2980E+06
           31896    -44.3858E+06    -7.19898E+06              0.     37.7268E+06
           31897    -45.6669E+06    -10.4596E+06              0.     36.0899E+06
           31898    -46.9197E+06    -13.8520E+06              0.     34.3873E+06
           31899    -48.5079E+06    -17.8114E+06              0.     33.6281E+06
           31900     65.7203E+06     28.8485E+06              0.     2.50177E+06
           31901     65.7294E+06     28.9486E+06              0.     2.49719E+06
           31902     65.6958E+06     29.0277E+06              0.     2.46366E+06
           31903     65.6625E+06     29.1046E+06              0.     2.43511E+06
           31904     65.6296E+06     29.1795E+06              0.     2.41140E+06
           31905     65.5970E+06     29.2525E+06              0.     2.39240E+06
           31906     65.5645E+06     29.3235E+06              0.     2.37798E+06
           31907     65.5322E+06     29.3929E+06              0.     2.36804E+06
           31908     65.5000E+06     29.4605E+06              0.     2.36246E+06
           31909     65.4677E+06     29.5266E+06              0.     2.36114E+06
           31910     65.4355E+06     29.5912E+06              0.     2.36398E+06
           31911     65.4031E+06     29.6544E+06              0.     2.37089E+06
           31912     65.3706E+06     29.7163E+06              0.     2.38178E+06
           31913     65.3379E+06     29.7769E+06              0.     2.39657E+06
           31914     65.3050E+06     29.8364E+06              0.     2.41518E+06
           31915     65.2717E+06     29.8947E+06              0.     2.43753E+06
           31916     65.2381E+06     29.9521E+06              0.     2.46356E+06
           31917     65.2040E+06     30.0085E+06              0.     2.49321E+06
           31918     65.1695E+06     30.0640E+06              0.     2.52641E+06
           31919     65.1345E+06     30.1187E+06              0.     2.56311E+06
           31920     65.0989E+06     30.1726E+06              0.     2.60326E+06
           31921     65.0627E+06     30.2259E+06              0.     2.64682E+06
           31922     65.0259E+06     30.2785E+06              0.     2.69373E+06
           31923     64.9884E+06     30.3306E+06              0.     2.74396E+06
           31924     64.9501E+06     30.3822E+06              0.     2.79748E+06
           31925     64.9110E+06     30.4333E+06              0.     2.85425E+06
           31926     64.8711E+06      30.484E+06              0.     2.91424E+06
           31927     64.8304E+06     30.5344E+06              0.     2.97744E+06
           31928     64.7887E+06     30.5845E+06              0.     3.04380E+06
           31929      64.746E+06     30.6343E+06              0.     3.11333E+06
           31930     64.7023E+06     30.6840E+06              0.     3.18601E+06
           31931     64.6576E+06     30.7335E+06              0.     3.26181E+06
           31932     64.6118E+06     30.7830E+06              0.     3.34073E+06
           31933     64.5648E+06     30.8324E+06              0.     3.42277E+06
           31934     64.5167E+06     30.8818E+06              0.     3.50793E+06
           31935     64.4673E+06     30.9313E+06              0.     3.59619E+06
           31936     64.4167E+06     30.9809E+06              0.     3.68757E+06
           31937     64.3648E+06     31.0306E+06              0.     3.78206E+06
           31938     64.3115E+06     31.0805E+06              0.     3.87968E+06
           31939     64.2568E+06     31.1306E+06              0.     3.98044E+06
           31940     64.2006E+06     31.1810E+06              0.     4.08434E+06
           31941     64.1430E+06     31.2317E+06              0.     4.19141E+06
           31942     64.0838E+06     31.2827E+06              0.     4.30165E+06
           31943     64.0231E+06     31.3342E+06              0.     4.41510E+06
           31944     63.9607E+06     31.3860E+06              0.     4.53176E+06
           31945     63.8967E+06     31.4383E+06              0.     4.65167E+06
           31946     63.8309E+06     31.4912E+06              0.     4.77485E+06
           31947     63.7634E+06     31.5445E+06              0.     4.90132E+06
           31948     63.6941E+06     31.5985E+06              0.     5.03113E+06
           31949     63.6230E+06     31.6530E+06              0.     5.16429E+06
           31950     63.5499E+06     31.7082E+06              0.     5.30085E+06
           31951     63.4749E+06     31.7641E+06              0.     5.44085E+06
           31952     63.3979E+06     31.8207E+06              0.     5.58431E+06
           31953     63.3189E+06     31.8780E+06              0.     5.73127E+06
           31954     63.2377E+06     31.9361E+06              0.     5.88179E+06
           31955     63.1544E+06     31.9951E+06              0.     6.03591E+06
           31956     63.0689E+06     32.0549E+06              0.     6.19366E+06
           31957     62.9812E+06     32.1155E+06              0.     6.35510E+06
           31958     62.8911E+06     32.1771E+06              0.     6.52027E+06
           31959     62.7987E+06     32.2397E+06              0.     6.68923E+06
           31960     62.7039E+06     32.3032E+06              0.     6.86202E+06
           31961     62.6066E+06     32.3677E+06              0.     7.03870E+06
           31962     62.5068E+06     32.4333E+06              0.     7.21933E+06
           31963     62.4044E+06     32.5000E+06              0.     7.40395E+06
           31964     62.2993E+06     32.5677E+06              0.     7.59263E+06
           31965     62.1916E+06     32.6366E+06              0.     7.78543E+06
           31966     62.0810E+06     32.7067E+06              0.     7.98240E+06
           31967     61.9677E+06     32.7780E+06              0.     8.18361E+06
           31968     61.8515E+06     32.8505E+06              0.     8.38912E+06
           31969     61.7323E+06     32.9242E+06              0.     8.59900E+06
           31970     61.6102E+06     32.9992E+06              0.     8.81330E+06
           31971     61.4849E+06     33.0756E+06              0.     9.03209E+06
           31972     61.3565E+06     33.1533E+06              0.     9.25544E+06
           31973     61.2249E+06     33.2324E+06              0.     9.48343E+06
           31974     61.0900E+06     33.3128E+06              0.     9.71611E+06
           31975     60.9517E+06     33.3947E+06              0.     9.95355E+06
           31976     60.8100E+06     33.4781E+06              0.     10.1958E+06
           31977     60.6649E+06     33.5630E+06              0.     10.4430E+06
           31978     60.5161E+06     33.6493E+06              0.     10.6952E+06
           31979     60.3637E+06     33.7372E+06              0.     10.9524E+06
           31980     60.2076E+06     33.8267E+06              0.     11.2147E+06
           31981     60.0476E+06     33.9178E+06              0.     11.4823E+06
           31982     59.8838E+06     34.0104E+06              0.     11.7551E+06
           31983     59.7160E+06     34.1048E+06              0.     12.0332E+06
           31984     59.5442E+06     34.2008E+06              0.     12.3167E+06
           31985     59.3682E+06     34.2985E+06              0.     12.6058E+06
           31986     59.1880E+06     34.3979E+06              0.     12.9004E+06
           31987     59.0035E+06     34.4990E+06              0.     13.2006E+06
           31988     58.8145E+06     34.6020E+06              0.     13.5066E+06
           31989     58.6211E+06     34.7067E+06              0.     13.8183E+06
           31990     58.4231E+06     34.8132E+06              0.     14.1358E+06
           31991     58.2204E+06     34.9215E+06              0.     14.4593E+06
           31992     58.0130E+06     35.0318E+06              0.     14.7888E+06
           31993     57.8006E+06     35.1438E+06              0.     15.1244E+06
           31994     57.5833E+06     35.2578E+06              0.     15.4661E+06
           31995     57.3609E+06     35.3737E+06              0.     15.8139E+06
           31996     57.1333E+06     35.4915E+06              0.     16.1681E+06
           31997     56.9004E+06     35.6112E+06              0.     16.5285E+06
           31998     56.6621E+06     35.7329E+06              0.     16.8954E+06
           31999     56.4184E+06     35.8566E+06              0.     17.2687E+06
           32000     56.1689E+06     35.9822E+06              0.     17.6485E+06
           32001     55.9138E+06     36.1099E+06              0.     18.0349E+06
           32002     55.6528E+06     36.2395E+06              0.     18.4279E+06
           32003     55.3858E+06     36.3712E+06              0.     18.8276E+06
           32004     55.1127E+06     36.5049E+06              0.     19.2340E+06
           32005     54.8334E+06     36.6406E+06              0.     19.6472E+06
           32006     54.5478E+06     36.7783E+06              0.     20.0672E+06
           32007     54.2557E+06     36.9181E+06              0.     20.4940E+06
           32008     53.9570E+06     37.0598E+06              0.     20.9277E+06
           32009     53.6515E+06     37.2036E+06              0.     21.3683E+06
           32010     53.3392E+06     37.3494E+06              0.     21.8159E+06
           32011     53.0198E+06     37.4972E+06              0.     22.2704E+06
           32012     52.6933E+06     37.6470E+06              0.     22.7319E+06
           32013     52.3595E+06     37.7988E+06              0.     23.2003E+06
           32014     52.0183E+06     37.9526E+06              0.     23.6758E+06
           32015     51.6695E+06     38.1083E+06              0.     24.1583E+06
           32016     51.3129E+06     38.2659E+06              0.     24.6477E+06
           32017     50.9485E+06     38.4253E+06              0.     25.1441E+06
           32018     50.5760E+06     38.5867E+06              0.     25.6474E+06
           32019     50.1953E+06     38.7498E+06              0.     26.1577E+06
           32020     49.8062E+06     38.9148E+06              0.     26.6748E+06
           32021     49.4085E+06     39.0814E+06              0.     27.1987E+06
           32022     49.0022E+06     39.2498E+06              0.     27.7295E+06
           32023     48.5870E+06     39.4197E+06              0.     28.2669E+06
           32024     48.1627E+06     39.5912E+06              0.     28.8110E+06
           32025     47.7293E+06     39.7642E+06              0.     29.3616E+06
           32026     47.2864E+06     39.9386E+06              0.     29.9187E+06
           32027     46.8339E+06     40.1143E+06              0.     30.4821E+06
           32028     46.3716E+06     40.2913E+06              0.     31.0517E+06
           32029     45.8994E+06     40.4694E+06              0.     31.6275E+06
           32030     45.4170E+06     40.6485E+06              0.     32.2092E+06
           32031     44.9243E+06     40.8286E+06              0.     32.7966E+06
           32032     44.4211E+06     41.0094E+06              0.     33.3897E+06
           32033     43.9070E+06     41.1909E+06              0.     33.9882E+06
           32034     43.3821E+06     41.3728E+06              0.     34.5920E+06
           32035     42.8460E+06     41.5552E+06              0.     35.2007E+06
           32036     42.2985E+06     41.7377E+06              0.     35.8142E+06
           32037     41.7395E+06     41.9202E+06              0.     36.4322E+06
           32038     41.1687E+06     42.1025E+06              0.     37.0544E+06
           32039     40.5858E+06     42.2843E+06              0.     37.6806E+06
           32040     39.9908E+06     42.4656E+06              0.     38.3104E+06
           32041     39.3834E+06     42.6459E+06              0.     38.9434E+06
           32042     38.7632E+06     42.8252E+06              0.     39.5794E+06
           32043     38.1303E+06     43.0030E+06              0.     40.2179E+06
           32044     37.4842E+06     43.1790E+06              0.     40.8586E+06
           32045     36.8248E+06     43.3531E+06              0.     41.5010E+06
           32046     36.1518E+06     43.5248E+06              0.     42.1447E+06
           32047     35.4651E+06     43.6938E+06              0.     42.7892E+06
           32048     34.7643E+06     43.8596E+06              0.     43.4339E+06
           32049     34.0494E+06     44.0220E+06              0.     44.0785E+06
           32050     33.3199E+06     44.1804E+06              0.     44.7222E+06
           32051     32.5758E+06     44.3345E+06              0.     45.3645E+06
           32052     31.8168E+06     44.4836E+06              0.     46.0049E+06
           32053     31.0427E+06     44.6273E+06              0.     46.6426E+06
           32054     30.2533E+06     44.7651E+06              0.     47.2770E+06
           32055     29.4482E+06     44.8963E+06              0.     47.9073E+06
           32056     28.6274E+06     45.0204E+06              0.     48.5329E+06
           32057     27.7907E+06     45.1366E+06              0.     49.1529E+06
           32058     26.9377E+06     45.2444E+06              0.     49.7666E+06
           32059     26.0684E+06     45.3429E+06              0.     50.3732E+06
           32060     25.1825E+06     45.4314E+06              0.     50.9716E+06
           32061     24.2799E+06     45.5091E+06              0.     51.5611E+06
           32062     23.3603E+06     45.5750E+06              0.     52.1407E+06
           32063     22.4237E+06     45.6284E+06              0.     52.7095E+06
           32064     21.4699E+06     45.6682E+06              0.     53.2663E+06
           32065     20.4987E+06     45.6934E+06              0.     53.8102E+06
           32066     19.5100E+06     45.7030E+06              0.     54.3400E+06
           32067     18.5037E+06     45.6958E+06              0.     54.8547E+06
           32068     17.4798E+06     45.6706E+06              0.     55.3531E+06
           32069     16.4381E+06     45.6263E+06              0.     55.8341E+06
           32070     15.3785E+06     45.5615E+06              0.     56.2963E+06
           32071     14.3012E+06     45.4748E+06              0.     56.7386E+06
           32072     13.2059E+06     45.3649E+06              0.     57.1596E+06
           32073     12.0929E+06     45.2302E+06              0.     57.5581E+06
           32074     10.9620E+06     45.0691E+06              0.     57.9328E+06
           32075     9.81345E+06     44.8801E+06              0.     58.2821E+06
           32076     8.64723E+06     44.6615E+06              0.     58.6048E+06
           32077     7.46352E+06     44.4114E+06              0.     58.8994E+06
           32078     6.26249E+06     44.1280E+06              0.     59.1644E+06
           32079     5.04432E+06     43.8094E+06              0.     59.3985E+06
           32080     3.80926E+06     43.4536E+06              0.     59.6000E+06
           32081     2.55759E+06     43.0585E+06              0.     59.7676E+06
           32082     1.28963E+06     42.6220E+06              0.     59.8997E+06
           32083     5.74325E+03     42.1419E+06              0.     59.9947E+06
           32084    -1.29366E+06     41.6158E+06              0.     60.0512E+06
           32085    -2.60811E+06     41.0414E+06              0.     60.0677E+06
           32086    -3.93712E+06     40.4162E+06              0.     60.0425E+06
           32087    -5.28013E+06     39.7377E+06              0.     59.9742E+06
           32088    -6.63651E+06     39.0033E+06              0.     59.8612E+06
           32089    -8.00562E+06     38.2104E+06              0.     59.7021E+06
           32090    -9.38673E+06     37.3562E+06              0.     59.4954E+06
           32091    -10.7791E+06     36.4380E+06              0.     59.2395E+06
           32092    -12.1818E+06     35.4530E+06              0.     58.9332E+06
           32093    -13.5940E+06     34.3981E+06              0.     58.5749E+06
           32094    -15.0148E+06     33.2706E+06              0.     58.1633E+06
           32095    -16.4432E+06     32.0673E+06              0.     57.6970E+06
           32096     -17.878E+06     30.7853E+06              0.     57.1748E+06
           32097    -19.3182E+06     29.4215E+06              0.     56.5955E+06
           32098    -20.7626E+06     27.9729E+06              0.     55.9578E+06
           32099    -22.2099E+06     26.4363E+06              0.     55.2607E+06
           32100    -23.6588E+06     24.8087E+06              0.     54.5030E+06
           32101    -25.1081E+06     23.0868E+06              0.     53.6837E+06
           32102    -26.5562E+06     21.2677E+06              0.     52.8020E+06
           32103    -28.0017E+06     19.3482E+06              0.     51.8570E+06
           32104    -29.4432E+06     17.3252E+06              0.     50.8479E+06
           32105    -30.8790E+06     15.1957E+06              0.     49.7739E+06
           32106    -32.3075E+06     12.9567E+06              0.     48.6345E+06
           32107    -33.7272E+06     10.6052E+06              0.     47.4290E+06
           32108    -35.1363E+06     8.13843E+06              0.     46.1571E+06
           32109    -36.5330E+06     5.55344E+06              0.     44.8182E+06
           32110    -37.9157E+06     2.84755E+06              0.     43.4122E+06
           32111    -39.2825E+06     18.0298E+03              0.     41.9388E+06
           32112    -40.6315E+06    -2.93764E+06              0.     40.3977E+06
           32113    -41.9609E+06    -6.02204E+06              0.     38.7889E+06
           32114    -43.2692E+06    -9.23770E+06              0.     37.1121E+06
           32115    -44.5571E+06    -12.5877E+06              0.     35.3676E+06
           32116    -46.1528E+06    -16.5090E+06              0.     34.5921E+06
           32117     65.8195E+06     28.8911E+06              0.     2.53489E+06
           32118     65.8280E+06     28.9850E+06              0.     2.53025E+06
           32119     65.7965E+06     29.0591E+06              0.     2.49628E+06
           32120     65.7654E+06     29.1312E+06              0.     2.46736E+06
           32121     65.7345E+06     29.2014E+06              0.     2.44334E+06
           32122     65.7039E+06     29.2698E+06              0.     2.42409E+06
           32123     65.6735E+06     29.3364E+06              0.     2.40949E+06
           32124     65.6432E+06     29.4014E+06              0.     2.39942E+06
           32125     65.6130E+06     29.4648E+06              0.     2.39377E+06
           32126     65.5828E+06     29.5268E+06              0.     2.39244E+06
           32127     65.5526E+06     29.5873E+06              0.     2.39533E+06
           32128     65.5223E+06     29.6465E+06              0.     2.40234E+06
           32129     65.4918E+06     29.7045E+06              0.     2.41338E+06
           32130     65.4612E+06     29.7614E+06              0.     2.42837E+06
           32131     65.4303E+06     29.8171E+06              0.     2.44723E+06
           32132     65.3991E+06     29.8718E+06              0.     2.46989E+06
           32133     65.3676E+06     29.9256E+06              0.     2.49627E+06
           32134     65.3357E+06     29.9785E+06              0.     2.52632E+06
           32135     65.3033E+06     30.0305E+06              0.     2.55997E+06
           32136     65.2705E+06     30.0818E+06              0.     2.59717E+06
           32137     65.2372E+06     30.1324E+06              0.     2.63787E+06
           32138     65.2033E+06     30.1823E+06              0.     2.68201E+06
           32139     65.1687E+06     30.2316E+06              0.     2.72956E+06
           32140     65.1335E+06     30.2805E+06              0.     2.78047E+06
           32141     65.0977E+06     30.3288E+06              0.     2.83471E+06
           32142     65.0610E+06     30.3767E+06              0.     2.89224E+06
           32143     65.0237E+06     30.4243E+06              0.     2.95305E+06
           32144     64.9854E+06     30.4716E+06              0.     3.01709E+06
           32145     64.9463E+06     30.5185E+06              0.     3.08436E+06
           32146     64.9063E+06     30.5653E+06              0.     3.15483E+06
           32147     64.8654E+06     30.6119E+06              0.     3.22848E+06
           32148     64.8235E+06     30.6584E+06              0.     3.30531E+06
           32149     64.7805E+06     30.7047E+06              0.     3.38530E+06
           32150     64.7365E+06     30.7511E+06              0.     3.46845E+06
           32151     64.6914E+06     30.7975E+06              0.     3.55476E+06
           32152     64.6451E+06     30.8439E+06              0.     3.64422E+06
           32153     64.5976E+06     30.8904E+06              0.     3.73684E+06
           32154     64.5489E+06     30.9370E+06              0.     3.83261E+06
           32155     64.4989E+06     30.9839E+06              0.     3.93156E+06
           32156     64.4476E+06     31.0309E+06              0.     4.03369E+06
           32157     64.3950E+06     31.0782E+06              0.     4.13900E+06
           32158     64.3409E+06     31.1258E+06              0.     4.24753E+06
           32159     64.2854E+06     31.1737E+06              0.     4.35927E+06
           32160     64.2285E+06     31.2220E+06              0.     4.47426E+06
           32161     64.1700E+06     31.2707E+06              0.     4.59252E+06
           32162     64.1100E+06     31.3198E+06              0.     4.71406E+06
           32163     64.0483E+06     31.3694E+06              0.     4.83893E+06
           32164     63.9850E+06     31.4195E+06              0.     4.96714E+06
           32165     63.9200E+06     31.4702E+06              0.     5.09872E+06
           32166     63.8532E+06     31.5214E+06              0.     5.23371E+06
           32167     63.7847E+06     31.5733E+06              0.     5.37215E+06
           32168     63.7144E+06     31.6258E+06              0.     5.51406E+06
           32169     63.6421E+06     31.6789E+06              0.      5.6595E+06
           32170     63.5680E+06     31.7328E+06              0.     5.80849E+06
           32171     63.4919E+06     31.7874E+06              0.     5.96109E+06
           32172     63.4137E+06     31.8428E+06              0.     6.11734E+06
           32173     63.3335E+06     31.8990E+06              0.     6.27727E+06
           32174     63.2512E+06     31.9561E+06              0.     6.44095E+06
           32175     63.1667E+06     32.0140E+06              0.     6.60841E+06
           32176     63.0800E+06     32.0728E+06              0.     6.77972E+06
           32177     62.9910E+06     32.1326E+06              0.     6.95492E+06
           32178     62.8997E+06     32.1933E+06              0.     7.13407E+06
           32179     62.8060E+06     32.2550E+06              0.     7.31722E+06
           32180     62.7099E+06     32.3177E+06              0.     7.50443E+06
           32181     62.6113E+06     32.3814E+06              0.     7.69576E+06
           32182     62.5102E+06     32.4463E+06              0.     7.89127E+06
           32183     62.4065E+06     32.5122E+06              0.     8.09101E+06
           32184     62.3001E+06     32.5793E+06              0.     8.29506E+06
           32185     62.1910E+06     32.6476E+06              0.     8.50348E+06
           32186     62.0792E+06     32.7170E+06              0.     8.71633E+06
           32187     61.9645E+06     32.7877E+06              0.     8.93367E+06
           32188     61.8469E+06     32.8596E+06              0.     9.15558E+06
           32189     61.7263E+06     32.9328E+06              0.     9.38212E+06
           32190     61.6027E+06     33.0073E+06              0.     9.61337E+06
           32191     61.4761E+06     33.0832E+06              0.     9.84938E+06
           32192     61.3462E+06     33.1604E+06              0.     10.0902E+06
           32193     61.2132E+06     33.2390E+06              0.     10.3360E+06
           32194     61.0768E+06     33.3190E+06              0.     10.5868E+06
           32195     60.9371E+06     33.4005E+06              0.     10.8426E+06
           32196     60.7939E+06     33.4834E+06              0.     11.1035E+06
           32197     60.6472E+06     33.5678E+06              0.     11.3697E+06
           32198     60.4970E+06     33.6538E+06              0.     11.6411E+06
           32199     60.3430E+06     33.7413E+06              0.     11.9179E+06
           32200     60.1853E+06     33.8303E+06              0.     12.2002E+06
           32201     60.0238E+06     33.9210E+06              0.     12.4879E+06
           32202     59.8584E+06     34.0133E+06              0.     12.7812E+06
           32203     59.6890E+06     34.1072E+06              0.     13.0802E+06
           32204     59.5156E+06     34.2028E+06              0.     13.3849E+06
           32205     59.3380E+06     34.3001E+06              0.     13.6955E+06
           32206     59.1561E+06     34.3992E+06              0.     14.0119E+06
           32207     58.9699E+06     34.4999E+06              0.     14.3342E+06
           32208     58.7793E+06     34.6024E+06              0.     14.6626E+06
           32209     58.5841E+06     34.7067E+06              0.     14.9971E+06
           32210     58.3843E+06     34.8129E+06              0.     15.3378E+06
           32211     58.1799E+06     34.9208E+06              0.     15.6847E+06
           32212     57.9706E+06     35.0306E+06              0.     16.0379E+06
           32213     57.7564E+06     35.1422E+06              0.     16.3976E+06
           32214     57.5372E+06     35.2557E+06              0.     16.7636E+06
           32215     57.3128E+06     35.3711E+06              0.     17.1362E+06
           32216     57.0833E+06     35.4885E+06              0.     17.5154E+06
           32217     56.8484E+06     35.6077E+06              0.     17.9012E+06
           32218     56.6081E+06     35.7289E+06              0.     18.2938E+06
           32219     56.3622E+06     35.8520E+06              0.     18.6930E+06
           32220     56.1106E+06     35.9771E+06              0.     19.0991E+06
           32221     55.8533E+06     36.1042E+06              0.     19.5121E+06
           32222       55.59E+06     36.2333E+06              0.     19.9319E+06
           32223     55.3207E+06     36.3643E+06              0.     20.3588E+06
           32224     55.0452E+06     36.4973E+06              0.     20.7926E+06
           32225     54.7635E+06     36.6323E+06              0.     21.2335E+06
           32226     54.4753E+06     36.7693E+06              0.     21.6814E+06
           32227     54.1806E+06     36.9083E+06              0.     22.1364E+06
           32228     53.8792E+06     37.0493E+06              0.     22.5986E+06
           32229     53.5709E+06     37.1922E+06              0.     23.0679E+06
           32230     53.2558E+06     37.3372E+06              0.     23.5444E+06
           32231     52.9334E+06     37.4841E+06              0.     24.0280E+06
           32232     52.6039E+06     37.6329E+06              0.     24.5188E+06
           32233     52.2669E+06     37.7836E+06              0.     25.0168E+06
           32234     51.9224E+06     37.9363E+06              0.     25.5219E+06
           32235     51.5701E+06     38.0908E+06              0.     26.0341E+06
           32236     51.2100E+06     38.2472E+06              0.     26.5535E+06
           32237     50.8419E+06     38.4053E+06              0.     27.0799E+06
           32238     50.4655E+06     38.5653E+06              0.     27.6133E+06
           32239     50.0808E+06     38.7270E+06              0.     28.1538E+06
           32240     49.6876E+06     38.8903E+06              0.     28.7011E+06
           32241     49.2856E+06     39.0553E+06              0.     29.2553E+06
           32242     48.8748E+06     39.2219E+06              0.     29.8163E+06
           32243     48.4548E+06     39.3900E+06              0.     30.3839E+06
           32244     48.0257E+06     39.5595E+06              0.     30.9581E+06
           32245     47.5871E+06     39.7303E+06              0.     31.5388E+06
           32246     47.1388E+06     39.9024E+06              0.     32.1257E+06
           32247     46.6807E+06     40.0757E+06              0.     32.7189E+06
           32248     46.2126E+06     40.2501E+06              0.     33.3181E+06
           32249     45.7343E+06     40.4254E+06              0.     33.9231E+06
           32250     45.2456E+06     40.6015E+06              0.     34.5338E+06
           32251     44.7462E+06     40.7784E+06              0.     35.1499E+06
           32252     44.2359E+06     40.9558E+06              0.     35.7713E+06
           32253     43.7146E+06     41.1336E+06              0.     36.3977E+06
           32254     43.1821E+06     41.3117E+06              0.     37.0288E+06
           32255     42.6380E+06     41.4898E+06              0.     37.6645E+06
           32256     42.0822E+06     41.6678E+06              0.     38.3043E+06
           32257     41.5144E+06     41.8454E+06              0.     38.9480E+06
           32258     40.9345E+06     42.0225E+06              0.     39.5952E+06
           32259     40.3422E+06     42.1988E+06              0.     40.2456E+06
           32260     39.7372E+06     42.3741E+06              0.     40.8988E+06
           32261     39.1193E+06     42.5480E+06              0.     41.5544E+06
           32262     38.4883E+06     42.7203E+06              0.     42.2119E+06
           32263      37.844E+06     42.8907E+06              0.     42.8710E+06
           32264     37.1861E+06     43.0588E+06              0.     43.5311E+06
           32265     36.5143E+06     43.2242E+06              0.     44.1917E+06
           32266     35.8284E+06     43.3867E+06              0.     44.8524E+06
           32267     35.1282E+06     43.5458E+06              0.     45.5125E+06
           32268     34.4134E+06     43.7010E+06              0.     46.1714E+06
           32269     33.6838E+06     43.8519E+06              0.     46.8285E+06
           32270     32.9391E+06     43.9980E+06              0.     47.4832E+06
           32271     32.1791E+06     44.1388E+06              0.     48.1348E+06
           32272     31.4036E+06     44.2737E+06              0.     48.7826E+06
           32273     30.6123E+06     44.4021E+06              0.     49.4258E+06
           32274     29.8049E+06     44.5235E+06              0.     50.0636E+06
           32275     28.9814E+06     44.6371E+06              0.     50.6952E+06
           32276     28.1413E+06     44.7422E+06              0.     51.3198E+06
           32277     27.2846E+06     44.8382E+06              0.     51.9365E+06
           32278     26.4109E+06     44.9241E+06              0.     52.5443E+06
           32279     25.5202E+06     44.9992E+06              0.     53.1423E+06
           32280     24.6121E+06     45.0626E+06              0.     53.7295E+06
           32281     23.6866E+06     45.1134E+06              0.     54.3049E+06
           32282     22.7434E+06     45.1505E+06              0.     54.8673E+06
           32283     21.7824E+06     45.1730E+06              0.     55.4157E+06
           32284     20.8034E+06     45.1796E+06              0.     55.9489E+06
           32285     19.8064E+06     45.1694E+06              0.     56.4658E+06
           32286     18.7911E+06     45.1411E+06              0.     56.9651E+06
           32287     17.7575E+06     45.0933E+06              0.     57.4456E+06
           32288     16.7055E+06     45.0249E+06              0.     57.9059E+06
           32289     15.6351E+06     44.9342E+06              0.     58.3449E+06
           32290     14.5463E+06     44.8200E+06              0.     58.7610E+06
           32291     13.4390E+06     44.6806E+06              0.     59.1530E+06
           32292     12.3132E+06     44.5144E+06              0.     59.5194E+06
           32293     11.1691E+06     44.3198E+06              0.     59.8587E+06
           32294     10.0066E+06     44.0949E+06              0.     60.1695E+06
           32295     8.82604E+06     43.8379E+06              0.     60.4503E+06
           32296     7.62743E+06     43.5470E+06              0.     60.6996E+06
           32297     6.41099E+06     43.2201E+06              0.     60.9158E+06
           32298     5.17697E+06     42.8551E+06              0.     61.0973E+06
           32299     3.92565E+06     42.4500E+06              0.     61.2427E+06
           32300     2.65735E+06     42.0024E+06              0.     61.3503E+06
           32301     1.37243E+06     41.5100E+06              0.     61.4185E+06
           32302     71.3231E+03     40.9705E+06              0.     61.4457E+06
           32303    -1.24551E+06     40.3815E+06              0.     61.4304E+06
           32304    -2.57755E+06     39.7403E+06              0.     61.3709E+06
           32305    -3.92422E+06     39.0443E+06              0.     61.2657E+06
           32306    -5.28488E+06     38.2909E+06              0.     61.1132E+06
           32307    -6.65885E+06     37.4772E+06              0.     60.9118E+06
           32308    -8.04538E+06     36.6006E+06              0.     60.6600E+06
           32309    -9.44366E+06     35.6581E+06              0.     60.3563E+06
           32310    -10.8528E+06     34.6467E+06              0.     59.9992E+06
           32311    -12.2720E+06     33.5635E+06              0.     59.5874E+06
           32312    -13.7001E+06     32.4054E+06              0.     59.1193E+06
           32313    -15.1361E+06     31.1693E+06              0.     58.5937E+06
           32314    -16.5789E+06     29.8521E+06              0.     58.0093E+06
           32315    -18.0273E+06     28.4507E+06              0.     57.3647E+06
           32316    -19.4801E+06     26.9619E+06              0.     56.6589E+06
           32317    -20.9361E+06     25.3825E+06              0.     55.8907E+06
           32318    -22.3937E+06     23.7093E+06              0.     55.0591E+06
           32319    -23.8517E+06     21.9392E+06              0.     54.1631E+06
           32320    -25.3085E+06     20.0689E+06              0.     53.2017E+06
           32321    -26.7627E+06     18.0953E+06              0.     52.1742E+06
           32322    -28.2126E+06     16.0153E+06              0.     51.0799E+06
           32323    -29.6567E+06     13.8259E+06              0.     49.9180E+06
           32324    -31.0932E+06     11.5239E+06              0.     48.6880E+06
           32325    -32.5205E+06     9.10639E+06              0.     47.3894E+06
           32326    -33.9368E+06     6.57050E+06              0.     46.0219E+06
           32327    -35.3403E+06     3.91343E+06              0.     44.5850E+06
           32328    -36.7292E+06     1.13237E+06              0.     43.0786E+06
           32329    -38.1017E+06    -1.77525E+06              0.     41.5024E+06
           32330    -39.4559E+06    -4.81207E+06              0.     39.8564E+06
           32331    -40.7903E+06    -7.98046E+06              0.     38.1407E+06
           32332    -42.1004E+06    -11.2810E+06              0.     36.3553E+06
           32333    -43.6905E+06    -15.1565E+06              0.     35.5665E+06
           32334     65.9199E+06     28.9343E+06              0.     2.56586E+06
           32335     65.9279E+06     29.0218E+06              0.     2.56118E+06
           32336     65.8985E+06     29.0909E+06              0.     2.52680E+06
           32337     65.8695E+06     29.1581E+06              0.     2.49753E+06
           32338     65.8407E+06     29.2235E+06              0.     2.47322E+06
           32339     65.8122E+06     29.2873E+06              0.     2.45374E+06
           32340     65.7839E+06     29.3494E+06              0.     2.43896E+06
           32341     65.7557E+06     29.4100E+06              0.     2.42878E+06
           32342     65.7275E+06     29.4691E+06              0.     2.42307E+06
           32343     65.6994E+06     29.5269E+06              0.     2.42173E+06
           32344     65.6712E+06     29.5833E+06              0.     2.42466E+06
           32345     65.6430E+06     29.6386E+06              0.     2.43176E+06
           32346     65.6146E+06     29.6926E+06              0.     2.44294E+06
           32347     65.5860E+06     29.7456E+06              0.     2.45812E+06
           32348     65.5572E+06     29.7976E+06              0.     2.47722E+06
           32349     65.5282E+06     29.8486E+06              0.     2.50017E+06
           32350     65.4988E+06     29.8987E+06              0.     2.52689E+06
           32351     65.4690E+06     29.9480E+06              0.     2.55731E+06
           32352     65.4389E+06     29.9965E+06              0.     2.59139E+06
           32353     65.4083E+06     30.0444E+06              0.     2.62905E+06
           32354     65.3772E+06     30.0915E+06              0.     2.67025E+06
           32355     65.3456E+06     30.1381E+06              0.     2.71495E+06
           32356     65.3134E+06     30.1841E+06              0.     2.76309E+06
           32357     65.2806E+06     30.2297E+06              0.     2.81464E+06
           32358     65.2472E+06     30.2748E+06              0.     2.86955E+06
           32359     65.2130E+06     30.3195E+06              0.     2.92781E+06
           32360     65.1781E+06     30.3638E+06              0.     2.98937E+06
           32361     65.1425E+06     30.4079E+06              0.     3.05422E+06
           32362     65.1061E+06     30.4517E+06              0.     3.12233E+06
           32363     65.0688E+06     30.4954E+06              0.     3.19367E+06
           32364     65.0306E+06     30.5388E+06              0.     3.26825E+06
           32365     64.9915E+06     30.5822E+06              0.     3.34604E+06
           32366     64.9514E+06     30.6255E+06              0.     3.42703E+06
           32367     64.9104E+06     30.6687E+06              0.     3.51123E+06
           32368     64.8683E+06     30.7120E+06              0.     3.59861E+06
           32369     64.8251E+06     30.7553E+06              0.     3.68920E+06
           32370     64.7808E+06     30.7987E+06              0.     3.78298E+06
           32371     64.7354E+06     30.8423E+06              0.     3.87996E+06
           32372     64.6888E+06     30.8860E+06              0.     3.98015E+06
           32373     64.6410E+06     30.9299E+06              0.     4.08356E+06
           32374     64.5919E+06     30.9741E+06              0.     4.19020E+06
           32375     64.5415E+06     31.0185E+06              0.     4.30009E+06
           32376     64.4897E+06     31.0633E+06              0.     4.41325E+06
           32377     64.4366E+06     31.1083E+06              0.     4.52969E+06
           32378     64.3820E+06     31.1538E+06              0.     4.64944E+06
           32379     64.3260E+06     31.1997E+06              0.     4.77252E+06
           32380     64.2685E+06     31.2461E+06              0.     4.89897E+06
           32381     64.2094E+06     31.2929E+06              0.     5.02880E+06
           32382     64.1488E+06     31.3402E+06              0.     5.16205E+06
           32383     64.0865E+06     31.3881E+06              0.     5.29876E+06
           32384     64.0226E+06     31.4365E+06              0.     5.43896E+06
           32385     63.9570E+06     31.4856E+06              0.     5.58268E+06
           32386     63.8896E+06     31.5353E+06              0.     5.72998E+06
           32387     63.8204E+06     31.5857E+06              0.     5.88087E+06
           32388     63.7493E+06     31.6368E+06              0.     6.03542E+06
           32389     63.6764E+06     31.6886E+06              0.     6.19367E+06
           32390     63.6016E+06     31.7412E+06              0.     6.35566E+06
           32391     63.5247E+06     31.7945E+06              0.     6.52144E+06
           32392     63.4459E+06     31.8487E+06              0.     6.69106E+06
           32393     63.3650E+06     31.9037E+06              0.     6.86458E+06
           32394     63.2819E+06     31.9596E+06              0.     7.04204E+06
           32395     63.1967E+06     32.0165E+06              0.     7.22351E+06
           32396     63.1093E+06     32.0742E+06              0.     7.40904E+06
           32397     63.0196E+06     32.1329E+06              0.     7.59868E+06
           32398     62.9275E+06     32.1926E+06              0.     7.79250E+06
           32399     62.8331E+06     32.2533E+06              0.     7.99056E+06
           32400     62.7363E+06     32.3151E+06              0.     8.19292E+06
           32401     62.6370E+06     32.3780E+06              0.     8.39965E+06
           32402     62.5351E+06     32.4419E+06              0.     8.61080E+06
           32403     62.4307E+06     32.5070E+06              0.     8.82645E+06
           32404     62.3236E+06     32.5732E+06              0.     9.04667E+06
           32405     62.2137E+06     32.6407E+06              0.     9.27152E+06
           32406     62.1011E+06     32.7093E+06              0.     9.50106E+06
           32407     61.9857E+06     32.7792E+06              0.     9.73538E+06
           32408     61.8674E+06     32.8503E+06              0.     9.97455E+06
           32409     61.7461E+06     32.9228E+06              0.     10.2186E+06
           32410     61.6218E+06     32.9965E+06              0.     10.4677E+06
           32411     61.4944E+06     33.0716E+06              0.     10.7218E+06
           32412     61.3638E+06     33.1481E+06              0.     10.9811E+06
           32413     61.2301E+06     33.2260E+06              0.     11.2456E+06
           32414     61.0930E+06     33.3053E+06              0.     11.5154E+06
           32415     60.9525E+06     33.3860E+06              0.     11.7905E+06
           32416     60.8086E+06     33.4683E+06              0.     12.0711E+06
           32417     60.6612E+06     33.5520E+06              0.     12.3572E+06
           32418     60.5102E+06     33.6372E+06              0.     12.6489E+06
           32419     60.3556E+06     33.7240E+06              0.     12.9463E+06
           32420     60.1972E+06     33.8124E+06              0.     13.2494E+06
           32421     60.0349E+06     33.9024E+06              0.     13.5584E+06
           32422     59.8688E+06     33.9940E+06              0.     13.8732E+06
           32423     59.6987E+06     34.0872E+06              0.     14.1941E+06
           32424     59.5244E+06     34.1821E+06              0.     14.5210E+06
           32425     59.3461E+06     34.2787E+06              0.     14.8540E+06
           32426     59.1634E+06     34.3770E+06              0.     15.1933E+06
           32427     58.9765E+06     34.4770E+06              0.     15.5388E+06
           32428     58.7850E+06     34.5788E+06              0.     15.8907E+06
           32429     58.5891E+06     34.6824E+06              0.     16.2491E+06
           32430     58.3885E+06     34.7877E+06              0.     16.6139E+06
           32431     58.1832E+06     34.8949E+06              0.     16.9853E+06
           32432     57.9731E+06     35.0039E+06              0.     17.3633E+06
           32433     57.7580E+06     35.1148E+06              0.     17.7481E+06
           32434     57.5379E+06     35.2275E+06              0.     18.1396E+06
           32435     57.3127E+06     35.3421E+06              0.     18.5380E+06
           32436     57.0822E+06     35.4586E+06              0.     18.9433E+06
           32437     56.8463E+06     35.5770E+06              0.     19.3555E+06
           32438     56.6049E+06     35.6973E+06              0.     19.7747E+06
           32439     56.3580E+06     35.8196E+06              0.     20.2009E+06
           32440     56.1053E+06     35.9438E+06              0.     20.6343E+06
           32441     55.8468E+06     36.0699E+06              0.     21.0748E+06
           32442     55.5824E+06     36.1980E+06              0.     21.5226E+06
           32443     55.3118E+06     36.3281E+06              0.     21.9775E+06
           32444     55.0350E+06     36.4601E+06              0.     22.4397E+06
           32445     54.7519E+06     36.5941E+06              0.     22.9092E+06
           32446     54.4623E+06     36.7300E+06              0.      23.386E+06
           32447     54.1660E+06     36.8679E+06              0.     23.8701E+06
           32448     53.8630E+06     37.0078E+06              0.     24.3616E+06
           32449     53.5531E+06     37.1496E+06              0.     24.8604E+06
           32450     53.2361E+06     37.2933E+06              0.     25.3666E+06
           32451     52.9119E+06     37.4389E+06              0.     25.8801E+06
           32452     52.5804E+06     37.5865E+06              0.     26.4009E+06
           32453     52.2413E+06     37.7359E+06              0.     26.9290E+06
           32454     51.8945E+06     37.8871E+06              0.     27.4644E+06
           32455     51.5399E+06     38.0402E+06              0.     28.0071E+06
           32456     51.1773E+06     38.1950E+06              0.     28.5569E+06
           32457     50.8065E+06     38.3516E+06              0.     29.1138E+06
           32458     50.4273E+06     38.5099E+06              0.     29.6778E+06
           32459     50.0396E+06     38.6698E+06              0.     30.2488E+06
           32460     49.6432E+06     38.8314E+06              0.     30.8266E+06
           32461     49.2379E+06     38.9944E+06              0.     31.4113E+06
           32462     48.8235E+06     39.1590E+06              0.     32.0026E+06
           32463     48.3997E+06     39.3249E+06              0.     32.6005E+06
           32464     47.9666E+06     39.4921E+06              0.     33.2048E+06
           32465     47.5237E+06     39.6606E+06              0.     33.8153E+06
           32466     47.0709E+06     39.8302E+06              0.     34.4320E+06
           32467     46.6081E+06     40.0007E+06              0.     35.0545E+06
           32468     46.1349E+06     40.1722E+06              0.     35.6828E+06
           32469     45.6512E+06     40.3445E+06              0.     36.3166E+06
           32470     45.1567E+06     40.5174E+06              0.     36.9556E+06
           32471     44.6513E+06     40.6908E+06              0.     37.5996E+06
           32472     44.1347E+06     40.8645E+06              0.     38.2484E+06
           32473     43.6066E+06     41.0384E+06              0.     38.9015E+06
           32474     43.0669E+06     41.2123E+06              0.     39.5589E+06
           32475     42.5153E+06     41.3859E+06              0.       40.22E+06
           32476     41.9515E+06     41.5590E+06              0.     40.8846E+06
           32477     41.3753E+06     41.7315E+06              0.     41.5522E+06
           32478     40.7865E+06     41.9030E+06              0.     42.2225E+06
           32479     40.1848E+06     42.0733E+06              0.     42.8950E+06
           32480     39.5699E+06     42.2422E+06              0.     43.5693E+06
           32481     38.9417E+06     42.4092E+06              0.     44.2449E+06
           32482     38.2997E+06     42.5741E+06              0.     44.9213E+06
           32483     37.6438E+06     42.7364E+06              0.     45.5979E+06
           32484     36.9738E+06     42.8959E+06              0.     46.2742E+06
           32485     36.2893E+06     43.0521E+06              0.     46.9496E+06
           32486     35.5900E+06     43.2047E+06              0.     47.6235E+06
           32487     34.8758E+06     43.3530E+06              0.     48.2952E+06
           32488     34.1463E+06     43.4966E+06              0.     48.9640E+06
           32489     33.4013E+06     43.6351E+06              0.     49.6291E+06
           32490     32.6405E+06     43.7677E+06              0.     50.2899E+06
           32491     31.8637E+06     43.8941E+06              0.     50.9456E+06
           32492     31.0706E+06     44.0134E+06              0.     51.5952E+06
           32493     30.2609E+06     44.1251E+06              0.     52.2379E+06
           32494     29.4344E+06     44.2284E+06              0.     52.8729E+06
           32495     28.5909E+06     44.3225E+06              0.     53.4992E+06
           32496     27.7301E+06     44.4067E+06              0.     54.1158E+06
           32497     26.8518E+06     44.4801E+06              0.     54.7217E+06
           32498     25.9557E+06     44.5419E+06              0.     55.3158E+06
           32499     25.0417E+06     44.5909E+06              0.     55.8970E+06
           32500     24.1096E+06     44.6263E+06              0.     56.4643E+06
           32501     23.1591E+06     44.6470E+06              0.     57.0163E+06
           32502     22.1901E+06     44.6519E+06              0.     57.5520E+06
           32503     21.2025E+06     44.6397E+06              0.     58.0701E+06
           32504     20.1961E+06     44.6092E+06              0.     58.5693E+06
           32505     19.1707E+06     44.5591E+06              0.     59.0482E+06
           32506     18.1263E+06     44.4880E+06              0.     59.5055E+06
           32507     17.0629E+06     44.3946E+06              0.     59.9398E+06
           32508     15.9803E+06     44.2771E+06              0.     60.3497E+06
           32509     14.8786E+06     44.1341E+06              0.     60.7337E+06
           32510     13.7577E+06     43.9639E+06              0.     61.0904E+06
           32511     12.6177E+06     43.7647E+06              0.     61.4181E+06
           32512     11.4587E+06     43.5348E+06              0.     61.7153E+06
           32513     10.2808E+06     43.2721E+06              0.     61.9806E+06
           32514     9.08413E+06     42.9747E+06              0.     62.2122E+06
           32515     7.86886E+06     42.6405E+06              0.     62.4085E+06
           32516     6.63524E+06     42.2674E+06              0.     62.5680E+06
           32517     5.38355E+06     41.8531E+06              0.     62.6889E+06
           32518     4.11413E+06     41.3954E+06              0.     62.7697E+06
           32519     2.82734E+06     40.8918E+06              0.     62.8086E+06
           32520     1.52361E+06     40.3398E+06              0.     62.8040E+06
           32521     203.428E+03     39.7368E+06              0.     62.7542E+06
           32522    -1.13267E+06     39.0803E+06              0.     62.6577E+06
           32523    -2.48408E+06     38.3675E+06              0.     62.5126E+06
           32524    -3.85016E+06     37.5957E+06              0.     62.3175E+06
           32525    -5.23018E+06     36.7618E+06              0.     62.0707E+06
           32526    -6.62337E+06     35.8631E+06              0.     61.7706E+06
           32527    -8.02888E+06     34.8965E+06              0.     61.4158E+06
           32528    -9.44581E+06     33.8590E+06              0.     61.0046E+06
           32529    -10.8732E+06     32.7475E+06              0.     60.5357E+06
           32530    -12.3100E+06     31.5588E+06              0.     60.0075E+06
           32531    -13.7550E+06     30.2898E+06              0.     59.4188E+06
           32532    -15.2072E+06     28.9372E+06              0.     58.7683E+06
           32533    -16.6654E+06     27.4977E+06              0.     58.0547E+06
           32534    -18.1281E+06     25.9682E+06              0.     57.2768E+06
           32535    -19.5940E+06     24.3453E+06              0.     56.4335E+06
           32536    -21.0618E+06     22.6258E+06              0.     55.5239E+06
           32537    -22.5300E+06     20.8065E+06              0.     54.5470E+06
           32538    -23.9969E+06     18.8840E+06              0.     53.5018E+06
           32539    -25.4611E+06     16.8552E+06              0.     52.3877E+06
           32540    -26.9209E+06     14.7169E+06              0.     51.2040E+06
           32541    -28.3746E+06     12.4661E+06              0.     49.9500E+06
           32542    -29.8204E+06     10.0996E+06              0.     48.6253E+06
           32543    -31.2567E+06     7.61442E+06              0.     47.2295E+06
           32544    -32.6815E+06     5.00777E+06              0.     45.7622E+06
           32545    -34.0930E+06     2.27677E+06              0.     44.2232E+06
           32546    -35.4894E+06    -581.228E+03              0.     42.6123E+06
           32547    -36.8688E+06    -3.56888E+06              0.     40.9295E+06
           32548    -38.2292E+06    -6.68868E+06              0.     39.1750E+06
           32549    -39.5717E+06    -9.94486E+06              0.     37.3488E+06
           32550    -41.1631E+06    -13.7738E+06              0.     36.5475E+06
           32551     66.0215E+06     28.9779E+06              0.     2.59468E+06
           32552     66.0289E+06     29.0590E+06              0.     2.58994E+06
           32553     66.0017E+06     29.1230E+06              0.     2.55519E+06
           32554     65.9749E+06     29.1853E+06              0.     2.52559E+06
           32555     65.9482E+06     29.2459E+06              0.     2.50101E+06
           32556     65.9218E+06     29.3050E+06              0.     2.48132E+06
           32557     65.8956E+06     29.3625E+06              0.     2.46639E+06
           32558     65.8695E+06     29.4187E+06              0.     2.45609E+06
           32559     65.8434E+06     29.4735E+06              0.     2.45033E+06
           32560     65.8174E+06     29.5270E+06              0.     2.44898E+06
           32561     65.7913E+06     29.5793E+06              0.     2.45195E+06
           32562     65.7651E+06     29.6304E+06              0.     2.45913E+06
           32563     65.7388E+06     29.6805E+06              0.     2.47045E+06
           32564     65.7124E+06     29.7296E+06              0.     2.48581E+06
           32565     65.6857E+06     29.7778E+06              0.     2.50513E+06
           32566     65.6588E+06     29.8251E+06              0.     2.52834E+06
           32567     65.6315E+06     29.8715E+06              0.     2.55537E+06
           32568     65.6040E+06     29.9172E+06              0.     2.58615E+06
           32569     65.5760E+06     29.9622E+06              0.     2.62062E+06
           32570     65.5477E+06     30.0065E+06              0.     2.65872E+06
           32571     65.5189E+06     30.0502E+06              0.     2.70039E+06
           32572     65.4896E+06     30.0934E+06              0.     2.74560E+06
           32573     65.4598E+06     30.1360E+06              0.     2.79430E+06
           32574     65.4294E+06     30.1782E+06              0.     2.84644E+06
           32575     65.3984E+06     30.2200E+06              0.     2.90199E+06
           32576     65.3668E+06     30.2615E+06              0.     2.96091E+06
           32577     65.3345E+06     30.3026E+06              0.     3.02318E+06
           32578     65.3014E+06     30.3435E+06              0.     3.08878E+06
           32579     65.2677E+06     30.3841E+06              0.     3.15767E+06
           32580     65.2331E+06     30.4246E+06              0.     3.22984E+06
           32581     65.1977E+06     30.4649E+06              0.     3.30528E+06
           32582     65.1615E+06     30.5051E+06              0.     3.38396E+06
           32583     65.1244E+06     30.5452E+06              0.     3.46589E+06
           32584     65.0863E+06     30.5854E+06              0.     3.55105E+06
           32585     65.0473E+06     30.6255E+06              0.     3.63945E+06
           32586     65.0073E+06     30.6657E+06              0.     3.73108E+06
           32587     64.9663E+06     30.7060E+06              0.     3.82594E+06
           32588     64.9242E+06     30.7464E+06              0.     3.92405E+06
           32589     64.8810E+06     30.7869E+06              0.     4.02540E+06
           32590     64.8366E+06     30.8277E+06              0.     4.13001E+06
           32591     64.7911E+06     30.8687E+06              0.     4.23789E+06
           32592     64.7444E+06     30.9099E+06              0.     4.34905E+06
           32593     64.6964E+06     30.9515E+06              0.     4.46353E+06
           32594     64.6472E+06     30.9933E+06              0.     4.58132E+06
           32595     64.5966E+06     31.0355E+06              0.     4.70247E+06
           32596     64.5447E+06     31.0782E+06              0.     4.82699E+06
           32597     64.4913E+06     31.1212E+06              0.     4.95491E+06
           32598     64.4366E+06     31.1647E+06              0.     5.08626E+06
           32599     64.3804E+06     31.2087E+06              0.     5.22107E+06
           32600     64.3226E+06     31.2531E+06              0.     5.35939E+06
           32601     64.2634E+06     31.2982E+06              0.     5.50123E+06
           32602     64.2025E+06     31.3438E+06              0.     5.64664E+06
           32603     64.1400E+06     31.3900E+06              0.     5.79567E+06
           32604     64.0758E+06     31.4368E+06              0.     5.94835E+06
           32605     64.0100E+06     31.4843E+06              0.     6.10472E+06
           32606     63.9423E+06     31.5324E+06              0.     6.26484E+06
           32607     63.8729E+06     31.5813E+06              0.     6.42875E+06
           32608     63.8017E+06     31.6310E+06              0.     6.59650E+06
           32609     63.7285E+06     31.6813E+06              0.     6.76814E+06
           32610     63.6535E+06     31.7325E+06              0.     6.94373E+06
           32611     63.5764E+06     31.7846E+06              0.     7.12331E+06
           32612     63.4974E+06     31.8374E+06              0.     7.30695E+06
           32613     63.4163E+06     31.8912E+06              0.     7.49470E+06
           32614     63.3331E+06     31.9459E+06              0.     7.68662E+06
           32615     63.2477E+06     32.0014E+06              0.     7.88278E+06
           32616     63.1601E+06     32.0580E+06              0.     8.08323E+06
           32617     63.0702E+06     32.1155E+06              0.     8.28804E+06
           32618     62.9781E+06     32.1741E+06              0.     8.49727E+06
           32619     62.8835E+06     32.2337E+06              0.     8.71100E+06
           32620     62.7866E+06     32.2943E+06              0.     8.92927E+06
           32621     62.6872E+06     32.3561E+06              0.     9.15218E+06
           32622     62.5852E+06     32.4190E+06              0.     9.37978E+06
           32623     62.4807E+06     32.4830E+06              0.     9.61215E+06
           32624     62.3735E+06     32.5482E+06              0.     9.84936E+06
           32625     62.2637E+06     32.6145E+06              0.     10.0915E+06
           32626     62.1511E+06     32.6821E+06              0.     10.3386E+06
           32627     62.0356E+06     32.7510E+06              0.     10.5908E+06
           32628     61.9173E+06     32.8211E+06              0.     10.8481E+06
           32629     61.7961E+06     32.8925E+06              0.     11.1106E+06
           32630     61.6718E+06     32.9653E+06              0.     11.3784E+06
           32631     61.5444E+06     33.0394E+06              0.     11.6516E+06
           32632     61.4140E+06     33.1148E+06              0.     11.9302E+06
           32633     61.2803E+06     33.1917E+06              0.     12.2143E+06
           32634     61.1433E+06     33.2700E+06              0.     12.5041E+06
           32635     61.0030E+06     33.3497E+06              0.     12.7995E+06
           32636     60.8592E+06     33.4309E+06              0.     13.1007E+06
           32637     60.7119E+06     33.5137E+06              0.     13.4078E+06
           32638     60.5611E+06     33.5979E+06              0.     13.7207E+06
           32639     60.4066E+06     33.6837E+06              0.     14.0397E+06
           32640     60.2484E+06     33.7710E+06              0.     14.3647E+06
           32641     60.0864E+06     33.8600E+06              0.     14.6959E+06
           32642     59.9204E+06     33.9505E+06              0.     15.0334E+06
           32643     59.7505E+06     34.0427E+06              0.     15.3771E+06
           32644     59.5765E+06     34.1366E+06              0.     15.7273E+06
           32645     59.3984E+06     34.2321E+06              0.     16.0839E+06
           32646     59.2160E+06     34.3294E+06              0.     16.4470E+06
           32647     59.0292E+06     34.4283E+06              0.     16.8168E+06
           32648     58.8381E+06     34.5291E+06              0.     17.1933E+06
           32649     58.6423E+06     34.6315E+06              0.     17.5765E+06
           32650      58.442E+06     34.7358E+06              0.     17.9665E+06
           32651     58.2369E+06     34.8419E+06              0.     18.3635E+06
           32652     58.0270E+06     34.9498E+06              0.     18.7674E+06
           32653     57.8121E+06     35.0595E+06              0.     19.1783E+06
           32654     57.5922E+06     35.1711E+06              0.     19.5964E+06
           32655     57.3672E+06     35.2845E+06              0.     20.0215E+06
           32656     57.1368E+06     35.3999E+06              0.     20.4539E+06
           32657     56.9011E+06     35.5171E+06              0.     20.8935E+06
           32658     56.6598E+06     35.6362E+06              0.     21.3404E+06
           32659     56.4130E+06     35.7573E+06              0.     21.7947E+06
           32660     56.1604E+06     35.8802E+06              0.     22.2563E+06
           32661     55.9018E+06     36.0051E+06              0.     22.7253E+06
           32662     55.6373E+06     36.1320E+06              0.     23.2018E+06
           32663     55.3667E+06     36.2608E+06              0.     23.6858E+06
           32664     55.0897E+06     36.3915E+06              0.     24.1773E+06
           32665     54.8064E+06     36.5241E+06              0.     24.6763E+06
           32666     54.5165E+06     36.6587E+06              0.     25.1828E+06
           32667     54.2199E+06     36.7952E+06              0.     25.6968E+06
           32668     53.9164E+06     36.9337E+06              0.     26.2183E+06
           32669     53.6060E+06     37.0740E+06              0.     26.7474E+06
           32670     53.2883E+06     37.2163E+06              0.     27.2840E+06
           32671     52.9634E+06     37.3604E+06              0.     27.8280E+06
           32672     52.6310E+06     37.5064E+06              0.     28.3794E+06
           32673     52.2909E+06     37.6542E+06              0.     28.9383E+06
           32674     51.9430E+06     37.8038E+06              0.     29.5044E+06
           32675     51.5871E+06     37.9552E+06              0.     30.0779E+06
           32676     51.2231E+06     38.1083E+06              0.     30.6585E+06
           32677     50.8506E+06     38.2631E+06              0.     31.2463E+06
           32678     50.4697E+06     38.4195E+06              0.     31.8411E+06
           32679     50.0800E+06     38.5775E+06              0.     32.4427E+06
           32680     49.6814E+06     38.7371E+06              0.     33.0512E+06
           32681     49.2737E+06     38.8980E+06              0.     33.6663E+06
           32682     48.8566E+06     39.0604E+06              0.     34.2879E+06
           32683     48.4300E+06     39.2240E+06              0.     34.9159E+06
           32684     47.9937E+06     39.3888E+06              0.     35.5500E+06
           32685     47.5473E+06     39.5547E+06              0.     36.1900E+06
           32686     47.0908E+06     39.7216E+06              0.     36.8359E+06
           32687     46.6239E+06     39.8894E+06              0.     37.4872E+06
           32688     46.1463E+06     40.0579E+06              0.     38.1438E+06
           32689     45.6579E+06      40.227E+06              0.     38.8054E+06
           32690     45.1583E+06     40.3965E+06              0.     39.4717E+06
           32691     44.6473E+06     40.5663E+06              0.     40.1424E+06
           32692     44.1248E+06     40.7362E+06              0.     40.8172E+06
           32693     43.5904E+06     40.9060E+06              0.     41.4957E+06
           32694     43.0438E+06     41.0755E+06              0.     42.1775E+06
           32695     42.4849E+06     41.2444E+06              0.     42.8623E+06
           32696     41.9133E+06     41.4125E+06              0.     43.5495E+06
           32697     41.3288E+06     41.5795E+06              0.     44.2389E+06
           32698     40.7311E+06     41.7452E+06              0.     44.9298E+06
           32699     40.1199E+06     41.9093E+06              0.     45.6217E+06
           32700     39.4950E+06     42.0714E+06              0.     46.3142E+06
           32701     38.8560E+06     42.2311E+06              0.     47.0066E+06
           32702     38.2027E+06     42.3881E+06              0.     47.6984E+06
           32703     37.5348E+06     42.5420E+06              0.     48.3889E+06
           32704     36.8521E+06     42.6923E+06              0.     49.0775E+06
           32705     36.1541E+06     42.8387E+06              0.     49.7634E+06
           32706     35.4407E+06     42.9805E+06              0.     50.4459E+06
           32707     34.7115E+06     43.1172E+06              0.     51.1244E+06
           32708     33.9663E+06     43.2484E+06              0.     51.7978E+06
           32709     33.2048E+06     43.3733E+06              0.     52.4655E+06
           32710     32.4266E+06     43.4914E+06              0.     53.1265E+06
           32711     31.6315E+06     43.6019E+06              0.     53.7799E+06
           32712     30.8193E+06     43.7042E+06              0.     54.4248E+06
           32713     29.9896E+06     43.7975E+06              0.     55.0601E+06
           32714     29.1422E+06     43.8809E+06              0.     55.6849E+06
           32715     28.2768E+06     43.9535E+06              0.     56.2979E+06
           32716     27.3932E+06     44.0145E+06              0.     56.8983E+06
           32717     26.4912E+06     44.0629E+06              0.     57.4847E+06
           32718     25.5704E+06     44.0977E+06              0.     58.0559E+06
           32719     24.6308E+06     44.1177E+06              0.     58.6108E+06
           32720     23.6720E+06     44.1217E+06              0.     59.1481E+06
           32721     22.6940E+06     44.1087E+06              0.     59.6664E+06
           32722     21.6965E+06     44.0772E+06              0.     60.1643E+06
           32723     20.6795E+06     44.0259E+06              0.     60.6405E+06
           32724     19.6427E+06     43.9535E+06              0.     61.0936E+06
           32725     18.5861E+06     43.8583E+06              0.     61.5220E+06
           32726     17.5097E+06     43.7389E+06              0.     61.9242E+06
           32727     16.4133E+06     43.5935E+06              0.     62.2988E+06
           32728     15.2970E+06     43.4205E+06              0.     62.6441E+06
           32729     14.1608E+06     43.2180E+06              0.     62.9585E+06
           32730     13.0048E+06     42.9841E+06              0.     63.2404E+06
           32731     11.8290E+06     42.7168E+06              0.     63.4882E+06
           32732     10.6336E+06     42.4141E+06              0.     63.7001E+06
           32733     9.41884E+06     42.0738E+06              0.     63.8745E+06
           32734     8.18488E+06     41.6936E+06              0.     64.0097E+06
           32735     6.93201E+06     41.2713E+06              0.     64.1039E+06
           32736     5.66057E+06     40.8045E+06              0.     64.1554E+06
           32737     4.37095E+06     40.2905E+06              0.     64.1625E+06
           32738     3.06358E+06     39.7269E+06              0.     64.1234E+06
           32739     1.73896E+06     39.1109E+06              0.     64.0365E+06
           32740     397.662E+03     38.4399E+06              0.     63.8999E+06
           32741    -959.707E+03     37.7109E+06              0.     63.7120E+06
           32742    -2.33246E+06     36.9211E+06              0.     63.4712E+06
           32743    -3.71984E+06     36.0676E+06              0.     63.1757E+06
           32744    -5.12105E+06     35.1472E+06              0.     62.8240E+06
           32745    -6.53518E+06     34.1568E+06              0.     62.4145E+06
           32746    -7.96129E+06     33.0933E+06              0.     61.9456E+06
           32747    -9.39836E+06     31.9535E+06              0.     61.4159E+06
           32748    -10.8453E+06     30.7342E+06              0.     60.8239E+06
           32749    -12.3009E+06     29.4319E+06              0.     60.1683E+06
           32750    -13.7641E+06     28.0435E+06              0.     59.4477E+06
           32751    -15.2334E+06     26.5655E+06              0.      58.661E+06
           32752    -16.7075E+06     24.9946E+06              0.     57.8069E+06
           32753    -18.1851E+06     23.3275E+06              0.     56.8845E+06
           32754    -19.6645E+06     21.5607E+06              0.     55.8927E+06
           32755    -21.1444E+06     19.6911E+06              0.     54.8306E+06
           32756    -22.6230E+06     17.7152E+06              0.     53.6974E+06
           32757    -24.0987E+06     15.6299E+06              0.     52.4924E+06
           32758    -25.5697E+06     13.4319E+06              0.     51.2151E+06
           32759    -27.0345E+06     11.1180E+06              0.     49.8648E+06
           32760    -28.4910E+06     8.68529E+06              0.     48.4411E+06
           32761    -29.9376E+06     6.13073E+06              0.     46.9438E+06
           32762    -31.3722E+06     3.45141E+06              0.     45.3726E+06
           32763    -32.7931E+06     644.611E+03              0.     43.7274E+06
           32764    -34.1982E+06    -2.29233E+06              0.     42.0081E+06
           32765    -35.5848E+06    -5.36161E+06              0.     40.2144E+06
           32766    -36.9466E+06    -8.56393E+06              0.     38.3468E+06
           32767    -38.5289E+06    -12.3422E+06              0.     37.5295E+06
           32768     66.1242E+06     29.0220E+06              0.     2.62131E+06
           32769     66.1311E+06     29.0966E+06              0.     2.61653E+06
           32770     66.1061E+06     29.1555E+06              0.     2.58142E+06
           32771     66.0814E+06     29.2128E+06              0.     2.55153E+06
           32772     66.0569E+06     29.2686E+06              0.     2.52670E+06
           32773     66.0326E+06     29.3229E+06              0.     2.50681E+06
           32774     66.0085E+06     29.3758E+06              0.     2.49173E+06
           32775     65.9845E+06     29.4274E+06              0.     2.48134E+06
           32776     65.9605E+06     29.4778E+06              0.     2.47552E+06
           32777     65.9366E+06     29.5270E+06              0.     2.47416E+06
           32778     65.9126E+06     29.5752E+06              0.     2.47717E+06
           32779     65.8885E+06     29.6222E+06              0.     2.48444E+06
           32780     65.8644E+06     29.6683E+06              0.     2.49588E+06
           32781     65.8400E+06     29.7135E+06              0.     2.51141E+06
           32782     65.8155E+06     29.7578E+06              0.     2.53094E+06
           32783     65.7908E+06     29.8013E+06              0.     2.55439E+06
           32784     65.7657E+06     29.8440E+06              0.     2.58171E+06
           32785     65.7404E+06     29.8861E+06              0.     2.61281E+06
           32786     65.7147E+06     29.9274E+06              0.     2.64764E+06
           32787     65.6886E+06     29.9682E+06              0.     2.68615E+06
           32788     65.6621E+06     30.0084E+06              0.     2.72826E+06
           32789     65.6352E+06     30.0482E+06              0.     2.77395E+06
           32790     65.6078E+06     30.0874E+06              0.     2.82316E+06
           32791     65.5798E+06     30.1263E+06              0.     2.87585E+06
           32792     65.5513E+06     30.1647E+06              0.     2.93198E+06
           32793     65.5222E+06     30.2029E+06              0.     2.99153E+06
           32794     65.4925E+06     30.2407E+06              0.     3.05446E+06
           32795     65.4621E+06     30.2784E+06              0.     3.12074E+06
           32796     65.4310E+06     30.3158E+06              0.     3.19036E+06
           32797     65.3993E+06     30.3530E+06              0.     3.26329E+06
           32798     65.3667E+06     30.3901E+06              0.     3.33952E+06
           32799     65.3334E+06     30.4272E+06              0.     3.41904E+06
           32800     65.2992E+06     30.4641E+06              0.     3.50184E+06
           32801     65.2642E+06     30.5011E+06              0.     3.58790E+06
           32802     65.2283E+06     30.5381E+06              0.     3.67723E+06
           32803     65.1915E+06     30.5751E+06              0.     3.76983E+06
           32804     65.1538E+06     30.6122E+06              0.     3.86570E+06
           32805     65.1150E+06     30.6494E+06              0.     3.96485E+06
           32806     65.0753E+06     30.6868E+06              0.     4.06727E+06
           32807     65.0344E+06     30.7243E+06              0.     4.17299E+06
           32808     64.9926E+06     30.7621E+06              0.     4.28202E+06
           32809     64.9496E+06     30.8001E+06              0.     4.39437E+06
           32810     64.9054E+06     30.8384E+06              0.     4.51007E+06
           32811     64.8601E+06     30.8770E+06              0.     4.62912E+06
           32812     64.8135E+06     30.9160E+06              0.     4.75156E+06
           32813     64.7657E+06     30.9553E+06              0.     4.87741E+06
           32814     64.7167E+06     30.9949E+06              0.     5.00671E+06
           32815     64.6663E+06     31.0351E+06              0.     5.13947E+06
           32816     64.6145E+06     31.0756E+06              0.     5.27573E+06
           32817     64.5614E+06     31.1167E+06              0.     5.41553E+06
           32818     64.5068E+06     31.1582E+06              0.      5.5589E+06
           32819     64.4508E+06     31.2003E+06              0.     5.70589E+06
           32820     64.3932E+06     31.2430E+06              0.     5.85652E+06
           32821     64.3342E+06     31.2862E+06              0.     6.01086E+06
           32822     64.2735E+06     31.3300E+06              0.     6.16893E+06
           32823     64.2112E+06     31.3745E+06              0.     6.33079E+06
           32824     64.1473E+06     31.4197E+06              0.     6.49648E+06
           32825     64.0817E+06     31.4655E+06              0.     6.66606E+06
           32826     64.0144E+06     31.5121E+06              0.     6.83958E+06
           32827     63.9452E+06     31.5594E+06              0.     7.01709E+06
           32828     63.8743E+06     31.6075E+06              0.     7.19865E+06
           32829     63.8015E+06     31.6564E+06              0.     7.38431E+06
           32830     63.7268E+06     31.7061E+06              0.     7.57413E+06
           32831     63.6501E+06     31.7566E+06              0.     7.76817E+06
           32832     63.5714E+06     31.8081E+06              0.     7.96650E+06
           32833     63.4908E+06     31.8604E+06              0.     8.16918E+06
           32834     63.4080E+06     31.9137E+06              0.     8.37627E+06
           32835     63.3230E+06     31.9679E+06              0.     8.58784E+06
           32836     63.2359E+06     32.0230E+06              0.     8.80396E+06
           32837     63.1466E+06     32.0792E+06              0.     9.02469E+06
           32838     63.0550E+06     32.1364E+06              0.     9.25011E+06
           32839     62.9610E+06     32.1946E+06              0.     9.48028E+06
           32840     62.8647E+06     32.2540E+06              0.     9.71529E+06
           32841     62.7659E+06     32.3144E+06              0.     9.95519E+06
           32842     62.6646E+06     32.3759E+06              0.     10.2001E+06
           32843     62.5608E+06     32.4386E+06              0.     10.4500E+06
           32844     62.4543E+06     32.5025E+06              0.     10.7051E+06
           32845     62.3452E+06     32.5676E+06              0.     10.9653E+06
           32846     62.2334E+06     32.6339E+06              0.     11.2309E+06
           32847     62.1188E+06     32.7014E+06              0.     11.5018E+06
           32848     62.0013E+06     32.7702E+06              0.     11.7782E+06
           32849     61.8809E+06     32.8403E+06              0.     12.0601E+06
           32850     61.7575E+06     32.9118E+06              0.     12.3476E+06
           32851     61.6311E+06     32.9845E+06              0.     12.6407E+06
           32852     61.5016E+06     33.0587E+06              0.     12.9397E+06
           32853     61.3689E+06     33.1343E+06              0.     13.2444E+06
           32854     61.2330E+06     33.2112E+06              0.     13.5551E+06
           32855     61.0937E+06     33.2896E+06              0.     13.8719E+06
           32856     60.9510E+06     33.3695E+06              0.     14.1947E+06
           32857     60.8049E+06     33.4509E+06              0.     14.5237E+06
           32858     60.6552E+06     33.5338E+06              0.     14.8589E+06
           32859     60.5019E+06     33.6182E+06              0.     15.2005E+06
           32860     60.3449E+06     33.7042E+06              0.     15.5485E+06
           32861     60.1840E+06     33.7918E+06              0.     15.9029E+06
           32862     60.0194E+06     33.8810E+06              0.     16.2640E+06
           32863     59.8507E+06     33.9718E+06              0.     16.6317E+06
           32864     59.6780E+06     34.0643E+06              0.     17.0061E+06
           32865     59.5012E+06     34.1584E+06              0.     17.3874E+06
           32866     59.3201E+06     34.2543E+06              0.     17.7755E+06
           32867     59.1347E+06     34.3519E+06              0.     18.1705E+06
           32868     58.9449E+06     34.4512E+06              0.     18.5726E+06
           32869     58.7506E+06     34.5522E+06              0.     18.9817E+06
           32870     58.5516E+06     34.6551E+06              0.     19.3981E+06
           32871     58.3479E+06     34.7597E+06              0.     19.8216E+06
           32872     58.1394E+06     34.8661E+06              0.     20.2524E+06
           32873     57.9259E+06     34.9744E+06              0.     20.6905E+06
           32874     57.7074E+06     35.0845E+06              0.     21.1360E+06
           32875     57.4837E+06     35.1965E+06              0.     21.5890E+06
           32876     57.2547E+06     35.3104E+06              0.     22.0495E+06
           32877     57.0203E+06     35.4261E+06              0.     22.5175E+06
           32878     56.7804E+06     35.5437E+06              0.     22.9930E+06
           32879     56.5349E+06     35.6633E+06              0.     23.4762E+06
           32880     56.2835E+06     35.7847E+06              0.     23.9670E+06
           32881     56.0262E+06     35.9081E+06              0.     24.4655E+06
           32882     55.7629E+06     36.0334E+06              0.     24.9716E+06
           32883     55.4934E+06     36.1606E+06              0.     25.4855E+06
           32884     55.2175E+06     36.2898E+06              0.     26.0070E+06
           32885     54.9352E+06     36.4209E+06              0.     26.5363E+06
           32886     54.6462E+06     36.5539E+06              0.     27.0732E+06
           32887     54.3504E+06     36.6888E+06              0.     27.6178E+06
           32888     54.0477E+06     36.8256E+06              0.     28.1701E+06
           32889     53.7379E+06     36.9643E+06              0.     28.7301E+06
           32890     53.4209E+06     37.1049E+06              0.     29.2976E+06
           32891     53.0963E+06     37.2474E+06              0.     29.8726E+06
           32892     52.7642E+06     37.3917E+06              0.     30.4552E+06
           32893     52.4243E+06     37.5377E+06              0.     31.0452E+06
           32894     52.0764E+06     37.6856E+06              0.     31.6424E+06
           32895     51.7203E+06     37.8352E+06              0.     32.2470E+06
           32896     51.3559E+06     37.9864E+06              0.     32.8587E+06
           32897     50.9830E+06     38.1393E+06              0.     33.4773E+06
           32898     50.6013E+06     38.2938E+06              0.     34.1029E+06
           32899     50.2106E+06     38.4498E+06              0.     34.7353E+06
           32900     49.8108E+06     38.6073E+06              0.     35.3742E+06
           32901     49.4015E+06     38.7661E+06              0.     36.0195E+06
           32902     48.9827E+06     38.9262E+06              0.     36.6710E+06
           32903     48.5540E+06     39.0875E+06              0.     37.3286E+06
           32904     48.1153E+06     39.2499E+06              0.     37.9919E+06
           32905     47.6663E+06     39.4133E+06              0.     38.6608E+06
           32906     47.2067E+06     39.5775E+06              0.     39.3349E+06
           32907     46.7363E+06     39.7424E+06              0.     40.0140E+06
           32908     46.2549E+06     39.9080E+06              0.     40.6978E+06
           32909     45.7622E+06     40.0739E+06              0.     41.3860E+06
           32910     45.2579E+06     40.2400E+06              0.     42.0781E+06
           32911     44.7418E+06     40.4062E+06              0.     42.7739E+06
           32912     44.2136E+06     40.5723E+06              0.     43.4729E+06
           32913     43.6729E+06     40.7380E+06              0.     44.1747E+06
           32914     43.1197E+06      40.903E+06              0.     44.8788E+06
           32915     42.5534E+06     41.0672E+06              0.     45.5848E+06
           32916     41.9739E+06     41.2302E+06              0.     46.2922E+06
           32917     41.3809E+06     41.3917E+06              0.     47.0003E+06
           32918     40.7740E+06     41.5514E+06              0.     47.7087E+06
           32919     40.1529E+06     41.7090E+06              0.     48.4168E+06
           32920     39.5174E+06     41.8641E+06              0.     49.1238E+06
           32921     38.8671E+06     42.0162E+06              0.     49.8292E+06
           32922     38.2018E+06     42.1650E+06              0.     50.5322E+06
           32923     37.5210E+06     42.3100E+06              0.     51.2320E+06
           32924     36.8245E+06     42.4507E+06              0.     51.9281E+06
           32925     36.1120E+06     42.5865E+06              0.     52.6194E+06
           32926     35.3832E+06     42.7169E+06              0.     53.3051E+06
           32927     34.6377E+06     42.8412E+06              0.     53.9844E+06
           32928     33.8752E+06     42.9589E+06              0.     54.6564E+06
           32929     33.0954E+06     43.0692E+06              0.     55.3199E+06
           32930     32.2980E+06     43.1714E+06              0.     55.9742E+06
           32931     31.4828E+06     43.2647E+06              0.     56.6180E+06
           32932     30.6493E+06     43.3483E+06              0.     57.2503E+06
           32933     29.7974E+06     43.4212E+06              0.     57.8700E+06
           32934     28.9267E+06     43.4826E+06              0.     58.4758E+06
           32935     28.0369E+06     43.5314E+06              0.     59.0666E+06
           32936     27.1279E+06     43.5666E+06              0.     59.6410E+06
           32937     26.1994E+06     43.5870E+06              0.     60.1979E+06
           32938     25.2511E+06     43.5915E+06              0.     60.7357E+06
           32939     24.2828E+06     43.5788E+06              0.     61.2531E+06
           32940     23.2943E+06     43.5476E+06              0.     61.7487E+06
           32941     22.2855E+06     43.4964E+06              0.     62.2211E+06
           32942     21.2563E+06     43.4238E+06              0.     62.6686E+06
           32943     20.2064E+06     43.3283E+06              0.     63.0897E+06
           32944     19.1358E+06     43.2081E+06              0.     63.4829E+06
           32945     18.0445E+06     43.0617E+06              0.     63.8464E+06
           32946     16.9324E+06     42.8871E+06              0.     64.1788E+06
           32947     15.7995E+06     42.6825E+06              0.     64.4782E+06
           32948     14.6459E+06     42.4460E+06              0.     64.7429E+06
           32949     13.4717E+06     42.1754E+06              0.     64.9713E+06
           32950     12.2769E+06     41.8686E+06              0.     65.1615E+06
           32951     11.0618E+06     41.5233E+06              0.     65.3118E+06
           32952     9.82668E+06     41.1373E+06              0.     65.4203E+06
           32953      8.5717E+06     40.7081E+06              0.     65.4854E+06
           32954     7.29724E+06     40.2331E+06              0.     65.5051E+06
           32955     6.00371E+06     39.7098E+06              0.     65.4777E+06
           32956     4.69156E+06     39.1355E+06              0.     65.4013E+06
           32957     3.36130E+06     38.5073E+06              0.     65.2743E+06
           32958     2.01351E+06     37.8225E+06              0.     65.0946E+06
           32959     648.861E+03     37.0780E+06              0.     64.8608E+06
           32960    -731.949E+03     36.2709E+06              0.     64.5710E+06
           32961    -2.12813E+06     35.3980E+06              0.     64.2235E+06
           32962    -3.53882E+06     34.4563E+06              0.     63.8166E+06
           32963    -4.96309E+06     33.4423E+06              0.     63.3488E+06
           32964    -6.39994E+06     32.3530E+06              0.     62.8185E+06
           32965    -7.84829E+06     31.1849E+06              0.     62.2241E+06
           32966    -9.30699E+06     29.9346E+06              0.     61.5644E+06
           32967    -10.7748E+06     28.5988E+06              0.     60.8378E+06
           32968    -12.2505E+06     27.1741E+06              0.     60.0431E+06
           32969    -13.7327E+06     25.6569E+06              0.     59.1791E+06
           32970    -15.2198E+06     24.0439E+06              0.     58.2447E+06
           32971    -16.7106E+06     22.3315E+06              0.     57.2388E+06
           32972    -18.2033E+06     20.5165E+06              0.     56.1605E+06
           32973    -19.6964E+06     18.5953E+06              0.     55.0089E+06
           32974    -21.1882E+06     16.5647E+06              0.     53.7834E+06
           32975    -22.6769E+06     14.4213E+06              0.     52.4832E+06
           32976    -24.1608E+06     12.1618E+06              0.     51.1078E+06
           32977    -25.6381E+06     9.78325E+06              0.     49.6569E+06
           32978    -27.1068E+06     7.28247E+06              0.     48.1300E+06
           32979    -28.5650E+06     4.65646E+06              0.     46.5271E+06
           32980    -30.0110E+06     1.90243E+06              0.     44.8478E+06
           32981    -31.4427E+06    -982.448E+03              0.     43.0923E+06
           32982    -32.8595E+06    -4.00125E+06              0.     41.2608E+06
           32983    -34.2637E+06    -7.15791E+06              0.     39.3531E+06
           32984    -35.8559E+06    -10.8937E+06              0.     38.5239E+06
           32985     66.2280E+06     29.0665E+06              0.     2.64573E+06
           32986     66.2342E+06     29.1346E+06              0.     2.64091E+06
           32987     66.2114E+06     29.1883E+06              0.     2.60548E+06
           32988     66.1889E+06     29.2405E+06              0.     2.57531E+06
           32989     66.1666E+06     29.2914E+06              0.     2.55026E+06
           32990     66.1445E+06     29.3409E+06              0.     2.53019E+06
           32991     66.1225E+06     29.3892E+06              0.     2.51498E+06
           32992     66.1007E+06     29.4363E+06              0.     2.50449E+06
           32993     66.0788E+06     29.4822E+06              0.     2.49863E+06
           32994     66.0570E+06     29.5271E+06              0.     2.49726E+06
           32995     66.0351E+06     29.5710E+06              0.     2.50031E+06
           32996     66.0132E+06     29.6139E+06              0.     2.50765E+06
           32997     65.9912E+06     29.6560E+06              0.     2.51920E+06
           32998     65.9690E+06     29.6972E+06              0.     2.53488E+06
           32999     65.9466E+06     29.7376E+06              0.     2.55461E+06
           33000     65.9241E+06     29.7772E+06              0.     2.57829E+06
           33001     65.9012E+06     29.8162E+06              0.     2.60587E+06
           33002     65.8781E+06     29.8546E+06              0.     2.63727E+06
           33003     65.8547E+06     29.8923E+06              0.     2.67244E+06
           33004     65.8310E+06     29.9295E+06              0.     2.71131E+06
           33005     65.8068E+06     29.9662E+06              0.     2.75384E+06
           33006     65.7822E+06     30.0025E+06              0.     2.79996E+06
           33007     65.7572E+06     30.0383E+06              0.     2.84964E+06
           33008     65.7317E+06     30.0737E+06              0.     2.90284E+06
           33009     65.7057E+06     30.1089E+06              0.     2.95951E+06
           33010     65.6792E+06     30.1437E+06              0.     3.01963E+06
           33011     65.6521E+06     30.1782E+06              0.     3.08316E+06
           33012     65.6244E+06     30.2126E+06              0.     3.15008E+06
           33013     65.5961E+06     30.2467E+06              0.     3.22037E+06
           33014     65.5671E+06     30.2807E+06              0.     3.29400E+06
           33015     65.5374E+06     30.3146E+06              0.     3.37097E+06
           33016     65.5070E+06     30.3484E+06              0.     3.45125E+06
           33017     65.4758E+06     30.3822E+06              0.     3.53484E+06
           33018     65.4439E+06     30.4159E+06              0.     3.62174E+06
           33019     65.4111E+06     30.4497E+06              0.     3.71193E+06
           33020     65.3776E+06     30.4835E+06              0.     3.80542E+06
           33021     65.3431E+06     30.5174E+06              0.     3.90222E+06
           33022     65.3078E+06     30.5514E+06              0.     4.00232E+06
           33023     65.2715E+06     30.5856E+06              0.     4.10574E+06
           33024     65.2343E+06     30.6199E+06              0.     4.21248E+06
           33025     65.1960E+06     30.6545E+06              0.     4.32257E+06
           33026     65.1568E+06     30.6892E+06              0.     4.43601E+06
           33027     65.1165E+06     30.7242E+06              0.     4.55282E+06
           33028     65.0752E+06     30.7595E+06              0.     4.67304E+06
           33029     65.0327E+06     30.7951E+06              0.     4.79667E+06
           33030     64.9891E+06     30.8311E+06              0.     4.92375E+06
           33031     64.9443E+06     30.8674E+06              0.     5.05431E+06
           33032     64.8983E+06     30.9041E+06              0.     5.18837E+06
           33033     64.8510E+06     30.9412E+06              0.     5.32597E+06
           33034     64.8025E+06     30.9788E+06              0.     5.46714E+06
           33035     64.7527E+06     31.0168E+06              0.     5.61192E+06
           33036     64.7016E+06     31.0554E+06              0.     5.76035E+06
           33037     64.6491E+06     31.0944E+06              0.     5.91248E+06
           33038     64.5951E+06     31.1340E+06              0.     6.06834E+06
           33039     64.5398E+06     31.1742E+06              0.     6.22798E+06
           33040     64.4829E+06     31.2150E+06              0.     6.39144E+06
           33041     64.4246E+06     31.2564E+06              0.     6.55879E+06
           33042     64.3646E+06     31.2984E+06              0.     6.73006E+06
           33043     64.3031E+06     31.3411E+06              0.     6.90531E+06
           33044     64.2400E+06     31.3845E+06              0.     7.08460E+06
           33045     64.1752E+06     31.4286E+06              0.     7.26798E+06
           33046     64.1087E+06     31.4734E+06              0.     7.45551E+06
           33047     64.0405E+06     31.5190E+06              0.     7.64724E+06
           33048     63.9705E+06     31.5654E+06              0.     7.84325E+06
           33049     63.8986E+06     31.6127E+06              0.     8.04359E+06
           33050     63.8249E+06     31.6607E+06              0.     8.24833E+06
           33051     63.7493E+06     31.7096E+06              0.     8.45754E+06
           33052     63.6717E+06     31.7594E+06              0.     8.67127E+06
           33053     63.5921E+06     31.8101E+06              0.     8.88961E+06
           33054     63.5104E+06     31.8618E+06              0.     9.11261E+06
           33055     63.4267E+06     31.9143E+06              0.     9.34036E+06
           33056     63.3408E+06     31.9679E+06              0.     9.57292E+06
           33057     63.2528E+06     32.0225E+06              0.     9.81036E+06
           33058     63.1624E+06     32.0781E+06              0.     10.0528E+06
           33059     63.0698E+06     32.1347E+06              0.     10.3002E+06
           33060     62.9749E+06     32.1925E+06              0.     10.5528E+06
           33061     62.8776E+06     32.2513E+06              0.     10.8105E+06
           33062     62.7778E+06     32.3113E+06              0.     11.0736E+06
           33063     62.6755E+06     32.3724E+06              0.     11.3419E+06
           33064     62.5706E+06     32.4346E+06              0.     11.6158E+06
           33065     62.4631E+06     32.4981E+06              0.     11.8951E+06
           33066     62.3530E+06     32.5628E+06              0.     12.1800E+06
           33067     62.2400E+06     32.6287E+06              0.     12.4706E+06
           33068     62.1244E+06     32.6959E+06              0.     12.7670E+06
           33069     62.0058E+06     32.7644E+06              0.     13.0692E+06
           33070     61.8843E+06     32.8342E+06              0.     13.3773E+06
           33071     61.7598E+06     32.9053E+06              0.     13.6914E+06
           33072     61.6322E+06     32.9779E+06              0.     14.0116E+06
           33073     61.5015E+06     33.0518E+06              0.     14.3381E+06
           33074     61.3677E+06     33.1271E+06              0.     14.6707E+06
           33075     61.2305E+06     33.2038E+06              0.     15.0097E+06
           33076     61.0900E+06     33.2820E+06              0.     15.3552E+06
           33077     60.9460E+06     33.3617E+06              0.     15.7071E+06
           33078     60.7986E+06     33.4430E+06              0.     16.0657E+06
           33079     60.6475E+06     33.5257E+06              0.     16.4309E+06
           33080     60.4928E+06     33.6100E+06              0.     16.8028E+06
           33081     60.3344E+06     33.6959E+06              0.     17.1816E+06
           33082     60.1721E+06     33.7833E+06              0.     17.5673E+06
           33083     60.0059E+06     33.8725E+06              0.     17.9600E+06
           33084     59.8357E+06     33.9632E+06              0.     18.3598E+06
           33085     59.6613E+06     34.0556E+06              0.     18.7667E+06
           33086     59.4828E+06     34.1497E+06              0.     19.1808E+06
           33087     59.3000E+06     34.2456E+06              0.     19.6022E+06
           33088     59.1127E+06     34.3431E+06              0.     20.0309E+06
           33089     58.9210E+06     34.4424E+06              0.     20.4670E+06
           33090     58.7247E+06     34.5435E+06              0.     20.9106E+06
           33091     58.5236E+06     34.6464E+06              0.     21.3617E+06
           33092     58.3178E+06     34.7511E+06              0.     21.8204E+06
           33093     58.1070E+06     34.8576E+06              0.     22.2867E+06
           33094     57.8911E+06     34.9660E+06              0.     22.7607E+06
           33095     57.6701E+06     35.0762E+06              0.     23.2425E+06
           33096     57.4438E+06     35.1883E+06              0.     23.7320E+06
           33097     57.2120E+06     35.3023E+06              0.     24.2292E+06
           33098     56.9748E+06     35.4181E+06              0.     24.7344E+06
           33099     56.7318E+06     35.5359E+06              0.     25.2473E+06
           33100     56.4830E+06     35.6556E+06              0.     25.7682E+06
           33101     56.2282E+06     35.7773E+06              0.     26.2969E+06
           33102     55.9674E+06     35.9008E+06              0.     26.8335E+06
           33103     55.7003E+06     36.0263E+06              0.     27.3779E+06
           33104     55.4268E+06     36.1537E+06              0.     27.9303E+06
           33105     55.1468E+06     36.2831E+06              0.     28.4905E+06
           33106     54.8600E+06     36.4143E+06              0.     29.0585E+06
           33107     54.5664E+06     36.5475E+06              0.     29.6344E+06
           33108     54.2657E+06     36.6826E+06              0.     30.2180E+06
           33109     53.9578E+06     36.8196E+06              0.     30.8092E+06
           33110     53.6425E+06     36.9584E+06              0.     31.4081E+06
           33111     53.3196E+06     37.0991E+06              0.     32.0146E+06
           33112     52.9890E+06     37.2416E+06              0.     32.6285E+06
           33113     52.6504E+06     37.3859E+06              0.     33.2498E+06
           33114     52.3036E+06     37.5320E+06              0.     33.8784E+06
           33115     51.9485E+06     37.6798E+06              0.     34.5141E+06
           33116     51.5848E+06     37.8292E+06              0.     35.1568E+06
           33117     51.2123E+06     37.9803E+06              0.     35.8063E+06
           33118     50.8308E+06     38.1329E+06              0.     36.4625E+06
           33119     50.4401E+06     38.2869E+06              0.     37.1252E+06
           33120     50.0399E+06     38.4424E+06              0.     37.7941E+06
           33121     49.6301E+06     38.5992E+06              0.     38.4691E+06
           33122     49.2103E+06     38.7572E+06              0.     39.1499E+06
           33123     48.7803E+06     38.9163E+06              0.     39.8363E+06
           33124     48.3398E+06     39.0764E+06              0.     40.5279E+06
           33125     47.8887E+06     39.2374E+06              0.     41.2245E+06
           33126     47.4266E+06     39.3991E+06              0.     41.9257E+06
           33127     46.9532E+06     39.5614E+06              0.     42.6313E+06
           33128     46.4683E+06     39.7241E+06              0.     43.3407E+06
           33129     45.9716E+06     39.8870E+06              0.     44.0537E+06
           33130     45.4628E+06       40.05E+06              0.     44.7697E+06
           33131     44.9417E+06     40.2128E+06              0.     45.4884E+06
           33132     44.4078E+06     40.3751E+06              0.     46.2093E+06
           33133     43.8609E+06     40.5368E+06              0.     46.9318E+06
           33134     43.3007E+06     40.6976E+06              0.     47.6555E+06
           33135     42.7268E+06     40.8571E+06              0.     48.3797E+06
           33136     42.1390E+06     41.0150E+06              0.     49.1038E+06
           33137     41.5369E+06     41.1710E+06              0.     49.8273E+06
           33138     40.9201E+06     41.3248E+06              0.     50.5493E+06
           33139     40.2884E+06     41.4758E+06              0.     51.2693E+06
           33140     39.6414E+06     41.6238E+06              0.     51.9865E+06
           33141     38.9787E+06     41.7681E+06              0.     52.7001E+06
           33142     38.3000E+06     41.9084E+06              0.     53.4092E+06
           33143     37.6051E+06     42.0441E+06              0.     54.1130E+06
           33144     36.8934E+06     42.1745E+06              0.     54.8107E+06
           33145     36.1647E+06     42.2992E+06              0.     55.5012E+06
           33146     35.4186E+06     42.4174E+06              0.     56.1837E+06
           33147     34.6548E+06     42.5284E+06              0.     56.8570E+06
           33148     33.8729E+06     42.6315E+06              0.     57.5200E+06
           33149     33.0727E+06     42.7259E+06              0.     58.1718E+06
           33150     32.2537E+06     42.8108E+06              0.      58.811E+06
           33151     31.4156E+06     42.8851E+06              0.     59.4366E+06
           33152     30.5582E+06     42.9480E+06              0.     60.0472E+06
           33153     29.6812E+06     42.9984E+06              0.     60.6415E+06
           33154     28.7842E+06     43.0353E+06              0.     61.2183E+06
           33155     27.8669E+06     43.0575E+06              0.     61.7761E+06
           33156     26.9292E+06     43.0637E+06              0.     62.3135E+06
           33157     25.9707E+06     43.0526E+06              0.     62.8291E+06
           33158     24.9913E+06     43.0229E+06              0.     63.3212E+06
           33159     23.9907E+06     42.9732E+06              0.     63.7884E+06
           33160     22.9688E+06     42.9019E+06              0.     64.2290E+06
           33161     21.9254E+06     42.8073E+06              0.     64.6415E+06
           33162     20.8604E+06     42.6878E+06              0.     65.0240E+06
           33163     19.7737E+06     42.5417E+06              0.     65.3750E+06
           33164     18.6653E+06     42.3669E+06              0.     65.6927E+06
           33165     17.5352E+06     42.1617E+06              0.     65.9752E+06
           33166     16.3833E+06     41.9238E+06              0.     66.2209E+06
           33167     15.2099E+06     41.6512E+06              0.     66.4278E+06
           33168     14.0150E+06     41.3416E+06              0.     66.5941E+06
           33169     12.7987E+06     40.9926E+06              0.     66.7180E+06
           33170     11.5613E+06     40.6019E+06              0.     66.7976E+06
           33171     10.3032E+06     40.1669E+06              0.     66.8309E+06
           33172     9.02460E+06     39.6849E+06              0.     66.8162E+06
           33173     7.72595E+06     39.1533E+06              0.     66.7515E+06
           33174     6.40774E+06     38.5692E+06              0.     66.6349E+06
           33175     5.07049E+06     37.9297E+06              0.     66.4647E+06
           33176     3.71483E+06     37.2318E+06              0.     66.2389E+06
           33177     2.34143E+06     36.4725E+06              0.     65.9557E+06
           33178     951.045E+03     35.6486E+06              0.     65.6135E+06
           33179    -455.493E+03     34.7569E+06              0.     65.2104E+06
           33180    -1.87727E+06     33.7940E+06              0.     64.7447E+06
           33181    -3.31332E+06     32.7566E+06              0.     64.2148E+06
           33182    -4.76257E+06     31.6414E+06              0.     63.6192E+06
           33183    -6.22390E+06     30.4448E+06              0.     62.9563E+06
           33184    -7.69608E+06     29.1634E+06              0.     62.2246E+06
           33185    -9.17782E+06     27.7936E+06              0.     61.4229E+06
           33186    -10.6678E+06     26.3319E+06              0.     60.5499E+06
           33187    -12.1645E+06     24.7748E+06              0.     59.6044E+06
           33188    -13.6664E+06     23.1186E+06              0.     58.5852E+06
           33189    -15.1721E+06     21.3600E+06              0.     57.4914E+06
           33190    -16.6798E+06     19.4954E+06              0.     56.3222E+06
           33191    -18.1878E+06     17.5212E+06              0.     55.0768E+06
           33192    -19.6944E+06     15.4343E+06              0.     53.7544E+06
           33193    -21.1978E+06     13.2311E+06              0.     52.3546E+06
           33194    -22.6961E+06     10.9084E+06              0.     50.8768E+06
           33195    -24.1873E+06     8.46312E+06              0.     49.3209E+06
           33196    -25.6696E+06     5.89214E+06              0.     47.6866E+06
           33197    -27.1410E+06     3.19257E+06              0.     45.9737E+06
           33198    -28.5994E+06     361.553E+03              0.     44.1823E+06
           33199    -30.0419E+06    -2.60311E+06              0.     42.3127E+06
           33200    -31.4627E+06    -5.70257E+06              0.     40.3647E+06
           33201    -33.0395E+06    -9.38026E+06              0.     39.5244E+06
           33202     66.3326E+06     29.1114E+06              0.     2.66792E+06
           33203     66.3383E+06     29.1729E+06              0.     2.66306E+06
           33204     66.3177E+06     29.2213E+06              0.     2.62734E+06
           33205     66.2974E+06     29.2685E+06              0.     2.59692E+06
           33206     66.2773E+06     29.3144E+06              0.     2.57167E+06
           33207     66.2574E+06     29.3591E+06              0.     2.55144E+06
           33208     66.2376E+06     29.4027E+06              0.     2.53610E+06
           33209     66.2178E+06     29.4452E+06              0.     2.52553E+06
           33210     66.1982E+06     29.4866E+06              0.     2.51963E+06
           33211     66.1785E+06     29.5272E+06              0.     2.51826E+06
           33212     66.1588E+06     29.5668E+06              0.     2.52133E+06
           33213     66.1390E+06     29.6055E+06              0.     2.52875E+06
           33214     66.1191E+06     29.6435E+06              0.     2.54041E+06
           33215     66.0991E+06     29.6807E+06              0.     2.55623E+06
           33216     66.0789E+06     29.7172E+06              0.     2.57612E+06
           33217     66.0586E+06     29.7530E+06              0.     2.60002E+06
           33218     66.0380E+06     29.7882E+06              0.     2.62784E+06
           33219     66.0171E+06     29.8228E+06              0.     2.65952E+06
           33220     65.9960E+06     29.8569E+06              0.     2.69499E+06
           33221     65.9746E+06     29.8905E+06              0.      2.7342E+06
           33222     65.9528E+06     29.9236E+06              0.     2.77709E+06
           33223     65.9306E+06     29.9564E+06              0.     2.82362E+06
           33224     65.9080E+06     29.9887E+06              0.     2.87373E+06
           33225     65.8850E+06     30.0207E+06              0.     2.92739E+06
           33226     65.8616E+06     30.0525E+06              0.     2.98455E+06
           33227     65.8376E+06     30.0839E+06              0.     3.04519E+06
           33228     65.8131E+06     30.1151E+06              0.     3.10927E+06
           33229     65.7881E+06     30.1462E+06              0.     3.17678E+06
           33230     65.7625E+06     30.1770E+06              0.     3.24767E+06
           33231     65.7364E+06     30.2078E+06              0.     3.32194E+06
           33232     65.7096E+06     30.2384E+06              0.     3.39958E+06
           33233     65.6821E+06     30.2690E+06              0.     3.48056E+06
           33234     65.6540E+06     30.2995E+06              0.     3.56488E+06
           33235     65.6252E+06     30.3300E+06              0.     3.65253E+06
           33236     65.5956E+06     30.3606E+06              0.     3.74351E+06
           33237     65.5653E+06     30.3912E+06              0.     3.83781E+06
           33238     65.5342E+06     30.4218E+06              0.     3.93545E+06
           33239     65.5023E+06     30.4526E+06              0.     4.03643E+06
           33240     65.4695E+06     30.4835E+06              0.     4.14075E+06
           33241     65.4359E+06     30.5146E+06              0.     4.24843E+06
           33242     65.4014E+06     30.5458E+06              0.     4.35948E+06
           33243     65.3659E+06     30.5773E+06              0.     4.47392E+06
           33244     65.3296E+06     30.6090E+06              0.     4.59176E+06
           33245     65.2922E+06     30.6410E+06              0.     4.71303E+06
           33246     65.2538E+06     30.6732E+06              0.     4.83776E+06
           33247     65.2144E+06     30.7058E+06              0.     4.96596E+06
           33248     65.1740E+06     30.7387E+06              0.     5.09767E+06
           33249     65.1324E+06     30.7719E+06              0.     5.23292E+06
           33250     65.0898E+06     30.8056E+06              0.     5.37174E+06
           33251     65.0459E+06     30.8397E+06              0.     5.51417E+06
           33252     65.0009E+06     30.8741E+06              0.     5.66024E+06
           33253     64.9547E+06     30.9091E+06              0.        5.81E+06
           33254     64.9073E+06     30.9445E+06              0.     5.96348E+06
           33255     64.8585E+06     30.9805E+06              0.     6.12074E+06
           33256     64.8085E+06     31.0169E+06              0.     6.28181E+06
           33257     64.7571E+06     31.0539E+06              0.     6.44675E+06
           33258     64.7044E+06     31.0915E+06              0.     6.61561E+06
           33259     64.6502E+06     31.1297E+06              0.     6.78843E+06
           33260     64.5946E+06     31.1684E+06              0.     6.96527E+06
           33261     64.5376E+06     31.2079E+06              0.     7.14619E+06
           33262     64.4790E+06     31.2480E+06              0.     7.33124E+06
           33263     64.4189E+06     31.2887E+06              0.     7.52048E+06
           33264     64.3572E+06     31.3302E+06              0.     7.71398E+06
           33265     64.2939E+06     31.3724E+06              0.     7.91179E+06
           33266     64.2289E+06     31.4154E+06              0.     8.11398E+06
           33267     64.1622E+06     31.4591E+06              0.     8.32061E+06
           33268     64.0938E+06     31.5036E+06              0.     8.53176E+06
           33269     64.0236E+06     31.5490E+06              0.     8.74749E+06
           33270     63.9516E+06     31.5951E+06              0.     8.96786E+06
           33271     63.8778E+06     31.6422E+06              0.     9.19295E+06
           33272     63.8020E+06     31.6901E+06              0.     9.42284E+06
           33273     63.7243E+06     31.7390E+06              0.     9.65760E+06
           33274     63.6446E+06     31.7887E+06              0.     9.89730E+06
           33275     63.5629E+06     31.8395E+06              0.     10.1420E+06
           33276     63.4790E+06     31.8912E+06              0.     10.3918E+06
           33277     63.3931E+06     31.9439E+06              0.     10.6468E+06
           33278     63.3049E+06     31.9976E+06              0.     10.9070E+06
           33279     63.2146E+06     32.0524E+06              0.     11.1726E+06
           33280     63.1219E+06     32.1082E+06              0.     11.4436E+06
           33281     63.0269E+06     32.1651E+06              0.     11.7201E+06
           33282     62.9296E+06     32.2232E+06              0.     12.0022E+06
           33283     62.8298E+06     32.2824E+06              0.     12.2899E+06
           33284     62.7274E+06     32.3427E+06              0.     12.5834E+06
           33285     62.6226E+06     32.4043E+06              0.     12.8827E+06
           33286     62.5151E+06     32.4670E+06              0.     13.1879E+06
           33287     62.4049E+06     32.5310E+06              0.     13.4991E+06
           33288     62.2920E+06     32.5963E+06              0.     13.8164E+06
           33289     62.1763E+06     32.6628E+06              0.     14.1399E+06
           33290     62.0578E+06     32.7306E+06              0.     14.4696E+06
           33291     61.9363E+06     32.7998E+06              0.     14.8057E+06
           33292     61.8118E+06     32.8703E+06              0.     15.1483E+06
           33293     61.6842E+06     32.9422E+06              0.     15.4973E+06
           33294     61.5535E+06     33.0156E+06              0.     15.8529E+06
           33295     61.4196E+06     33.0903E+06              0.     16.2153E+06
           33296     61.2824E+06     33.1665E+06              0.     16.5843E+06
           33297     61.1418E+06     33.2442E+06              0.     16.9603E+06
           33298     60.9978E+06     33.3233E+06              0.     17.3432E+06
           33299     60.8503E+06     33.4041E+06              0.     17.7330E+06
           33300     60.6991E+06     33.4863E+06              0.     18.1300E+06
           33301     60.5443E+06     33.5701E+06              0.     18.5342E+06
           33302     60.3856E+06     33.6556E+06              0.     18.9456E+06
           33303     60.2231E+06     33.7426E+06              0.     19.3643E+06
           33304     60.0567E+06     33.8313E+06              0.     19.7904E+06
           33305     59.8861E+06     33.9217E+06              0.      20.224E+06
           33306     59.7115E+06     34.0138E+06              0.     20.6651E+06
           33307     59.5325E+06     34.1075E+06              0.     21.1138E+06
           33308     59.3492E+06     34.2030E+06              0.     21.5702E+06
           33309     59.1614E+06     34.3003E+06              0.     22.0343E+06
           33310     58.9691E+06     34.3994E+06              0.     22.5061E+06
           33311     58.7720E+06     34.5002E+06              0.     22.9858E+06
           33312     58.5702E+06     34.6029E+06              0.     23.4734E+06
           33313     58.3634E+06     34.7074E+06              0.     23.9688E+06
           33314     58.1516E+06     34.8137E+06              0.     24.4723E+06
           33315     57.9347E+06     34.9220E+06              0.     24.9837E+06
           33316     57.7124E+06     35.0321E+06              0.     25.5031E+06
           33317     57.4847E+06     35.1441E+06              0.     26.0305E+06
           33318     57.2514E+06     35.2580E+06              0.     26.5660E+06
           33319     57.0124E+06     35.3739E+06              0.     27.1096E+06
           33320     56.7676E+06     35.4917E+06              0.     27.6613E+06
           33321     56.5168E+06     35.6114E+06              0.     28.2209E+06
           33322     56.2598E+06     35.7331E+06              0.     28.7887E+06
           33323     55.9965E+06     35.8567E+06              0.     29.3645E+06
           33324     55.7267E+06     35.9823E+06              0.     29.9482E+06
           33325     55.4503E+06     36.1099E+06              0.     30.5399E+06
           33326     55.1671E+06     36.2393E+06              0.     31.1396E+06
           33327     54.8769E+06     36.3708E+06              0.     31.7470E+06
           33328     54.5795E+06     36.5041E+06              0.     32.3623E+06
           33329     54.2747E+06     36.6394E+06              0.     32.9853E+06
           33330     53.9624E+06     36.7765E+06              0.     33.6158E+06
           33331     53.6424E+06     36.9155E+06              0.     34.2539E+06
           33332     53.3144E+06     37.0564E+06              0.     34.8993E+06
           33333     52.9783E+06     37.1990E+06              0.     35.5520E+06
           33334     52.6337E+06     37.3434E+06              0.     36.2117E+06
           33335     52.2806E+06     37.4895E+06              0.     36.8784E+06
           33336     51.9186E+06     37.6373E+06              0.     37.5519E+06
           33337     51.5476E+06     37.7867E+06              0.     38.2318E+06
           33338     51.1672E+06     37.9377E+06              0.     38.9181E+06
           33339     50.7773E+06     38.0900E+06              0.     39.6105E+06
           33340     50.3776E+06     38.2438E+06              0.     40.3088E+06
           33341     49.9678E+06     38.3988E+06              0.     41.0126E+06
           33342     49.5477E+06     38.5550E+06              0.     41.7216E+06
           33343     49.1170E+06     38.7123E+06              0.     42.4357E+06
           33344     48.6753E+06     38.8704E+06              0.     43.1543E+06
           33345     48.2225E+06     39.0294E+06              0.     43.8771E+06
           33346     47.7582E+06     39.1889E+06              0.     44.6037E+06
           33347     47.2821E+06     39.3489E+06              0.     45.3338E+06
           33348     46.7939E+06     39.5092E+06              0.     46.0668E+06
           33349     46.2932E+06     39.6695E+06              0.     46.8024E+06
           33350     45.7799E+06     39.8296E+06              0.     47.5399E+06
           33351     45.2534E+06     39.9893E+06              0.     48.2788E+06
           33352     44.7136E+06     40.1483E+06              0.     49.0186E+06
           33353     44.1600E+06     40.3063E+06              0.     49.7587E+06
           33354     43.5923E+06     40.4630E+06              0.     50.4984E+06
           33355     43.0101E+06     40.6181E+06              0.     51.2370E+06
           33356     42.4131E+06     40.7712E+06              0.     51.9739E+06
           33357     41.8010E+06     40.9219E+06              0.     52.7083E+06
           33358     41.1732E+06     41.0697E+06              0.     53.4393E+06
           33359     40.5296E+06     41.2142E+06              0.     54.1663E+06
           33360     39.8696E+06     41.3550E+06              0.     54.8882E+06
           33361     39.1930E+06     41.4913E+06              0.     55.6043E+06
           33362     38.4993E+06     41.6228E+06              0.     56.3135E+06
           33363     37.7881E+06     41.7488E+06              0.     57.0149E+06
           33364     37.0592E+06     41.8685E+06              0.     57.7073E+06
           33365     36.3120E+06     41.9813E+06              0.     58.3898E+06
           33366     35.5462E+06     42.0864E+06              0.     59.0611E+06
           33367     34.7615E+06     42.1830E+06              0.     59.7202E+06
           33368     33.9575E+06     42.2703E+06              0.     60.3657E+06
           33369     33.1338E+06     42.3473E+06              0.     60.9965E+06
           33370     32.2901E+06     42.4130E+06              0.     61.6111E+06
           33371     31.4260E+06     42.4663E+06              0.     62.2082E+06
           33372     30.5413E+06     42.5062E+06              0.     62.7865E+06
           33373     29.6355E+06     42.5314E+06              0.     63.3443E+06
           33374     28.7084E+06     42.5407E+06              0.     63.8803E+06
           33375     27.7598E+06     42.5327E+06              0.     64.3928E+06
           33376     26.7893E+06     42.5060E+06              0.     64.8803E+06
           33377     25.7967E+06     42.4592E+06              0.     65.3411E+06
           33378     24.7819E+06     42.3905E+06              0.     65.7735E+06
           33379     23.7447E+06     42.2984E+06              0.     66.1758E+06
           33380     22.6849E+06     42.1811E+06              0.     66.5462E+06
           33381     21.6023E+06     42.0367E+06              0.     66.8829E+06
           33382     20.4971E+06     41.8633E+06              0.     67.1841E+06
           33383     19.3690E+06     41.6588E+06              0.     67.4479E+06
           33384     18.2182E+06     41.4210E+06              0.     67.6724E+06
           33385     17.0447E+06     41.1478E+06              0.     67.8557E+06
           33386     15.8487E+06     40.8368E+06              0.     67.9959E+06
           33387     14.6302E+06     40.4854E+06              0.     68.0910E+06
           33388     13.3896E+06     40.0913E+06              0.     68.1390E+06
           33389     12.1271E+06     39.6517E+06              0.     68.1380E+06
           33390     10.8431E+06     39.1638E+06              0.     68.0860E+06
           33391     9.53797E+06     38.6249E+06              0.     67.9811E+06
           33392     8.21229E+06     38.0320E+06              0.     67.8213E+06
           33393     6.86658E+06     37.3820E+06              0.     67.6047E+06
           33394     5.50150E+06     36.6718E+06              0.     67.3294E+06
           33395     4.11776E+06     35.8983E+06              0.     66.9935E+06
           33396     2.71616E+06     35.0581E+06              0.     66.5952E+06
           33397     1.29757E+06     34.1478E+06              0.     66.1328E+06
           33398    -137.036E+03     33.1640E+06              0.     65.6044E+06
           33399    -1.58662E+06     32.1033E+06              0.     65.0086E+06
           33400    -3.05008E+06     30.9621E+06              0.     64.3436E+06
           33401    -4.52619E+06     29.7368E+06              0.     63.6079E+06
           33402    -6.01366E+06     28.4237E+06              0.     62.8002E+06
           33403    -7.51114E+06     27.0193E+06              0.     61.9191E+06
           33404    -9.01718E+06     25.5200E+06              0.     60.9633E+06
           33405    -10.5303E+06     23.9219E+06              0.     59.9318E+06
           33406    -12.0488E+06     22.2215E+06              0.     58.8234E+06
           33407    -13.5712E+06     20.4153E+06              0.     57.6373E+06
           33408    -15.0956E+06     18.4996E+06              0.     56.3726E+06
           33409    -16.6202E+06     16.4709E+06              0.     55.0287E+06
           33410    -18.1434E+06     14.3258E+06              0.      53.605E+06
           33411    -19.6630E+06     12.0608E+06              0.     52.1010E+06
           33412    -21.1772E+06     9.67289E+06              0.     50.5165E+06
           33413    -22.6841E+06     7.15869E+06              0.     48.8512E+06
           33414    -24.1814E+06     4.51526E+06              0.     47.1050E+06
           33415    -25.6673E+06     1.73966E+06              0.     45.2780E+06
           33416      -27.14E+06    -1.17109E+06              0.     43.3702E+06
           33417    -28.5999E+06    -4.22033E+06              0.     41.3821E+06
           33418    -30.1827E+06    -7.84999E+06              0.     40.5276E+06
           33419     66.4381E+06     29.1567E+06              0.     2.68785E+06
           33420     66.4432E+06     29.2114E+06              0.     2.68297E+06
           33421     66.4249E+06     29.2546E+06              0.     2.64698E+06
           33422     66.4068E+06     29.2966E+06              0.     2.61634E+06
           33423     66.3889E+06     29.3375E+06              0.     2.59091E+06
           33424     66.3712E+06     29.3774E+06              0.     2.57053E+06
           33425     66.3536E+06     29.4162E+06              0.     2.55508E+06
           33426     66.3360E+06     29.4541E+06              0.     2.54445E+06
           33427     66.3184E+06     29.4911E+06              0.     2.53850E+06
           33428     66.3009E+06     29.5272E+06              0.     2.53713E+06
           33429     66.2834E+06     29.5625E+06              0.     2.54024E+06
           33430     66.2658E+06     29.5970E+06              0.     2.54771E+06
           33431     66.2481E+06     29.6309E+06              0.     2.55947E+06
           33432     66.2302E+06     29.6640E+06              0.     2.57542E+06
           33433     66.2123E+06     29.6966E+06              0.     2.59547E+06
           33434     66.1942E+06     29.7285E+06              0.     2.61955E+06
           33435     66.1758E+06     29.7599E+06              0.     2.64759E+06
           33436     66.1572E+06     29.7907E+06              0.     2.67952E+06
           33437     66.1384E+06     29.8211E+06              0.     2.71527E+06
           33438     66.1193E+06     29.8511E+06              0.     2.75478E+06
           33439     66.0999E+06     29.8807E+06              0.     2.79801E+06
           33440     66.0802E+06     29.9099E+06              0.     2.84489E+06
           33441     66.0600E+06     29.9387E+06              0.     2.89539E+06
           33442     66.0395E+06     29.9673E+06              0.     2.94947E+06
           33443     66.0186E+06     29.9956E+06              0.     3.00708E+06
           33444     65.9973E+06     30.0237E+06              0.     3.06819E+06
           33445     65.9755E+06     30.0515E+06              0.     3.13277E+06
           33446     65.9532E+06     30.0792E+06              0.     3.20079E+06
           33447     65.9304E+06     30.1068E+06              0.     3.27224E+06
           33448     65.9071E+06     30.1342E+06              0.     3.34709E+06
           33449     65.8832E+06     30.1616E+06              0.     3.42533E+06
           33450     65.8587E+06     30.1889E+06              0.     3.50694E+06
           33451     65.8336E+06     30.2161E+06              0.     3.59191E+06
           33452     65.8079E+06     30.2434E+06              0.     3.68024E+06
           33453     65.7816E+06     30.2707E+06              0.     3.77193E+06
           33454     65.7545E+06     30.2980E+06              0.     3.86698E+06
           33455     65.7268E+06     30.3254E+06              0.     3.96538E+06
           33456     65.6984E+06     30.3529E+06              0.     4.06715E+06
           33457     65.6691E+06     30.3805E+06              0.     4.17229E+06
           33458     65.6392E+06     30.4083E+06              0.     4.28081E+06
           33459     65.6084E+06     30.4363E+06              0.     4.39273E+06
           33460     65.5768E+06     30.4644E+06              0.     4.50807E+06
           33461     65.5444E+06     30.4928E+06              0.     4.62685E+06
           33462     65.5110E+06     30.5214E+06              0.     4.74907E+06
           33463     65.4768E+06     30.5503E+06              0.     4.87479E+06
           33464     65.4417E+06     30.5794E+06              0.     5.00400E+06
           33465     65.4056E+06     30.6089E+06              0.     5.13676E+06
           33466     65.3685E+06     30.6387E+06              0.     5.27308E+06
           33467     65.3305E+06     30.6688E+06              0.     5.41301E+06
           33468     65.2914E+06     30.6993E+06              0.     5.55657E+06
           33469     65.2512E+06     30.7302E+06              0.     5.70382E+06
           33470     65.2100E+06     30.7616E+06              0.     5.85478E+06
           33471     65.1676E+06     30.7933E+06              0.     6.00950E+06
           33472     65.1242E+06     30.8256E+06              0.     6.16802E+06
           33473     65.0795E+06     30.8583E+06              0.     6.33039E+06
           33474     65.0337E+06     30.8915E+06              0.     6.49667E+06
           33475     64.9866E+06     30.9252E+06              0.     6.66689E+06
           33476     64.9382E+06     30.9595E+06              0.     6.84112E+06
           33477     64.8886E+06     30.9943E+06              0.     7.01941E+06
           33478     64.8377E+06     31.0298E+06              0.     7.20180E+06
           33479     64.7854E+06     31.0658E+06              0.     7.38837E+06
           33480     64.7317E+06     31.1024E+06              0.     7.57918E+06
           33481     64.6766E+06     31.1397E+06              0.     7.77427E+06
           33482     64.6201E+06     31.1777E+06              0.     7.97372E+06
           33483     64.5620E+06     31.2163E+06              0.     8.17759E+06
           33484     64.5025E+06     31.2557E+06              0.     8.38595E+06
           33485     64.4414E+06     31.2958E+06              0.     8.59887E+06
           33486     64.3787E+06     31.3366E+06              0.     8.81640E+06
           33487     64.3143E+06     31.3783E+06              0.     9.03864E+06
           33488     64.2483E+06     31.4207E+06              0.     9.26564E+06
           33489     64.1806E+06     31.4639E+06              0.     9.49748E+06
           33490     64.1112E+06     31.5080E+06              0.     9.73424E+06
           33491     64.0399E+06     31.5529E+06              0.     9.97599E+06
           33492     63.9668E+06     31.5987E+06              0.     10.2228E+06
           33493     63.8919E+06     31.6454E+06              0.     10.4748E+06
           33494      63.815E+06     31.6930E+06              0.     10.7320E+06
           33495     63.7362E+06     31.7416E+06              0.     10.9945E+06
           33496     63.6553E+06     31.7911E+06              0.     11.2624E+06
           33497     63.5724E+06     31.8416E+06              0.     11.5358E+06
           33498     63.4874E+06     31.8932E+06              0.     11.8147E+06
           33499     63.4003E+06     31.9457E+06              0.     12.0993E+06
           33500     63.3109E+06     31.9994E+06              0.     12.3896E+06
           33501     63.2193E+06     32.0541E+06              0.     12.6857E+06
           33502     63.1254E+06     32.1099E+06              0.     12.9877E+06
           33503     63.0291E+06     32.1668E+06              0.     13.2957E+06
           33504     62.9304E+06     32.2249E+06              0.     13.6098E+06
           33505     62.8292E+06     32.2842E+06              0.     13.9300E+06
           33506     62.7255E+06     32.3447E+06              0.     14.2565E+06
           33507     62.6192E+06     32.4064E+06              0.     14.5893E+06
           33508     62.5103E+06     32.4693E+06              0.     14.9286E+06
           33509     62.3986E+06     32.5336E+06              0.     15.2743E+06
           33510     62.2842E+06     32.5991E+06              0.     15.6267E+06
           33511     62.1668E+06     32.6659E+06              0.     15.9857E+06
           33512     62.0466E+06     32.7341E+06              0.     16.3515E+06
           33513     61.9234E+06     32.8037E+06              0.     16.7242E+06
           33514     61.7972E+06     32.8746E+06              0.     17.1038E+06
           33515     61.6678E+06     32.9470E+06              0.     17.4905E+06
           33516     61.5351E+06     33.0209E+06              0.     17.8843E+06
           33517     61.3992E+06     33.0962E+06              0.     18.2852E+06
           33518     61.2600E+06     33.1730E+06              0.     18.6935E+06
           33519     61.1172E+06     33.2513E+06              0.     19.1091E+06
           33520     60.9710E+06     33.3312E+06              0.     19.5321E+06
           33521     60.8211E+06     33.4127E+06              0.     19.9626E+06
           33522     60.6675E+06     33.4957E+06              0.     20.4007E+06
           33523     60.5101E+06     33.5804E+06              0.     20.8465E+06
           33524     60.3488E+06     33.6668E+06              0.     21.3000E+06
           33525     60.1834E+06     33.7548E+06              0.     21.7613E+06
           33526     60.0140E+06     33.8445E+06              0.     22.2304E+06
           33527     59.8404E+06     33.9360E+06              0.     22.7075E+06
           33528     59.6624E+06     34.0292E+06              0.     23.1925E+06
           33529     59.4801E+06     34.1241E+06              0.     23.6855E+06
           33530     59.2931E+06     34.2209E+06              0.     24.1866E+06
           33531     59.1016E+06     34.3195E+06              0.     24.6957E+06
           33532     58.9052E+06     34.4199E+06              0.     25.2131E+06
           33533     58.7040E+06     34.5222E+06              0.     25.7386E+06
           33534     58.4977E+06     34.6264E+06              0.     26.2723E+06
           33535     58.2862E+06     34.7325E+06              0.     26.8142E+06
           33536     58.0694E+06     34.8405E+06              0.     27.3644E+06
           33537     57.8472E+06     34.9504E+06              0.     27.9228E+06
           33538     57.6194E+06     35.0623E+06              0.     28.4894E+06
           33539     57.3859E+06     35.1761E+06              0.     29.0643E+06
           33540     57.1465E+06     35.2919E+06              0.     29.6474E+06
           33541     56.9010E+06     35.4097E+06              0.     30.2387E+06
           33542     56.6493E+06     35.5295E+06              0.     30.8382E+06
           33543     56.3912E+06     35.6513E+06              0.     31.4458E+06
           33544     56.1265E+06     35.7751E+06              0.     32.0614E+06
           33545     55.8551E+06     35.9009E+06              0.     32.6851E+06
           33546     55.5767E+06     36.0287E+06              0.     33.3167E+06
           33547     55.2913E+06     36.1584E+06              0.     33.9561E+06
           33548     54.9985E+06     36.2902E+06              0.     34.6032E+06
           33549     54.6982E+06     36.4239E+06              0.     35.2580E+06
           33550     54.3901E+06     36.5595E+06              0.     35.9203E+06
           33551     54.0741E+06     36.6971E+06              0.     36.5899E+06
           33552     53.7499E+06     36.8365E+06              0.     37.2667E+06
           33553     53.4172E+06     36.9778E+06              0.     37.9505E+06
           33554     53.0760E+06     37.1208E+06              0.     38.6412E+06
           33555     52.7258E+06     37.2656E+06              0.     39.3384E+06
           33556     52.3665E+06     37.4122E+06              0.     40.0421E+06
           33557     51.9978E+06     37.5603E+06              0.     40.7518E+06
           33558     51.6193E+06     37.7100E+06              0.     41.4674E+06
           33559     51.2310E+06     37.8611E+06              0.     42.1886E+06
           33560     50.8324E+06     38.0136E+06              0.     42.9151E+06
           33561     50.4232E+06     38.1674E+06              0.     43.6464E+06
           33562     50.0033E+06     38.3223E+06              0.     44.3823E+06
           33563     49.5722E+06     38.4782E+06              0.     45.1224E+06
           33564     49.1296E+06     38.6350E+06              0.     45.8662E+06
           33565     48.6753E+06     38.7924E+06              0.     46.6132E+06
           33566     48.2088E+06     38.9504E+06              0.     47.3632E+06
           33567     47.7299E+06     39.1087E+06              0.     48.1154E+06
           33568     47.2382E+06     39.2670E+06              0.     48.8694E+06
           33569     46.7334E+06     39.4253E+06              0.     49.6246E+06
           33570      46.215E+06     39.5831E+06              0.     50.3804E+06
           33571     45.6827E+06     39.7403E+06              0.     51.1362E+06
           33572     45.1362E+06     39.8965E+06              0.     51.8912E+06
           33573     44.5751E+06     40.0513E+06              0.     52.6449E+06
           33574     43.9989E+06     40.2044E+06              0.     53.3964E+06
           33575     43.4072E+06     40.3555E+06              0.     54.1449E+06
           33576     42.7997E+06     40.5041E+06              0.     54.8896E+06
           33577     42.1760E+06     40.6496E+06              0.     55.6296E+06
           33578     41.5356E+06     40.7917E+06              0.     56.3641E+06
           33579     40.8782E+06     40.9298E+06              0.     57.0920E+06
           33580     40.2033E+06     41.0633E+06              0.     57.8124E+06
           33581     39.5104E+06     41.1915E+06              0.     58.5241E+06
           33582     38.7993E+06     41.3139E+06              0.     59.2261E+06
           33583     38.0694E+06     41.4296E+06              0.     59.9173E+06
           33584     37.3203E+06     41.5380E+06              0.     60.5964E+06
           33585     36.5517E+06     41.6381E+06              0.     61.2622E+06
           33586     35.7632E+06     41.7290E+06              0.     61.9133E+06
           33587     34.9542E+06     41.8100E+06              0.     62.5486E+06
           33588     34.1245E+06     41.8798E+06              0.     63.1664E+06
           33589     33.2737E+06     41.9374E+06              0.     63.7655E+06
           33590     32.4013E+06     41.9817E+06              0.     64.3443E+06
           33591     31.5071E+06     42.0115E+06              0.     64.9012E+06
           33592     30.5908E+06     42.0253E+06              0.     65.4346E+06
           33593     29.6519E+06     42.0220E+06              0.     65.9430E+06
           33594     28.6902E+06     41.9998E+06              0.     66.4246E+06
           33595     27.7055E+06     41.9574E+06              0.     66.8777E+06
           33596     26.6975E+06     41.8930E+06              0.     67.3004E+06
           33597     25.6660E+06     41.8050E+06              0.     67.6910E+06
           33598     24.6108E+06     41.6914E+06              0.     68.0476E+06
           33599     23.5319E+06     41.5503E+06              0.     68.3683E+06
           33600     22.4291E+06     41.3797E+06              0.     68.6512E+06
           33601     21.3023E+06     41.1775E+06              0.     68.8943E+06
           33602     20.1517E+06     40.9414E+06              0.     69.0956E+06
           33603     18.9772E+06      40.669E+06              0.     69.2530E+06
           33604     17.7789E+06     40.3579E+06              0.     69.3647E+06
           33605     16.5571E+06     40.0056E+06              0.     69.4285E+06
           33606     15.3120E+06     39.6093E+06              0.     69.4423E+06
           33607     14.0438E+06     39.1663E+06              0.     69.4042E+06
           33608     12.7530E+06     38.6738E+06              0.     69.3120E+06
           33609     11.4400E+06     38.1286E+06              0.     69.1638E+06
           33610     10.1053E+06     37.5278E+06              0.     68.9576E+06
           33611     8.74950E+06     36.8682E+06              0.     68.6912E+06
           33612     7.37332E+06     36.1464E+06              0.     68.3629E+06
           33613     5.97750E+06     35.3592E+06              0.     67.9706E+06
           33614     4.56290E+06     34.5031E+06              0.     67.5126E+06
           33615     3.13043E+06     33.5746E+06              0.     66.9869E+06
           33616     1.68114E+06     32.5701E+06              0.     66.3919E+06
           33617     216.106E+03     31.4860E+06              0.     65.7259E+06
           33618    -1.26346E+06     30.3186E+06              0.     64.9873E+06
           33619    -2.75628E+06     29.0641E+06              0.     64.1746E+06
           33620    -4.26099E+06     27.7189E+06              0.     63.2864E+06
           33621    -5.77614E+06     26.2791E+06              0.     62.3214E+06
           33622    -7.30021E+06     24.7411E+06              0.     61.2784E+06
           33623    -8.83160E+06     23.1009E+06              0.     60.1562E+06
           33624    -10.3686E+06     21.3550E+06              0.     58.9540E+06
           33625    -11.9095E+06     19.4997E+06              0.     57.6709E+06
           33626    -13.4524E+06     17.5312E+06              0.     56.3062E+06
           33627    -14.9956E+06     15.4461E+06              0.     54.8592E+06
           33628    -16.5369E+06     13.2407E+06              0.     53.3296E+06
           33629    -18.0745E+06     10.9119E+06              0.     51.7169E+06
           33630    -19.6064E+06     8.45633E+06              0.     50.0211E+06
           33631    -21.1304E+06     5.87082E+06              0.      48.242E+06
           33632    -22.6444E+06     3.15240E+06              0.     46.3796E+06
           33633    -24.1460E+06     298.279E+03              0.     44.4343E+06
           33634    -25.6328E+06    -2.69393E+06              0.     42.4062E+06
           33635    -27.2080E+06    -6.26781E+06              0.     41.5424E+06
           33636     66.5444E+06     29.2022E+06              0.     2.70552E+06
           33637     66.5488E+06     29.2503E+06              0.     2.70061E+06
           33638     66.5328E+06     29.2881E+06              0.     2.66439E+06
           33639      66.517E+06     29.3250E+06              0.     2.63356E+06
           33640     66.5013E+06     29.3609E+06              0.     2.60796E+06
           33641     66.4858E+06     29.3958E+06              0.     2.58745E+06
           33642     66.4703E+06     29.4299E+06              0.     2.57191E+06
           33643     66.4550E+06     29.4631E+06              0.     2.56121E+06
           33644     66.4396E+06     29.4955E+06              0.     2.55523E+06
           33645     66.4243E+06     29.5272E+06              0.     2.55386E+06
           33646     66.4089E+06     29.5582E+06              0.     2.55700E+06
           33647     66.3934E+06     29.5885E+06              0.     2.56453E+06
           33648     66.3779E+06     29.6182E+06              0.     2.57637E+06
           33649     66.3623E+06     29.6473E+06              0.     2.59243E+06
           33650     66.3466E+06     29.6758E+06              0.     2.61263E+06
           33651     66.3307E+06     29.7038E+06              0.     2.63688E+06
           33652     66.3146E+06     29.7314E+06              0.     2.66511E+06
           33653     66.2984E+06     29.7585E+06              0.     2.69726E+06
           33654     66.2819E+06     29.7851E+06              0.     2.73326E+06
           33655     66.2651E+06     29.8114E+06              0.     2.77304E+06
           33656     66.2481E+06     29.8374E+06              0.     2.81657E+06
           33657     66.2308E+06     29.8630E+06              0.     2.86377E+06
           33658     66.2131E+06     29.8884E+06              0.     2.91462E+06
           33659     66.1952E+06     29.9135E+06              0.     2.96907E+06
           33660     66.1768E+06     29.9383E+06              0.     3.02707E+06
           33661     66.1581E+06     29.9630E+06              0.     3.08860E+06
           33662     66.1390E+06     29.9875E+06              0.     3.15362E+06
           33663     66.1194E+06     30.0118E+06              0.     3.22212E+06
           33664     66.0994E+06     30.0360E+06              0.     3.29405E+06
           33665     66.0790E+06     30.0601E+06              0.     3.36942E+06
           33666     66.0580E+06     30.0842E+06              0.     3.44819E+06
           33667     66.0366E+06     30.1082E+06              0.     3.53036E+06
           33668     66.0146E+06     30.1321E+06              0.     3.61592E+06
           33669     65.9920E+06     30.1561E+06              0.     3.70487E+06
           33670     65.9689E+06     30.1801E+06              0.     3.79719E+06
           33671     65.9452E+06     30.2042E+06              0.     3.89289E+06
           33672     65.9208E+06     30.2283E+06              0.     3.99197E+06
           33673     65.8959E+06     30.2525E+06              0.     4.09445E+06
           33674     65.8702E+06     30.2768E+06              0.     4.20031E+06
           33675     65.8439E+06     30.3013E+06              0.     4.30959E+06
           33676     65.8169E+06     30.3259E+06              0.     4.42230E+06
           33677     65.7892E+06     30.3507E+06              0.     4.53844E+06
           33678     65.7607E+06     30.3757E+06              0.     4.65804E+06
           33679     65.7315E+06     30.4009E+06              0.     4.78113E+06
           33680     65.7014E+06     30.4264E+06              0.     4.90772E+06
           33681     65.6706E+06     30.4521E+06              0.     5.03784E+06
           33682     65.6389E+06     30.4781E+06              0.     5.17153E+06
           33683     65.6064E+06     30.5044E+06              0.     5.30882E+06
           33684     65.5729E+06     30.5310E+06              0.     5.44974E+06
           33685     65.5386E+06     30.5580E+06              0.     5.59432E+06
           33686     65.5034E+06     30.5853E+06              0.     5.74261E+06
           33687     65.4671E+06     30.6129E+06              0.     5.89464E+06
           33688     65.4299E+06     30.6410E+06              0.     6.05047E+06
           33689     65.3918E+06     30.6695E+06              0.     6.21012E+06
           33690     65.3525E+06     30.6984E+06              0.     6.37366E+06
           33691     65.3123E+06     30.7278E+06              0.     6.54114E+06
           33692     65.2709E+06     30.7577E+06              0.     6.71259E+06
           33693     65.2284E+06     30.7880E+06              0.     6.88808E+06
           33694     65.1848E+06     30.8189E+06              0.     7.06766E+06
           33695     65.1401E+06     30.8503E+06              0.     7.25139E+06
           33696     65.0941E+06     30.8822E+06              0.     7.43933E+06
           33697     65.0469E+06     30.9147E+06              0.     7.63153E+06
           33698     64.9985E+06     30.9478E+06              0.     7.82806E+06
           33699     64.9488E+06     30.9815E+06              0.     8.02899E+06
           33700     64.8977E+06     31.0158E+06              0.     8.23437E+06
           33701     64.8454E+06     31.0507E+06              0.     8.44428E+06
           33702     64.7916E+06     31.0864E+06              0.     8.65879E+06
           33703     64.7365E+06     31.1227E+06              0.     8.87796E+06
           33704     64.6799E+06     31.1597E+06              0.     9.10187E+06
           33705     64.6218E+06     31.1974E+06              0.     9.33059E+06
           33706     64.5622E+06     31.2359E+06              0.     9.56420E+06
           33707     64.5011E+06     31.2751E+06              0.     9.80277E+06
           33708     64.4384E+06     31.3151E+06              0.     10.0464E+06
           33709     64.3740E+06     31.3559E+06              0.     10.2951E+06
           33710     64.3080E+06     31.3976E+06              0.     10.5490E+06
           33711     64.2403E+06     31.4401E+06              0.     10.8082E+06
           33712     64.1709E+06     31.4834E+06              0.     11.0728E+06
           33713     64.0996E+06     31.5277E+06              0.     11.3428E+06
           33714     64.0266E+06     31.5728E+06              0.     11.6184E+06
           33715     63.9517E+06     31.6189E+06              0.     11.8995E+06
           33716     63.8748E+06     31.6660E+06              0.     12.1864E+06
           33717     63.7960E+06     31.7140E+06              0.     12.4790E+06
           33718     63.7152E+06     31.7630E+06              0.     12.7775E+06
           33719     63.6324E+06     31.8130E+06              0.     13.0820E+06
           33720     63.5474E+06     31.8641E+06              0.     13.3925E+06
           33721     63.4603E+06     31.9162E+06              0.     13.7092E+06
           33722     63.3710E+06     31.9695E+06              0.     14.0321E+06
           33723     63.2794E+06     32.0238E+06              0.     14.3613E+06
           33724     63.1855E+06     32.0793E+06              0.     14.6970E+06
           33725     63.0892E+06     32.1360E+06              0.     15.0391E+06
           33726     62.9905E+06     32.1938E+06              0.     15.3878E+06
           33727     62.8893E+06     32.2529E+06              0.     15.7432E+06
           33728     62.7856E+06     32.3131E+06              0.     16.1054E+06
           33729     62.6792E+06     32.3747E+06              0.     16.4744E+06
           33730     62.5701E+06     32.4375E+06              0.     16.8504E+06
           33731     62.4583E+06     32.5017E+06              0.     17.2334E+06
           33732     62.3437E+06     32.5672E+06              0.     17.6235E+06
           33733     62.2262E+06     32.6341E+06              0.     18.0208E+06
           33734     62.1057E+06     32.7023E+06              0.     18.4255E+06
           33735     61.9822E+06     32.7720E+06              0.     18.8375E+06
           33736     61.8556E+06     32.8432E+06              0.     19.2570E+06
           33737     61.7258E+06     32.9158E+06              0.     19.6840E+06
           33738     61.5927E+06     32.9899E+06              0.     20.1186E+06
           33739     61.4562E+06     33.0655E+06              0.     20.5609E+06
           33740     61.3163E+06     33.1428E+06              0.     21.0110E+06
           33741     61.1728E+06     33.2215E+06              0.     21.4689E+06
           33742     61.0257E+06     33.3020E+06              0.     21.9348E+06
           33743     60.8749E+06     33.3840E+06              0.     22.4086E+06
           33744     60.7202E+06     33.4677E+06              0.     22.8905E+06
           33745     60.5616E+06     33.5532E+06              0.     23.3804E+06
           33746     60.3990E+06     33.6403E+06              0.     23.8785E+06
           33747     60.2322E+06     33.7292E+06              0.     24.3848E+06
           33748     60.0611E+06     33.8199E+06              0.     24.8994E+06
           33749     59.8857E+06     33.9124E+06              0.     25.4223E+06
           33750     59.7058E+06     34.0067E+06              0.     25.9535E+06
           33751     59.5212E+06     34.1029E+06              0.     26.4931E+06
           33752     59.3319E+06     34.2010E+06              0.     27.0410E+06
           33753     59.1377E+06     34.3009E+06              0.     27.5974E+06
           33754     58.9384E+06     34.4028E+06              0.     28.1622E+06
           33755     58.7340E+06     34.5067E+06              0.     28.7354E+06
           33756     58.5243E+06     34.6125E+06              0.     29.3170E+06
           33757     58.3091E+06     34.7203E+06              0.     29.9070E+06
           33758     58.0883E+06     34.8302E+06              0.     30.5055E+06
           33759     57.8618E+06     34.9420E+06              0.     31.1123E+06
           33760     57.6292E+06     35.0559E+06              0.     31.7274E+06
           33761     57.3905E+06     35.1719E+06              0.     32.3509E+06
           33762     57.1456E+06     35.2899E+06              0.     32.9825E+06
           33763     56.8941E+06     35.4100E+06              0.     33.6223E+06
           33764     56.6359E+06     35.5322E+06              0.     34.2702E+06
           33765     56.3709E+06     35.6564E+06              0.     34.9260E+06
           33766     56.0988E+06     35.7828E+06              0.     35.5897E+06
           33767     55.8194E+06     35.9111E+06              0.     36.2612E+06
           33768     55.5324E+06     36.0416E+06              0.     36.9403E+06
           33769     55.2377E+06     36.1741E+06              0.     37.6268E+06
           33770     54.9351E+06     36.3086E+06              0.     38.3206E+06
           33771     54.6242E+06     36.4451E+06              0.     39.0215E+06
           33772     54.3049E+06     36.5836E+06              0.     39.7293E+06
           33773     53.9768E+06     36.7239E+06              0.     40.4438E+06
           33774     53.6397E+06     36.8662E+06              0.     41.1647E+06
           33775     53.2934E+06     37.0103E+06              0.     41.8918E+06
           33776     52.9375E+06     37.1561E+06              0.     42.6248E+06
           33777     52.5718E+06     37.3036E+06              0.     43.3633E+06
           33778     52.1959E+06     37.4527E+06              0.     44.1070E+06
           33779     51.8096E+06     37.6033E+06              0.     44.8557E+06
           33780     51.4126E+06     37.7552E+06              0.     45.6088E+06
           33781     51.0044E+06     37.9085E+06              0.     46.3660E+06
           33782     50.5848E+06     38.0628E+06              0.     47.1268E+06
           33783     50.1534E+06     38.2182E+06              0.     47.8908E+06
           33784     49.7099E+06     38.3743E+06              0.     48.6575E+06
           33785     49.2540E+06     38.5311E+06              0.     49.4263E+06
           33786     48.7851E+06     38.6883E+06              0.     50.1967E+06
           33787     48.3030E+06     38.8457E+06              0.     50.9680E+06
           33788     47.8072E+06     39.0030E+06              0.     51.7397E+06
           33789     47.2975E+06     39.1599E+06              0.     52.5110E+06
           33790     46.7732E+06     39.3163E+06              0.     53.2813E+06
           33791     46.2341E+06     39.4716E+06              0.     54.0498E+06
           33792     45.6797E+06     39.6257E+06              0.     54.8156E+06
           33793     45.1096E+06     39.7780E+06              0.     55.5780E+06
           33794     44.5233E+06     39.9281E+06              0.     56.3361E+06
           33795     43.9205E+06     40.0757E+06              0.     57.0890E+06
           33796     43.3006E+06     40.2202E+06              0.     57.8356E+06
           33797     42.6632E+06     40.3610E+06              0.     58.5750E+06
           33798     42.0078E+06     40.4976E+06              0.     59.3062E+06
           33799     41.3340E+06     40.6293E+06              0.     60.0279E+06
           33800     40.6414E+06     40.7555E+06              0.     60.7390E+06
           33801     39.9294E+06     40.8754E+06              0.     61.4383E+06
           33802     39.1976E+06     40.9882E+06              0.     62.1246E+06
           33803     38.4456E+06     41.0931E+06              0.     62.7965E+06
           33804     37.6729E+06     41.1892E+06              0.     63.4527E+06
           33805     36.8791E+06     41.2755E+06              0.     64.0916E+06
           33806     36.0637E+06     41.3509E+06              0.     64.7120E+06
           33807     35.2263E+06     41.4143E+06              0.     65.3121E+06
           33808     34.3666E+06     41.4646E+06              0.     65.8905E+06
           33809     33.4840E+06     41.5004E+06              0.     66.4454E+06
           33810     32.5783E+06     41.5205E+06              0.     66.9753E+06
           33811     31.6491E+06     41.5233E+06              0.     67.4783E+06
           33812     30.6960E+06     41.5074E+06              0.     67.9527E+06
           33813     29.7188E+06     41.4711E+06              0.     68.3967E+06
           33814     28.7172E+06     41.4126E+06              0.     68.8083E+06
           33815     27.6909E+06     41.3303E+06              0.     69.1856E+06
           33816     26.6399E+06     41.2221E+06              0.     69.5267E+06
           33817     25.5638E+06     41.0860E+06              0.     69.8296E+06
           33818     24.4626E+06     40.9199E+06              0.     70.0922E+06
           33819     23.3363E+06     40.7216E+06              0.     70.3124E+06
           33820     22.1848E+06     40.4887E+06              0.     70.4883E+06
           33821     21.0082E+06     40.2187E+06              0.     70.6176E+06
           33822     19.8066E+06     39.9091E+06              0.     70.6982E+06
           33823     18.5801E+06     39.5572E+06              0.     70.7280E+06
           33824     17.3291E+06     39.1602E+06              0.     70.7049E+06
           33825     16.0538E+06     38.7151E+06              0.     70.6267E+06
           33826     14.7547E+06     38.2189E+06              0.     70.4913E+06
           33827     13.4321E+06     37.6686E+06              0.     70.2966E+06
           33828     12.0867E+06     37.0609E+06              0.     70.0405E+06
           33829     10.7191E+06     36.3924E+06              0.     69.7209E+06
           33830     9.32998E+06     35.6598E+06              0.     69.3359E+06
           33831     7.92021E+06     34.8594E+06              0.     68.8835E+06
           33832     6.49067E+06     33.9878E+06              0.     68.3617E+06
           33833     5.04236E+06     33.0413E+06              0.     67.7688E+06
           33834     3.57637E+06     32.0160E+06              0.     67.1030E+06
           33835     2.09388E+06     30.9083E+06              0.     66.3625E+06
           33836     596.162E+03     29.7143E+06              0.     65.5459E+06
           33837    -915.420E+03     28.4302E+06              0.     64.6517E+06
           33838    -2.43941E+06     27.0520E+06              0.     63.6784E+06
           33839    -3.97428E+06     25.5759E+06              0.     62.6249E+06
           33840    -5.51840E+06     23.9980E+06              0.     61.4899E+06
           33841    -7.07007E+06     22.3144E+06              0.     60.2724E+06
           33842    -8.62751E+06     20.5214E+06              0.     58.9716E+06
           33843    -10.1889E+06     18.6151E+06              0.     57.5868E+06
           33844    -11.7523E+06     16.5920E+06              0.     56.1172E+06
           33845    -13.3157E+06     14.4482E+06              0.     54.5625E+06
           33846    -14.8771E+06     12.1805E+06              0.     52.9223E+06
           33847    -16.4344E+06     9.78531E+06              0.     51.1964E+06
           33848    -17.9856E+06     7.25951E+06              0.     49.3848E+06
           33849    -19.5285E+06     4.59998E+06              0.     47.4875E+06
           33850    -21.0607E+06     1.80407E+06              0.     45.5045E+06
           33851    -22.5791E+06    -1.13088E+06              0.     43.4364E+06
           33852    -24.1524E+06    -4.65106E+06              0.     42.5594E+06
           33853     66.6513E+06     29.2480E+06              0.     2.72090E+06
           33854     66.6551E+06     29.2893E+06              0.     2.71597E+06
           33855     66.6414E+06     29.3218E+06              0.     2.67955E+06
           33856     66.6279E+06     29.3535E+06              0.     2.64855E+06
           33857     66.6144E+06     29.3843E+06              0.     2.62281E+06
           33858     66.6011E+06     29.4143E+06              0.     2.60219E+06
           33859     66.5879E+06     29.4436E+06              0.     2.58657E+06
           33860     66.5747E+06     29.4721E+06              0.     2.57582E+06
           33861     66.5615E+06     29.5000E+06              0.     2.56981E+06
           33862     66.5484E+06     29.5272E+06              0.     2.56844E+06
           33863     66.5352E+06     29.5538E+06              0.     2.57160E+06
           33864     66.5219E+06     29.5799E+06              0.     2.57918E+06
           33865     66.5086E+06     29.6054E+06              0.     2.59110E+06
           33866     66.4952E+06     29.6304E+06              0.     2.60726E+06
           33867     66.4817E+06     29.6549E+06              0.     2.62758E+06
           33868     66.4681E+06     29.6790E+06              0.     2.65198E+06
           33869     66.4543E+06     29.7027E+06              0.     2.68039E+06
           33870     66.4403E+06     29.7259E+06              0.     2.71273E+06
           33871     66.4262E+06     29.7489E+06              0.     2.74894E+06
           33872     66.4118E+06     29.7715E+06              0.     2.78897E+06
           33873     66.3972E+06     29.7938E+06              0.     2.83275E+06
           33874     66.3823E+06     29.8159E+06              0.     2.88024E+06
           33875     66.3672E+06     29.8377E+06              0.     2.93139E+06
           33876     66.3518E+06     29.8593E+06              0.     2.98616E+06
           33877     66.3360E+06     29.8807E+06              0.     3.04451E+06
           33878     66.3199E+06     29.9019E+06              0.     3.10641E+06
           33879     66.3035E+06     29.9230E+06              0.     3.17182E+06
           33880     66.2867E+06     29.9439E+06              0.     3.24072E+06
           33881     66.2696E+06     29.9648E+06              0.     3.31309E+06
           33882     66.2520E+06     29.9855E+06              0.     3.38891E+06
           33883     66.2340E+06     30.0063E+06              0.     3.46815E+06
           33884     66.2155E+06     30.0269E+06              0.     3.55082E+06
           33885     66.1967E+06     30.0476E+06              0.     3.63689E+06
           33886     66.1773E+06     30.0683E+06              0.     3.72637E+06
           33887     66.1574E+06     30.0890E+06              0.     3.81925E+06
           33888     66.1370E+06     30.1097E+06              0.     3.91552E+06
           33889     66.1161E+06     30.1305E+06              0.     4.01520E+06
           33890     66.0947E+06     30.1514E+06              0.     4.11830E+06
           33891     66.0726E+06     30.1724E+06              0.     4.22481E+06
           33892     66.0500E+06     30.1936E+06              0.     4.33475E+06
           33893     66.0268E+06     30.2148E+06              0.     4.44814E+06
           33894     66.0030E+06     30.2363E+06              0.     4.56499E+06
           33895     65.9785E+06     30.2579E+06              0.     4.68532E+06
           33896     65.9533E+06     30.2797E+06              0.     4.80916E+06
           33897     65.9275E+06     30.3017E+06              0.     4.93652E+06
           33898     65.9010E+06     30.3240E+06              0.     5.06745E+06
           33899     65.8737E+06     30.3465E+06              0.     5.20196E+06
           33900     65.8458E+06     30.3692E+06              0.     5.34009E+06
           33901     65.8170E+06     30.3923E+06              0.     5.48188E+06
           33902     65.7875E+06     30.4156E+06              0.     5.62736E+06
           33903     65.7571E+06     30.4393E+06              0.     5.77657E+06
           33904     65.7260E+06     30.4633E+06              0.     5.92956E+06
           33905      65.694E+06     30.4877E+06              0.     6.08636E+06
           33906     65.6611E+06     30.5124E+06              0.     6.24702E+06
           33907     65.6274E+06     30.5375E+06              0.     6.41159E+06
           33908     65.5927E+06     30.5631E+06              0.     6.58012E+06
           33909     65.5571E+06     30.5890E+06              0.     6.75266E+06
           33910     65.5206E+06     30.6154E+06              0.     6.92927E+06
           33911     65.4830E+06     30.6422E+06              0.     7.10999E+06
           33912     65.4445E+06     30.6696E+06              0.     7.29490E+06
           33913     65.4049E+06     30.6974E+06              0.     7.48404E+06
           33914     65.3643E+06     30.7257E+06              0.     7.67749E+06
           33915     65.3225E+06     30.7545E+06              0.     7.87529E+06
           33916     65.2797E+06     30.7839E+06              0.     8.07753E+06
           33917     65.2357E+06     30.8138E+06              0.     8.28425E+06
           33918     65.1906E+06     30.8443E+06              0.     8.49554E+06
           33919     65.1443E+06     30.8754E+06              0.     8.71147E+06
           33920     65.0967E+06     30.9072E+06              0.     8.93209E+06
           33921     65.0479E+06     30.9395E+06              0.     9.15749E+06
           33922     64.9979E+06     30.9725E+06              0.     9.38775E+06
           33923     64.9465E+06     31.0062E+06              0.     9.62292E+06
           33924     64.8937E+06     31.0406E+06              0.     9.86311E+06
           33925     64.8396E+06     31.0757E+06              0.     10.1084E+06
           33926     64.7841E+06     31.1115E+06              0.     10.3588E+06
           33927     64.7271E+06     31.1480E+06              0.     10.6145E+06
           33928     64.6687E+06     31.1853E+06              0.     10.8755E+06
           33929     64.6087E+06     31.2234E+06              0.     11.1419E+06
           33930     64.5472E+06     31.2623E+06              0.     11.4138E+06
           33931     64.4840E+06     31.3020E+06              0.     11.6913E+06
           33932     64.4193E+06     31.3426E+06              0.     11.9744E+06
           33933     64.3529E+06     31.3841E+06              0.     12.2633E+06
           33934     64.2847E+06     31.4264E+06              0.     12.5581E+06
           33935     64.2148E+06     31.4697E+06              0.     12.8587E+06
           33936     64.1431E+06     31.5139E+06              0.     13.1654E+06
           33937     64.0696E+06     31.5590E+06              0.     13.4782E+06
           33938     63.9942E+06     31.6051E+06              0.     13.7973E+06
           33939     63.9168E+06     31.6523E+06              0.     14.1226E+06
           33940     63.8375E+06     31.7004E+06              0.     14.4543E+06
           33941     63.7561E+06     31.7496E+06              0.     14.7924E+06
           33942     63.6726E+06     31.7999E+06              0.     15.1372E+06
           33943     63.5870E+06     31.8513E+06              0.     15.4886E+06
           33944     63.4992E+06     31.9038E+06              0.     15.8467E+06
           33945     63.4091E+06     31.9575E+06              0.     16.2117E+06
           33946     63.3167E+06     32.0123E+06              0.     16.5837E+06
           33947     63.2220E+06     32.0684E+06              0.     16.9626E+06
           33948     63.1248E+06     32.1256E+06              0.     17.3487E+06
           33949     63.0251E+06     32.1842E+06              0.     17.7420E+06
           33950     62.9229E+06     32.2440E+06              0.     18.1426E+06
           33951     62.8180E+06     32.3051E+06              0.     18.5506E+06
           33952     62.7104E+06     32.3676E+06              0.     18.9660E+06
           33953     62.6001E+06     32.4314E+06              0.     19.3891E+06
           33954     62.4869E+06     32.4967E+06              0.     19.8197E+06
           33955     62.3708E+06     32.5634E+06              0.     20.2581E+06
           33956     62.2516E+06     32.6315E+06              0.     20.7043E+06
           33957     62.1294E+06     32.7011E+06              0.     21.1583E+06
           33958     62.0040E+06     32.7722E+06              0.     21.6203E+06
           33959     61.8754E+06     32.8449E+06              0.     22.0904E+06
           33960     61.7434E+06     32.9192E+06              0.     22.5685E+06
           33961     61.6079E+06     32.9951E+06              0.     23.0549E+06
           33962     61.4689E+06     33.0726E+06              0.     23.5494E+06
           33963     61.3262E+06     33.1518E+06              0.     24.0523E+06
           33964     61.1798E+06     33.2327E+06              0.     24.5634E+06
           33965     61.0296E+06     33.3153E+06              0.     25.0830E+06
           33966     60.8753E+06     33.3997E+06              0.     25.6110E+06
           33967     60.7170E+06     33.4859E+06              0.     26.1475E+06
           33968     60.5545E+06     33.5740E+06              0.     26.6926E+06
           33969     60.3876E+06     33.6639E+06              0.     27.2462E+06
           33970     60.2163E+06     33.7557E+06              0.     27.8083E+06
           33971     60.0404E+06     33.8494E+06              0.     28.3791E+06
           33972     59.8598E+06     33.9450E+06              0.     28.9584E+06
           33973     59.6742E+06     34.0427E+06              0.     29.5464E+06
           33974     59.4837E+06     34.1423E+06              0.     30.1430E+06
           33975     59.2880E+06     34.2440E+06              0.     30.7481E+06
           33976     59.0869E+06     34.3477E+06              0.     31.3619E+06
           33977     58.8803E+06     34.4536E+06              0.     31.9842E+06
           33978     58.6681E+06     34.5615E+06              0.     32.6149E+06
           33979       58.45E+06     34.6716E+06              0.     33.2541E+06
           33980     58.2259E+06     34.7838E+06              0.     33.9017E+06
           33981     57.9955E+06     34.8981E+06              0.     34.5576E+06
           33982     57.7587E+06     35.0147E+06              0.     35.2217E+06
           33983     57.5153E+06     35.1334E+06              0.     35.8940E+06
           33984     57.2651E+06     35.2543E+06              0.     36.5742E+06
           33985     57.0078E+06     35.3774E+06              0.     37.2623E+06
           33986     56.7432E+06     35.5027E+06              0.     37.9581E+06
           33987     56.4711E+06     35.6302E+06              0.     38.6615E+06
           33988     56.1912E+06     35.7599E+06              0.     39.3723E+06
           33989     55.9033E+06     35.8918E+06              0.     40.0903E+06
           33990     55.6072E+06     36.0258E+06              0.     40.8152E+06
           33991     55.3024E+06     36.1619E+06              0.     41.5469E+06
           33992     54.9889E+06     36.3000E+06              0.     42.2850E+06
           33993     54.6662E+06     36.4403E+06              0.     43.0293E+06
           33994     54.3342E+06     36.5825E+06              0.     43.7796E+06
           33995     53.9924E+06     36.7266E+06              0.     44.5354E+06
           33996     53.6405E+06     36.8726E+06              0.     45.2964E+06
           33997     53.2783E+06     37.0203E+06              0.     46.0622E+06
           33998     52.9054E+06     37.1698E+06              0.     46.8325E+06
           33999     52.5215E+06     37.3207E+06              0.     47.6068E+06
           34000     52.1261E+06     37.4732E+06              0.     48.3846E+06
           34001     51.7189E+06     37.6269E+06              0.     49.1654E+06
           34002     51.2996E+06     37.7817E+06              0.     49.9488E+06
           34003     50.8677E+06     37.9376E+06              0.     50.7341E+06
           34004     50.4229E+06     38.0942E+06              0.     51.5207E+06
           34005     49.9647E+06     38.2513E+06              0.     52.3081E+06
           34006     49.4928E+06     38.4088E+06              0.     53.0954E+06
           34007     49.0066E+06     38.5663E+06              0.     53.8822E+06
           34008     48.5057E+06     38.7236E+06              0.     54.6675E+06
           34009     47.9898E+06     38.8803E+06              0.     55.4505E+06
           34010     47.4582E+06     39.0361E+06              0.     56.2306E+06
           34011     46.9107E+06     39.1906E+06              0.     57.0066E+06
           34012     46.3466E+06     39.3434E+06              0.     57.7779E+06
           34013     45.7655E+06     39.4940E+06              0.     58.5432E+06
           34014     45.1670E+06     39.6419E+06              0.     59.3017E+06
           34015     44.5505E+06     39.7866E+06              0.     60.0523E+06
           34016     43.9154E+06     39.9275E+06              0.     60.7938E+06
           34017     43.2615E+06     40.0639E+06              0.     61.5250E+06
           34018      42.588E+06     40.1952E+06              0.     62.2448E+06
           34019     41.8946E+06     40.3206E+06              0.     62.9518E+06
           34020     41.1806E+06     40.4393E+06              0.     63.6447E+06
           34021     40.4457E+06     40.5505E+06              0.     64.3221E+06
           34022     39.6893E+06     40.6531E+06              0.     64.9825E+06
           34023     38.9109E+06     40.7463E+06              0.     65.6245E+06
           34024     38.1101E+06     40.8289E+06              0.     66.2465E+06
           34025     37.2863E+06     40.8997E+06              0.     66.8468E+06
           34026     36.4392E+06     40.9576E+06              0.     67.4238E+06
           34027     35.5683E+06     41.0013E+06              0.     67.9758E+06
           34028     34.6731E+06     41.0292E+06              0.     68.5009E+06
           34029     33.7534E+06     41.0400E+06              0.     68.9974E+06
           34030     32.8086E+06     41.0320E+06              0.     69.4633E+06
           34031     31.8385E+06     41.0036E+06              0.     69.8967E+06
           34032     30.8428E+06     40.9529E+06              0.     70.2956E+06
           34033     29.8212E+06     40.8780E+06              0.     70.6580E+06
           34034     28.7735E+06     40.7770E+06              0.     70.9818E+06
           34035     27.6995E+06     40.6477E+06              0.     71.2649E+06
           34036     26.5991E+06     40.4878E+06              0.     71.5052E+06
           34037     25.4721E+06     40.2951E+06              0.     71.7004E+06
           34038     24.3187E+06     40.0671E+06              0.     71.8485E+06
           34039     23.1387E+06     39.8011E+06              0.     71.9472E+06
           34040     21.9324E+06     39.4946E+06              0.     71.9941E+06
           34041     20.6999E+06     39.1445E+06              0.     71.9872E+06
           34042     19.4415E+06     38.7481E+06              0.     71.9242E+06
           34043     18.1575E+06     38.3022E+06              0.     71.8029E+06
           34044     16.8483E+06     37.8037E+06              0.     71.6210E+06
           34045     15.5144E+06     37.2493E+06              0.     71.3764E+06
           34046     14.1565E+06     36.6355E+06              0.     71.0669E+06
           34047     12.7751E+06     35.9590E+06              0.     70.6904E+06
           34048     11.3711E+06     35.2160E+06              0.     70.2448E+06
           34049     9.94533E+06     34.4030E+06              0.     69.7282E+06
           34050     8.49879E+06     33.5162E+06              0.     69.1386E+06
           34051     7.03252E+06     32.5516E+06              0.     68.4742E+06
           34052     5.54770E+06     31.5055E+06              0.     67.7331E+06
           34053     4.04559E+06     30.3740E+06              0.     66.9138E+06
           34054     2.52756E+06     29.1529E+06              0.     66.0146E+06
           34055     995.053E+03     27.8383E+06              0.     65.0342E+06
           34056    -550.383E+03     26.4262E+06              0.     63.9711E+06
           34057    -2.10711E+06     24.9125E+06              0.     62.8242E+06
           34058    -3.67339E+06     23.2934E+06              0.     61.5924E+06
           34059    -5.24743E+06     21.5647E+06              0.     60.2748E+06
           34060    -6.82735E+06     19.7228E+06              0.     58.8706E+06
           34061    -8.41120E+06     17.7636E+06              0.     57.3791E+06
           34062    -9.99696E+06     15.6834E+06              0.     55.8000E+06
           34063    -11.5825E+06     13.4787E+06              0.     54.1327E+06
           34064    -13.1659E+06     11.1459E+06              0.     52.3773E+06
           34065    -14.7448E+06     8.68166E+06              0.     50.5336E+06
           34066    -16.3172E+06     6.08270E+06              0.     48.6018E+06
           34067    -17.8817E+06     3.34584E+06              0.     46.5822E+06
           34068    -19.4371E+06     468.354E+03              0.     44.4752E+06
           34069    -21.0113E+06    -2.99842E+06              0.     43.5888E+06
           34070     66.7588E+06     29.2940E+06              0.     2.73399E+06
           34071     66.7620E+06     29.3286E+06              0.     2.72904E+06
           34072     66.7506E+06     29.3557E+06              0.     2.69245E+06
           34073     66.7393E+06     29.3821E+06              0.     2.66130E+06
           34074     66.7281E+06     29.4079E+06              0.     2.63545E+06
           34075     66.7170E+06     29.4329E+06              0.     2.61474E+06
           34076     66.7060E+06     29.4574E+06              0.     2.59905E+06
           34077     66.6950E+06     29.4812E+06              0.     2.58825E+06
           34078     66.6841E+06     29.5045E+06              0.     2.58222E+06
           34079     66.6731E+06     29.5272E+06              0.     2.58085E+06
           34080     66.6621E+06     29.5494E+06              0.     2.58403E+06
           34081     66.6511E+06     29.5712E+06              0.     2.59166E+06
           34082     66.6400E+06     29.5925E+06              0.     2.60364E+06
           34083     66.6289E+06     29.6134E+06              0.     2.61989E+06
           34084     66.6176E+06     29.6339E+06              0.     2.64032E+06
           34085     66.6062E+06     29.6540E+06              0.     2.66485E+06
           34086     66.5947E+06     29.6738E+06              0.     2.69340E+06
           34087     66.5831E+06     29.6933E+06              0.     2.72590E+06
           34088     66.5713E+06     29.7124E+06              0.     2.76230E+06
           34089     66.5593E+06     29.7313E+06              0.     2.80254E+06
           34090     66.5471E+06     29.7500E+06              0.     2.84654E+06
           34091     66.5347E+06     29.7685E+06              0.     2.89428E+06
           34092     66.5221E+06     29.7867E+06              0.     2.94569E+06
           34093     66.5092E+06     29.8048E+06              0.     3.00074E+06
           34094     66.4961E+06     29.8227E+06              0.     3.05939E+06
           34095     66.4827E+06     29.8404E+06              0.     3.12160E+06
           34096     66.4690E+06     29.8581E+06              0.     3.18734E+06
           34097     66.4549E+06     29.8757E+06              0.     3.25660E+06
           34098     66.4406E+06     29.8931E+06              0.     3.32934E+06
           34099     66.4259E+06     29.9105E+06              0.     3.40554E+06
           34100     66.4109E+06     29.9279E+06              0.     3.48519E+06
           34101     66.3955E+06     29.9453E+06              0.     3.56828E+06
           34102     66.3797E+06     29.9626E+06              0.     3.65479E+06
           34103     66.3635E+06     29.9799E+06              0.     3.74473E+06
           34104     66.3470E+06     29.9973E+06              0.     3.83809E+06
           34105     66.3299E+06     30.0148E+06              0.     3.93486E+06
           34106     66.3125E+06     30.0322E+06              0.     4.03506E+06
           34107     66.2945E+06     30.0498E+06              0.     4.13868E+06
           34108     66.2761E+06     30.0675E+06              0.     4.24574E+06
           34109     66.2572E+06     30.0852E+06              0.     4.35625E+06
           34110     66.2378E+06     30.1031E+06              0.     4.47023E+06
           34111     66.2179E+06     30.1212E+06              0.     4.58769E+06
           34112     66.1974E+06     30.1394E+06              0.     4.70865E+06
           34113     66.1764E+06     30.1578E+06              0.     4.83314E+06
           34114     66.1548E+06     30.1763E+06              0.     4.96117E+06
           34115     66.1327E+06     30.1951E+06              0.     5.09279E+06
           34116     66.1099E+06     30.2141E+06              0.     5.22801E+06
           34117     66.0865E+06     30.2333E+06              0.     5.36688E+06
           34118     66.0624E+06     30.2528E+06              0.     5.50942E+06
           34119     66.0377E+06     30.2725E+06              0.     5.65567E+06
           34120     66.0124E+06     30.2925E+06              0.     5.80568E+06
           34121     65.9863E+06     30.3128E+06              0.     5.95949E+06
           34122     65.9595E+06     30.3335E+06              0.     6.11713E+06
           34123     65.9320E+06     30.3544E+06              0.     6.27866E+06
           34124     65.9038E+06     30.3757E+06              0.     6.44412E+06
           34125     65.8748E+06     30.3973E+06              0.     6.61357E+06
           34126     65.8450E+06     30.4194E+06              0.     6.78705E+06
           34127     65.8144E+06     30.4418E+06              0.     6.96463E+06
           34128     65.7829E+06     30.4646E+06              0.     7.14635E+06
           34129     65.7507E+06     30.4878E+06              0.     7.33228E+06
           34130     65.7175E+06     30.5114E+06              0.     7.52248E+06
           34131     65.6835E+06     30.5355E+06              0.     7.71700E+06
           34132     65.6485E+06     30.5601E+06              0.     7.91592E+06
           34133     65.6126E+06     30.5851E+06              0.     8.11929E+06
           34134     65.5757E+06     30.6106E+06              0.     8.32719E+06
           34135     65.5379E+06     30.6367E+06              0.     8.53969E+06
           34136     65.4991E+06     30.6632E+06              0.     8.75685E+06
           34137     65.4592E+06     30.6904E+06              0.     8.97874E+06
           34138     65.4182E+06     30.7180E+06              0.     9.20545E+06
           34139     65.3762E+06     30.7463E+06              0.     9.43704E+06
           34140     65.3331E+06     30.7751E+06              0.      9.6736E+06
           34141     65.2888E+06     30.8046E+06              0.     9.91520E+06
           34142     65.2433E+06     30.8347E+06              0.     10.1619E+06
           34143     65.1967E+06     30.8654E+06              0.     10.4138E+06
           34144     65.1488E+06     30.8968E+06              0.     10.6710E+06
           34145     65.0997E+06     30.9289E+06              0.     10.9336E+06
           34146     65.0493E+06     30.9617E+06              0.     11.2017E+06
           34147     64.9975E+06     30.9952E+06              0.     11.4752E+06
           34148     64.9444E+06     31.0295E+06              0.     11.7544E+06
           34149     64.8899E+06     31.0645E+06              0.     12.0393E+06
           34150     64.8340E+06     31.1003E+06              0.     12.3300E+06
           34151     64.7766E+06     31.1370E+06              0.     12.6266E+06
           34152     64.7177E+06     31.1744E+06              0.     12.9292E+06
           34153     64.6573E+06     31.2127E+06              0.     13.2379E+06
           34154     64.5952E+06     31.2518E+06              0.     13.5527E+06
           34155     64.5316E+06     31.2919E+06              0.     13.8738E+06
           34156     64.4663E+06     31.3329E+06              0.     14.2013E+06
           34157     64.3993E+06     31.3748E+06              0.     14.5352E+06
           34158     64.3305E+06     31.4176E+06              0.     14.8756E+06
           34159     64.2600E+06     31.4615E+06              0.     15.2227E+06
           34160     64.1876E+06     31.5064E+06              0.     15.5765E+06
           34161     64.1133E+06     31.5523E+06              0.     15.9371E+06
           34162     64.0370E+06     31.5992E+06              0.     16.3047E+06
           34163     63.9588E+06     31.6473E+06              0.     16.6792E+06
           34164     63.8785E+06     31.6964E+06              0.     17.0609E+06
           34165     63.7960E+06     31.7468E+06              0.     17.4497E+06
           34166     63.7115E+06     31.7982E+06              0.     17.8459E+06
           34167     63.6246E+06     31.8509E+06              0.     18.2494E+06
           34168     63.5355E+06     31.9048E+06              0.     18.6604E+06
           34169     63.4440E+06     31.9600E+06              0.     19.0790E+06
           34170     63.3501E+06     32.0165E+06              0.     19.5052E+06
           34171     63.2537E+06     32.0742E+06              0.     19.9392E+06
           34172     63.1548E+06     32.1334E+06              0.     20.3810E+06
           34173     63.0532E+06     32.1939E+06              0.     20.8306E+06
           34174     62.9488E+06     32.2558E+06              0.     21.2883E+06
           34175     62.8417E+06     32.3192E+06              0.     21.7541E+06
           34176     62.7317E+06     32.3840E+06              0.     22.2280E+06
           34177     62.6188E+06     32.4504E+06              0.     22.7101E+06
           34178     62.5027E+06     32.5183E+06              0.     23.2005E+06
           34179     62.3836E+06     32.5878E+06              0.     23.6992E+06
           34180     62.2611E+06     32.6589E+06              0.     24.2064E+06
           34181     62.1354E+06     32.7317E+06              0.     24.7221E+06
           34182     62.0062E+06     32.8061E+06              0.     25.2463E+06
           34183     61.8734E+06     32.8823E+06              0.     25.7790E+06
           34184     61.7370E+06     32.9603E+06              0.     26.3205E+06
           34185     61.5968E+06     33.0400E+06              0.     26.8706E+06
           34186     61.4527E+06     33.1216E+06              0.     27.4294E+06
           34187     61.3046E+06     33.2051E+06              0.     27.9969E+06
           34188     61.1523E+06     33.2904E+06              0.     28.5732E+06
           34189     60.9957E+06     33.3777E+06              0.     29.1583E+06
           34190     60.8348E+06     33.4670E+06              0.     29.7522E+06
           34191     60.6692E+06     33.5583E+06              0.     30.3549E+06
           34192     60.4989E+06     33.6517E+06              0.     30.9663E+06
           34193     60.3238E+06     33.7471E+06              0.     31.5866E+06
           34194     60.1436E+06     33.8447E+06              0.     32.2155E+06
           34195     59.9582E+06     33.9444E+06              0.     32.8532E+06
           34196     59.7674E+06     34.0463E+06              0.     33.4995E+06
           34197     59.5711E+06     34.1504E+06              0.     34.1545E+06
           34198     59.3690E+06     34.2567E+06              0.     34.8180E+06
           34199     59.1610E+06     34.3653E+06              0.     35.4899E+06
           34200     58.9468E+06     34.4762E+06              0.     36.1702E+06
           34201     58.7263E+06     34.5894E+06              0.     36.8588E+06
           34202     58.4991E+06     34.7050E+06              0.     37.5555E+06
           34203     58.2652E+06     34.8229E+06              0.     38.2602E+06
           34204     58.0242E+06     34.9431E+06              0.     38.9728E+06
           34205     57.7760E+06     35.0657E+06              0.     39.6930E+06
           34206     57.5201E+06     35.1907E+06              0.     40.4206E+06
           34207     57.2565E+06     35.3180E+06              0.     41.1556E+06
           34208     56.9848E+06     35.4477E+06              0.     41.8976E+06
           34209     56.7048E+06     35.5797E+06              0.     42.6464E+06
           34210     56.4160E+06     35.7141E+06              0.     43.4017E+06
           34211     56.1183E+06     35.8507E+06              0.     44.1633E+06
           34212     55.8114E+06     35.9896E+06              0.     44.9307E+06
           34213     55.4948E+06     36.1307E+06              0.     45.7037E+06
           34214     55.1683E+06     36.2739E+06              0.     46.4819E+06
           34215     54.8315E+06     36.4192E+06              0.     47.2649E+06
           34216     54.4841E+06     36.5665E+06              0.     48.0523E+06
           34217     54.1256E+06     36.7157E+06              0.     48.8436E+06
           34218     53.7557E+06     36.8666E+06              0.     49.6382E+06
           34219     53.3740E+06     37.0193E+06              0.     50.4358E+06
           34220     52.9802E+06     37.1734E+06              0.     51.2358E+06
           34221     52.5737E+06     37.3289E+06              0.     52.0374E+06
           34222     52.1541E+06     37.4856E+06              0.     52.8402E+06
           34223     51.7210E+06     37.6432E+06              0.     53.6435E+06
           34224     51.2740E+06     37.8016E+06              0.     54.4464E+06
           34225     50.8126E+06     37.9605E+06              0.     55.2484E+06
           34226     50.3363E+06     38.1196E+06              0.     56.0485E+06
           34227     49.8445E+06     38.2786E+06              0.     56.8461E+06
           34228     49.3369E+06     38.4371E+06              0.     57.6400E+06
           34229     48.8130E+06     38.5948E+06              0.     58.4296E+06
           34230     48.2721E+06     38.7513E+06              0.     59.2136E+06
           34231     47.7137E+06     38.9060E+06              0.     59.9913E+06
           34232     47.1374E+06     39.0586E+06              0.     60.7613E+06
           34233     46.5426E+06     39.2084E+06              0.     61.5227E+06
           34234     45.9288E+06     39.3548E+06              0.     62.2742E+06
           34235     45.2953E+06     39.4973E+06              0.     63.0145E+06
           34236     44.6417E+06     39.6351E+06              0.     63.7425E+06
           34237     43.9674E+06     39.7675E+06              0.     64.4566E+06
           34238     43.2718E+06     39.8936E+06              0.     65.1555E+06
           34239     42.5544E+06     40.0125E+06              0.     65.8378E+06
           34240     41.8147E+06     40.1234E+06              0.     66.5019E+06
           34241     41.0520E+06     40.2251E+06              0.     67.1461E+06
           34242     40.2660E+06     40.3165E+06              0.     67.7689E+06
           34243     39.4560E+06     40.3966E+06              0.     68.3685E+06
           34244     38.6215E+06     40.4639E+06              0.     68.9431E+06
           34245     37.7622E+06     40.5171E+06              0.     69.4910E+06
           34246     36.8774E+06     40.5548E+06              0.     70.0102E+06
           34247     35.9668E+06     40.5754E+06              0.     70.4988E+06
           34248     35.0300E+06     40.5772E+06              0.     70.9548E+06
           34249     34.0666E+06     40.5586E+06              0.     71.3762E+06
           34250     33.0762E+06     40.5175E+06              0.     71.7608E+06
           34251     32.0585E+06      40.452E+06              0.     72.1065E+06
           34252     31.0134E+06     40.3600E+06              0.     72.4112E+06
           34253     29.9405E+06     40.2393E+06              0.     72.6725E+06
           34254     28.8398E+06     40.0876E+06              0.     72.8883E+06
           34255     27.7111E+06     39.9023E+06              0.     73.0563E+06
           34256     26.5544E+06     39.6809E+06              0.     73.1741E+06
           34257     25.3697E+06     39.4206E+06              0.     73.2395E+06
           34258     24.1573E+06     39.1186E+06              0.     73.2501E+06
           34259     22.9171E+06      38.772E+06              0.     73.2036E+06
           34260     21.6496E+06     38.3776E+06              0.     73.0976E+06
           34261     20.3551E+06     37.9322E+06              0.     72.9299E+06
           34262     19.0340E+06     37.4325E+06              0.     72.6981E+06
           34263     17.6869E+06     36.8750E+06              0.     72.4000E+06
           34264     16.3143E+06     36.2561E+06              0.     72.0333E+06
           34265     14.9171E+06     35.5722E+06              0.     71.5960E+06
           34266     13.4961E+06     34.8195E+06              0.     71.0859E+06
           34267     12.0522E+06     33.9942E+06              0.     70.5009E+06
           34268     10.5864E+06     33.0922E+06              0.     69.8391E+06
           34269     9.09992E+06     32.1097E+06              0.     69.0987E+06
           34270     7.59400E+06     31.0425E+06              0.     68.2778E+06
           34271     6.06999E+06     29.8865E+06              0.     67.3749E+06
           34272     4.52935E+06     28.6375E+06              0.     66.3884E+06
           34273     2.97364E+06     27.2915E+06              0.     65.3168E+06
           34274     1.40450E+06     25.8443E+06              0.     64.1591E+06
           34275    -176.308E+03     24.2917E+06              0.     62.9139E+06
           34276    -1.76696E+06     22.6296E+06              0.     61.5803E+06
           34277    -3.36553E+06     20.8540E+06              0.     60.1575E+06
           34278    -4.97005E+06     18.9609E+06              0.     58.6449E+06
           34279    -6.57844E+06     16.9464E+06              0.     57.0419E+06
           34280    -8.18857E+06     14.8068E+06              0.     55.3483E+06
           34281    -9.79827E+06     12.5384E+06              0.     53.5637E+06
           34282    -11.4053E+06     10.1376E+06              0.     51.6883E+06
           34283    -13.0073E+06     7.60121E+06              0.     49.7223E+06
           34284    -14.6019E+06     4.92600E+06              0.     47.6661E+06
           34285    -16.1861E+06     2.10953E+06              0.     45.5201E+06
           34286    -17.7513E+06    -1.29518E+06              0.     44.6256E+06
           34287     66.8667E+06     29.3402E+06              0.     2.74477E+06
           34288     66.8694E+06     29.3680E+06              0.     2.73980E+06
           34289     66.8603E+06     29.3897E+06              0.     2.70308E+06
           34290     66.8513E+06     29.4109E+06              0.     2.67181E+06
           34291     66.8423E+06     29.4315E+06              0.     2.64586E+06
           34292     66.8335E+06     29.4516E+06              0.     2.62507E+06
           34293     66.8247E+06     29.4712E+06              0.     2.60933E+06
           34294     66.8159E+06     29.4903E+06              0.     2.59849E+06
           34295     66.8072E+06     29.5089E+06              0.     2.59245E+06
           34296     66.7984E+06     29.5272E+06              0.     2.59108E+06
           34297     66.7897E+06     29.5450E+06              0.     2.59428E+06
           34298     66.7808E+06     29.5624E+06              0.     2.60195E+06
           34299      66.772E+06     29.5795E+06              0.     2.61399E+06
           34300     66.7631E+06     29.5963E+06              0.     2.63031E+06
           34301     66.7541E+06     29.6127E+06              0.     2.65083E+06
           34302     66.7450E+06     29.6289E+06              0.     2.67546E+06
           34303     66.7358E+06     29.6448E+06              0.     2.70414E+06
           34304     66.7265E+06     29.6604E+06              0.     2.73678E+06
           34305     66.7171E+06     29.6758E+06              0.     2.77334E+06
           34306     66.7075E+06     29.6910E+06              0.     2.81374E+06
           34307     66.6977E+06     29.7060E+06              0.     2.85793E+06
           34308     66.6878E+06     29.7208E+06              0.     2.90587E+06
           34309     66.6777E+06     29.7355E+06              0.      2.9575E+06
           34310     66.6674E+06     29.7500E+06              0.     3.01278E+06
           34311     66.6569E+06     29.7644E+06              0.     3.07168E+06
           34312     66.6461E+06     29.7787E+06              0.     3.13415E+06
           34313     66.6351E+06     29.7929E+06              0.     3.20018E+06
           34314     66.6239E+06     29.8071E+06              0.     3.26973E+06
           34315     66.6124E+06     29.8212E+06              0.     3.34277E+06
           34316     66.6007E+06     29.8352E+06              0.     3.41930E+06
           34317     66.5886E+06     29.8492E+06              0.     3.49929E+06
           34318     66.5763E+06     29.8632E+06              0.     3.58273E+06
           34319     66.5636E+06     29.8772E+06              0.     3.66961E+06
           34320     66.5507E+06     29.8912E+06              0.     3.75993E+06
           34321     66.5374E+06     29.9052E+06              0.     3.85369E+06
           34322     66.5237E+06     29.9193E+06              0.     3.95088E+06
           34323     66.5097E+06     29.9335E+06              0.     4.05150E+06
           34324     66.4953E+06     29.9477E+06              0.     4.15557E+06
           34325     66.4806E+06     29.9620E+06              0.     4.26310E+06
           34326     66.4654E+06     29.9764E+06              0.     4.37409E+06
           34327     66.4499E+06     29.9909E+06              0.     4.48856E+06
           34328     66.4339E+06     30.0055E+06              0.     4.60653E+06
           34329     66.4175E+06     30.0203E+06              0.     4.72802E+06
           34330     66.4006E+06     30.0352E+06              0.     4.85305E+06
           34331     66.3833E+06     30.0503E+06              0.     4.98165E+06
           34332     66.3654E+06     30.0656E+06              0.     5.11384E+06
           34333     66.3472E+06     30.0811E+06              0.     5.24966E+06
           34334     66.3284E+06     30.0967E+06              0.     5.38914E+06
           34335     66.3091E+06     30.1126E+06              0.     5.53232E+06
           34336     66.2892E+06     30.1287E+06              0.     5.67922E+06
           34337     66.2688E+06     30.1450E+06              0.     5.82991E+06
           34338     66.2479E+06     30.1616E+06              0.     5.98440E+06
           34339     66.2264E+06     30.1785E+06              0.     6.14276E+06
           34340     66.2043E+06     30.1956E+06              0.     6.30502E+06
           34341     66.1816E+06     30.2131E+06              0.     6.47124E+06
           34342     66.1582E+06     30.2308E+06              0.     6.64146E+06
           34343     66.1343E+06     30.2489E+06              0.     6.81574E+06
           34344     66.1096E+06     30.2672E+06              0.     6.99414E+06
           34345     66.0843E+06     30.2860E+06              0.     7.17671E+06
           34346     66.0584E+06     30.3051E+06              0.     7.36351E+06
           34347     66.0317E+06     30.3245E+06              0.     7.55459E+06
           34348     66.0043E+06     30.3444E+06              0.     7.75004E+06
           34349     65.9761E+06     30.3646E+06              0.     7.94990E+06
           34350     65.9472E+06     30.3853E+06              0.     8.15424E+06
           34351     65.9175E+06     30.4064E+06              0.     8.36314E+06
           34352     65.8870E+06     30.4279E+06              0.     8.57666E+06
           34353     65.8557E+06     30.4499E+06              0.     8.79488E+06
           34354     65.8235E+06     30.4724E+06              0.     9.01786E+06
           34355     65.7905E+06     30.4954E+06              0.     9.24568E+06
           34356     65.7565E+06     30.5188E+06              0.     9.47842E+06
           34357     65.7217E+06     30.5428E+06              0.     9.71617E+06
           34358     65.6859E+06     30.5673E+06              0.     9.95898E+06
           34359     65.6492E+06     30.5924E+06              0.     10.2070E+06
           34360     65.6115E+06     30.6180E+06              0.     10.4602E+06
           34361     65.5728E+06     30.6443E+06              0.     10.7187E+06
           34362     65.5330E+06     30.6711E+06              0.     10.9826E+06
           34363     65.4922E+06     30.6985E+06              0.     11.2521E+06
           34364     65.4503E+06     30.7266E+06              0.     11.5271E+06
           34365     65.4073E+06     30.7554E+06              0.     11.8077E+06
           34366     65.3631E+06     30.7848E+06              0.     12.0942E+06
           34367     65.3178E+06     30.8150E+06              0.     12.3865E+06
           34368     65.2712E+06     30.8458E+06              0.     12.6847E+06
           34369     65.2234E+06     30.8774E+06              0.     12.9890E+06
           34370     65.1743E+06     30.9097E+06              0.     13.2993E+06
           34371     65.1239E+06     30.9428E+06              0.     13.6159E+06
           34372     65.0721E+06     30.9768E+06              0.     13.9388E+06
           34373      65.019E+06     31.0115E+06              0.     14.2682E+06
           34374     64.9644E+06     31.0471E+06              0.     14.6040E+06
           34375     64.9084E+06     31.0836E+06              0.     14.9464E+06
           34376     64.8509E+06     31.1209E+06              0.     15.2955E+06
           34377     64.7918E+06     31.1592E+06              0.     15.6515E+06
           34378     64.7311E+06     31.1985E+06              0.     16.0143E+06
           34379     64.6688E+06     31.2387E+06              0.     16.3840E+06
           34380     64.6048E+06     31.2799E+06              0.     16.7609E+06
           34381     64.5390E+06     31.3221E+06              0.     17.1450E+06
           34382     64.4715E+06     31.3654E+06              0.     17.5363E+06
           34383     64.4021E+06     31.4097E+06              0.     17.9350E+06
           34384     64.3309E+06     31.4552E+06              0.     18.3411E+06
           34385     64.2577E+06     31.5018E+06              0.     18.7548E+06
           34386     64.1824E+06     31.5496E+06              0.     19.1762E+06
           34387     64.1051E+06     31.5986E+06              0.     19.6053E+06
           34388     64.0257E+06     31.6488E+06              0.     20.0422E+06
           34389     63.9441E+06     31.7003E+06              0.     20.4870E+06
           34390     63.8602E+06     31.7531E+06              0.     20.9399E+06
           34391     63.7739E+06     31.8072E+06              0.     21.4008E+06
           34392     63.6853E+06     31.8627E+06              0.     21.8699E+06
           34393     63.5941E+06     31.9196E+06              0.     22.3473E+06
           34394     63.5004E+06     31.9780E+06              0.     22.8330E+06
           34395     63.4040E+06     32.0378E+06              0.     23.3271E+06
           34396     63.3049E+06     32.0992E+06              0.     23.8297E+06
           34397     63.2029E+06     32.1621E+06              0.     24.3408E+06
           34398     63.0980E+06     32.2266E+06              0.     24.8605E+06
           34399     62.9901E+06     32.2927E+06              0.     25.3889E+06
           34400     62.8791E+06     32.3606E+06              0.     25.9261E+06
           34401     62.7649E+06     32.4301E+06              0.     26.4720E+06
           34402     62.6473E+06     32.5014E+06              0.     27.0267E+06
           34403     62.5262E+06     32.5746E+06              0.     27.5903E+06
           34404     62.4016E+06     32.6495E+06              0.     28.1629E+06
           34405     62.2733E+06     32.7264E+06              0.     28.7443E+06
           34406     62.1411E+06     32.8052E+06              0.     29.3347E+06
           34407     62.0050E+06     32.8859E+06              0.     29.9340E+06
           34408     61.8648E+06     32.9687E+06              0.     30.5424E+06
           34409     61.7203E+06     33.0536E+06              0.     31.1597E+06
           34410     61.5715E+06     33.1405E+06              0.     31.7860E+06
           34411     61.4181E+06     33.2296E+06              0.     32.4212E+06
           34412     61.2599E+06     33.3209E+06              0.     33.0653E+06
           34413     61.0969E+06     33.4144E+06              0.     33.7184E+06
           34414     60.9288E+06     33.5102E+06              0.     34.3802E+06
           34415     60.7554E+06     33.6084E+06              0.     35.0508E+06
           34416     60.5766E+06     33.7088E+06              0.     35.7302E+06
           34417     60.3921E+06     33.8117E+06              0.     36.4181E+06
           34418     60.2018E+06     33.9170E+06              0.     37.1145E+06
           34419     60.0054E+06     34.0247E+06              0.     37.8194E+06
           34420     59.8027E+06     34.1349E+06              0.     38.5325E+06
           34421     59.5934E+06     34.2476E+06              0.     39.2537E+06
           34422     59.3773E+06     34.3629E+06              0.     39.9829E+06
           34423     59.1542E+06     34.4808E+06              0.     40.7199E+06
           34424     58.9238E+06     34.6012E+06              0.     41.4644E+06
           34425     58.6858E+06     34.7242E+06              0.     42.2163E+06
           34426     58.4399E+06     34.8497E+06              0.     42.9753E+06
           34427     58.1858E+06     34.9779E+06              0.     43.7412E+06
           34428     57.9232E+06     35.1087E+06              0.     44.5136E+06
           34429     57.6519E+06     35.2420E+06              0.     45.2923E+06
           34430     57.3713E+06     35.3779E+06              0.     46.0769E+06
           34431     57.0813E+06     35.5163E+06              0.     46.8671E+06
           34432     56.7815E+06     35.6571E+06              0.     47.6625E+06
           34433     56.4714E+06     35.8004E+06              0.     48.4625E+06
           34434     56.1508E+06     35.9460E+06              0.     49.2669E+06
           34435     55.8191E+06     36.0939E+06              0.     50.0751E+06
           34436     55.4761E+06     36.2440E+06              0.     50.8866E+06
           34437     55.1212E+06     36.3961E+06              0.     51.7009E+06
           34438     54.7540E+06     36.5502E+06              0.     52.5173E+06
           34439     54.3742E+06     36.7061E+06              0.     53.3352E+06
           34440     53.9811E+06     36.8636E+06              0.     54.1541E+06
           34441     53.5744E+06     37.0225E+06              0.     54.9731E+06
           34442     53.1536E+06     37.1826E+06              0.     55.7915E+06
           34443     52.7181E+06     37.3438E+06              0.     56.6086E+06
           34444     52.2675E+06     37.5056E+06              0.     57.4234E+06
           34445     51.8011E+06     37.6678E+06              0.     58.2352E+06
           34446     51.3185E+06     37.8301E+06              0.     59.0429E+06
           34447     50.8192E+06     37.9921E+06              0.     59.8457E+06
           34448     50.3024E+06     38.1534E+06              0.     60.6424E+06
           34449     49.7678E+06     38.3135E+06              0.     61.4320E+06
           34450     49.2147E+06     38.4720E+06              0.     62.2132E+06
           34451     48.6424E+06     38.6282E+06              0.     62.9851E+06
           34452     48.0505E+06     38.7817E+06              0.     63.7462E+06
           34453     47.4383E+06     38.9317E+06              0.     64.4952E+06
           34454     46.8052E+06     39.0775E+06              0.     65.2309E+06
           34455     46.1506E+06     39.2184E+06              0.     65.9516E+06
           34456     45.4739E+06     39.3535E+06              0.     66.6560E+06
           34457     44.7744E+06     39.4819E+06              0.     67.3425E+06
           34458     44.0517E+06     39.6026E+06              0.     68.0095E+06
           34459     43.3051E+06     39.7147E+06              0.     68.6552E+06
           34460     42.5339E+06     39.8168E+06              0.     69.2779E+06
           34461     41.7378E+06     39.9079E+06              0.     69.8759E+06
           34462     40.9159E+06     39.9865E+06              0.     70.4472E+06
           34463      40.068E+06     40.0513E+06              0.     70.9898E+06
           34464     39.1934E+06     40.1007E+06              0.     71.5019E+06
           34465     38.2916E+06     40.1331E+06              0.     71.9813E+06
           34466     37.3623E+06     40.1467E+06              0.      72.426E+06
           34467     36.4049E+06     40.1398E+06              0.     72.8337E+06
           34468     35.4191E+06     40.1104E+06              0.     73.2024E+06
           34469     34.4045E+06     40.0563E+06              0.     73.5296E+06
           34470     33.3610E+06     39.9754E+06              0.     73.8131E+06
           34471     32.2882E+06     39.8653E+06              0.     74.0506E+06
           34472     31.1860E+06     39.7235E+06              0.     74.2396E+06
           34473     30.0542E+06     39.5475E+06              0.     74.3779E+06
           34474     28.8929E+06     39.3345E+06              0.     74.4629E+06
           34475     27.7020E+06     39.0817E+06              0.     74.4923E+06
           34476     26.4817E+06     38.7860E+06              0.     74.4636E+06
           34477     25.2322E+06     38.4443E+06              0.     74.3743E+06
           34478     23.9538E+06     38.0534E+06              0.     74.2221E+06
           34479     22.6469E+06     37.6098E+06              0.     74.0046E+06
           34480     21.3118E+06     37.1100E+06              0.     73.7193E+06
           34481     19.9493E+06     36.5504E+06              0.     73.3639E+06
           34482     18.5600E+06     35.9273E+06              0.     72.9362E+06
           34483     17.1448E+06     35.2367E+06              0.     72.4339E+06
           34484     15.7044E+06     34.4747E+06              0.     71.8550E+06
           34485     14.2400E+06     33.6372E+06              0.     71.1972E+06
           34486     12.7526E+06     32.7202E+06              0.     70.4587E+06
           34487     11.2435E+06     31.7194E+06              0.     69.6376E+06
           34488     9.71407E+06     30.6306E+06              0.     68.7322E+06
           34489     8.16575E+06     29.4495E+06              0.     67.7408E+06
           34490     6.60009E+06     28.1717E+06              0.     66.6619E+06
           34491     5.01877E+06     26.7931E+06              0.     65.4943E+06
           34492     3.42358E+06     25.3092E+06              0.     64.2367E+06
           34493     1.81635E+06     23.7159E+06              0.     62.8881E+06
           34494     199.058E+03     22.0089E+06              0.     61.4476E+06
           34495    -1.42629E+06     20.1841E+06              0.     59.9146E+06
           34496    -3.05758E+06     18.2374E+06              0.     58.2886E+06
           34497    -4.69262E+06     16.1650E+06              0.     56.5691E+06
           34498    -6.32918E+06     13.9630E+06              0.     54.7560E+06
           34499    -7.96491E+06     11.6278E+06              0.     52.8493E+06
           34500    -9.59728E+06     9.15591E+06              0.     50.8491E+06
           34501    -11.2235E+06     6.54402E+06              0.     48.7559E+06
           34502    -12.8418E+06     3.78848E+06              0.     46.5702E+06
           34503    -14.4035E+06     443.915E+03              0.     45.6654E+06
           34504     66.9751E+06     29.3866E+06              0.     2.75322E+06
           34505     66.9771E+06     29.4075E+06              0.     2.74825E+06
           34506     66.9703E+06     29.4238E+06              0.     2.71142E+06
           34507     66.9636E+06     29.4397E+06              0.     2.68006E+06
           34508     66.9570E+06     29.4552E+06              0.     2.65403E+06
           34509     66.9504E+06     29.4703E+06              0.     2.63319E+06
           34510     66.9438E+06     29.4850E+06              0.     2.61740E+06
           34511     66.9373E+06     29.4994E+06              0.     2.60654E+06
           34512     66.9307E+06     29.5134E+06              0.     2.60049E+06
           34513     66.9242E+06     29.5271E+06              0.     2.59912E+06
           34514     66.9177E+06     29.5405E+06              0.     2.60234E+06
           34515     66.9111E+06     29.5536E+06              0.     2.61004E+06
           34516     66.9045E+06     29.5665E+06              0.     2.62213E+06
           34517     66.8978E+06     29.5791E+06              0.     2.63851E+06
           34518     66.8911E+06     29.5915E+06              0.     2.65910E+06
           34519     66.8843E+06     29.6036E+06              0.     2.68382E+06
           34520     66.8774E+06     29.6156E+06              0.     2.71259E+06
           34521     66.8704E+06     29.6274E+06              0.     2.74535E+06
           34522     66.8633E+06     29.6390E+06              0.     2.78203E+06
           34523     66.8562E+06     29.6505E+06              0.     2.82257E+06
           34524     66.8489E+06     29.6618E+06              0.     2.86691E+06
           34525     66.8414E+06     29.6730E+06              0.     2.91501E+06
           34526     66.8338E+06     29.6841E+06              0.     2.96681E+06
           34527     66.8261E+06     29.6950E+06              0.     3.02228E+06
           34528     66.8182E+06     29.7059E+06              0.     3.08138E+06
           34529     66.8102E+06     29.7168E+06              0.     3.14406E+06
           34530     66.8019E+06     29.7275E+06              0.     3.21031E+06
           34531     66.7935E+06     29.7382E+06              0.     3.28009E+06
           34532     66.7849E+06     29.7489E+06              0.     3.35339E+06
           34533     66.7761E+06     29.7595E+06              0.     3.43017E+06
           34534     66.7670E+06     29.7702E+06              0.     3.51043E+06
           34535     66.7577E+06     29.7808E+06              0.     3.59416E+06
           34536     66.7482E+06     29.7915E+06              0.     3.68134E+06
           34537     66.7385E+06     29.8021E+06              0.     3.77197E+06
           34538     66.7285E+06     29.8128E+06              0.     3.86604E+06
           34539     66.7182E+06     29.8235E+06              0.     3.96356E+06
           34540     66.7077E+06     29.8343E+06              0.     4.06453E+06
           34541     66.6969E+06     29.8452E+06              0.     4.16896E+06
           34542     66.6858E+06     29.8561E+06              0.     4.27686E+06
           34543     66.6744E+06     29.8671E+06              0.     4.38823E+06
           34544     66.6627E+06     29.8782E+06              0.     4.50310E+06
           34545     66.6506E+06     29.8895E+06              0.     4.62148E+06
           34546     66.6383E+06     29.9008E+06              0.     4.74340E+06
           34547     66.6256E+06     29.9123E+06              0.     4.86887E+06
           34548     66.6125E+06     29.9239E+06              0.     4.99792E+06
           34549     66.5991E+06     29.9356E+06              0.     5.13058E+06
           34550     66.5853E+06     29.9475E+06              0.     5.26689E+06
           34551     66.5712E+06     29.9596E+06              0.     5.40686E+06
           34552     66.5566E+06     29.9718E+06              0.     5.55055E+06
           34553     66.5417E+06     29.9843E+06              0.     5.69799E+06
           34554     66.5263E+06     29.9969E+06              0.     5.84922E+06
           34555     66.5105E+06     30.0098E+06              0.     6.00428E+06
           34556     66.4943E+06     30.0229E+06              0.     6.16321E+06
           34557     66.4776E+06     30.0362E+06              0.     6.32607E+06
           34558     66.4604E+06     30.0498E+06              0.     6.49290E+06
           34559     66.4428E+06     30.0636E+06              0.     6.66376E+06
           34560     66.4247E+06     30.0776E+06              0.     6.83869E+06
           34561     66.4061E+06     30.0920E+06              0.     7.01776E+06
           34562     66.3870E+06     30.1067E+06              0.     7.20102E+06
           34563     66.3673E+06     30.1216E+06              0.     7.38853E+06
           34564     66.3471E+06     30.1369E+06              0.     7.58036E+06
           34565     66.3264E+06     30.1525E+06              0.     7.77655E+06
           34566     66.3051E+06     30.1684E+06              0.     7.97719E+06
           34567     66.2832E+06     30.1847E+06              0.     8.18234E+06
           34568     66.2607E+06     30.2013E+06              0.     8.39206E+06
           34569     66.2375E+06     30.2183E+06              0.     8.60643E+06
           34570     66.2138E+06     30.2357E+06              0.     8.82552E+06
           34571     66.1894E+06     30.2535E+06              0.     9.04940E+06
           34572     66.1643E+06     30.2717E+06              0.     9.27815E+06
           34573     66.1385E+06     30.2904E+06              0.     9.51185E+06
           34574     66.1120E+06     30.3094E+06              0.     9.75057E+06
           34575     66.0848E+06     30.3290E+06              0.      9.9944E+06
           34576     66.0569E+06     30.3490E+06              0.     10.2434E+06
           34577     66.0282E+06     30.3695E+06              0.     10.4977E+06
           34578     65.9987E+06     30.3905E+06              0.     10.7573E+06
           34579     65.9684E+06     30.4121E+06              0.     11.0224E+06
           34580     65.9372E+06     30.4341E+06              0.     11.2930E+06
           34581     65.9052E+06     30.4568E+06              0.     11.5693E+06
           34582     65.8723E+06     30.4800E+06              0.     11.8512E+06
           34583     65.8385E+06     30.5038E+06              0.     12.1389E+06
           34584     65.8038E+06     30.5282E+06              0.     12.4325E+06
           34585     65.7682E+06     30.5532E+06              0.     12.7321E+06
           34586     65.7315E+06     30.5789E+06              0.     13.0378E+06
           34587     65.6938E+06     30.6052E+06              0.     13.3496E+06
           34588     65.6551E+06     30.6323E+06              0.     13.6677E+06
           34589     65.6153E+06     30.6600E+06              0.     13.9922E+06
           34590     65.5744E+06     30.6885E+06              0.     14.3231E+06
           34591     65.5324E+06     30.7177E+06              0.     14.6606E+06
           34592     65.4892E+06     30.7478E+06              0.     15.0047E+06
           34593     65.4448E+06     30.7786E+06              0.     15.3556E+06
           34594     65.3991E+06     30.8102E+06              0.     15.7134E+06
           34595     65.3522E+06     30.8427E+06              0.     16.0780E+06
           34596     65.3039E+06     30.8761E+06              0.     16.4498E+06
           34597     65.2542E+06     30.9104E+06              0.     16.8287E+06
           34598     65.2032E+06     30.9456E+06              0.     17.2148E+06
           34599     65.1507E+06     30.9817E+06              0.     17.6082E+06
           34600     65.0966E+06     31.0189E+06              0.     18.0091E+06
           34601     65.0411E+06     31.0571E+06              0.     18.4176E+06
           34602     64.9839E+06     31.0963E+06              0.     18.8336E+06
           34603     64.9250E+06     31.1366E+06              0.     19.2574E+06
           34604     64.8645E+06     31.1781E+06              0.     19.6891E+06
           34605     64.8022E+06     31.2207E+06              0.     20.1286E+06
           34606     64.7380E+06     31.2644E+06              0.     20.5761E+06
           34607     64.6720E+06     31.3094E+06              0.     21.0318E+06
           34608     64.6040E+06     31.3557E+06              0.     21.4956E+06
           34609     64.5340E+06     31.4032E+06              0.     21.9677E+06
           34610     64.4618E+06     31.4521E+06              0.     22.4482E+06
           34611     64.3876E+06     31.5023E+06              0.     22.9371E+06
           34612     64.3110E+06     31.5540E+06              0.     23.4345E+06
           34613     64.2322E+06     31.6071E+06              0.     23.9405E+06
           34614     64.1509E+06     31.6617E+06              0.     24.4552E+06
           34615     64.0671E+06     31.7178E+06              0.     24.9786E+06
           34616     63.9807E+06     31.7755E+06              0.     25.5108E+06
           34617     63.8917E+06     31.8349E+06              0.     26.0519E+06
           34618     63.7998E+06     31.8959E+06              0.     26.6019E+06
           34619     63.7051E+06     31.9587E+06              0.     27.1608E+06
           34620     63.6074E+06     32.0232E+06              0.     27.7288E+06
           34621     63.5065E+06     32.0895E+06              0.     28.3059E+06
           34622     63.4025E+06     32.1577E+06              0.     28.8920E+06
           34623     63.2950E+06     32.2278E+06              0.     29.4872E+06
           34624     63.1841E+06     32.2999E+06              0.     30.0916E+06
           34625     63.0696E+06     32.3740E+06              0.     30.7052E+06
           34626     62.9513E+06     32.4502E+06              0.     31.3279E+06
           34627     62.8291E+06     32.5284E+06              0.     31.9598E+06
           34628     62.7028E+06     32.6089E+06              0.     32.6008E+06
           34629     62.5723E+06     32.6916E+06              0.     33.2509E+06
           34630     62.4374E+06     32.7766E+06              0.     33.9102E+06
           34631     62.2980E+06     32.8638E+06              0.     34.5784E+06
           34632     62.1538E+06     32.9535E+06              0.     35.2557E+06
           34633     62.0046E+06     33.0456E+06              0.     35.9420E+06
           34634     61.8503E+06     33.1402E+06              0.     36.6371E+06
           34635     61.6907E+06     33.2373E+06              0.     37.3409E+06
           34636     61.5255E+06     33.3370E+06              0.     38.0534E+06
           34637     61.3545E+06     33.4393E+06              0.     38.7745E+06
           34638     61.1775E+06     33.5443E+06              0.     39.5039E+06
           34639     60.9942E+06     33.6520E+06              0.     40.2416E+06
           34640     60.8044E+06     33.7624E+06              0.     40.9874E+06
           34641     60.6078E+06     33.8756E+06              0.     41.7411E+06
           34642     60.4041E+06     33.9917E+06              0.     42.5024E+06
           34643     60.1930E+06     34.1105E+06              0.     43.2712E+06
           34644     59.9743E+06     34.2322E+06              0.     44.0472E+06
           34645     59.7476E+06     34.3568E+06              0.     44.8301E+06
           34646     59.5126E+06     34.4843E+06              0.     45.6196E+06
           34647     59.2689E+06     34.6146E+06              0.     46.4153E+06
           34648     59.0162E+06     34.7479E+06              0.     47.2171E+06
           34649     58.7542E+06     34.8840E+06              0.     48.0243E+06
           34650     58.4824E+06     35.0229E+06              0.     48.8367E+06
           34651     58.2005E+06     35.1646E+06              0.     49.6539E+06
           34652     57.9080E+06     35.3091E+06              0.     50.4752E+06
           34653     57.6045E+06     35.4563E+06              0.     51.3003E+06
           34654     57.2896E+06     35.6060E+06              0.     52.1285E+06
           34655     56.9629E+06     35.7583E+06              0.     52.9594E+06
           34656     56.6238E+06     35.9130E+06              0.     53.7922E+06
           34657     56.2719E+06     36.0700E+06              0.     54.6263E+06
           34658     55.9066E+06     36.2291E+06              0.     55.4611E+06
           34659     55.5276E+06     36.3902E+06              0.     56.2958E+06
           34660     55.1341E+06      36.553E+06              0.     57.1295E+06
           34661     54.7258E+06     36.7173E+06              0.     57.9616E+06
           34662     54.3020E+06     36.8829E+06              0.     58.7910E+06
           34663     53.8622E+06     37.0495E+06              0.     59.6168E+06
           34664     53.4057E+06     37.2167E+06              0.     60.4381E+06
           34665     52.9320E+06     37.3842E+06              0.     61.2539E+06
           34666     52.4405E+06     37.5515E+06              0.     62.0630E+06
           34667     51.9305E+06     37.7183E+06              0.     62.8642E+06
           34668     51.4014E+06     37.8841E+06              0.     63.6565E+06
           34669     50.8526E+06     38.0482E+06              0.     64.4384E+06
           34670     50.2834E+06     38.2101E+06              0.     65.2087E+06
           34671     49.6931E+06     38.3692E+06              0.     65.9661E+06
           34672     49.0812E+06     38.5246E+06              0.     66.7089E+06
           34673     48.4469E+06     38.6757E+06              0.     67.4358E+06
           34674     47.7895E+06     38.8216E+06              0.     68.1451E+06
           34675     47.1084E+06     38.9613E+06              0.     68.8352E+06
           34676     46.4030E+06     39.0938E+06              0.     69.5043E+06
           34677     45.6726E+06     39.2181E+06              0.     70.1507E+06
           34678     44.9165E+06     39.3328E+06              0.     70.7725E+06
           34679     44.1341E+06     39.4369E+06              0.     71.3678E+06
           34680     43.3248E+06     39.5289E+06              0.     71.9347E+06
           34681     42.4881E+06     39.6072E+06              0.     72.4710E+06
           34682     41.6233E+06     39.6705E+06              0.     72.9747E+06
           34683     40.7299E+06     39.7168E+06              0.     73.4435E+06
           34684     39.8074E+06     39.7444E+06              0.     73.8754E+06
           34685     38.8554E+06     39.7514E+06              0.     74.2679E+06
           34686     37.8734E+06     39.7358E+06              0.     74.6187E+06
           34687     36.8610E+06     39.6952E+06              0.     74.9255E+06
           34688      35.818E+06     39.6274E+06              0.     75.1858E+06
           34689     34.7441E+06     39.5300E+06              0.     75.3972E+06
           34690     33.6390E+06     39.4003E+06              0.     75.5572E+06
           34691     32.5028E+06     39.2355E+06              0.     75.6632E+06
           34692     31.3352E+06     39.0328E+06              0.     75.7127E+06
           34693     30.1364E+06     38.7892E+06              0.     75.7032E+06
           34694     28.9065E+06     38.5015E+06              0.     75.6320E+06
           34695     27.6458E+06     38.1663E+06              0.     75.4968E+06
           34696     26.3544E+06     37.7803E+06              0.     75.2949E+06
           34697     25.0329E+06     37.3398E+06              0.     75.0239E+06
           34698     23.6817E+06     36.8411E+06              0.     74.6813E+06
           34699     22.3016E+06     36.2804E+06              0.     74.2647E+06
           34700     20.8932E+06     35.6537E+06              0.     73.7718E+06
           34701     19.4574E+06     34.9569E+06              0.     73.2002E+06
           34702     17.9953E+06     34.1859E+06              0.     72.5479E+06
           34703     16.5078E+06     33.3365E+06              0.     71.8128E+06
           34704     14.9963E+06     32.4042E+06              0.     70.9928E+06
           34705     13.4621E+06     31.3847E+06              0.     70.0861E+06
           34706     11.9066E+06     30.2736E+06              0.     69.0911E+06
           34707     10.3314E+06     29.0664E+06              0.     68.0061E+06
           34708     8.73820E+06     27.7586E+06              0.     66.8298E+06
           34709     7.12880E+06     26.3458E+06              0.     65.5608E+06
           34710     5.50508E+06     24.8235E+06              0.     64.1982E+06
           34711     3.86903E+06     23.1874E+06              0.     62.7409E+06
           34712     2.22272E+06     21.4331E+06              0.     61.1883E+06
           34713     568.306E+03     19.5565E+06              0.     59.5399E+06
           34714    -1.09198E+06     17.5535E+06              0.     57.7952E+06
           34715    -2.75589E+06     15.4200E+06              0.     55.9541E+06
           34716    -4.42106E+06     13.1524E+06              0.     54.0166E+06
           34717    -6.08513E+06     10.7469E+06              0.     51.9829E+06
           34718     -7.7454E+06     8.20045E+06              0.     49.8530E+06
           34719    -9.39855E+06     5.50958E+06              0.     47.6279E+06
           34720    -10.9576E+06     2.22293E+06              0.     46.7128E+06
           34721     67.0837E+06     29.4331E+06              0.     2.75935E+06
           34722     67.0851E+06     29.4471E+06              0.     2.75437E+06
           34723     67.0807E+06     29.4580E+06              0.     2.71746E+06
           34724     67.0763E+06     29.4686E+06              0.     2.68604E+06
           34725     67.0719E+06     29.4790E+06              0.     2.65996E+06
           34726     67.0676E+06     29.4890E+06              0.     2.63908E+06
           34727     67.0632E+06     29.4989E+06              0.     2.62327E+06
           34728     67.0589E+06     29.5085E+06              0.     2.61239E+06
           34729     67.0546E+06     29.5179E+06              0.     2.60633E+06
           34730     67.0503E+06     29.5270E+06              0.     2.60497E+06
           34731     67.0460E+06     29.5360E+06              0.     2.60820E+06
           34732     67.0416E+06     29.5448E+06              0.     2.61593E+06
           34733     67.0373E+06     29.5534E+06              0.     2.62805E+06
           34734     67.0329E+06     29.5619E+06              0.     2.64447E+06
           34735     67.0284E+06     29.5702E+06              0.     2.66512E+06
           34736     67.0239E+06     29.5783E+06              0.     2.68990E+06
           34737     67.0193E+06     29.5864E+06              0.     2.71875E+06
           34738     67.0147E+06     29.5943E+06              0.     2.75160E+06
           34739     67.0100E+06     29.6021E+06              0.     2.78837E+06
           34740     67.0053E+06     29.6098E+06              0.     2.82901E+06
           34741     67.0004E+06     29.6175E+06              0.     2.87347E+06
           34742     66.9955E+06     29.6250E+06              0.     2.92169E+06
           34743     66.9904E+06     29.6325E+06              0.     2.97362E+06
           34744     66.9853E+06     29.6399E+06              0.     3.02923E+06
           34745     66.9800E+06     29.6473E+06              0.     3.08848E+06
           34746     66.9747E+06     29.6546E+06              0.     3.15132E+06
           34747     66.9692E+06     29.6619E+06              0.     3.21773E+06
           34748     66.9636E+06     29.6692E+06              0.     3.28769E+06
           34749     66.9578E+06     29.6764E+06              0.     3.36117E+06
           34750     66.9519E+06     29.6837E+06              0.     3.43815E+06
           34751     66.9459E+06     29.6909E+06              0.     3.51861E+06
           34752     66.9397E+06     29.6982E+06              0.     3.60255E+06
           34753     66.9334E+06     29.7055E+06              0.     3.68995E+06
           34754     66.9269E+06     29.7128E+06              0.     3.78081E+06
           34755     66.9202E+06     29.7201E+06              0.     3.87513E+06
           34756     66.9133E+06     29.7275E+06              0.     3.97290E+06
           34757     66.9063E+06     29.7349E+06              0.     4.07413E+06
           34758     66.8990E+06     29.7424E+06              0.     4.17883E+06
           34759     66.8916E+06     29.7499E+06              0.     4.28701E+06
           34760     66.8840E+06     29.7575E+06              0.     4.39867E+06
           34761     66.8761E+06     29.7652E+06              0.     4.51384E+06
           34762     66.8681E+06     29.7730E+06              0.     4.63254E+06
           34763     66.8598E+06     29.7809E+06              0.     4.75477E+06
           34764     66.8513E+06     29.7889E+06              0.     4.88058E+06
           34765     66.8425E+06     29.7970E+06              0.     5.00998E+06
           34766     66.8335E+06     29.8052E+06              0.     5.14299E+06
           34767     66.8243E+06     29.8135E+06              0.     5.27967E+06
           34768     66.8148E+06     29.8220E+06              0.     5.42003E+06
           34769     66.8050E+06     29.8307E+06              0.     5.56411E+06
           34770     66.7949E+06     29.8394E+06              0.     5.71195E+06
           34771     66.7846E+06     29.8484E+06              0.     5.86360E+06
           34772     66.7739E+06     29.8575E+06              0.     6.01909E+06
           34773     66.7630E+06     29.8668E+06              0.     6.17847E+06
           34774     66.7518E+06     29.8763E+06              0.     6.34179E+06
           34775     66.7402E+06     29.8859E+06              0.     6.50910E+06
           34776     66.7283E+06     29.8958E+06              0.     6.68044E+06
           34777     66.7161E+06     29.9059E+06              0.     6.85588E+06
           34778     66.7035E+06     29.9162E+06              0.     7.03547E+06
           34779     66.6906E+06     29.9267E+06              0.     7.21927E+06
           34780     66.6773E+06     29.9375E+06              0.     7.40733E+06
           34781     66.6636E+06     29.9486E+06              0.     7.59973E+06
           34782     66.6496E+06     29.9599E+06              0.     7.79652E+06
           34783     66.6351E+06     29.9714E+06              0.     7.99777E+06
           34784     66.6203E+06     29.9833E+06              0.     8.20354E+06
           34785      66.605E+06     29.9955E+06              0.     8.41391E+06
           34786     66.5893E+06     30.0079E+06              0.     8.62895E+06
           34787     66.5731E+06     30.0207E+06              0.     8.84873E+06
           34788     66.5565E+06     30.0338E+06              0.     9.07333E+06
           34789     66.5394E+06     30.0472E+06              0.     9.30281E+06
           34790     66.5218E+06     30.0611E+06              0.     9.53727E+06
           34791     66.5037E+06     30.0752E+06              0.     9.77678E+06
           34792     66.4851E+06     30.0898E+06              0.     10.0214E+06
           34793     66.4660E+06     30.1047E+06              0.     10.2713E+06
           34794     66.4463E+06     30.1201E+06              0.     10.5264E+06
           34795     66.4261E+06     30.1358E+06              0.     10.7869E+06
           34796     66.4053E+06     30.1521E+06              0.     11.0529E+06
           34797     66.3839E+06     30.1687E+06              0.     11.3245E+06
           34798     66.3618E+06     30.1858E+06              0.     11.6017E+06
           34799     66.3391E+06     30.2035E+06              0.     11.8847E+06
           34800     66.3158E+06     30.2216E+06              0.     12.1734E+06
           34801     66.2918E+06     30.2402E+06              0.     12.4681E+06
           34802     66.2671E+06     30.2594E+06              0.     12.7689E+06
           34803     66.2416E+06     30.2792E+06              0.     13.0757E+06
           34804     66.2155E+06     30.2995E+06              0.     13.3887E+06
           34805     66.1885E+06     30.3204E+06              0.     13.7081E+06
           34806     66.1607E+06     30.3419E+06              0.     14.0338E+06
           34807     66.1322E+06     30.3641E+06              0.     14.3661E+06
           34808     66.1027E+06     30.3869E+06              0.     14.7050E+06
           34809     66.0724E+06     30.4104E+06              0.     15.0505E+06
           34810     66.0412E+06     30.4346E+06              0.     15.4029E+06
           34811     66.0091E+06     30.4596E+06              0.     15.7621E+06
           34812     65.9759E+06     30.4853E+06              0.     16.1284E+06
           34813     65.9418E+06     30.5118E+06              0.     16.5018E+06
           34814     65.9066E+06     30.5391E+06              0.     16.8823E+06
           34815     65.8703E+06     30.5672E+06              0.     17.2702E+06
           34816     65.8329E+06     30.5962E+06              0.     17.6655E+06
           34817     65.7943E+06     30.6261E+06              0.     18.0683E+06
           34818     65.7546E+06     30.6570E+06              0.     18.4787E+06
           34819     65.7135E+06     30.6888E+06              0.     18.8968E+06
           34820     65.6712E+06     30.7215E+06              0.     19.3227E+06
           34821     65.6276E+06     30.7554E+06              0.     19.7565E+06
           34822     65.5825E+06     30.7902E+06              0.     20.1983E+06
           34823     65.5360E+06     30.8262E+06              0.     20.6482E+06
           34824     65.4880E+06     30.8633E+06              0.     21.1062E+06
           34825     65.4384E+06     30.9016E+06              0.     21.5726E+06
           34826     65.3871E+06     30.9410E+06              0.     22.0473E+06
           34827     65.3342E+06     30.9818E+06              0.     22.5305E+06
           34828     65.2795E+06     31.0238E+06              0.     23.0222E+06
           34829     65.2230E+06     31.0672E+06              0.     23.5225E+06
           34830     65.1646E+06     31.1119E+06              0.     24.0316E+06
           34831     65.1042E+06     31.1581E+06              0.     24.5494E+06
           34832     65.0417E+06     31.2057E+06              0.     25.0761E+06
           34833     64.9771E+06     31.2549E+06              0.     25.6117E+06
           34834     64.9103E+06     31.3057E+06              0.     26.1562E+06
           34835     64.8411E+06     31.3580E+06              0.     26.7099E+06
           34836     64.7695E+06     31.4121E+06              0.     27.2726E+06
           34837     64.6953E+06     31.4679E+06              0.     27.8446E+06
           34838     64.6185E+06     31.5254E+06              0.     28.4257E+06
           34839     64.5390E+06     31.5848E+06              0.     29.0161E+06
           34840     64.4565E+06     31.6461E+06              0.     29.6157E+06
           34841     64.3711E+06     31.7093E+06              0.     30.2247E+06
           34842     64.2826E+06     31.7746E+06              0.     30.8430E+06
           34843     64.1908E+06     31.8419E+06              0.     31.4706E+06
           34844     64.0956E+06     31.9113E+06              0.     32.1076E+06
           34845     63.9968E+06     31.9830E+06              0.     32.7539E+06
           34846     63.8943E+06     32.0569E+06              0.     33.4096E+06
           34847     63.7880E+06     32.1331E+06              0.     34.0746E+06
           34848     63.6776E+06     32.2116E+06              0.     34.7488E+06
           34849     63.5630E+06     32.2927E+06              0.     35.4323E+06
           34850     63.4439E+06     32.3762E+06              0.     36.1249E+06
           34851     63.3203E+06     32.4623E+06              0.     36.8267E+06
           34852     63.1919E+06     32.5510E+06              0.     37.5375E+06
           34853     63.0584E+06     32.6424E+06              0.     38.2572E+06
           34854     62.9197E+06     32.7366E+06              0.     38.9857E+06
           34855     62.7754E+06     32.8336E+06              0.     39.7229E+06
           34856     62.6255E+06     32.9334E+06              0.     40.4686E+06
           34857     62.4696E+06     33.0362E+06              0.     41.2227E+06
           34858     62.3074E+06     33.1419E+06              0.     41.9850E+06
           34859     62.1386E+06     33.2507E+06              0.     42.7553E+06
           34860     61.9631E+06     33.3625E+06              0.     43.5334E+06
           34861     61.7804E+06     33.4775E+06              0.     44.3190E+06
           34862     61.5902E+06     33.5956E+06              0.     45.1118E+06
           34863     61.3923E+06     33.7169E+06              0.     45.9117E+06
           34864     61.1862E+06     33.8414E+06              0.     46.7182E+06
           34865     60.9717E+06     33.9691E+06              0.     47.5310E+06
           34866     60.7483E+06     34.1001E+06              0.     48.3498E+06
           34867     60.5156E+06     34.2344E+06              0.     49.1741E+06
           34868     60.2733E+06     34.3718E+06              0.     50.0035E+06
           34869     60.0209E+06     34.5126E+06              0.     50.8376E+06
           34870     59.7580E+06     34.6565E+06              0.     51.6759E+06
           34871     59.4841E+06     34.8035E+06              0.     52.5177E+06
           34872     59.1988E+06     34.9537E+06              0.     53.3627E+06
           34873     58.9016E+06     35.1068E+06              0.     54.2100E+06
           34874     58.5919E+06     35.2629E+06              0.     55.0592E+06
           34875     58.2693E+06     35.4218E+06              0.     55.9095E+06
           34876     57.9332E+06     35.5834E+06              0.     56.7601E+06
           34877     57.5831E+06     35.7475E+06              0.     57.6103E+06
           34878     57.2184E+06     35.9140E+06              0.     58.4593E+06
           34879     56.8384E+06     36.0826E+06              0.     59.3062E+06
           34880     56.4427E+06     36.2530E+06              0.     60.1500E+06
           34881     56.0305E+06     36.4251E+06              0.     60.9898E+06
           34882     55.6013E+06     36.5984E+06              0.     61.8245E+06
           34883     55.1544E+06     36.7727E+06              0.     62.6530E+06
           34884     54.6891E+06     36.9475E+06              0.     63.4743E+06
           34885     54.2047E+06     37.1224E+06              0.     64.2870E+06
           34886     53.7006E+06     37.2969E+06              0.     65.0899E+06
           34887     53.1761E+06     37.4705E+06              0.     65.8816E+06
           34888     52.6304E+06     37.6425E+06              0.     66.6608E+06
           34889     52.0628E+06     37.8123E+06              0.     67.4260E+06
           34890     51.4726E+06     37.9791E+06              0.     68.1756E+06
           34891     50.8591E+06     38.1422E+06              0.     68.9080E+06
           34892     50.2215E+06     38.3007E+06              0.     69.6216E+06
           34893     49.5592E+06     38.4536E+06              0.     70.3146E+06
           34894     48.8713E+06     38.5999E+06              0.     70.9852E+06
           34895     48.1573E+06     38.7384E+06              0.     71.6315E+06
           34896     47.4163E+06     38.8679E+06              0.     72.2515E+06
           34897     46.6477E+06     38.9871E+06              0.     72.8432E+06
           34898     45.8507E+06     39.0946E+06              0.     73.4045E+06
           34899     45.0249E+06     39.1888E+06              0.     73.9333E+06
           34900     44.1695E+06     39.2681E+06              0.     74.4272E+06
           34901     43.2839E+06     39.3306E+06              0.     74.8841E+06
           34902     42.3676E+06     39.3745E+06              0.     75.3015E+06
           34903     41.4201E+06     39.3977E+06              0.     75.6771E+06
           34904     40.4410E+06     39.3980E+06              0.     76.0083E+06
           34905     39.4297E+06     39.3732E+06              0.     76.2927E+06
           34906     38.3860E+06     39.3208E+06              0.     76.5276E+06
           34907     37.3096E+06     39.2382E+06              0.     76.7106E+06
           34908     36.2002E+06     39.1226E+06              0.     76.8389E+06
           34909     35.0578E+06     38.9711E+06              0.     76.9099E+06
           34910     33.8823E+06     38.7807E+06              0.     76.9210E+06
           34911     32.6738E+06     38.5482E+06              0.     76.8695E+06
           34912     31.4323E+06     38.2702E+06              0.     76.7528E+06
           34913     30.1581E+06     37.9431E+06              0.     76.5681E+06
           34914     28.8516E+06     37.5634E+06              0.     76.3129E+06
           34915     27.5132E+06     37.1273E+06              0.     75.9846E+06
           34916     26.1436E+06     36.6308E+06              0.     75.5806E+06
           34917     24.7433E+06     36.0698E+06              0.     75.0986E+06
           34918     23.3133E+06     35.4402E+06              0.     74.5360E+06
           34919     21.8545E+06     34.7377E+06              0.     73.8906E+06
           34920     20.3679E+06     33.9579E+06              0.     73.1603E+06
           34921     18.8547E+06     33.0963E+06              0.     72.3428E+06
           34922     17.3164E+06     32.1483E+06              0.     71.4364E+06
           34923     15.7543E+06     31.1095E+06              0.     70.4390E+06
           34924     14.1701E+06     29.9751E+06              0.     69.3492E+06
           34925     12.5654E+06     28.7405E+06              0.     68.1653E+06
           34926     10.9420E+06     27.4011E+06              0.     66.8861E+06
           34927     9.30192E+06     25.9523E+06              0.     65.5104E+06
           34928     7.64714E+06     24.3894E+06              0.     64.0373E+06
           34929     5.97978E+06     22.7081E+06              0.     62.4660E+06
           34930     4.30205E+06     20.9038E+06              0.     60.7959E+06
           34931     2.61622E+06     18.9724E+06              0.     59.0267E+06
           34932     924.608E+03     16.9097E+06              0.     57.1583E+06
           34933    -770.470E+03     14.7117E+06              0.     55.1906E+06
           34934    -2.46684E+06     12.3747E+06              0.     53.1240E+06
           34935    -4.16282E+06     9.89482E+06              0.     50.9588E+06
           34936    -5.85531E+06     7.26954E+06              0.     48.6958E+06
           34937    -7.41461E+06     4.04082E+06              0.     47.7724E+06
           34938     67.1926E+06     29.4796E+06              0.     2.76315E+06
           34939     67.1934E+06     29.4867E+06              0.     2.75817E+06
           34940     67.1913E+06     29.4922E+06              0.     2.72121E+06
           34941     67.1892E+06     29.4975E+06              0.     2.68976E+06
           34942     67.1871E+06     29.5027E+06              0.     2.66365E+06
           34943     67.1850E+06     29.5078E+06              0.     2.64274E+06
           34944     67.1829E+06     29.5127E+06              0.     2.62691E+06
           34945     67.1808E+06     29.5176E+06              0.     2.61602E+06
           34946     67.1788E+06     29.5223E+06              0.     2.60996E+06
           34947     67.1767E+06     29.5269E+06              0.     2.60861E+06
           34948     67.1746E+06     29.5315E+06              0.     2.61185E+06
           34949     67.1725E+06     29.5359E+06              0.     2.61960E+06
           34950     67.1704E+06     29.5403E+06              0.     2.63175E+06
           34951     67.1682E+06     29.5446E+06              0.     2.64820E+06
           34952     67.1660E+06     29.5488E+06              0.     2.66889E+06
           34953     67.1638E+06     29.5530E+06              0.     2.69372E+06
           34954     67.1616E+06     29.5571E+06              0.     2.72262E+06
           34955     67.1593E+06     29.5611E+06              0.     2.75552E+06
           34956     67.1570E+06     29.5651E+06              0.     2.79235E+06
           34957     67.1547E+06     29.5691E+06              0.     2.83306E+06
           34958     67.1523E+06     29.5730E+06              0.     2.87760E+06
           34959     67.1498E+06     29.5769E+06              0.     2.92590E+06
           34960     67.1473E+06     29.5808E+06              0.     2.97792E+06
           34961     67.1448E+06     29.5846E+06              0.     3.03362E+06
           34962     67.1422E+06     29.5885E+06              0.     3.09296E+06
           34963     67.1395E+06     29.5923E+06              0.     3.15591E+06
           34964     67.1368E+06     29.5961E+06              0.     3.22244E+06
           34965     67.1340E+06     29.6000E+06              0.     3.29251E+06
           34966     67.1311E+06     29.6038E+06              0.     3.36611E+06
           34967     67.1282E+06     29.6076E+06              0.     3.44322E+06
           34968     67.1252E+06     29.6115E+06              0.     3.52382E+06
           34969     67.1221E+06     29.6154E+06              0.     3.60790E+06
           34970     67.1189E+06     29.6193E+06              0.     3.69545E+06
           34971     67.1156E+06     29.6232E+06              0.     3.78647E+06
           34972     67.1122E+06     29.6272E+06              0.     3.88094E+06
           34973     67.1088E+06     29.6312E+06              0.     3.97888E+06
           34974     67.1053E+06     29.6352E+06              0.     4.08029E+06
           34975     67.1016E+06     29.6393E+06              0.     4.18517E+06
           34976     67.0979E+06     29.6435E+06              0.     4.29354E+06
           34977      67.094E+06     29.6477E+06              0.     4.40540E+06
           34978     67.0900E+06     29.6520E+06              0.     4.52077E+06
           34979     67.0860E+06     29.6563E+06              0.     4.63968E+06
           34980     67.0818E+06     29.6607E+06              0.     4.76214E+06
           34981     67.0774E+06     29.6652E+06              0.     4.88817E+06
           34982     67.0730E+06     29.6698E+06              0.     5.01780E+06
           34983     67.0684E+06     29.6745E+06              0.     5.15106E+06
           34984     67.0637E+06     29.6793E+06              0.     5.28799E+06
           34985     67.0588E+06     29.6842E+06              0.     5.42861E+06
           34986     67.0539E+06     29.6892E+06              0.     5.57296E+06
           34987     67.0487E+06     29.6942E+06              0.     5.72109E+06
           34988     67.0434E+06     29.6995E+06              0.     5.87303E+06
           34989     67.0380E+06     29.7048E+06              0.     6.02882E+06
           34990     67.0323E+06     29.7103E+06              0.     6.18851E+06
           34991     67.0266E+06     29.7159E+06              0.     6.35215E+06
           34992     67.0206E+06     29.7217E+06              0.     6.51980E+06
           34993     67.0145E+06     29.7276E+06              0.     6.69149E+06
           34994     67.0082E+06     29.7337E+06              0.     6.86729E+06
           34995     67.0016E+06     29.7400E+06              0.     7.04725E+06
           34996     66.9949E+06     29.7464E+06              0.     7.23143E+06
           34997     66.9880E+06     29.7530E+06              0.     7.41989E+06
           34998     66.9809E+06     29.7598E+06              0.     7.61269E+06
           34999     66.9736E+06     29.7668E+06              0.     7.80991E+06
           35000     66.9660E+06     29.7740E+06              0.     8.01160E+06
           35001     66.9582E+06     29.7814E+06              0.     8.21783E+06
           35002     66.9502E+06     29.7891E+06              0.     8.42867E+06
           35003     66.9419E+06     29.7970E+06              0.     8.64420E+06
           35004     66.9334E+06     29.8051E+06              0.     8.86449E+06
           35005     66.9246E+06     29.8135E+06              0.     9.08961E+06
           35006     66.9155E+06     29.8222E+06              0.     9.31964E+06
           35007     66.9062E+06     29.8311E+06              0.     9.55466E+06
           35008     66.8965E+06     29.8403E+06              0.     9.79475E+06
           35009     66.8866E+06     29.8499E+06              0.     10.0400E+06
           35010     66.8763E+06     29.8597E+06              0.     10.2905E+06
           35011     66.8657E+06     29.8699E+06              0.     10.5463E+06
           35012     66.8547E+06     29.8804E+06              0.     10.8075E+06
           35013     66.8434E+06     29.8913E+06              0.     11.0742E+06
           35014     66.8318E+06     29.9025E+06              0.     11.3465E+06
           35015     66.8197E+06     29.9141E+06              0.     11.6244E+06
           35016     66.8073E+06     29.9261E+06              0.     11.9081E+06
           35017     66.7945E+06     29.9385E+06              0.     12.1977E+06
           35018     66.7812E+06     29.9514E+06              0.     12.4933E+06
           35019     66.7675E+06     29.9647E+06              0.     12.7949E+06
           35020     66.7533E+06     29.9784E+06              0.     13.1026E+06
           35021     66.7387E+06     29.9927E+06              0.     13.4166E+06
           35022     66.7236E+06     30.0074E+06              0.     13.7369E+06
           35023     66.7079E+06     30.0227E+06              0.     14.0637E+06
           35024     66.6917E+06     30.0385E+06              0.     14.3970E+06
           35025     66.6750E+06     30.0549E+06              0.     14.7370E+06
           35026     66.6576E+06     30.0719E+06              0.     15.0837E+06
           35027     66.6397E+06     30.0894E+06              0.     15.4372E+06
           35028     66.6211E+06     30.1077E+06              0.     15.7977E+06
           35029     66.6019E+06     30.1265E+06              0.     16.1652E+06
           35030     66.5819E+06     30.1461E+06              0.     16.5399E+06
           35031     66.5613E+06     30.1664E+06              0.     16.9219E+06
           35032     66.5399E+06     30.1874E+06              0.     17.3112E+06
           35033     66.5177E+06     30.2092E+06              0.     17.7080E+06
           35034     66.4947E+06     30.2317E+06              0.     18.1123E+06
           35035     66.4709E+06     30.2552E+06              0.     18.5243E+06
           35036     66.4461E+06     30.2794E+06              0.     18.9441E+06
           35037     66.4204E+06     30.3046E+06              0.     19.3718E+06
           35038     66.3937E+06     30.3307E+06              0.     19.8074E+06
           35039     66.3661E+06     30.3578E+06              0.     20.2511E+06
           35040     66.3373E+06     30.3859E+06              0.     20.7029E+06
           35041     66.3074E+06     30.4150E+06              0.     21.1631E+06
           35042     66.2764E+06     30.4452E+06              0.     21.6316E+06
           35043     66.2441E+06     30.4766E+06              0.     22.1085E+06
           35044     66.2105E+06     30.5091E+06              0.      22.594E+06
           35045     66.1756E+06     30.5428E+06              0.     23.0881E+06
           35046     66.1393E+06     30.5778E+06              0.     23.5910E+06
           35047     66.1015E+06     30.6141E+06              0.     24.1026E+06
           35048     66.0622E+06     30.6517E+06              0.     24.6232E+06
           35049     66.0212E+06     30.6908E+06              0.     25.1527E+06
           35050     65.9786E+06     30.7313E+06              0.     25.6913E+06
           35051     65.9341E+06     30.7733E+06              0.     26.2389E+06
           35052     65.8878E+06     30.8169E+06              0.     26.7958E+06
           35053     65.8395E+06     30.8621E+06              0.     27.3619E+06
           35054     65.7892E+06     30.9090E+06              0.     27.9373E+06
           35055     65.7367E+06     30.9577E+06              0.     28.5221E+06
           35056     65.6819E+06     31.0081E+06              0.     29.1162E+06
           35057     65.6248E+06     31.0604E+06              0.     29.7198E+06
           35058     65.5651E+06     31.1147E+06              0.     30.3329E+06
           35059     65.5029E+06     31.1709E+06              0.     30.9555E+06
           35060     65.4379E+06     31.2292E+06              0.     31.5876E+06
           35061     65.3700E+06     31.2896E+06              0.     32.2292E+06
           35062     65.2991E+06     31.3523E+06              0.     32.8803E+06
           35063     65.2250E+06     31.4172E+06              0.     33.5410E+06
           35064     65.1475E+06     31.4845E+06              0.     34.2113E+06
           35065     65.0666E+06     31.5541E+06              0.     34.8910E+06
           35066     64.9820E+06     31.6263E+06              0.     35.5801E+06
           35067     64.8935E+06     31.7010E+06              0.     36.2787E+06
           35068     64.8009E+06     31.7784E+06              0.     36.9866E+06
           35069     64.7041E+06     31.8585E+06              0.     37.7038E+06
           35070     64.6029E+06     31.9414E+06              0.     38.4302E+06
           35071     64.4969E+06     32.0272E+06              0.     39.1656E+06
           35072     64.3860E+06     32.1159E+06              0.     39.9100E+06
           35073     64.2700E+06     32.2076E+06              0.     40.6633E+06
           35074     64.1485E+06     32.3025E+06              0.     41.4252E+06
           35075     64.0213E+06     32.4004E+06              0.     42.1956E+06
           35076     63.8882E+06     32.5017E+06              0.     42.9744E+06
           35077     63.7487E+06     32.6062E+06              0.     43.7612E+06
           35078     63.6028E+06     32.7141E+06              0.     44.5560E+06
           35079     63.4499E+06     32.8254E+06              0.     45.3583E+06
           35080     63.2898E+06     32.9402E+06              0.     46.1680E+06
           35081     63.1221E+06     33.0586E+06              0.     46.9848E+06
           35082     62.9465E+06     33.1805E+06              0.     47.8083E+06
           35083     62.7625E+06     33.3061E+06              0.     48.6381E+06
           35084     62.5699E+06     33.4353E+06              0.     49.4738E+06
           35085     62.3681E+06     33.5681E+06              0.     50.3151E+06
           35086     62.1567E+06     33.7047E+06              0.     51.1616E+06
           35087     61.9353E+06     33.8450E+06              0.     52.0126E+06
           35088     61.7034E+06     33.9889E+06              0.     52.8677E+06
           35089     61.4606E+06     34.1366E+06              0.     53.7263E+06
           35090     61.2063E+06     34.2878E+06              0.     54.5878E+06
           35091     60.9400E+06     34.4426E+06              0.     55.4517E+06
           35092     60.6612E+06     34.6009E+06              0.     56.3171E+06
           35093     60.3693E+06     34.7627E+06              0.     57.1834E+06
           35094     60.0637E+06     34.9277E+06              0.     58.0498E+06
           35095     59.7439E+06     35.0958E+06              0.     58.9155E+06
           35096     59.4091E+06     35.2670E+06              0.     59.7797E+06
           35097     59.0589E+06     35.4409E+06              0.     60.6413E+06
           35098     58.6924E+06     35.6174E+06              0.     61.4994E+06
           35099     58.3092E+06     35.7963E+06              0.     62.3529E+06
           35100     57.9083E+06     35.9771E+06              0.     63.2009E+06
           35101     57.4893E+06     36.1595E+06              0.     64.0421E+06
           35102     57.0512E+06     36.3432E+06              0.     64.8752E+06
           35103     56.5935E+06     36.5278E+06              0.     65.6991E+06
           35104     56.1153E+06     36.7126E+06              0.     66.5124E+06
           35105     55.6159E+06     36.8973E+06              0.     67.3136E+06
           35106     55.0944E+06     37.0811E+06              0.     68.1013E+06
           35107     54.5502E+06     37.2635E+06              0.     68.8739E+06
           35108     53.9824E+06     37.4436E+06              0.     69.6298E+06
           35109     53.3903E+06     37.6207E+06              0.     70.3673E+06
           35110     52.7730E+06     37.7938E+06              0.     71.0846E+06
           35111     52.1297E+06     37.9620E+06              0.     71.7799E+06
           35112     51.4596E+06     38.1241E+06              0.     72.4512E+06
           35113     50.7620E+06     38.2791E+06              0.     73.0965E+06
           35114     50.0361E+06     38.4256E+06              0.     73.7138E+06
           35115     49.2811E+06     38.5623E+06              0.     74.3009E+06
           35116     48.4963E+06     38.6876E+06              0.     74.8555E+06
           35117     47.6809E+06     38.7999E+06              0.     75.3755E+06
           35118     46.8344E+06     38.8976E+06              0.     75.8583E+06
           35119     45.9560E+06     38.9787E+06              0.     76.3017E+06
           35120     45.0451E+06     39.0413E+06              0.     76.7031E+06
           35121     44.1012E+06     39.0831E+06              0.     77.0599E+06
           35122     43.1238E+06     39.1019E+06              0.     77.3695E+06
           35123     42.1124E+06     39.0952E+06              0.     77.6293E+06
           35124     41.0666E+06     39.0605E+06              0.     77.8366E+06
           35125     39.9862E+06     38.9949E+06              0.     77.9886E+06
           35126     38.8709E+06     38.8957E+06              0.     78.0826E+06
           35127     37.7206E+06     38.7596E+06              0.     78.1159E+06
           35128     36.5352E+06     38.5835E+06              0.     78.0855E+06
           35129     35.3148E+06     38.3639E+06              0.     77.9888E+06
           35130     34.0595E+06     38.0973E+06              0.     77.8229E+06
           35131     32.7697E+06     37.7800E+06              0.     77.5851E+06
           35132     31.4456E+06     37.4080E+06              0.     77.2727E+06
           35133     30.0879E+06     36.9775E+06              0.     76.8830E+06
           35134     28.6971E+06     36.4841E+06              0.     76.4134E+06
           35135     27.2741E+06     35.9236E+06              0.     75.8615E+06
           35136     25.8197E+06     35.2917E+06              0.     75.2246E+06
           35137     24.3351E+06     34.5836E+06              0.     74.5006E+06
           35138     22.8212E+06     33.7950E+06              0.     73.6872E+06
           35139     21.2796E+06     32.9209E+06              0.     72.7824E+06
           35140     19.7116E+06     31.9567E+06              0.     71.7841E+06
           35141     18.1189E+06     30.8976E+06              0.     70.6907E+06
           35142     16.5030E+06     29.7387E+06              0.     69.5006E+06
           35143     14.8660E+06     28.4751E+06              0.     68.2123E+06
           35144     13.2098E+06     27.1022E+06              0.     66.8247E+06
           35145     11.5363E+06     25.6150E+06              0.     65.3367E+06
           35146     9.84785E+06     24.0090E+06              0.     63.7475E+06
           35147     8.14665E+06     22.2795E+06              0.     62.0566E+06
           35148     6.43506E+06     20.4221E+06              0.     60.2637E+06
           35149     4.71546E+06     18.4324E+06              0.     58.3684E+06
           35150     2.99032E+06     16.3063E+06              0.     56.3711E+06
           35151     1.26207E+06     14.0398E+06              0.     54.2721E+06
           35152    -466.949E+03     11.6290E+06              0.     52.0721E+06
           35153    -2.19620E+06     9.06945E+06              0.     49.7715E+06
           35154    -3.74854E+06     5.90835E+06              0.     48.8449E+06
           35155     67.3016E+06     29.5261E+06              0.     2.76461E+06
           35156     67.3018E+06     29.5264E+06              0.     2.75963E+06
           35157     67.3020E+06     29.5264E+06              0.     2.72266E+06
           35158     67.3022E+06     29.5265E+06              0.     2.69119E+06
           35159     67.3024E+06     29.5265E+06              0.     2.66508E+06
           35160     67.3025E+06     29.5266E+06              0.     2.64417E+06
           35161     67.3027E+06     29.5266E+06              0.     2.62833E+06
           35162     67.3029E+06     29.5267E+06              0.     2.61745E+06
           35163     67.3030E+06     29.5267E+06              0.     2.61139E+06
           35164     67.3032E+06     29.5268E+06              0.     2.61004E+06
           35165     67.3033E+06     29.5269E+06              0.     2.61330E+06
           35166     67.3034E+06     29.5270E+06              0.     2.62106E+06
           35167     67.3036E+06     29.5271E+06              0.     2.63322E+06
           35168     67.3037E+06     29.5273E+06              0.     2.64969E+06
           35169     67.3038E+06     29.5274E+06              0.     2.67040E+06
           35170     67.3039E+06     29.5275E+06              0.     2.69525E+06
           35171     67.3040E+06     29.5277E+06              0.     2.72418E+06
           35172     67.3041E+06     29.5279E+06              0.     2.75711E+06
           35173     67.3042E+06     29.5281E+06              0.     2.79397E+06
           35174     67.3042E+06     29.5283E+06              0.     2.83472E+06
           35175     67.3043E+06     29.5285E+06              0.     2.87929E+06
           35176     67.3044E+06     29.5288E+06              0.     2.92763E+06
           35177     67.3044E+06     29.5290E+06              0.     2.97970E+06
           35178     67.3045E+06     29.5293E+06              0.     3.03544E+06
           35179     67.3045E+06     29.5296E+06              0.     3.09483E+06
           35180     67.3045E+06     29.5299E+06              0.     3.15783E+06
           35181     67.3046E+06     29.5303E+06              0.     3.22442E+06
           35182     67.3046E+06     29.5307E+06              0.     3.29455E+06
           35183     67.3046E+06     29.5311E+06              0.     3.36821E+06
           35184     67.3046E+06     29.5315E+06              0.     3.44538E+06
           35185     67.3046E+06     29.5320E+06              0.     3.52605E+06
           35186     67.3046E+06     29.5325E+06              0.     3.61020E+06
           35187     67.3046E+06     29.5330E+06              0.     3.69783E+06
           35188     67.3046E+06     29.5335E+06              0.     3.78892E+06
           35189     67.3046E+06     29.5341E+06              0.     3.88348E+06
           35190     67.3045E+06     29.5348E+06              0.     3.98150E+06
           35191     67.3045E+06     29.5354E+06              0.     4.08300E+06
           35192     67.3044E+06     29.5361E+06              0.     4.18798E+06
           35193     67.3044E+06     29.5369E+06              0.     4.29644E+06
           35194     67.3043E+06     29.5377E+06              0.     4.40840E+06
           35195     67.3042E+06     29.5386E+06              0.     4.52388E+06
           35196     67.3041E+06     29.5395E+06              0.     4.64290E+06
           35197      67.304E+06     29.5404E+06              0.     4.76547E+06
           35198     67.3039E+06     29.5414E+06              0.     4.89163E+06
           35199     67.3038E+06     29.5425E+06              0.     5.02139E+06
           35200     67.3036E+06     29.5436E+06              0.     5.15478E+06
           35201     67.3034E+06     29.5448E+06              0.     5.29184E+06
           35202     67.3033E+06     29.5461E+06              0.     5.43261E+06
           35203     67.3031E+06     29.5474E+06              0.     5.57711E+06
           35204     67.3029E+06     29.5489E+06              0.     5.72539E+06
           35205     67.3026E+06     29.5503E+06              0.     5.87749E+06
           35206     67.3024E+06     29.5519E+06              0.     6.03346E+06
           35207     67.3021E+06     29.5536E+06              0.     6.19332E+06
           35208     67.3018E+06     29.5554E+06              0.     6.35715E+06
           35209     67.3014E+06     29.5572E+06              0.     6.52499E+06
           35210     67.3011E+06     29.5592E+06              0.     6.69688E+06
           35211     67.3007E+06     29.5613E+06              0.     6.87289E+06
           35212     67.3002E+06     29.5634E+06              0.     7.05307E+06
           35213     67.2998E+06     29.5657E+06              0.     7.23748E+06
           35214     67.2992E+06     29.5682E+06              0.     7.42618E+06
           35215     67.2987E+06     29.5707E+06              0.     7.61923E+06
           35216     67.2981E+06     29.5734E+06              0.     7.81670E+06
           35217     67.2974E+06     29.5762E+06              0.     8.01866E+06
           35218     67.2967E+06     29.5792E+06              0.     8.22518E+06
           35219     67.2960E+06     29.5824E+06              0.     8.43631E+06
           35220     67.2952E+06     29.5857E+06              0.     8.65215E+06
           35221     67.2943E+06     29.5892E+06              0.     8.87276E+06
           35222     67.2933E+06     29.5928E+06              0.     9.09821E+06
           35223     67.2923E+06     29.5967E+06              0.     9.32859E+06
           35224     67.2912E+06     29.6007E+06              0.     9.56398E+06
           35225     67.2900E+06     29.6050E+06              0.     9.80445E+06
           35226     67.2887E+06     29.6095E+06              0.     10.0501E+06
           35227     67.2873E+06     29.6142E+06              0.     10.3010E+06
           35228     67.2858E+06     29.6192E+06              0.     10.5572E+06
           35229     67.2842E+06     29.6244E+06              0.     10.8189E+06
           35230     67.2825E+06     29.6299E+06              0.     11.0861E+06
           35231     67.2806E+06     29.6357E+06              0.     11.3588E+06
           35232     67.2786E+06     29.6417E+06              0.     11.6373E+06
           35233     67.2765E+06     29.6481E+06              0.     11.9216E+06
           35234     67.2742E+06     29.6548E+06              0.     12.2118E+06
           35235     67.2717E+06     29.6618E+06              0.     12.5079E+06
           35236     67.2690E+06     29.6692E+06              0.     12.8101E+06
           35237     67.2662E+06     29.6770E+06              0.     13.1185E+06
           35238     67.2632E+06     29.6851E+06              0.     13.4332E+06
           35239     67.2599E+06     29.6937E+06              0.     13.7542E+06
           35240     67.2564E+06     29.7027E+06              0.     14.0817E+06
           35241     67.2526E+06     29.7121E+06              0.     14.4158E+06
           35242     67.2486E+06     29.7220E+06              0.     14.7566E+06
           35243     67.2443E+06     29.7324E+06              0.     15.1041E+06
           35244     67.2397E+06     29.7433E+06              0.     15.4585E+06
           35245     67.2348E+06     29.7547E+06              0.     15.8200E+06
           35246     67.2295E+06     29.7667E+06              0.     16.1885E+06
           35247     67.2239E+06     29.7793E+06              0.     16.5642E+06
           35248     67.2178E+06     29.7925E+06              0.     16.9472E+06
           35249     67.2114E+06     29.8063E+06              0.     17.3376E+06
           35250     67.2045E+06     29.8208E+06              0.     17.7356E+06
           35251     67.1971E+06     29.8360E+06              0.     18.1411E+06
           35252     67.1893E+06     29.8520E+06              0.     18.5544E+06
           35253     67.1809E+06     29.8687E+06              0.     18.9755E+06
           35254     67.1719E+06     29.8862E+06              0.     19.4046E+06
           35255     67.1624E+06     29.9045E+06              0.     19.8417E+06
           35256     67.1522E+06     29.9238E+06              0.     20.2869E+06
           35257     67.1413E+06     29.9439E+06              0.     20.7404E+06
           35258     67.1297E+06     29.9650E+06              0.     21.2022E+06
           35259     67.1173E+06     29.9871E+06              0.     21.6724E+06
           35260     67.1041E+06     30.0102E+06              0.     22.1512E+06
           35261     67.0901E+06     30.0344E+06              0.     22.6386E+06
           35262     67.0751E+06     30.0597E+06              0.     23.1348E+06
           35263     67.0591E+06     30.0862E+06              0.     23.6397E+06
           35264     67.0421E+06     30.1140E+06              0.     24.1536E+06
           35265     67.0240E+06      30.143E+06              0.     24.6765E+06
           35266     67.0047E+06     30.1734E+06              0.     25.2084E+06
           35267     66.9842E+06     30.2051E+06              0.     25.7495E+06
           35268     66.9623E+06     30.2383E+06              0.     26.2998E+06
           35269     66.9391E+06     30.2730E+06              0.     26.8594E+06
           35270     66.9144E+06     30.3093E+06              0.     27.4284E+06
           35271     66.8881E+06     30.3472E+06              0.     28.0069E+06
           35272     66.8601E+06     30.3868E+06              0.     28.5948E+06
           35273     66.8304E+06     30.4281E+06              0.     29.1923E+06
           35274     66.7988E+06     30.4713E+06              0.     29.7993E+06
           35275     66.7652E+06     30.5164E+06              0.     30.4160E+06
           35276     66.7295E+06     30.5635E+06              0.     31.0424E+06
           35277     66.6916E+06     30.6126E+06              0.     31.6784E+06
           35278     66.6513E+06     30.6639E+06              0.     32.3242E+06
           35279     66.6086E+06     30.7173E+06              0.     32.9797E+06
           35280     66.5632E+06     30.7731E+06              0.     33.6449E+06
           35281     66.5150E+06     30.8312E+06              0.     34.3199E+06
           35282     66.4639E+06     30.8918E+06              0.     35.0045E+06
           35283     66.4096E+06     30.9549E+06              0.     35.6988E+06
           35284     66.3521E+06     31.0206E+06              0.     36.4028E+06
           35285     66.2911E+06     31.0891E+06              0.     37.1164E+06
           35286     66.2264E+06     31.1603E+06              0.     37.8394E+06
           35287     66.1578E+06     31.2345E+06              0.     38.5719E+06
           35288     66.0850E+06     31.3116E+06              0.     39.3138E+06
           35289     66.0080E+06     31.3918E+06              0.     40.0649E+06
           35290     65.9264E+06     31.4752E+06              0.     40.8251E+06
           35291     65.8399E+06     31.5618E+06              0.     41.5944E+06
           35292     65.7483E+06     31.6518E+06              0.     42.3724E+06
           35293     65.6514E+06     31.7452E+06              0.     43.1591E+06
           35294     65.5487E+06     31.8421E+06              0.     43.9542E+06
           35295     65.4401E+06     31.9426E+06              0.     44.7576E+06
           35296     65.3252E+06     32.0468E+06              0.     45.5689E+06
           35297     65.2036E+06     32.1548E+06              0.     46.3880E+06
           35298     65.0751E+06     32.2667E+06              0.     47.2144E+06
           35299     64.9392E+06     32.3825E+06              0.     48.0480E+06
           35300     64.7955E+06     32.5022E+06              0.     48.8884E+06
           35301     64.6437E+06     32.6260E+06              0.     49.7351E+06
           35302     64.4833E+06     32.7539E+06              0.     50.5879E+06
           35303     64.3138E+06      32.886E+06              0.     51.4461E+06
           35304     64.1349E+06     33.0222E+06              0.     52.3095E+06
           35305     63.9461E+06     33.1627E+06              0.     53.1774E+06
           35306     63.7468E+06     33.3074E+06              0.     54.0493E+06
           35307     63.5365E+06     33.4563E+06              0.     54.9246E+06
           35308     63.3147E+06     33.6094E+06              0.     55.8027E+06
           35309     63.0808E+06     33.7667E+06              0.     56.6830E+06
           35310     62.8343E+06     33.9282E+06              0.     57.5646E+06
           35311     62.5745E+06     34.0937E+06              0.     58.4470E+06
           35312     62.3009E+06     34.2632E+06              0.     59.3291E+06
           35313     62.0127E+06     34.4365E+06              0.     60.2102E+06
           35314     61.7093E+06     34.6135E+06              0.     61.0894E+06
           35315     61.3900E+06     34.7940E+06              0.     61.9656E+06
           35316     61.0542E+06     34.9779E+06              0.     62.8379E+06
           35317     60.7010E+06     35.1648E+06              0.     63.7052E+06
           35318     60.3298E+06     35.3545E+06              0.     64.5662E+06
           35319     59.9397E+06     35.5466E+06              0.     65.4198E+06
           35320     59.5300E+06     35.7408E+06              0.     66.2648E+06
           35321     59.0999E+06     35.9366E+06              0.     67.0996E+06
           35322     58.6485E+06     36.1336E+06              0.      67.923E+06
           35323     58.1751E+06     36.3311E+06              0.     68.7334E+06
           35324     57.6787E+06     36.5287E+06              0.     69.5292E+06
           35325     57.1586E+06     36.7255E+06              0.     70.3089E+06
           35326     56.6138E+06     36.9209E+06              0.     71.0706E+06
           35327     56.0435E+06     37.1140E+06              0.     71.8127E+06
           35328     55.4468E+06     37.3039E+06              0.     72.5331E+06
           35329     54.8228E+06     37.4896E+06              0.     73.2299E+06
           35330     54.1707E+06     37.6699E+06              0.     73.9012E+06
           35331     53.4896E+06     37.8437E+06              0.     74.5447E+06
           35332     52.7787E+06     38.0096E+06              0.     75.1583E+06
           35333     52.0371E+06     38.1661E+06              0.     75.7397E+06
           35334     51.2641E+06     38.3118E+06              0.     76.2865E+06
           35335     50.4587E+06     38.4448E+06              0.     76.7964E+06
           35336     49.6204E+06     38.5635E+06              0.     77.2667E+06
           35337     48.7484E+06     38.6657E+06              0.     77.6950E+06
           35338     47.8420E+06     38.7495E+06              0.     78.0785E+06
           35339     46.9006E+06     38.8124E+06              0.     78.4147E+06
           35340     45.9237E+06     38.8522E+06              0.     78.7006E+06
           35341     44.9108E+06     38.8661E+06              0.     78.9337E+06
           35342     43.8615E+06     38.8515E+06              0.     79.1108E+06
           35343     42.7754E+06     38.8055E+06              0.     79.2293E+06
           35344     41.6523E+06     38.7248E+06              0.     79.2862E+06
           35345     40.4920E+06     38.6063E+06              0.     79.2786E+06
           35346     39.2946E+06     38.4465E+06              0.     79.2035E+06
           35347     38.0601E+06     38.2418E+06              0.     79.0581E+06
           35348     36.7887E+06     37.9884E+06              0.     78.8394E+06
           35349     35.4807E+06     37.6824E+06              0.     78.5446E+06
           35350     34.1365E+06     37.3196E+06              0.     78.1709E+06
           35351     32.7567E+06     36.8957E+06              0.     77.7155E+06
           35352     31.3421E+06     36.4064E+06              0.     77.1758E+06
           35353     29.8934E+06     35.8471E+06              0.     76.5492E+06
           35354     28.4118E+06     35.2131E+06              0.     75.8332E+06
           35355     26.8983E+06     34.4996E+06              0.     75.0254E+06
           35356     25.3542E+06     33.7018E+06              0.     74.1237E+06
           35357     23.7811E+06     32.8147E+06              0.     73.1260E+06
           35358     22.1805E+06     31.8333E+06              0.     72.0305E+06
           35359     20.5541E+06     30.7525E+06              0.     70.8354E+06
           35360     18.9038E+06     29.5675E+06              0.     69.5393E+06
           35361     17.2316E+06     28.2730E+06              0.     68.1409E+06
           35362     15.5396E+06     26.8641E+06              0.     66.6391E+06
           35363     13.8300E+06     25.3360E+06              0.     65.0330E+06
           35364     12.1052E+06     23.6838E+06              0.     63.3222E+06
           35365     10.3676E+06     21.9028E+06              0.     61.5061E+06
           35366     8.61976E+06     19.9885E+06              0.     59.5847E+06
           35367     6.86423E+06     17.9366E+06              0.     57.5580E+06
           35368     5.10391E+06     15.7430E+06              0.     55.4265E+06
           35369     3.34248E+06     13.4039E+06              0.     53.1906E+06
           35370     1.58517E+06     10.9164E+06              0.     50.8510E+06
           35371     46.0229E+03     7.82741E+06              0.     49.9162E+06
           35372     67.4106E+06     29.5727E+06              0.     2.76373E+06
           35373     67.4101E+06     29.5661E+06              0.     2.75876E+06
           35374     67.4127E+06     29.5607E+06              0.     2.72181E+06
           35375     67.4152E+06     29.5554E+06              0.     2.69036E+06
           35376     67.4177E+06     29.5503E+06              0.     2.66425E+06
           35377     67.4201E+06     29.5453E+06              0.     2.64336E+06
           35378     67.4225E+06     29.5405E+06              0.     2.62753E+06
           35379     67.4249E+06     29.5357E+06              0.     2.61666E+06
           35380     67.4273E+06     29.5312E+06              0.     2.61061E+06
           35381     67.4297E+06     29.5267E+06              0.     2.60927E+06
           35382     67.4321E+06     29.5223E+06              0.     2.61253E+06
           35383     67.4344E+06     29.5181E+06              0.     2.62030E+06
           35384     67.4368E+06     29.5140E+06              0.     2.63246E+06
           35385     67.4392E+06     29.5099E+06              0.     2.64894E+06
           35386     67.4416E+06     29.5060E+06              0.     2.66965E+06
           35387     67.4440E+06     29.5021E+06              0.     2.69451E+06
           35388     67.4464E+06     29.4983E+06              0.     2.72343E+06
           35389     67.4488E+06     29.4946E+06              0.     2.75636E+06
           35390     67.4513E+06     29.4910E+06              0.     2.79323E+06
           35391     67.4538E+06     29.4875E+06              0.     2.83398E+06
           35392     67.4564E+06     29.4840E+06              0.     2.87855E+06
           35393     67.4589E+06     29.4806E+06              0.     2.92689E+06
           35394     67.4615E+06     29.4772E+06              0.     2.97895E+06
           35395     67.4642E+06     29.4739E+06              0.     3.03470E+06
           35396     67.4668E+06     29.4707E+06              0.     3.09409E+06
           35397     67.4696E+06     29.4675E+06              0.     3.15709E+06
           35398     67.4724E+06     29.4644E+06              0.     3.22367E+06
           35399     67.4752E+06     29.4614E+06              0.     3.29380E+06
           35400     67.4781E+06     29.4583E+06              0.     3.36746E+06
           35401     67.4811E+06     29.4553E+06              0.     3.44463E+06
           35402     67.4841E+06     29.4524E+06              0.     3.52530E+06
           35403     67.4872E+06     29.4495E+06              0.     3.60945E+06
           35404     67.4904E+06     29.4466E+06              0.     3.69707E+06
           35405     67.4936E+06     29.4438E+06              0.     3.78817E+06
           35406     67.4969E+06     29.4411E+06              0.     3.88273E+06
           35407     67.5003E+06     29.4383E+06              0.     3.98076E+06
           35408     67.5038E+06     29.4356E+06              0.     4.08226E+06
           35409     67.5073E+06     29.4329E+06              0.     4.18724E+06
           35410     67.5109E+06     29.4303E+06              0.     4.29570E+06
           35411     67.5146E+06     29.4277E+06              0.     4.40768E+06
           35412     67.5184E+06     29.4251E+06              0.     4.52317E+06
           35413     67.5224E+06     29.4225E+06              0.     4.64219E+06
           35414     67.5263E+06     29.4200E+06              0.     4.76478E+06
           35415     67.5304E+06     29.4175E+06              0.     4.89094E+06
           35416     67.5346E+06     29.4151E+06              0.     5.02072E+06
           35417     67.5389E+06     29.4127E+06              0.     5.15414E+06
           35418     67.5433E+06     29.4103E+06              0.     5.29122E+06
           35419     67.5478E+06     29.4080E+06              0.     5.43201E+06
           35420     67.5524E+06     29.4056E+06              0.     5.57654E+06
           35421     67.5571E+06     29.4034E+06              0.     5.72485E+06
           35422     67.5620E+06     29.4011E+06              0.     5.87699E+06
           35423     67.5669E+06     29.3989E+06              0.     6.03299E+06
           35424     67.5719E+06     29.3968E+06              0.      6.1929E+06
           35425     67.5771E+06     29.3947E+06              0.     6.35677E+06
           35426     67.5824E+06     29.3926E+06              0.     6.52466E+06
           35427     67.5878E+06     29.3906E+06              0.     6.69661E+06
           35428     67.5933E+06     29.3887E+06              0.     6.87268E+06
           35429     67.5990E+06     29.3868E+06              0.     7.05292E+06
           35430     67.6048E+06     29.3849E+06              0.     7.23740E+06
           35431     67.6107E+06     29.3832E+06              0.     7.42618E+06
           35432     67.6167E+06     29.3815E+06              0.     7.61932E+06
           35433     67.6228E+06     29.3798E+06              0.     7.81689E+06
           35434     67.6291E+06     29.3783E+06              0.     8.01895E+06
           35435     67.6355E+06     29.3768E+06              0.     8.22557E+06
           35436     67.6420E+06     29.3754E+06              0.     8.43682E+06
           35437     67.6487E+06     29.3742E+06              0.     8.65278E+06
           35438     67.6555E+06     29.3730E+06              0.     8.87352E+06
           35439     67.6624E+06     29.3719E+06              0.     9.09912E+06
           35440     67.6694E+06     29.3710E+06              0.     9.32966E+06
           35441     67.6766E+06     29.3701E+06              0.     9.56522E+06
           35442     67.6838E+06     29.3694E+06              0.     9.80587E+06
           35443     67.6912E+06     29.3689E+06              0.     10.0517E+06
           35444     67.6988E+06     29.3684E+06              0.     10.3028E+06
           35445     67.7064E+06     29.3682E+06              0.     10.5593E+06
           35446     67.7141E+06     29.3681E+06              0.     10.8211E+06
           35447     67.7220E+06     29.3682E+06              0.     11.0886E+06
           35448     67.7300E+06     29.3685E+06              0.     11.3616E+06
           35449     67.7380E+06     29.3690E+06              0.     11.6404E+06
           35450     67.7462E+06     29.3697E+06              0.     11.9250E+06
           35451     67.7545E+06     29.3707E+06              0.     12.2154E+06
           35452     67.7628E+06     29.3719E+06              0.     12.5119E+06
           35453     67.7713E+06     29.3733E+06              0.     12.8145E+06
           35454     67.7798E+06     29.3750E+06              0.     13.1233E+06
           35455     67.7884E+06     29.3771E+06              0.     13.4384E+06
           35456      67.797E+06     29.3794E+06              0.     13.7598E+06
           35457     67.8057E+06     29.3821E+06              0.     14.0878E+06
           35458     67.8144E+06     29.3851E+06              0.     14.4224E+06
           35459     67.8232E+06     29.3884E+06              0.     14.7637E+06
           35460     67.8320E+06     29.3922E+06              0.     15.1118E+06
           35461     67.8407E+06     29.3964E+06              0.     15.4668E+06
           35462     67.8495E+06     29.4010E+06              0.     15.8289E+06
           35463     67.8583E+06     29.4061E+06              0.     16.1981E+06
           35464     67.8670E+06     29.4117E+06              0.     16.5745E+06
           35465     67.8756E+06     29.4177E+06              0.     16.9582E+06
           35466     67.8842E+06     29.4243E+06              0.     17.3495E+06
           35467     67.8927E+06     29.4315E+06              0.     17.7482E+06
           35468     67.9011E+06     29.4393E+06              0.     18.1547E+06
           35469     67.9093E+06     29.4477E+06              0.     18.5689E+06
           35470     67.9173E+06     29.4568E+06              0.     18.9910E+06
           35471     67.9252E+06     29.4666E+06              0.     19.4211E+06
           35472     67.9328E+06     29.4771E+06              0.     19.8593E+06
           35473     67.9402E+06     29.4885E+06              0.     20.3057E+06
           35474     67.9473E+06     29.5006E+06              0.     20.7604E+06
           35475     67.9541E+06     29.5136E+06              0.     21.2235E+06
           35476     67.9605E+06     29.5274E+06              0.     21.6951E+06
           35477     67.9665E+06     29.5423E+06              0.     22.1753E+06
           35478     67.9721E+06     29.5581E+06              0.     22.6642E+06
           35479     67.9771E+06     29.5749E+06              0.     23.1620E+06
           35480     67.9816E+06     29.5929E+06              0.     23.6687E+06
           35481     67.9856E+06     29.6120E+06              0.     24.1843E+06
           35482     67.9888E+06     29.6323E+06              0.     24.7090E+06
           35483     67.9914E+06     29.6539E+06              0.     25.2430E+06
           35484     67.9932E+06     29.6767E+06              0.     25.7861E+06
           35485     67.9941E+06     29.7010E+06              0.     26.3387E+06
           35486     67.9941E+06     29.7267E+06              0.     26.9006E+06
           35487     67.9932E+06     29.7539E+06              0.     27.4720E+06
           35488     67.9911E+06     29.7827E+06              0.     28.0530E+06
           35489     67.9879E+06     29.8131E+06              0.     28.6436E+06
           35490     67.9834E+06     29.8453E+06              0.     29.2439E+06
           35491     67.9776E+06     29.8792E+06              0.     29.8540E+06
           35492     67.9703E+06     29.9150E+06              0.     30.4738E+06
           35493     67.9615E+06     29.9528E+06              0.     31.1035E+06
           35494     67.9509E+06     29.9926E+06              0.     31.7430E+06
           35495     67.9386E+06     30.0345E+06              0.     32.3924E+06
           35496     67.9243E+06     30.0786E+06              0.     33.0517E+06
           35497     67.9080E+06     30.1250E+06              0.     33.7209E+06
           35498     67.8894E+06     30.1738E+06              0.     34.4001E+06
           35499     67.8684E+06     30.2251E+06              0.     35.0891E+06
           35500     67.8449E+06     30.2790E+06              0.     35.7881E+06
           35501     67.8187E+06     30.3355E+06              0.     36.4969E+06
           35502     67.7896E+06     30.3948E+06              0.     37.2156E+06
           35503     67.7574E+06     30.4570E+06              0.     37.9440E+06
           35504     67.7219E+06     30.5221E+06              0.     38.6821E+06
           35505     67.6829E+06     30.5904E+06              0.     39.4298E+06
           35506     67.6402E+06     30.6618E+06              0.     40.1871E+06
           35507     67.5935E+06     30.7366E+06              0.     40.9538E+06
           35508     67.5425E+06     30.8147E+06              0.     41.7297E+06
           35509     67.4871E+06     30.8964E+06              0.     42.5148E+06
           35510     67.4270E+06     30.9817E+06              0.     43.3089E+06
           35511     67.3617E+06     31.0707E+06              0.     44.1117E+06
           35512     67.2911E+06     31.1636E+06              0.     44.9231E+06
           35513     67.2148E+06     31.2604E+06              0.     45.7429E+06
           35514     67.1325E+06     31.3612E+06              0.     46.5708E+06
           35515     67.0438E+06     31.4662E+06              0.     47.4065E+06
           35516     66.9484E+06     31.5755E+06              0.     48.2497E+06
           35517     66.8458E+06     31.6891E+06              0.     49.1001E+06
           35518     66.7357E+06     31.8072E+06              0.     49.9573E+06
           35519     66.6175E+06     31.9297E+06              0.     50.8209E+06
           35520     66.4910E+06     32.0569E+06              0.     51.6905E+06
           35521     66.3555E+06     32.1887E+06              0.     52.5657E+06
           35522     66.2107E+06     32.3253E+06              0.     53.4459E+06
           35523     66.0559E+06     32.4666E+06              0.     54.3307E+06
           35524     65.8907E+06     32.6128E+06              0.     55.2194E+06
           35525     65.7145E+06     32.7638E+06              0.     56.1114E+06
           35526     65.5268E+06     32.9197E+06              0.     57.0061E+06
           35527     65.3268E+06     33.0804E+06              0.     57.9027E+06
           35528     65.1141E+06     33.2459E+06              0.     58.8006E+06
           35529     64.8880E+06     33.4162E+06              0.     59.6989E+06
           35530     64.6477E+06     33.5913E+06              0.     60.5967E+06
           35531     64.3926E+06     33.7709E+06              0.     61.4932E+06
           35532     64.1220E+06      33.955E+06              0.     62.3873E+06
           35533     63.8351E+06     34.1434E+06              0.     63.2781E+06
           35534     63.5311E+06     34.3360E+06              0.     64.1645E+06
           35535     63.2093E+06     34.5325E+06              0.     65.0453E+06
           35536     62.8689E+06     34.7326E+06              0.     65.9194E+06
           35537     62.5090E+06     34.9360E+06              0.     66.7853E+06
           35538     62.1287E+06     35.1424E+06              0.     67.6418E+06
           35539     61.7272E+06     35.3512E+06              0.     68.4874E+06
           35540     61.3036E+06     35.5621E+06              0.     69.3206E+06
           35541     60.8570E+06     35.7745E+06              0.     70.1399E+06
           35542     60.3865E+06     35.9878E+06              0.     70.9436E+06
           35543     59.8911E+06     36.2012E+06              0.     71.7299E+06
           35544     59.3699E+06     36.4141E+06              0.     72.4970E+06
           35545     58.8219E+06     36.6255E+06              0.     73.2430E+06
           35546     58.2462E+06     36.8345E+06              0.     73.9660E+06
           35547     57.6418E+06     37.0400E+06              0.     74.6637E+06
           35548     57.0078E+06     37.2410E+06              0.     75.3341E+06
           35549     56.3432E+06     37.4360E+06              0.      75.975E+06
           35550     55.6471E+06     37.6239E+06              0.     76.5839E+06
           35551     54.9187E+06     37.8029E+06              0.     77.1585E+06
           35552     54.1569E+06     37.9715E+06              0.     77.6963E+06
           35553     53.3611E+06     38.1280E+06              0.     78.1947E+06
           35554     52.5302E+06     38.2703E+06              0.     78.6510E+06
           35555     51.6637E+06     38.3964E+06              0.     79.0625E+06
           35556     50.7607E+06     38.5040E+06              0.     79.4265E+06
           35557     49.8207E+06     38.5909E+06              0.     79.7400E+06
           35558     48.8429E+06     38.6542E+06              0.     80.0001E+06
           35559     47.8269E+06     38.6914E+06              0.     80.2039E+06
           35560     46.7722E+06     38.6995E+06              0.     80.3484E+06
           35561     45.6786E+06     38.6754E+06              0.     80.4306E+06
           35562     44.5456E+06     38.6157E+06              0.     80.4474E+06
           35563     43.3733E+06      38.517E+06              0.     80.3956E+06
           35564     42.1616E+06     38.3756E+06              0.     80.2724E+06
           35565     40.9105E+06     38.1878E+06              0.     80.0746E+06
           35566     39.6203E+06     37.9493E+06              0.     79.7992E+06
           35567     38.2914E+06     37.6561E+06              0.     79.4432E+06
           35568     36.9242E+06     37.3037E+06              0.     79.0038E+06
           35569     35.5195E+06     36.8876E+06              0.     78.4781E+06
           35570     34.0779E+06     36.4031E+06              0.     77.8635E+06
           35571     32.6006E+06     35.8453E+06              0.     77.1571E+06
           35572     31.0886E+06     35.2095E+06              0.     76.3567E+06
           35573     29.5431E+06     34.4903E+06              0.     75.4598E+06
           35574     27.9657E+06     33.6828E+06              0.     74.4643E+06
           35575     26.3579E+06     32.7817E+06              0.     73.3681E+06
           35576     24.7215E+06     31.7818E+06              0.     72.1695E+06
           35577     23.0584E+06     30.6778E+06              0.     70.8669E+06
           35578     21.3705E+06     29.4645E+06              0.     69.4589E+06
           35579     19.6601E+06     28.1366E+06              0.     67.9444E+06
           35580     17.9295E+06     26.6890E+06              0.     66.3224E+06
           35581     16.1810E+06     25.1167E+06              0.     64.5924E+06
           35582     14.4172E+06     23.4147E+06              0.      62.754E+06
           35583     12.6407E+06     21.5784E+06              0.     60.8070E+06
           35584     10.8541E+06     19.6030E+06              0.     58.7515E+06
           35585     9.06020E+06     17.4844E+06              0.     56.5879E+06
           35586     7.26129E+06     15.2181E+06              0.     54.3166E+06
           35587     5.45778E+06     12.7997E+06              0.     51.9386E+06
           35588     3.91503E+06     9.77288E+06              0.     50.9965E+06
           35589     67.5195E+06     29.6192E+06              0.     2.76051E+06
           35590     67.5185E+06     29.6057E+06              0.     2.75555E+06
           35591     67.5233E+06     29.5948E+06              0.     2.71865E+06
           35592     67.5281E+06     29.5843E+06              0.     2.68724E+06
           35593     67.5329E+06      29.574E+06              0.     2.66117E+06
           35594     67.5376E+06     29.5640E+06              0.     2.64031E+06
           35595     67.5423E+06     29.5543E+06              0.     2.62451E+06
           35596     67.5469E+06     29.5448E+06              0.     2.61365E+06
           35597     67.5515E+06     29.5356E+06              0.     2.60762E+06
           35598     67.5561E+06     29.5266E+06              0.     2.60629E+06
           35599     67.5607E+06     29.5178E+06              0.     2.60956E+06
           35600     67.5653E+06     29.5092E+06              0.     2.61732E+06
           35601     67.5700E+06     29.5008E+06              0.     2.62948E+06
           35602     67.5746E+06     29.4926E+06              0.     2.64595E+06
           35603     67.5793E+06     29.4845E+06              0.     2.66664E+06
           35604     67.5840E+06     29.4767E+06              0.     2.69148E+06
           35605     67.5887E+06     29.4689E+06              0.     2.72039E+06
           35606     67.5935E+06     29.4614E+06              0.     2.75329E+06
           35607     67.5984E+06     29.4540E+06              0.     2.79013E+06
           35608     67.6033E+06     29.4467E+06              0.     2.83084E+06
           35609     67.6083E+06     29.4395E+06              0.     2.87537E+06
           35610     67.6134E+06     29.4324E+06              0.     2.92367E+06
           35611     67.6185E+06     29.4255E+06              0.     2.97569E+06
           35612     67.6238E+06     29.4186E+06              0.     3.03138E+06
           35613     67.6291E+06     29.4118E+06              0.     3.09072E+06
           35614     67.6346E+06     29.4052E+06              0.     3.15367E+06
           35615     67.6401E+06     29.3986E+06              0.     3.22019E+06
           35616     67.6458E+06     29.3920E+06              0.     3.29026E+06
           35617     67.6516E+06     29.3856E+06              0.     3.36385E+06
           35618     67.6575E+06     29.3792E+06              0.     3.44096E+06
           35619     67.6635E+06     29.3729E+06              0.     3.52156E+06
           35620     67.6697E+06     29.3666E+06              0.     3.60564E+06
           35621     67.6760E+06     29.3604E+06              0.     3.69319E+06
           35622     67.6825E+06     29.3542E+06              0.     3.78421E+06
           35623     67.6892E+06     29.3480E+06              0.     3.87869E+06
           35624     67.6960E+06     29.3419E+06              0.     3.97664E+06
           35625     67.7029E+06     29.3358E+06              0.     4.07805E+06
           35626     67.7101E+06     29.3297E+06              0.     4.18295E+06
           35627     67.7174E+06     29.3237E+06              0.     4.29133E+06
           35628     67.7249E+06     29.3177E+06              0.     4.40322E+06
           35629     67.7326E+06     29.3117E+06              0.     4.51862E+06
           35630     67.7405E+06     29.3057E+06              0.     4.63756E+06
           35631     67.7486E+06     29.2997E+06              0.     4.76005E+06
           35632     67.7569E+06     29.2937E+06              0.     4.88612E+06
           35633     67.7654E+06     29.2877E+06              0.     5.01581E+06
           35634     67.7741E+06     29.2818E+06              0.     5.14913E+06
           35635     67.7831E+06     29.2758E+06              0.     5.28612E+06
           35636     67.7923E+06     29.2698E+06              0.     5.42681E+06
           35637     67.8017E+06     29.2639E+06              0.     5.57125E+06
           35638     67.8113E+06     29.2579E+06              0.     5.71947E+06
           35639     67.8212E+06     29.2520E+06              0.     5.87151E+06
           35640     67.8313E+06     29.2460E+06              0.     6.02741E+06
           35641     67.8418E+06     29.2400E+06              0.     6.18723E+06
           35642     67.8524E+06     29.2340E+06              0.     6.35101E+06
           35643     67.8633E+06     29.2281E+06              0.     6.51881E+06
           35644     67.8745E+06     29.2221E+06              0.     6.69067E+06
           35645     67.8860E+06     29.2161E+06              0.     6.86665E+06
           35646     67.8977E+06     29.2101E+06              0.     7.04681E+06
           35647     67.9097E+06     29.2042E+06              0.     7.23120E+06
           35648     67.9220E+06     29.1982E+06              0.     7.41990E+06
           35649     67.9346E+06     29.1922E+06              0.     7.61296E+06
           35650     67.9476E+06     29.1863E+06              0.     7.81045E+06
           35651     67.9608E+06     29.1803E+06              0.     8.01244E+06
           35652     67.9743E+06     29.1744E+06              0.     8.21899E+06
           35653     67.9881E+06     29.1685E+06              0.     8.43019E+06
           35654     68.0022E+06     29.1626E+06              0.     8.64609E+06
           35655     68.0167E+06     29.1568E+06              0.     8.86678E+06
           35656     68.0315E+06     29.1510E+06              0.     9.09233E+06
           35657     68.0466E+06     29.1452E+06              0.     9.32283E+06
           35658     68.0620E+06     29.1394E+06              0.     9.55835E+06
           35659     68.0778E+06     29.1338E+06              0.     9.79898E+06
           35660     68.0939E+06     29.1281E+06              0.     10.0448E+06
           35661     68.1103E+06     29.1226E+06              0.     10.2959E+06
           35662     68.1271E+06     29.1171E+06              0.     10.5523E+06
           35663     68.1442E+06     29.1117E+06              0.     10.8143E+06
           35664     68.1617E+06     29.1064E+06              0.     11.0817E+06
           35665     68.1795E+06     29.1012E+06              0.     11.3548E+06
           35666     68.1976E+06     29.0961E+06              0.     11.6336E+06
           35667     68.2161E+06     29.0912E+06              0.     11.9182E+06
           35668     68.2350E+06     29.0864E+06              0.     12.2088E+06
           35669     68.2542E+06     29.0817E+06              0.     12.5054E+06
           35670     68.2738E+06     29.0772E+06              0.     12.8081E+06
           35671     68.2936E+06     29.0729E+06              0.     13.1170E+06
           35672     68.3139E+06     29.0687E+06              0.     13.4322E+06
           35673     68.3345E+06     29.0648E+06              0.     13.7538E+06
           35674     68.3554E+06     29.0612E+06              0.     14.0820E+06
           35675     68.3766E+06     29.0577E+06              0.     14.4168E+06
           35676     68.3982E+06     29.0546E+06              0.     14.7583E+06
           35677     68.4201E+06     29.0517E+06              0.     15.1067E+06
           35678     68.4423E+06     29.0491E+06              0.     15.4620E+06
           35679     68.4648E+06     29.0469E+06              0.     15.8244E+06
           35680     68.4877E+06     29.0450E+06              0.     16.1939E+06
           35681     68.5108E+06     29.0435E+06              0.     16.5707E+06
           35682     68.5342E+06     29.0425E+06              0.     16.9549E+06
           35683     68.5578E+06     29.0418E+06              0.     17.3466E+06
           35684     68.5817E+06     29.0416E+06              0.     17.7459E+06
           35685     68.6059E+06     29.0420E+06              0.     18.1528E+06
           35686     68.6303E+06     29.0428E+06              0.     18.5677E+06
           35687     68.6548E+06     29.0442E+06              0.     18.9904E+06
           35688     68.6796E+06     29.0463E+06              0.     19.4212E+06
           35689     68.7045E+06     29.0489E+06              0.     19.8601E+06
           35690     68.7295E+06     29.0523E+06              0.     20.3073E+06
           35691     68.7547E+06     29.0563E+06              0.     20.7628E+06
           35692     68.7799E+06     29.0611E+06              0.     21.2268E+06
           35693     68.8052E+06     29.0667E+06              0.     21.6994E+06
           35694     68.8305E+06     29.0732E+06              0.     22.1807E+06
           35695     68.8558E+06     29.0806E+06              0.     22.6707E+06
           35696     68.8810E+06     29.0889E+06              0.     23.1697E+06
           35697     68.9062E+06     29.0982E+06              0.     23.6776E+06
           35698     68.9312E+06     29.1086E+06              0.     24.1946E+06
           35699     68.9560E+06     29.1201E+06              0.     24.7208E+06
           35700     68.9805E+06     29.1328E+06              0.     25.2562E+06
           35701     69.0047E+06     29.1467E+06              0.     25.8011E+06
           35702     69.0286E+06     29.1619E+06              0.     26.3553E+06
           35703     69.0520E+06     29.1785E+06              0.     26.9191E+06
           35704     69.0750E+06     29.1965E+06              0.     27.4925E+06
           35705     69.0974E+06     29.2161E+06              0.     28.0756E+06
           35706     69.1191E+06     29.2372E+06              0.     28.6684E+06
           35707     69.1401E+06     29.2600E+06              0.     29.2710E+06
           35708     69.1603E+06     29.2846E+06              0.     29.8836E+06
           35709     69.1795E+06     29.3110E+06              0.     30.5060E+06
           35710     69.1977E+06     29.3393E+06              0.     31.1385E+06
           35711     69.2148E+06     29.3696E+06              0.     31.7809E+06
           35712     69.2307E+06     29.4020E+06              0.     32.4334E+06
           35713     69.2452E+06     29.4366E+06              0.     33.0960E+06
           35714     69.2581E+06     29.4735E+06              0.     33.7688E+06
           35715     69.2695E+06     29.5128E+06              0.     34.4516E+06
           35716     69.2790E+06     29.5546E+06              0.     35.1445E+06
           35717     69.2866E+06     29.5990E+06              0.     35.8476E+06
           35718     69.2921E+06     29.6462E+06              0.     36.5607E+06
           35719     69.2953E+06     29.6961E+06              0.     37.2839E+06
           35720     69.2960E+06      29.749E+06              0.     38.0171E+06
           35721     69.2940E+06     29.8050E+06              0.     38.7602E+06
           35722     69.2892E+06     29.8641E+06              0.     39.5133E+06
           35723     69.2813E+06     29.9265E+06              0.     40.2761E+06
           35724       69.27E+06     29.9924E+06              0.     41.0486E+06
           35725     69.2551E+06     30.0618E+06              0.     41.8308E+06
           35726     69.2364E+06     30.1349E+06              0.     42.6223E+06
           35727     69.2136E+06     30.2118E+06              0.     43.4232E+06
           35728     69.1864E+06     30.2926E+06              0.     44.2332E+06
           35729     69.1544E+06     30.3775E+06              0.     45.0521E+06
           35730     69.1174E+06     30.4665E+06              0.     45.8797E+06
           35731     69.0750E+06     30.5599E+06              0.     46.7159E+06
           35732     69.0269E+06     30.6578E+06              0.     47.5602E+06
           35733     68.9727E+06     30.7602E+06              0.     48.4125E+06
           35734     68.9120E+06     30.8673E+06              0.     49.2723E+06
           35735     68.8443E+06     30.9792E+06              0.     50.1394E+06
           35736     68.7694E+06     31.0960E+06              0.     51.0134E+06
           35737     68.6866E+06     31.2179E+06              0.     51.8939E+06
           35738     68.5955E+06     31.3449E+06              0.     52.7804E+06
           35739     68.4956E+06     31.4771E+06              0.     53.6725E+06
           35740     68.3864E+06     31.6147E+06              0.     54.5696E+06
           35741     68.2674E+06     31.7577E+06              0.     55.4712E+06
           35742     68.1380E+06     31.9061E+06              0.     56.3766E+06
           35743     67.9975E+06     32.0601E+06              0.     57.2853E+06
           35744     67.8454E+06     32.2196E+06              0.     58.1965E+06
           35745     67.6810E+06     32.3847E+06              0.     59.1096E+06
           35746     67.5036E+06     32.5554E+06              0.     60.0236E+06
           35747     67.3126E+06     32.7317E+06              0.     60.9378E+06
           35748     67.1072E+06     32.9134E+06              0.     61.8513E+06
           35749     66.8867E+06     33.1007E+06              0.     62.7631E+06
           35750     66.6503E+06     33.2932E+06              0.     63.6723E+06
           35751     66.3971E+06     33.4910E+06              0.     64.5776E+06
           35752     66.1264E+06     33.6938E+06              0.     65.4780E+06
           35753     65.8373E+06     33.9014E+06              0.     66.3723E+06
           35754     65.5289E+06     34.1135E+06              0.     67.2592E+06
           35755     65.2003E+06     34.3300E+06              0.     68.1373E+06
           35756     64.8506E+06     34.5503E+06              0.     69.0052E+06
           35757     64.4788E+06     34.7742E+06              0.     69.8614E+06
           35758     64.0840E+06      35.001E+06              0.     70.7043E+06
           35759     63.6651E+06     35.2303E+06              0.     71.5322E+06
           35760     63.2212E+06     35.4614E+06              0.     72.3433E+06
           35761     62.7512E+06     35.6937E+06              0.     73.1359E+06
           35762     62.2541E+06     35.9263E+06              0.     73.9079E+06
           35763     61.7289E+06     36.1584E+06              0.     74.6574E+06
           35764     61.1745E+06     36.3890E+06              0.     75.3823E+06
           35765     60.5899E+06     36.6170E+06              0.     76.0803E+06
           35766     59.9741E+06     36.8411E+06              0.     76.7491E+06
           35767     59.3259E+06     37.0602E+06              0.     77.3864E+06
           35768     58.6445E+06     37.2727E+06              0.     77.9897E+06
           35769     57.9288E+06      37.477E+06              0.     78.5564E+06
           35770     57.1778E+06     37.6714E+06              0.     79.0838E+06
           35771     56.3907E+06     37.8541E+06              0.     79.5693E+06
           35772     55.5665E+06     38.0229E+06              0.     80.0100E+06
           35773     54.7044E+06     38.1758E+06              0.     80.4031E+06
           35774     53.8036E+06     38.3102E+06              0.     80.7454E+06
           35775     52.8635E+06     38.4237E+06              0.     81.0342E+06
           35776     51.8832E+06     38.5135E+06              0.     81.2662E+06
           35777     50.8624E+06     38.5767E+06              0.     81.4383E+06
           35778     49.8005E+06     38.6101E+06              0.     81.5474E+06
           35779     48.6972E+06     38.6104E+06              0.     81.5902E+06
           35780     47.5522E+06     38.5742E+06              0.     81.5636E+06
           35781     46.3654E+06     38.4976E+06              0.     81.4643E+06
           35782     45.1367E+06     38.3768E+06              0.     81.2892E+06
           35783     43.8664E+06     38.2077E+06              0.     81.0351E+06
           35784     42.5546E+06     37.9859E+06              0.     80.6988E+06
           35785     41.2018E+06     37.7069E+06              0.     80.2772E+06
           35786     39.8087E+06     37.3661E+06              0.     79.7675E+06
           35787     38.3758E+06     36.9587E+06              0.     79.1666E+06
           35788     36.9042E+06     36.4796E+06              0.     78.4718E+06
           35789     35.3949E+06     35.9237E+06              0.     77.6805E+06
           35790     33.8492E+06     35.2858E+06              0.     76.7901E+06
           35791     32.2684E+06     34.5605E+06              0.     75.7984E+06
           35792     30.6543E+06     33.7424E+06              0.     74.7032E+06
           35793     29.0086E+06     32.8261E+06              0.     73.5026E+06
           35794     27.3331E+06     31.8060E+06              0.     72.1948E+06
           35795     25.6300E+06     30.6766E+06              0.     70.7786E+06
           35796     23.9014E+06     29.4324E+06              0.     69.2525E+06
           35797     22.1498E+06     28.0682E+06              0.     67.6157E+06
           35798     20.3776E+06     26.5785E+06              0.     65.8675E+06
           35799     18.5874E+06     24.9582E+06              0.     64.0075E+06
           35800     16.7818E+06     23.2024E+06              0.     62.0356E+06
           35801     14.9636E+06     21.3062E+06              0.     59.9518E+06
           35802     13.1355E+06     19.2650E+06              0.     57.7567E+06
           35803     11.3002E+06     17.0746E+06              0.     55.4509E+06
           35804     9.46275E+06     14.7325E+06              0.     53.0354E+06
           35805     7.93008E+06     11.7761E+06              0.     52.0893E+06
           35806     67.6283E+06     29.6656E+06              0.     2.75495E+06
           35807     67.6266E+06     29.6452E+06              0.     2.75001E+06
           35808     67.6338E+06     29.6289E+06              0.     2.71319E+06
           35809     67.6409E+06     29.6131E+06              0.     2.68185E+06
           35810     67.6480E+06     29.5977E+06              0.     2.65584E+06
           35811     67.6549E+06     29.5827E+06              0.     2.63502E+06
           35812     67.6618E+06     29.5681E+06              0.     2.61926E+06
           35813     67.6687E+06     29.5538E+06              0.     2.60844E+06
           35814     67.6755E+06     29.5399E+06              0.     2.60242E+06
           35815     67.6824E+06     29.5264E+06              0.     2.60110E+06
           35816     67.6892E+06     29.5132E+06              0.     2.60437E+06
           35817     67.6961E+06     29.5002E+06              0.     2.61213E+06
           35818     67.7029E+06     29.4876E+06              0.     2.62427E+06
           35819     67.7098E+06     29.4752E+06              0.     2.64072E+06
           35820     67.7168E+06     29.4631E+06              0.     2.66138E+06
           35821     67.7238E+06     29.4512E+06              0.     2.68618E+06
           35822     67.7309E+06     29.4396E+06              0.     2.71503E+06
           35823     67.7380E+06     29.4282E+06              0.     2.74788E+06
           35824     67.7453E+06     29.4169E+06              0.     2.78466E+06
           35825     67.7526E+06     29.4059E+06              0.     2.82530E+06
           35826     67.7601E+06     29.3950E+06              0.     2.86976E+06
           35827     67.7676E+06     29.3843E+06              0.     2.91797E+06
           35828     67.7753E+06     29.3737E+06              0.     2.96990E+06
           35829     67.7832E+06     29.3633E+06              0.     3.02550E+06
           35830     67.7912E+06     29.3530E+06              0.     3.08474E+06
           35831     67.7993E+06     29.3429E+06              0.     3.14757E+06
           35832     67.8076E+06     29.3328E+06              0.     3.21398E+06
           35833     67.8161E+06     29.3228E+06              0.     3.28393E+06
           35834     67.8248E+06     29.3130E+06              0.     3.35740E+06
           35835     67.8336E+06     29.3032E+06              0.     3.43438E+06
           35836     67.8427E+06     29.2934E+06              0.     3.51484E+06
           35837     67.8520E+06     29.2838E+06              0.     3.59877E+06
           35838     67.8615E+06     29.2742E+06              0.     3.68618E+06
           35839     67.8712E+06     29.2646E+06              0.     3.77704E+06
           35840     67.8812E+06     29.2551E+06              0.     3.87136E+06
           35841     67.8914E+06     29.2456E+06              0.     3.96915E+06
           35842     67.9019E+06     29.2361E+06              0.     4.07040E+06
           35843     67.9126E+06     29.2267E+06              0.     4.17512E+06
           35844     67.9236E+06     29.2172E+06              0.     4.28333E+06
           35845     67.9349E+06     29.2078E+06              0.     4.39503E+06
           35846     67.9465E+06     29.1984E+06              0.     4.51024E+06
           35847     67.9584E+06     29.1889E+06              0.     4.62899E+06
           35848     67.9706E+06     29.1795E+06              0.     4.75129E+06
           35849     67.9831E+06     29.1700E+06              0.     4.87716E+06
           35850     67.9959E+06     29.1605E+06              0.     5.00664E+06
           35851     68.0091E+06     29.1510E+06              0.     5.13976E+06
           35852     68.0226E+06     29.1415E+06              0.     5.27654E+06
           35853     68.0364E+06     29.1319E+06              0.     5.41702E+06
           35854     68.0506E+06     29.1223E+06              0.     5.56124E+06
           35855     68.0652E+06     29.1126E+06              0.     5.70923E+06
           35856     68.0802E+06     29.1029E+06              0.     5.86105E+06
           35857     68.0955E+06     29.0932E+06              0.     6.01673E+06
           35858     68.1112E+06     29.0834E+06              0.     6.17632E+06
           35859     68.1274E+06     29.0736E+06              0.     6.33987E+06
           35860     68.1439E+06     29.0637E+06              0.     6.50743E+06
           35861     68.1609E+06     29.0537E+06              0.     6.67905E+06
           35862     68.1783E+06     29.0437E+06              0.     6.85480E+06
           35863     68.1961E+06     29.0337E+06              0.     7.03472E+06
           35864     68.2144E+06     29.0236E+06              0.     7.21887E+06
           35865     68.2331E+06     29.0134E+06              0.     7.40733E+06
           35866     68.2523E+06     29.0032E+06              0.     7.60015E+06
           35867     68.2720E+06     28.9929E+06              0.     7.79739E+06
           35868     68.2921E+06     28.9826E+06              0.     7.99914E+06
           35869     68.3127E+06     28.9722E+06              0.     8.20545E+06
           35870     68.3338E+06     28.9617E+06              0.      8.4164E+06
           35871     68.3555E+06     28.9513E+06              0.     8.63206E+06
           35872     68.3776E+06     28.9407E+06              0.     8.85251E+06
           35873     68.4002E+06     28.9302E+06              0.     9.07783E+06
           35874     68.4234E+06     28.9196E+06              0.     9.30809E+06
           35875     68.4471E+06     28.9089E+06              0.     9.54338E+06
           35876     68.4714E+06     28.8982E+06              0.     9.78378E+06
           35877     68.4962E+06     28.8876E+06              0.     10.0294E+06
           35878     68.5216E+06     28.8769E+06              0.     10.2802E+06
           35879     68.5475E+06     28.8661E+06              0.     10.5365E+06
           35880     68.5740E+06     28.8554E+06              0.     10.7982E+06
           35881     68.6011E+06     28.8447E+06              0.     11.0654E+06
           35882     68.6287E+06     28.8340E+06              0.     11.3383E+06
           35883      68.657E+06     28.8233E+06              0.     11.6169E+06
           35884     68.6859E+06     28.8127E+06              0.     11.9014E+06
           35885     68.7153E+06     28.8021E+06              0.     12.1918E+06
           35886     68.7454E+06     28.7916E+06              0.     12.4882E+06
           35887     68.7761E+06     28.7811E+06              0.     12.7908E+06
           35888     68.8074E+06     28.7707E+06              0.     13.0995E+06
           35889     68.8393E+06     28.7604E+06              0.     13.4146E+06
           35890     68.8718E+06     28.7503E+06              0.     13.7362E+06
           35891     68.9050E+06     28.7402E+06              0.     14.0642E+06
           35892     68.9388E+06     28.7303E+06              0.     14.3990E+06
           35893     68.9732E+06     28.7206E+06              0.     14.7405E+06
           35894     69.0082E+06     28.7111E+06              0.     15.0888E+06
           35895     69.0439E+06     28.7018E+06              0.     15.4441E+06
           35896     69.0802E+06     28.6926E+06              0.     15.8065E+06
           35897     69.1171E+06     28.6838E+06              0.     16.1761E+06
           35898     69.1547E+06     28.6752E+06              0.     16.5529E+06
           35899     69.1929E+06     28.6670E+06              0.     16.9372E+06
           35900     69.2316E+06     28.6590E+06              0.     17.3290E+06
           35901     69.2710E+06     28.6515E+06              0.     17.7284E+06
           35902     69.3110E+06     28.6443E+06              0.     18.1356E+06
           35903     69.3516E+06     28.6375E+06              0.     18.5507E+06
           35904     69.3927E+06     28.6313E+06              0.     18.9737E+06
           35905     69.4344E+06     28.6255E+06              0.     19.4048E+06
           35906     69.4767E+06     28.6202E+06              0.     19.8440E+06
           35907     69.5194E+06     28.6155E+06              0.     20.2916E+06
           35908     69.5627E+06     28.6114E+06              0.     20.7476E+06
           35909     69.6065E+06     28.6080E+06              0.     21.2122E+06
           35910     69.6508E+06     28.6053E+06              0.     21.6853E+06
           35911     69.6955E+06     28.6034E+06              0.     22.1672E+06
           35912     69.7406E+06     28.6022E+06              0.     22.6580E+06
           35913     69.7861E+06     28.6019E+06              0.     23.1577E+06
           35914     69.8319E+06     28.6025E+06              0.     23.6665E+06
           35915     69.8781E+06     28.6041E+06              0.     24.1844E+06
           35916     69.9245E+06     28.6068E+06              0.     24.7116E+06
           35917     69.9711E+06     28.6105E+06              0.     25.2481E+06
           35918     70.0180E+06     28.6153E+06              0.     25.7941E+06
           35919     70.0649E+06     28.6214E+06              0.     26.3496E+06
           35920     70.1120E+06     28.6288E+06              0.     26.9148E+06
           35921     70.1590E+06     28.6376E+06              0.     27.4897E+06
           35922     70.2060E+06     28.6478E+06              0.     28.0744E+06
           35923     70.2528E+06     28.6595E+06              0.     28.6689E+06
           35924     70.2995E+06     28.6729E+06              0.     29.2734E+06
           35925     70.3458E+06     28.6879E+06              0.     29.8879E+06
           35926     70.3918E+06     28.7047E+06              0.     30.5125E+06
           35927     70.4373E+06     28.7235E+06              0.     31.1472E+06
           35928     70.4823E+06     28.7441E+06              0.     31.7921E+06
           35929     70.5266E+06     28.7669E+06              0.     32.4472E+06
           35930     70.5701E+06     28.7919E+06              0.     33.1125E+06
           35931     70.6127E+06     28.8191E+06              0.     33.7882E+06
           35932     70.6542E+06     28.8487E+06              0.     34.4741E+06
           35933     70.6945E+06     28.8809E+06              0.     35.1704E+06
           35934     70.7336E+06     28.9156E+06              0.     35.8769E+06
           35935     70.7711E+06     28.9532E+06              0.     36.5938E+06
           35936     70.8069E+06     28.9936E+06              0.     37.3209E+06
           35937     70.8410E+06     29.0369E+06              0.     38.0583E+06
           35938     70.8730E+06     29.0835E+06              0.     38.8059E+06
           35939     70.9027E+06     29.1332E+06              0.     39.5637E+06
           35940       70.93E+06     29.1864E+06              0.     40.3315E+06
           35941     70.9546E+06     29.2432E+06              0.     41.1093E+06
           35942     70.9763E+06     29.3036E+06              0.     41.8970E+06
           35943     70.9948E+06     29.3678E+06              0.     42.6945E+06
           35944     71.0099E+06     29.4360E+06              0.     43.5016E+06
           35945     71.0212E+06     29.5083E+06              0.     44.3181E+06
           35946     71.0285E+06     29.5849E+06              0.     45.1439E+06
           35947     71.0314E+06     29.6659E+06              0.     45.9788E+06
           35948     71.0297E+06     29.7515E+06              0.     46.8226E+06
           35949     71.0228E+06     29.8418E+06              0.     47.6750E+06
           35950     71.0106E+06     29.9370E+06              0.     48.5357E+06
           35951     70.9925E+06     30.0372E+06              0.     49.4045E+06
           35952     70.9682E+06     30.1426E+06              0.     50.2809E+06
           35953     70.9372E+06     30.2533E+06              0.     51.1648E+06
           35954     70.8990E+06     30.3695E+06              0.     52.0555E+06
           35955     70.8533E+06     30.4913E+06              0.     52.9528E+06
           35956     70.7993E+06     30.6188E+06              0.     53.8562E+06
           35957     70.7368E+06     30.7521E+06              0.     54.7651E+06
           35958     70.6650E+06     30.8915E+06              0.     55.6791E+06
           35959     70.5834E+06     31.0369E+06              0.     56.5975E+06
           35960     70.4914E+06     31.1885E+06              0.     57.5197E+06
           35961     70.3883E+06     31.3464E+06              0.     58.4450E+06
           35962     70.2735E+06     31.5106E+06              0.     59.3728E+06
           35963     70.1463E+06     31.6811E+06              0.     60.3022E+06
           35964     70.0059E+06     31.8581E+06              0.     61.2324E+06
           35965     69.8517E+06     32.0415E+06              0.     62.1626E+06
           35966     69.6827E+06     32.2313E+06              0.     63.0918E+06
           35967     69.4983E+06     32.4274E+06              0.     64.0189E+06
           35968     69.2976E+06     32.6298E+06              0.     64.9430E+06
           35969     69.0796E+06     32.8384E+06              0.     65.8629E+06
           35970     68.8436E+06     33.0531E+06              0.     66.7773E+06
           35971     68.5885E+06     33.2735E+06              0.     67.6850E+06
           35972     68.3134E+06     33.4995E+06              0.     68.5847E+06
           35973     68.0174E+06     33.7309E+06              0.     69.4749E+06
           35974     67.6994E+06     33.9671E+06              0.     70.3541E+06
           35975     67.3583E+06     34.2080E+06              0.     71.2206E+06
           35976     66.9932E+06     34.4529E+06              0.     72.0729E+06
           35977     66.6029E+06     34.7013E+06              0.     72.9092E+06
           35978     66.1864E+06     34.9526E+06              0.     73.7275E+06
           35979     65.7425E+06     35.2061E+06              0.      74.526E+06
           35980     65.2701E+06     35.4610E+06              0.     75.3025E+06
           35981     64.7681E+06     35.7164E+06              0.     76.0550E+06
           35982     64.2353E+06     35.9712E+06              0.     76.7812E+06
           35983     63.6706E+06     36.2243E+06              0.     77.4787E+06
           35984     63.0730E+06     36.4745E+06              0.     78.1451E+06
           35985     62.4411E+06     36.7204E+06              0.     78.7780E+06
           35986     61.7740E+06     36.9605E+06              0.     79.3745E+06
           35987     61.0706E+06     37.1931E+06              0.     79.9321E+06
           35988     60.3298E+06     37.4163E+06              0.     80.4479E+06
           35989     59.5506E+06     37.6283E+06              0.     80.9190E+06
           35990     58.7320E+06     37.8267E+06              0.     81.3425E+06
           35991     57.8731E+06     38.0093E+06              0.     81.7152E+06
           35992     56.9732E+06     38.1736E+06              0.     82.0340E+06
           35993     56.0314E+06     38.3167E+06              0.     82.2957E+06
           35994     55.0469E+06     38.4359E+06              0.     82.4970E+06
           35995     54.0194E+06     38.5279E+06              0.     82.6347E+06
           35996     52.9481E+06     38.5894E+06              0.     82.7054E+06
           35997     51.8329E+06     38.6169E+06              0.     82.7058E+06
           35998     50.6733E+06     38.6066E+06              0.     82.6324E+06
           35999     49.4693E+06     38.5544E+06              0.     82.4819E+06
           36000     48.2210E+06     38.4563E+06              0.     82.2509E+06
           36001     46.9284E+06     38.3078E+06              0.     81.9363E+06
           36002     45.5920E+06     38.1043E+06              0.     81.5346E+06
           36003     44.2121E+06     37.8410E+06              0.     81.0427E+06
           36004     42.7896E+06     37.5129E+06              0.     80.4576E+06
           36005     41.3253E+06     37.1148E+06              0.     79.7763E+06
           36006     39.8201E+06     36.6415E+06              0.     78.9959E+06
           36007     38.2754E+06     36.0874E+06              0.     78.1139E+06
           36008     36.6924E+06     35.4471E+06              0.     77.1278E+06
           36009     35.0729E+06     34.7148E+06              0.     76.0352E+06
           36010     33.4186E+06     33.8849E+06              0.     74.8342E+06
           36011     31.7315E+06     32.9515E+06              0.     73.5228E+06
           36012     30.0135E+06     31.9090E+06              0.     72.0996E+06
           36013     28.2671E+06     30.7515E+06              0.     70.5633E+06
           36014     26.4946E+06     29.4735E+06              0.     68.9128E+06
           36015     24.6986E+06     28.0693E+06              0.     67.1473E+06
           36016     22.8818E+06     26.5335E+06              0.     65.2666E+06
           36017     21.0468E+06     24.8610E+06              0.     63.2705E+06
           36018     19.1967E+06     23.0465E+06              0.     61.1591E+06
           36019     17.3341E+06     21.0854E+06              0.     58.9329E+06
           36020     15.4624E+06     18.9731E+06              0.     56.5928E+06
           36021     13.5814E+06     16.7036E+06              0.     54.1398E+06
           36022     12.0523E+06     13.8187E+06              0.     53.1908E+06
           36023     67.7368E+06     29.7119E+06              0.     2.74707E+06
           36024     67.7345E+06     29.6847E+06              0.     2.74214E+06
           36025     67.7440E+06     29.6629E+06              0.     2.70543E+06
           36026     67.7534E+06     29.6418E+06              0.     2.67419E+06
           36027     67.7627E+06     29.6213E+06              0.     2.64826E+06
           36028     67.7720E+06     29.6013E+06              0.     2.62751E+06
           36029     67.7811E+06     29.5818E+06              0.      2.6118E+06
           36030     67.7902E+06     29.5628E+06              0.     2.60101E+06
           36031     67.7993E+06     29.5443E+06              0.     2.59502E+06
           36032     67.8083E+06     29.5262E+06              0.     2.59371E+06
           36033     67.8174E+06     29.5086E+06              0.     2.59698E+06
           36034     67.8265E+06     29.4913E+06              0.     2.60472E+06
           36035     67.8356E+06     29.4744E+06              0.     2.61684E+06
           36036     67.8447E+06     29.4579E+06              0.     2.63325E+06
           36037     67.8540E+06     29.4417E+06              0.     2.65386E+06
           36038     67.8633E+06     29.4259E+06              0.     2.67860E+06
           36039     67.8727E+06     29.4103E+06              0.     2.70738E+06
           36040     67.8822E+06     29.3950E+06              0.     2.74015E+06
           36041     67.8918E+06     29.3800E+06              0.     2.77683E+06
           36042     67.9016E+06     29.3652E+06              0.     2.81737E+06
           36043     67.9115E+06     29.3506E+06              0.     2.86171E+06
           36044     67.9215E+06     29.3363E+06              0.     2.90980E+06
           36045     67.9318E+06     29.3221E+06              0.     2.96160E+06
           36046     67.9422E+06     29.3082E+06              0.     3.01706E+06
           36047     67.9528E+06     29.2943E+06              0.     3.07614E+06
           36048     67.9637E+06     29.2807E+06              0.     3.13882E+06
           36049     67.9747E+06     29.2672E+06              0.     3.20505E+06
           36050     67.9860E+06     29.2538E+06              0.     3.27482E+06
           36051     67.9976E+06     29.2405E+06              0.     3.34810E+06
           36052     68.0094E+06     29.2273E+06              0.     3.42488E+06
           36053     68.0215E+06     29.2142E+06              0.     3.50513E+06
           36054     68.0338E+06     29.2011E+06              0.     3.58886E+06
           36055     68.0465E+06     29.1881E+06              0.     3.67604E+06
           36056     68.0595E+06     29.1752E+06              0.     3.76667E+06
           36057     68.0728E+06     29.1623E+06              0.     3.86076E+06
           36058     68.0864E+06     29.1495E+06              0.     3.95829E+06
           36059     68.1004E+06     29.1366E+06              0.     4.05929E+06
           36060     68.1147E+06     29.1238E+06              0.     4.16375E+06
           36061     68.1294E+06     29.1110E+06              0.     4.27169E+06
           36062     68.1444E+06     29.0982E+06              0.     4.38311E+06
           36063     68.1599E+06     29.0853E+06              0.     4.49804E+06
           36064     68.1758E+06     29.0724E+06              0.     4.61650E+06
           36065     68.1921E+06     29.0595E+06              0.     4.73849E+06
           36066     68.2088E+06     29.0466E+06              0.     4.86406E+06
           36067     68.2259E+06     29.0336E+06              0.     4.99323E+06
           36068     68.2435E+06     29.0205E+06              0.     5.12603E+06
           36069     68.2615E+06     29.0074E+06              0.     5.26248E+06
           36070     68.2801E+06     28.9942E+06              0.     5.40263E+06
           36071     68.2991E+06     28.9810E+06              0.     5.54651E+06
           36072     68.3186E+06     28.9676E+06              0.     5.69416E+06
           36073     68.3386E+06     28.9542E+06              0.     5.84562E+06
           36074     68.3591E+06     28.9407E+06              0.     6.00094E+06
           36075     68.3802E+06     28.9271E+06              0.     6.16017E+06
           36076     68.4018E+06     28.9134E+06              0.     6.32334E+06
           36077      68.424E+06     28.8996E+06              0.     6.49053E+06
           36078     68.4467E+06     28.8857E+06              0.     6.66177E+06
           36079     68.4701E+06     28.8716E+06              0.     6.83713E+06
           36080     68.4940E+06     28.8575E+06              0.     7.01665E+06
           36081     68.5185E+06     28.8433E+06              0.     7.20041E+06
           36082     68.5436E+06     28.8289E+06              0.     7.38847E+06
           36083     68.5694E+06     28.8144E+06              0.     7.58088E+06
           36084     68.5958E+06     28.7998E+06              0.     7.77772E+06
           36085     68.6228E+06     28.7851E+06              0.     7.97905E+06
           36086     68.6506E+06     28.7703E+06              0.     8.18494E+06
           36087     68.6790E+06     28.7553E+06              0.     8.39547E+06
           36088     68.7081E+06     28.7402E+06              0.     8.61070E+06
           36089     68.7379E+06     28.7250E+06              0.     8.83073E+06
           36090     68.7684E+06     28.7097E+06              0.     9.05562E+06
           36091     68.7997E+06     28.6943E+06              0.     9.28545E+06
           36092     68.8317E+06     28.6787E+06              0.     9.52030E+06
           36093     68.8644E+06     28.6631E+06              0.     9.76027E+06
           36094     68.8979E+06     28.6473E+06              0.     10.0054E+06
           36095     68.9322E+06     28.6315E+06              0.     10.2559E+06
           36096     68.9673E+06     28.6155E+06              0.     10.5117E+06
           36097     69.0032E+06     28.5995E+06              0.     10.7729E+06
           36098     69.0399E+06     28.5833E+06              0.     11.0397E+06
           36099     69.0774E+06     28.5671E+06              0.     11.3122E+06
           36100     69.1158E+06     28.5509E+06              0.     11.5904E+06
           36101     69.1550E+06     28.5345E+06              0.     11.8744E+06
           36102     69.1950E+06     28.5182E+06              0.     12.1644E+06
           36103     69.2360E+06     28.5018E+06              0.     12.4604E+06
           36104     69.2778E+06     28.4853E+06              0.     12.7626E+06
           36105     69.3205E+06     28.4689E+06              0.     13.0709E+06
           36106     69.3641E+06     28.4524E+06              0.     13.3856E+06
           36107     69.4086E+06     28.4360E+06              0.     13.7068E+06
           36108     69.4540E+06     28.4196E+06              0.     14.0345E+06
           36109     69.5004E+06     28.4032E+06              0.     14.3689E+06
           36110     69.5476E+06     28.3869E+06              0.     14.7100E+06
           36111     69.5958E+06     28.3707E+06              0.     15.0580E+06
           36112     69.6450E+06     28.3546E+06              0.     15.4130E+06
           36113     69.6951E+06     28.3386E+06              0.     15.7751E+06
           36114     69.7462E+06     28.3227E+06              0.     16.1444E+06
           36115     69.7982E+06     28.3071E+06              0.     16.5210E+06
           36116     69.8512E+06     28.2916E+06              0.     16.9051E+06
           36117     69.9051E+06     28.2763E+06              0.     17.2967E+06
           36118     69.9600E+06     28.2614E+06              0.     17.6959E+06
           36119     70.0158E+06     28.2466E+06              0.     18.1029E+06
           36120     70.0726E+06     28.2323E+06              0.     18.5179E+06
           36121     70.1304E+06     28.2182E+06              0.     18.9408E+06
           36122     70.1891E+06     28.2046E+06              0.     19.3718E+06
           36123     70.2487E+06     28.1914E+06              0.     19.8111E+06
           36124     70.3093E+06     28.1786E+06              0.     20.2587E+06
           36125     70.3708E+06     28.1664E+06              0.     20.7148E+06
           36126     70.4332E+06     28.1547E+06              0.     21.1794E+06
           36127     70.4964E+06     28.1436E+06              0.     21.6528E+06
           36128     70.5606E+06     28.1332E+06              0.     22.1349E+06
           36129     70.6256E+06     28.1235E+06              0.     22.6259E+06
           36130     70.6914E+06     28.1145E+06              0.     23.1260E+06
           36131     70.7581E+06     28.1064E+06              0.     23.6352E+06
           36132     70.8255E+06     28.0991E+06              0.     24.1536E+06
           36133     70.8937E+06     28.0928E+06              0.     24.6813E+06
           36134     70.9625E+06     28.0874E+06              0.     25.2185E+06
           36135     71.0321E+06     28.0832E+06              0.     25.7652E+06
           36136     71.1022E+06     28.0800E+06              0.     26.3215E+06
           36137     71.1729E+06     28.0781E+06              0.     26.8876E+06
           36138     71.2442E+06     28.0775E+06              0.     27.4635E+06
           36139     71.3159E+06     28.0783E+06              0.     28.0493E+06
           36140     71.3881E+06     28.0805E+06              0.     28.6450E+06
           36141     71.4605E+06     28.0843E+06              0.     29.2509E+06
           36142     71.5333E+06     28.0897E+06              0.     29.8668E+06
           36143     71.6062E+06     28.0969E+06              0.     30.4930E+06
           36144     71.6792E+06     28.1059E+06              0.     31.1294E+06
           36145     71.7523E+06     28.1168E+06              0.     31.7762E+06
           36146     71.8252E+06     28.1298E+06              0.     32.4333E+06
           36147     71.8980E+06     28.1449E+06              0.     33.1009E+06
           36148     71.9704E+06     28.1623E+06              0.     33.7789E+06
           36149     72.0424E+06     28.1821E+06              0.     34.4674E+06
           36150     72.1139E+06     28.2044E+06              0.     35.1664E+06
           36151     72.1846E+06     28.2294E+06              0.     35.8759E+06
           36152     72.2545E+06     28.2571E+06              0.     36.5959E+06
           36153     72.3233E+06     28.2877E+06              0.     37.3264E+06
           36154     72.3910E+06     28.3214E+06              0.     38.0674E+06
           36155     72.4573E+06     28.3582E+06              0.     38.8189E+06
           36156     72.5221E+06     28.3984E+06              0.     39.5808E+06
           36157     72.5850E+06     28.4421E+06              0.     40.3530E+06
           36158     72.6460E+06     28.4895E+06              0.     41.1354E+06
           36159     72.7047E+06     28.5406E+06              0.     41.9281E+06
           36160     72.7609E+06     28.5957E+06              0.     42.7308E+06
           36161     72.8144E+06     28.6549E+06              0.     43.5435E+06
           36162     72.8649E+06     28.7184E+06              0.     44.3659E+06
           36163      72.912E+06     28.7864E+06              0.     45.1980E+06
           36164     72.9555E+06     28.8591E+06              0.     46.0396E+06
           36165     72.9949E+06     28.9365E+06              0.     46.8904E+06
           36166     73.0301E+06     29.0190E+06              0.     47.7502E+06
           36167     73.0605E+06     29.1066E+06              0.     48.6188E+06
           36168     73.0858E+06     29.1995E+06              0.     49.4958E+06
           36169     73.1056E+06     29.2980E+06              0.     50.3810E+06
           36170     73.1194E+06     29.4022E+06              0.     51.2740E+06
           36171     73.1268E+06     29.5123E+06              0.     52.1745E+06
           36172     73.1272E+06     29.6284E+06              0.     53.0820E+06
           36173     73.1203E+06     29.7507E+06              0.     53.9961E+06
           36174     73.1053E+06     29.8794E+06              0.     54.9163E+06
           36175     73.0818E+06     30.0147E+06              0.     55.8421E+06
           36176     73.0491E+06     30.1566E+06              0.     56.7729E+06
           36177     73.0067E+06     30.3053E+06              0.     57.7081E+06
           36178     72.9539E+06     30.4610E+06              0.     58.6471E+06
           36179     72.8899E+06     30.6238E+06              0.     59.5891E+06
           36180     72.8142E+06     30.7937E+06              0.     60.5335E+06
           36181     72.7258E+06     30.9709E+06              0.     61.4793E+06
           36182     72.6242E+06     31.1554E+06              0.     62.4258E+06
           36183     72.5083E+06     31.3472E+06              0.     63.3719E+06
           36184     72.3775E+06     31.5464E+06              0.     64.3168E+06
           36185     72.2308E+06     31.7530E+06              0.     65.2593E+06
           36186     72.0673E+06     31.9668E+06              0.     66.1983E+06
           36187     71.8861E+06     32.1879E+06              0.     67.1327E+06
           36188     71.6861E+06     32.4160E+06              0.     68.0611E+06
           36189     71.4665E+06     32.6511E+06              0.     68.9823E+06
           36190     71.2261E+06     32.8929E+06              0.     69.8947E+06
           36191     70.9638E+06     33.1411E+06              0.     70.7969E+06
           36192     70.6787E+06     33.3955E+06              0.     71.6872E+06
           36193     70.3695E+06     33.6555E+06              0.     72.5641E+06
           36194     70.0350E+06     33.9208E+06              0.     73.4257E+06
           36195     69.6743E+06     34.1907E+06              0.     74.2700E+06
           36196     69.2859E+06     34.4647E+06              0.     75.0953E+06
           36197     68.8687E+06     34.7420E+06              0.     75.8993E+06
           36198     68.4216E+06     35.0218E+06              0.     76.6799E+06
           36199     67.9432E+06     35.3032E+06              0.     77.4348E+06
           36200     67.4323E+06     35.5851E+06              0.     78.1617E+06
           36201     66.8877E+06     35.8663E+06              0.     78.8581E+06
           36202     66.3081E+06     36.1456E+06              0.     79.5213E+06
           36203     65.6923E+06     36.4214E+06              0.     80.1487E+06
           36204     65.0391E+06     36.6922E+06              0.     80.7375E+06
           36205     64.3474E+06     36.9562E+06              0.     81.2847E+06
           36206     63.6159E+06     37.2114E+06              0.     81.7875E+06
           36207     62.8437E+06     37.4558E+06              0.     82.2426E+06
           36208     62.0296E+06     37.6871E+06              0.     82.6471E+06
           36209     61.1726E+06     37.9027E+06              0.     82.9974E+06
           36210     60.2720E+06     38.1000E+06              0.     83.2905E+06
           36211     59.3267E+06     38.2759E+06              0.     83.5228E+06
           36212     58.3361E+06     38.4275E+06              0.     83.6909E+06
           36213     57.2996E+06     38.5514E+06              0.     83.7913E+06
           36214     56.2167E+06     38.6439E+06              0.     83.8205E+06
           36215     55.0869E+06     38.7012E+06              0.     83.7749E+06
           36216     53.9101E+06     38.7193E+06              0.     83.6510E+06
           36217     52.6861E+06     38.6940E+06              0.     83.4453E+06
           36218     51.4150E+06     38.6207E+06              0.     83.1543E+06
           36219     50.0970E+06     38.4947E+06              0.     82.7745E+06
           36220     48.7325E+06     38.3110E+06              0.     82.3026E+06
           36221     47.3222E+06     38.0646E+06              0.     81.7354E+06
           36222     45.8668E+06     37.7500E+06              0.     81.0696E+06
           36223     44.3674E+06     37.3618E+06              0.     80.3023E+06
           36224     42.8250E+06     36.8943E+06              0.     79.4306E+06
           36225     41.2411E+06     36.3418E+06              0.     78.4519E+06
           36226     39.6173E+06     35.6982E+06              0.     77.3637E+06
           36227     37.9553E+06     34.9576E+06              0.     76.1639E+06
           36228     36.2571E+06     34.1140E+06              0.     74.8506E+06
           36229     34.5249E+06     33.1614E+06              0.     73.4219E+06
           36230     32.7609E+06     32.0937E+06              0.     71.8766E+06
           36231     30.9678E+06     30.9049E+06              0.     70.2135E+06
           36232     29.1480E+06     29.5893E+06              0.     68.4320E+06
           36233     27.3045E+06     28.1410E+06              0.     66.5315E+06
           36234     25.4399E+06     26.5545E+06              0.     64.5119E+06
           36235     23.5574E+06     24.8246E+06              0.     62.3734E+06
           36236     21.6599E+06     22.9462E+06              0.     60.1166E+06
           36237     19.7511E+06     20.9148E+06              0.     57.7420E+06
           36238     17.8384E+06     18.7276E+06              0.     55.2508E+06
           36239     16.3223E+06     15.9182E+06              0.     54.2961E+06
           36240     67.8450E+06     29.7580E+06              0.     2.73685E+06
           36241     67.8421E+06     29.7240E+06              0.     2.73195E+06
           36242     67.8539E+06     29.6968E+06              0.     2.69538E+06
           36243     67.8656E+06     29.6704E+06              0.     2.66426E+06
           36244     67.8772E+06     29.6448E+06              0.     2.63843E+06
           36245     67.8886E+06     29.6198E+06              0.     2.61776E+06
           36246     67.9000E+06     29.5955E+06              0.     2.60212E+06
           36247     67.9113E+06     29.5717E+06              0.     2.59138E+06
           36248     67.9226E+06     29.5486E+06              0.     2.58542E+06
           36249     67.9339E+06     29.5260E+06              0.     2.58412E+06
           36250     67.9452E+06     29.5040E+06              0.     2.58738E+06
           36251     67.9565E+06     29.4824E+06              0.     2.59511E+06
           36252     67.9678E+06     29.4613E+06              0.     2.60719E+06
           36253     67.9792E+06     29.4406E+06              0.     2.62355E+06
           36254     67.9907E+06     29.4204E+06              0.     2.64409E+06
           36255     68.0023E+06     29.4006E+06              0.     2.66874E+06
           36256     68.0140E+06     29.3811E+06              0.     2.69744E+06
           36257     68.0259E+06     29.3619E+06              0.     2.73009E+06
           36258     68.0379E+06     29.3431E+06              0.     2.76665E+06
           36259     68.0500E+06     29.3246E+06              0.     2.80705E+06
           36260     68.0624E+06     29.3064E+06              0.     2.85124E+06
           36261     68.0749E+06     29.2884E+06              0.     2.89917E+06
           36262     68.0877E+06     29.2707E+06              0.     2.95078E+06
           36263     68.1007E+06     29.2532E+06              0.     3.00605E+06
           36264     68.1140E+06     29.2358E+06              0.     3.06493E+06
           36265     68.1275E+06     29.2187E+06              0.     3.12739E+06
           36266     68.1413E+06     29.2017E+06              0.     3.19340E+06
           36267     68.1554E+06     29.1849E+06              0.     3.26293E+06
           36268     68.1698E+06     29.1682E+06              0.     3.33597E+06
           36269     68.1846E+06     29.1516E+06              0.     3.41248E+06
           36270     68.1997E+06     29.1351E+06              0.     3.49246E+06
           36271     68.2151E+06     29.1187E+06              0.     3.57590E+06
           36272     68.2309E+06     29.1024E+06              0.     3.66278E+06
           36273     68.2471E+06     29.0861E+06              0.     3.75311E+06
           36274     68.2638E+06     29.0699E+06              0.     3.84687E+06
           36275     68.2808E+06     29.0537E+06              0.     3.94408E+06
           36276     68.2982E+06     29.0375E+06              0.     4.04474E+06
           36277     68.3161E+06     29.0213E+06              0.     4.14885E+06
           36278     68.3345E+06     29.0051E+06              0.     4.25642E+06
           36279     68.3534E+06     28.9888E+06              0.     4.36748E+06
           36280     68.3727E+06     28.9726E+06              0.     4.48202E+06
           36281     68.3925E+06     28.9563E+06              0.     4.60009E+06
           36282     68.4129E+06     28.9399E+06              0.     4.72168E+06
           36283     68.4338E+06     28.9235E+06              0.     4.84684E+06
           36284     68.4552E+06     28.9070E+06              0.     4.97558E+06
           36285     68.4773E+06     28.8904E+06              0.     5.10794E+06
           36286     68.4999E+06     28.8737E+06              0.     5.24395E+06
           36287     68.5230E+06     28.8569E+06              0.     5.38365E+06
           36288     68.5468E+06     28.8400E+06              0.     5.52706E+06
           36289     68.5712E+06     28.8230E+06              0.     5.67424E+06
           36290     68.5963E+06     28.8059E+06              0.     5.82522E+06
           36291     68.6220E+06     28.7886E+06              0.     5.98005E+06
           36292     68.6484E+06     28.7712E+06              0.     6.13878E+06
           36293     68.6755E+06     28.7536E+06              0.     6.30145E+06
           36294     68.7033E+06     28.7359E+06              0.     6.46811E+06
           36295     68.7318E+06     28.7181E+06              0.     6.63883E+06
           36296     68.7610E+06     28.7000E+06              0.     6.81365E+06
           36297     68.7910E+06     28.6818E+06              0.     6.99263E+06
           36298     68.8217E+06     28.6635E+06              0.     7.17583E+06
           36299     68.8533E+06     28.6449E+06              0.     7.36333E+06
           36300     68.8856E+06     28.6262E+06              0.     7.55517E+06
           36301     68.9188E+06     28.6073E+06              0.     7.75143E+06
           36302     68.9527E+06     28.5881E+06              0.     7.95217E+06
           36303     68.9876E+06     28.5689E+06              0.     8.15747E+06
           36304     69.0232E+06     28.5494E+06              0.     8.36739E+06
           36305     69.0598E+06     28.5297E+06              0.     8.58202E+06
           36306     69.0973E+06     28.5098E+06              0.     8.80143E+06
           36307     69.1357E+06     28.4898E+06              0.     9.02570E+06
           36308     69.1750E+06     28.4695E+06              0.      9.2549E+06
           36309     69.2152E+06     28.4491E+06              0.     9.48912E+06
           36310     69.2565E+06     28.4284E+06              0.     9.72844E+06
           36311     69.2987E+06     28.4076E+06              0.     9.97296E+06
           36312     69.3419E+06     28.3866E+06              0.     10.2227E+06
           36313     69.3861E+06     28.3654E+06              0.     10.4779E+06
           36314     69.4314E+06     28.3441E+06              0.     10.7385E+06
           36315     69.4777E+06     28.3225E+06              0.     11.0047E+06
           36316     69.5251E+06     28.3008E+06              0.     11.2765E+06
           36317     69.5735E+06     28.2790E+06              0.     11.5540E+06
           36318     69.6231E+06     28.2569E+06              0.     11.8374E+06
           36319     69.6737E+06     28.2348E+06              0.     12.1267E+06
           36320     69.7255E+06     28.2125E+06              0.     12.4220E+06
           36321     69.7785E+06     28.1901E+06              0.     12.7235E+06
           36322     69.8326E+06     28.1675E+06              0.     13.0312E+06
           36323     69.8879E+06     28.1449E+06              0.     13.3453E+06
           36324     69.9444E+06     28.1222E+06              0.     13.6658E+06
           36325     70.0020E+06     28.0994E+06              0.     13.9928E+06
           36326     70.0609E+06     28.0766E+06              0.     14.3265E+06
           36327     70.1211E+06     28.0537E+06              0.     14.6670E+06
           36328     70.1824E+06     28.0308E+06              0.     15.0144E+06
           36329     70.2451E+06     28.0079E+06              0.     15.3688E+06
           36330     70.3090E+06     27.9850E+06              0.     15.7303E+06
           36331     70.3742E+06     27.9621E+06              0.     16.0990E+06
           36332     70.4407E+06     27.9393E+06              0.     16.4750E+06
           36333     70.5085E+06     27.9166E+06              0.     16.8585E+06
           36334     70.5776E+06     27.8941E+06              0.     17.2495E+06
           36335     70.6480E+06     27.8716E+06              0.     17.6483E+06
           36336     70.7197E+06     27.8494E+06              0.     18.0548E+06
           36337     70.7928E+06     27.8273E+06              0.     18.4692E+06
           36338     70.8672E+06     27.8055E+06              0.     18.8917E+06
           36339     70.9429E+06     27.7840E+06              0.     19.3223E+06
           36340     71.0200E+06     27.7628E+06              0.     19.7612E+06
           36341     71.0984E+06     27.7419E+06              0.     20.2085E+06
           36342     71.1781E+06     27.7215E+06              0.     20.6642E+06
           36343     71.2591E+06     27.7015E+06              0.     21.1286E+06
           36344     71.3415E+06     27.6820E+06              0.     21.6017E+06
           36345     71.4252E+06     27.6631E+06              0.     22.0836E+06
           36346     71.5101E+06     27.6447E+06              0.     22.5745E+06
           36347     71.5964E+06     27.6270E+06              0.     23.0745E+06
           36348     71.6839E+06     27.6101E+06              0.     23.5836E+06
           36349     71.7727E+06     27.5939E+06              0.     24.1021E+06
           36350     71.8626E+06     27.5785E+06              0.     24.6299E+06
           36351     71.9538E+06     27.5641E+06              0.     25.1673E+06
           36352     72.0461E+06     27.5506E+06              0.     25.7142E+06
           36353     72.1396E+06     27.5382E+06              0.     26.2709E+06
           36354     72.2341E+06     27.5269E+06              0.     26.8374E+06
           36355     72.3297E+06     27.5168E+06              0.     27.4138E+06
           36356     72.4263E+06     27.5081E+06              0.     28.0001E+06
           36357     72.5239E+06     27.5007E+06              0.     28.5966E+06
           36358     72.6223E+06     27.4948E+06              0.     29.2033E+06
           36359     72.7216E+06     27.4905E+06              0.     29.8201E+06
           36360     72.8216E+06     27.4879E+06              0.     30.4474E+06
           36361     72.9223E+06     27.4870E+06              0.     31.0850E+06
           36362     73.0236E+06     27.4880E+06              0.     31.7331E+06
           36363     73.1254E+06     27.4911E+06              0.     32.3917E+06
           36364     73.2277E+06     27.4963E+06              0.     33.0609E+06
           36365     73.3302E+06     27.5037E+06              0.     33.7407E+06
           36366     73.4329E+06     27.5135E+06              0.     34.4312E+06
           36367     73.5357E+06     27.5258E+06              0.     35.1323E+06
           36368     73.6385E+06     27.5407E+06              0.     35.8442E+06
           36369     73.7410E+06     27.5585E+06              0.     36.5667E+06
           36370     73.8432E+06     27.5791E+06              0.     37.3000E+06
           36371     73.9449E+06     27.6029E+06              0.     38.0440E+06
           36372     74.0458E+06     27.6299E+06              0.     38.7987E+06
           36373     74.1459E+06     27.6603E+06              0.     39.5641E+06
           36374     74.2450E+06     27.6942E+06              0.     40.3400E+06
           36375     74.3427E+06     27.7319E+06              0.     41.1265E+06
           36376     74.4389E+06     27.7735E+06              0.     41.9235E+06
           36377     74.5333E+06     27.8192E+06              0.     42.7308E+06
           36378     74.6257E+06     27.8692E+06              0.     43.5484E+06
           36379     74.7158E+06     27.9236E+06              0.     44.3762E+06
           36380     74.8033E+06     27.9827E+06              0.     45.2139E+06
           36381     74.8879E+06     28.0466E+06              0.     46.0615E+06
           36382     74.9693E+06     28.1156E+06              0.     46.9186E+06
           36383     75.0470E+06     28.1898E+06              0.     47.7852E+06
           36384     75.1208E+06     28.2695E+06              0.     48.6610E+06
           36385     75.1903E+06     28.3548E+06              0.     49.5457E+06
           36386     75.2549E+06     28.4460E+06              0.      50.439E+06
           36387     75.3144E+06     28.5433E+06              0.     51.3406E+06
           36388     75.3681E+06     28.6468E+06              0.     52.2501E+06
           36389     75.4157E+06     28.7568E+06              0.     53.1672E+06
           36390     75.4566E+06     28.8735E+06              0.     54.0914E+06
           36391     75.4902E+06     28.9971E+06              0.     55.0223E+06
           36392     75.5160E+06     29.1278E+06              0.     55.9593E+06
           36393     75.5334E+06     29.2657E+06              0.     56.9020E+06
           36394     75.5418E+06     29.4111E+06              0.     57.8496E+06
           36395     75.5404E+06     29.5641E+06              0.     58.8017E+06
           36396     75.5285E+06     29.7249E+06              0.     59.7575E+06
           36397     75.5056E+06     29.8937E+06              0.     60.7163E+06
           36398     75.4706E+06     30.0705E+06              0.     61.6772E+06
           36399     75.4230E+06     30.2555E+06              0.     62.6395E+06
           36400     75.3618E+06     30.4488E+06              0.     63.6023E+06
           36401     75.2861E+06     30.6505E+06              0.     64.5645E+06
           36402     75.1950E+06     30.8606E+06              0.     65.5251E+06
           36403     75.0877E+06     31.0791E+06              0.     66.4830E+06
           36404     74.9631E+06     31.3060E+06              0.     67.4370E+06
           36405     74.8201E+06     31.5413E+06              0.     68.3860E+06
           36406     74.6578E+06     31.7849E+06              0.     69.3284E+06
           36407      74.475E+06     32.0366E+06              0.     70.2630E+06
           36408     74.2706E+06     32.2962E+06              0.     71.1881E+06
           36409     74.0435E+06     32.5634E+06              0.     72.1023E+06
           36410     73.7924E+06     32.8380E+06              0.     73.0038E+06
           36411     73.5162E+06     33.1196E+06              0.     73.8908E+06
           36412     73.2135E+06     33.4077E+06              0.     74.7615E+06
           36413     72.8831E+06     33.7017E+06              0.     75.6138E+06
           36414     72.5237E+06     34.0011E+06              0.     76.4456E+06
           36415     72.1339E+06     34.3050E+06              0.     77.2548E+06
           36416     71.7125E+06     34.6126E+06              0.     78.0391E+06
           36417     71.2581E+06     34.9229E+06              0.     78.7960E+06
           36418     70.7693E+06     35.2349E+06              0.     79.5230E+06
           36419     70.2447E+06     35.5474E+06              0.     80.2175E+06
           36420     69.6831E+06     35.8589E+06              0.     80.8766E+06
           36421     69.0831E+06     36.1679E+06              0.     81.4976E+06
           36422     68.4433E+06     36.4727E+06              0.     82.0775E+06
           36423     67.7626E+06     36.7715E+06              0.     82.6132E+06
           36424     67.0396E+06     37.0622E+06              0.     83.1014E+06
           36425     66.2732E+06     37.3425E+06              0.     83.5390E+06
           36426     65.4623E+06     37.6100E+06              0.     83.9225E+06
           36427     64.6057E+06     37.8620E+06              0.     84.2485E+06
           36428     63.7025E+06     38.0957E+06              0.     84.5134E+06
           36429     62.7519E+06     38.3078E+06              0.     84.7137E+06
           36430     61.7530E+06     38.4950E+06              0.     84.8457E+06
           36431     60.7052E+06     38.6538E+06              0.     84.9057E+06
           36432     59.6079E+06     38.7802E+06              0.     84.8900E+06
           36433     58.4608E+06     38.8702E+06              0.     84.7949E+06
           36434     57.2637E+06     38.9194E+06              0.     84.6166E+06
           36435     56.0165E+06     38.9232E+06              0.     84.3514E+06
           36436     54.7193E+06     38.8768E+06              0.     83.9958E+06
           36437     53.3724E+06     38.7750E+06              0.     83.5460E+06
           36438     51.9763E+06     38.6126E+06              0.     82.9988E+06
           36439     50.5318E+06     38.3841E+06              0.     82.3507E+06
           36440     49.0398E+06     38.0837E+06              0.     81.5985E+06
           36441     47.5013E+06     37.7056E+06              0.     80.7392E+06
           36442     45.9178E+06     37.2437E+06              0.     79.7699E+06
           36443     44.2909E+06     36.6919E+06              0.     78.6881E+06
           36444     42.6222E+06     36.0438E+06              0.     77.4914E+06
           36445     40.9138E+06     35.2932E+06              0.     76.1777E+06
           36446     39.1680E+06     34.4336E+06              0.     74.7451E+06
           36447     37.3870E+06     33.4589E+06              0.     73.1923E+06
           36448     35.5734E+06     32.3626E+06              0.     71.5180E+06
           36449     33.7300E+06     31.1386E+06              0.     69.7214E+06
           36450     31.8597E+06     29.7809E+06              0.     67.8020E+06
           36451     29.9653E+06     28.2835E+06              0.     65.7598E+06
           36452     28.0499E+06     26.6409E+06              0.     63.5949E+06
           36453     26.1166E+06     24.8477E+06              0.     61.3079E+06
           36454     24.1677E+06     22.8985E+06              0.        58.9E+06
           36455     22.2016E+06     20.7871E+06              0.     56.3722E+06
           36456     20.6816E+06     18.0475E+06              0.     55.4162E+06
           36457     67.9527E+06     29.8039E+06              0.     2.72431E+06
           36458     67.9492E+06     29.7631E+06              0.     2.71945E+06
           36459     67.9634E+06     29.7305E+06              0.     2.68305E+06
           36460     67.9773E+06     29.6989E+06              0.     2.65207E+06
           36461     67.9911E+06     29.6682E+06              0.     2.62637E+06
           36462     68.0048E+06     29.6382E+06              0.     2.60580E+06
           36463     68.0184E+06     29.6091E+06              0.     2.59024E+06
           36464     68.0320E+06     29.5806E+06              0.     2.57955E+06
           36465     68.0455E+06     29.5529E+06              0.     2.57362E+06
           36466     68.0589E+06     29.5258E+06              0.     2.57234E+06
           36467     68.0724E+06     29.4993E+06              0.     2.57560E+06
           36468     68.0859E+06     29.4735E+06              0.     2.58329E+06
           36469     68.0995E+06     29.4482E+06              0.     2.59533E+06
           36470     68.1132E+06     29.4234E+06              0.     2.61162E+06
           36471     68.1269E+06     29.3991E+06              0.     2.63208E+06
           36472     68.1408E+06     29.3753E+06              0.     2.65663E+06
           36473     68.1548E+06     29.3520E+06              0.     2.68520E+06
           36474     68.1690E+06     29.3290E+06              0.     2.71772E+06
           36475     68.1833E+06     29.3064E+06              0.     2.75412E+06
           36476     68.1979E+06     29.2842E+06              0.     2.79435E+06
           36477     68.2127E+06     29.2623E+06              0.     2.83835E+06
           36478     68.2277E+06     29.2407E+06              0.     2.88607E+06
           36479     68.2430E+06     29.2194E+06              0.     2.93747E+06
           36480     68.2586E+06     29.1984E+06              0.     2.99250E+06
           36481     68.2745E+06     29.1775E+06              0.     3.05113E+06
           36482     68.2907E+06     29.1569E+06              0.     3.11332E+06
           36483     68.3072E+06     29.1365E+06              0.     3.17905E+06
           36484     68.3241E+06     29.1163E+06              0.     3.24828E+06
           36485     68.3414E+06     29.0962E+06              0.     3.32100E+06
           36486     68.3591E+06     29.0762E+06              0.     3.39718E+06
           36487     68.3772E+06     29.0564E+06              0.     3.47682E+06
           36488     68.3957E+06     29.0366E+06              0.     3.55990E+06
           36489     68.4146E+06     29.0170E+06              0.     3.64642E+06
           36490     68.4341E+06     28.9973E+06              0.     3.73636E+06
           36491      68.454E+06     28.9778E+06              0.     3.82973E+06
           36492     68.4744E+06     28.9582E+06              0.     3.92652E+06
           36493     68.4954E+06     28.9386E+06              0.     4.02675E+06
           36494     68.5168E+06     28.9191E+06              0.     4.13042E+06
           36495     68.5389E+06     28.8995E+06              0.     4.23755E+06
           36496     68.5615E+06     28.8799E+06              0.     4.34813E+06
           36497     68.5847E+06     28.8603E+06              0.     4.46220E+06
           36498     68.6085E+06     28.8405E+06              0.     4.57977E+06
           36499     68.6329E+06     28.8207E+06              0.     4.70086E+06
           36500     68.6580E+06     28.8008E+06              0.     4.82550E+06
           36501     68.6837E+06     28.7808E+06              0.     4.95371E+06
           36502     68.7101E+06     28.7607E+06              0.     5.08552E+06
           36503     68.7372E+06     28.7405E+06              0.     5.22097E+06
           36504     68.7651E+06     28.7201E+06              0.     5.36010E+06
           36505     68.7936E+06     28.6996E+06              0.     5.50293E+06
           36506     68.8230E+06     28.6789E+06              0.     5.64951E+06
           36507     68.8531E+06     28.6581E+06              0.     5.79988E+06
           36508     68.8839E+06     28.6371E+06              0.     5.95408E+06
           36509     68.9156E+06     28.6159E+06              0.     6.11217E+06
           36510     68.9482E+06     28.5945E+06              0.     6.27419E+06
           36511     68.9815E+06     28.5729E+06              0.     6.44020E+06
           36512     69.0158E+06     28.5511E+06              0.     6.61024E+06
           36513     69.0509E+06     28.5290E+06              0.     6.78437E+06
           36514     69.0870E+06     28.5068E+06              0.     6.96265E+06
           36515     69.1239E+06     28.4843E+06              0.     7.14515E+06
           36516     69.1618E+06     28.4615E+06              0.     7.33192E+06
           36517     69.2007E+06     28.4386E+06              0.     7.52302E+06
           36518     69.2406E+06     28.4153E+06              0.     7.71854E+06
           36519     69.2815E+06     28.3919E+06              0.     7.91852E+06
           36520     69.3234E+06     28.3681E+06              0.     8.12305E+06
           36521     69.3663E+06     28.3441E+06              0.     8.33219E+06
           36522     69.4103E+06     28.3199E+06              0.     8.54603E+06
           36523     69.4555E+06     28.2953E+06              0.     8.76464E+06
           36524     69.5017E+06     28.2706E+06              0.     8.98809E+06
           36525     69.5490E+06     28.2455E+06              0.     9.21647E+06
           36526     69.5976E+06     28.2201E+06              0.     9.44985E+06
           36527     69.6473E+06     28.1945E+06              0.     9.68833E+06
           36528     69.6982E+06     28.1687E+06              0.     9.93199E+06
           36529     69.7503E+06     28.1425E+06              0.     10.1809E+06
           36530     69.8036E+06     28.1161E+06              0.     10.4352E+06
           36531     69.8582E+06     28.0894E+06              0.     10.6949E+06
           36532     69.9141E+06     28.0625E+06              0.     10.9602E+06
           36533     69.9713E+06     28.0353E+06              0.     11.2311E+06
           36534     70.0299E+06     28.0078E+06              0.     11.5077E+06
           36535     70.0898E+06     27.9801E+06              0.     11.7902E+06
           36536      70.151E+06     27.9522E+06              0.     12.0786E+06
           36537     70.2137E+06     27.9240E+06              0.     12.3730E+06
           36538     70.2777E+06     27.8956E+06              0.     12.6735E+06
           36539     70.3432E+06     27.8670E+06              0.     12.9803E+06
           36540     70.4102E+06     27.8382E+06              0.     13.2935E+06
           36541     70.4786E+06     27.8092E+06              0.     13.6130E+06
           36542     70.5485E+06     27.7801E+06              0.     13.9392E+06
           36543       70.62E+06     27.7507E+06              0.     14.2719E+06
           36544     70.6930E+06     27.7213E+06              0.     14.6115E+06
           36545     70.7675E+06     27.6917E+06              0.     14.9580E+06
           36546     70.8437E+06     27.6620E+06              0.     15.3114E+06
           36547     70.9214E+06     27.6321E+06              0.     15.6720E+06
           36548     71.0007E+06     27.6023E+06              0.     16.0398E+06
           36549     71.0817E+06     27.5724E+06              0.     16.4149E+06
           36550     71.1643E+06     27.5424E+06              0.     16.7975E+06
           36551     71.2485E+06     27.5125E+06              0.     17.1876E+06
           36552     71.3345E+06     27.4826E+06              0.     17.5855E+06
           36553     71.4221E+06     27.4528E+06              0.     17.9912E+06
           36554     71.5115E+06     27.4231E+06              0.     18.4048E+06
           36555     71.6025E+06     27.3935E+06              0.     18.8264E+06
           36556     71.6953E+06     27.3640E+06              0.     19.2562E+06
           36557     71.7898E+06     27.3348E+06              0.     19.6943E+06
           36558     71.8860E+06     27.3059E+06              0.     20.1408E+06
           36559      71.984E+06     27.2772E+06              0.     20.5959E+06
           36560     72.0837E+06     27.2489E+06              0.     21.0596E+06
           36561     72.1852E+06     27.2209E+06              0.     21.5320E+06
           36562     72.2884E+06     27.1934E+06              0.     22.0133E+06
           36563     72.3934E+06     27.1664E+06              0.     22.5037E+06
           36564     72.5001E+06     27.1399E+06              0.     23.0031E+06
           36565     72.6085E+06     27.1141E+06              0.     23.5118E+06
           36566     72.7187E+06     27.0889E+06              0.     24.0298E+06
           36567     72.8305E+06     27.0645E+06              0.     24.5573E+06
           36568     72.9441E+06     27.0409E+06              0.     25.0944E+06
           36569     73.0593E+06     27.0181E+06              0.     25.6411E+06
           36570     73.1761E+06     26.9964E+06              0.     26.1976E+06
           36571     73.2946E+06     26.9756E+06              0.     26.7640E+06
           36572     73.4146E+06     26.9560E+06              0.     27.3404E+06
           36573     73.5362E+06     26.9376E+06              0.     27.9269E+06
           36574     73.6593E+06     26.9206E+06              0.     28.5235E+06
           36575     73.7838E+06     26.9049E+06              0.     29.1305E+06
           36576     73.9097E+06     26.8908E+06              0.     29.7478E+06
           36577     74.0370E+06     26.8782E+06              0.     30.3755E+06
           36578     74.1656E+06     26.8674E+06              0.     31.0138E+06
           36579     74.2953E+06     26.8584E+06              0.     31.6626E+06
           36580     74.4262E+06     26.8514E+06              0.     32.3221E+06
           36581     74.5580E+06     26.8465E+06              0.     32.9924E+06
           36582     74.6909E+06     26.8438E+06              0.     33.6734E+06
           36583     74.8246E+06     26.8434E+06              0.     34.3652E+06
           36584     74.9590E+06     26.8456E+06              0.     35.0679E+06
           36585     75.0940E+06     26.8504E+06              0.     35.7815E+06
           36586     75.2294E+06     26.8579E+06              0.     36.5061E+06
           36587     75.3652E+06     26.8684E+06              0.     37.2415E+06
           36588     75.5012E+06     26.8821E+06              0.     37.9879E+06
           36589     75.6372E+06     26.8990E+06              0.     38.7452E+06
           36590     75.7730E+06     26.9194E+06              0.     39.5133E+06
           36591     75.9084E+06     26.9433E+06              0.     40.2924E+06
           36592     76.0433E+06     26.9712E+06              0.     41.0823E+06
           36593     76.1774E+06     27.0030E+06              0.     41.8829E+06
           36594     76.3105E+06     27.0390E+06              0.     42.6942E+06
           36595     76.4423E+06     27.0794E+06              0.     43.5160E+06
           36596     76.5725E+06     27.1245E+06              0.     44.3484E+06
           36597     76.7010E+06     27.1744E+06              0.     45.1911E+06
           36598     76.8272E+06     27.2293E+06              0.     46.0439E+06
           36599     76.9511E+06     27.2894E+06              0.     46.9068E+06
           36600     77.0721E+06     27.3551E+06              0.     47.7795E+06
           36601     77.1899E+06     27.4265E+06              0.     48.6618E+06
           36602     77.3042E+06     27.5038E+06              0.     49.5535E+06
           36603     77.4145E+06     27.5873E+06              0.     50.4542E+06
           36604     77.5203E+06     27.6772E+06              0.     51.3637E+06
           36605     77.6213E+06     27.7738E+06              0.     52.2816E+06
           36606     77.7169E+06     27.8773E+06              0.     53.2076E+06
           36607     77.8066E+06     27.9879E+06              0.     54.1413E+06
           36608     77.8898E+06     28.1059E+06              0.     55.0821E+06
           36609     77.9659E+06     28.2315E+06              0.     56.0298E+06
           36610     78.0345E+06     28.3649E+06              0.     56.9837E+06
           36611     78.0947E+06     28.5064E+06              0.     57.9432E+06
           36612     78.1459E+06     28.6562E+06              0.     58.9078E+06
           36613     78.1875E+06     28.8145E+06              0.     59.8768E+06
           36614     78.2186E+06     28.9815E+06              0.     60.8494E+06
           36615     78.2384E+06     29.1574E+06              0.     61.8250E+06
           36616     78.2462E+06     29.3424E+06              0.     62.8026E+06
           36617     78.2411E+06     29.5366E+06              0.     63.7815E+06
           36618     78.2222E+06     29.7401E+06              0.     64.7606E+06
           36619     78.1884E+06     29.9531E+06              0.     65.7389E+06
           36620     78.1390E+06     30.1757E+06              0.     66.7154E+06
           36621     78.0727E+06     30.4079E+06              0.     67.6888E+06
           36622     77.9887E+06     30.6497E+06              0.     68.6579E+06
           36623     77.8856E+06     30.9011E+06              0.     69.6215E+06
           36624     77.7625E+06     31.1620E+06              0.     70.5780E+06
           36625     77.6181E+06     31.4323E+06              0.     71.5261E+06
           36626     77.4512E+06     31.7119E+06              0.     72.4640E+06
           36627     77.2605E+06     32.0006E+06              0.     73.3902E+06
           36628     77.0448E+06     32.2979E+06              0.     74.3027E+06
           36629     76.8026E+06     32.6035E+06              0.     75.1998E+06
           36630     76.5327E+06     32.9171E+06              0.     76.0795E+06
           36631     76.2336E+06     33.2379E+06              0.     76.9395E+06
           36632     75.9039E+06     33.5655E+06              0.     77.7778E+06
           36633     75.5422E+06     33.8989E+06              0.     78.5919E+06
           36634     75.1471E+06     34.2374E+06              0.     79.3794E+06
           36635     74.7169E+06     34.5799E+06              0.     80.1378E+06
           36636     74.2504E+06     34.9253E+06              0.     80.8643E+06
           36637     73.7459E+06     35.2723E+06              0.     81.5561E+06
           36638     73.2020E+06     35.6195E+06              0.     82.2104E+06
           36639     72.6174E+06     35.9652E+06              0.     82.8240E+06
           36640     71.9905E+06     36.3076E+06              0.     83.3938E+06
           36641     71.3199E+06     36.6448E+06              0.     83.9164E+06
           36642     70.6044E+06     36.9745E+06              0.     84.3886E+06
           36643     69.8425E+06     37.2944E+06              0.     84.8068E+06
           36644     69.0332E+06     37.6018E+06              0.     85.1674E+06
           36645     68.1753E+06     37.8938E+06              0.     85.4668E+06
           36646     67.2677E+06     38.1674E+06              0.     85.7012E+06
           36647     66.3094E+06     38.4191E+06              0.     85.8668E+06
           36648     65.2998E+06     38.6454E+06              0.     85.9596E+06
           36649     64.2380E+06     38.8423E+06              0.     85.9759E+06
           36650     63.1235E+06     39.0057E+06              0.     85.9117E+06
           36651     61.9561E+06     39.1311E+06              0.     85.7630E+06
           36652     60.7354E+06     39.2140E+06              0.     85.5259E+06
           36653     59.4615E+06     39.2492E+06              0.     85.1967E+06
           36654     58.1346E+06     39.2316E+06              0.     84.7715E+06
           36655     56.7550E+06     39.1558E+06              0.     84.2466E+06
           36656     55.3235E+06     39.0159E+06              0.     83.6184E+06
           36657     53.8407E+06     38.8061E+06              0.     82.8836E+06
           36658     52.3079E+06     38.5203E+06              0.     82.0389E+06
           36659     50.7264E+06     38.1521E+06              0.     81.0812E+06
           36660     49.0976E+06     37.6951E+06              0.     80.0078E+06
           36661     47.4234E+06     37.1427E+06              0.     78.8161E+06
           36662     45.7058E+06     36.4884E+06              0.     77.5038E+06
           36663     43.9471E+06     35.7253E+06              0.     76.0691E+06
           36664     42.1496E+06     34.8469E+06              0.     74.5102E+06
           36665     40.3159E+06     33.8464E+06              0.     72.8260E+06
           36666     38.4490E+06     32.7174E+06              0.     71.0155E+06
           36667     36.5518E+06     31.4535E+06              0.     69.0783E+06
           36668     34.6274E+06     30.0484E+06              0.     67.0142E+06
           36669     32.6790E+06     28.4962E+06              0.     64.8235E+06
           36670     30.7100E+06     26.7913E+06              0.     62.5069E+06
           36671     28.7246E+06     24.9287E+06              0.     60.0654E+06
           36672     26.7298E+06     22.9048E+06              0.     57.5002E+06
           36673     25.2307E+06     20.2501E+06              0.     56.5440E+06
           36674     68.0599E+06     29.8495E+06              0.     2.70947E+06
           36675     68.0558E+06     29.8020E+06              0.     2.70463E+06
           36676     68.0722E+06     29.7641E+06              0.     2.66844E+06
           36677     68.0885E+06     29.7273E+06              0.     2.63764E+06
           36678     68.1045E+06     29.6914E+06              0.     2.61208E+06
           36679     68.1204E+06     29.6565E+06              0.     2.59163E+06
           36680     68.1363E+06     29.6226E+06              0.     2.57616E+06
           36681      68.152E+06     29.5894E+06              0.     2.56554E+06
           36682     68.1677E+06     29.5571E+06              0.     2.55965E+06
           36683     68.1834E+06     29.5256E+06              0.     2.55838E+06
           36684     68.1990E+06     29.4947E+06              0.     2.56163E+06
           36685     68.2148E+06     29.4646E+06              0.     2.56929E+06
           36686     68.2306E+06     29.4351E+06              0.     2.58127E+06
           36687     68.2464E+06     29.4063E+06              0.     2.59748E+06
           36688     68.2624E+06     29.3780E+06              0.     2.61784E+06
           36689     68.2786E+06     29.3502E+06              0.     2.64226E+06
           36690     68.2949E+06     29.3230E+06              0.     2.67069E+06
           36691     68.3114E+06     29.2962E+06              0.     2.70304E+06
           36692     68.3281E+06     29.2699E+06              0.     2.73926E+06
           36693     68.3450E+06     29.2440E+06              0.     2.77928E+06
           36694     68.3623E+06     29.2184E+06              0.     2.82305E+06
           36695     68.3798E+06     29.1932E+06              0.     2.87053E+06
           36696     68.3976E+06     29.1684E+06              0.     2.92166E+06
           36697     68.4157E+06     29.1438E+06              0.     2.97641E+06
           36698     68.4342E+06     29.1195E+06              0.     3.03473E+06
           36699     68.4531E+06     29.0955E+06              0.     3.09660E+06
           36700     68.4723E+06     29.0716E+06              0.     3.16199E+06
           36701     68.4920E+06     29.0480E+06              0.     3.23086E+06
           36702     68.5122E+06     29.0245E+06              0.     3.30321E+06
           36703     68.5327E+06     29.0012E+06              0.     3.37900E+06
           36704     68.5538E+06     28.9780E+06              0.     3.45823E+06
           36705     68.5754E+06     28.9549E+06              0.     3.54089E+06
           36706     68.5975E+06     28.9319E+06              0.     3.62696E+06
           36707     68.6201E+06     28.9090E+06              0.     3.71644E+06
           36708     68.6433E+06     28.8861E+06              0.     3.80933E+06
           36709     68.6671E+06     28.8632E+06              0.     3.90563E+06
           36710     68.6915E+06     28.8403E+06              0.     4.00535E+06
           36711     68.7166E+06     28.8174E+06              0.     4.10849E+06
           36712     68.7422E+06     28.7945E+06              0.     4.21507E+06
           36713     68.7686E+06     28.7715E+06              0.     4.32509E+06
           36714     68.7956E+06     28.7485E+06              0.     4.43858E+06
           36715     68.8234E+06     28.7253E+06              0.     4.55556E+06
           36716     68.8518E+06     28.7021E+06              0.     4.67604E+06
           36717     68.8811E+06     28.6788E+06              0.     4.80005E+06
           36718     68.9111E+06     28.6553E+06              0.     4.92762E+06
           36719     68.9419E+06     28.6317E+06              0.     5.05877E+06
           36720     68.9735E+06     28.6079E+06              0.     5.19355E+06
           36721     69.0060E+06     28.5840E+06              0.     5.33198E+06
           36722     69.0393E+06     28.5598E+06              0.     5.47411E+06
           36723     69.0735E+06     28.5355E+06              0.     5.61996E+06
           36724     69.1086E+06     28.5110E+06              0.     5.76960E+06
           36725     69.1447E+06     28.4862E+06              0.     5.92305E+06
           36726     69.1816E+06     28.4612E+06              0.     6.08036E+06
           36727     69.2196E+06     28.4360E+06              0.     6.24160E+06
           36728     69.2585E+06     28.4105E+06              0.     6.40680E+06
           36729     69.2985E+06     28.3848E+06              0.     6.57602E+06
           36730     69.3395E+06     28.3588E+06              0.     6.74932E+06
           36731     69.3816E+06     28.3325E+06              0.     6.92675E+06
           36732     69.4248E+06     28.3059E+06              0.     7.10838E+06
           36733     69.4690E+06     28.2790E+06              0.     7.29426E+06
           36734     69.5144E+06     28.2518E+06              0.     7.48447E+06
           36735     69.5610E+06     28.2243E+06              0.     7.67907E+06
           36736     69.6088E+06     28.1964E+06              0.     7.87812E+06
           36737     69.6577E+06     28.1683E+06              0.     8.08170E+06
           36738     69.7079E+06     28.1398E+06              0.     8.28989E+06
           36739     69.7594E+06     28.1109E+06              0.     8.50275E+06
           36740     69.8121E+06     28.0818E+06              0.     8.72036E+06
           36741     69.8662E+06     28.0522E+06              0.     8.94281E+06
           36742     69.9215E+06     28.0224E+06              0.     9.17016E+06
           36743     69.9783E+06     27.9922E+06              0.     9.40251E+06
           36744     70.0364E+06     27.9616E+06              0.     9.63994E+06
           36745     70.0960E+06     27.9307E+06              0.     9.88254E+06
           36746     70.1570E+06     27.8994E+06              0.     10.1304E+06
           36747     70.2194E+06     27.8678E+06              0.     10.3836E+06
           36748     70.2834E+06     27.8358E+06              0.     10.6422E+06
           36749     70.3488E+06     27.8034E+06              0.     10.9063E+06
           36750     70.4158E+06     27.7707E+06              0.     11.1761E+06
           36751     70.4844E+06     27.7377E+06              0.     11.4516E+06
           36752     70.5546E+06     27.7043E+06              0.     11.7329E+06
           36753     70.6264E+06     27.6706E+06              0.     12.0201E+06
           36754     70.6999E+06     27.6366E+06              0.     12.3134E+06
           36755     70.7751E+06     27.6022E+06              0.     12.6127E+06
           36756     70.8519E+06     27.5676E+06              0.     12.9183E+06
           36757     70.9306E+06     27.5326E+06              0.     13.2303E+06
           36758     71.0109E+06     27.4973E+06              0.     13.5486E+06
           36759     71.0931E+06     27.4618E+06              0.     13.8735E+06
           36760     71.1771E+06     27.4260E+06              0.     14.2051E+06
           36761     71.2629E+06     27.3899E+06              0.     14.5434E+06
           36762     71.3506E+06     27.3536E+06              0.     14.8887E+06
           36763     71.4402E+06     27.3171E+06              0.     15.2409E+06
           36764     71.5317E+06     27.2804E+06              0.     15.6002E+06
           36765     71.6251E+06     27.2435E+06              0.     15.9668E+06
           36766     71.7206E+06     27.2065E+06              0.     16.3406E+06
           36767     71.8180E+06     27.1693E+06              0.     16.7220E+06
           36768     71.9174E+06     27.1320E+06              0.     17.1109E+06
           36769     72.0189E+06     27.0947E+06              0.     17.5076E+06
           36770     72.1224E+06     27.0573E+06              0.     17.9120E+06
           36771      72.228E+06     27.0198E+06              0.     18.3244E+06
           36772     72.3357E+06     26.9824E+06              0.     18.7449E+06
           36773     72.4455E+06     26.9451E+06              0.     19.1735E+06
           36774     72.5575E+06     26.9079E+06              0.     19.6105E+06
           36775     72.6716E+06     26.8708E+06              0.     20.0559E+06
           36776     72.7878E+06     26.8338E+06              0.     20.5098E+06
           36777     72.9062E+06     26.7971E+06              0.     20.9724E+06
           36778     73.0268E+06     26.7607E+06              0.     21.4438E+06
           36779     73.1496E+06     26.7246E+06              0.     21.9241E+06
           36780     73.2746E+06     26.6889E+06              0.     22.4134E+06
           36781     73.4018E+06     26.6536E+06              0.     22.9119E+06
           36782     73.5312E+06     26.6189E+06              0.     23.4196E+06
           36783     73.6628E+06     26.5847E+06              0.     23.9368E+06
           36784     73.7966E+06     26.5511E+06              0.     24.4635E+06
           36785     73.9325E+06     26.5183E+06              0.     24.9997E+06
           36786     74.0707E+06     26.4862E+06              0.     25.5457E+06
           36787     74.2109E+06     26.4550E+06              0.     26.1016E+06
           36788     74.3534E+06     26.4248E+06              0.     26.6674E+06
           36789     74.4980E+06     26.3956E+06              0.     27.2433E+06
           36790     74.6446E+06     26.3675E+06              0.     27.8294E+06
           36791     74.7933E+06     26.3406E+06              0.     28.4257E+06
           36792     74.9440E+06     26.3151E+06              0.     29.0324E+06
           36793     75.0967E+06     26.2910E+06              0.     29.6495E+06
           36794     75.2514E+06     26.2685E+06              0.     30.2772E+06
           36795     75.4079E+06     26.2476E+06              0.     30.9156E+06
           36796     75.5662E+06     26.2285E+06              0.     31.5646E+06
           36797     75.7263E+06     26.2113E+06              0.     32.2245E+06
           36798     75.8880E+06     26.1962E+06              0.     32.8952E+06
           36799     76.0513E+06     26.1832E+06              0.     33.5768E+06
           36800     76.2161E+06     26.1726E+06              0.     34.2694E+06
           36801     76.3823E+06     26.1644E+06              0.     34.9731E+06
           36802     76.5498E+06     26.1588E+06              0.     35.6878E+06
           36803     76.7184E+06     26.1561E+06              0.     36.4136E+06
           36804     76.8881E+06     26.1562E+06              0.     37.1505E+06
           36805     77.0587E+06     26.1596E+06              0.     37.8986E+06
           36806     77.2299E+06     26.1662E+06              0.     38.6579E+06
           36807     77.4018E+06     26.1763E+06              0.     39.4282E+06
           36808      77.574E+06     26.1901E+06              0.     40.2097E+06
           36809     77.7464E+06     26.2078E+06              0.     41.0023E+06
           36810     77.9188E+06     26.2296E+06              0.     41.8058E+06
           36811     78.0909E+06     26.2557E+06              0.     42.6204E+06
           36812     78.2626E+06     26.2863E+06              0.     43.4459E+06
           36813     78.4335E+06     26.3217E+06              0.     44.2821E+06
           36814     78.6033E+06     26.3620E+06              0.     45.1290E+06
           36815     78.7718E+06     26.4076E+06              0.     45.9865E+06
           36816     78.9387E+06     26.4586E+06              0.     46.8544E+06
           36817     79.1036E+06     26.5154E+06              0.     47.7325E+06
           36818     79.2661E+06     26.5781E+06              0.     48.6206E+06
           36819     79.4259E+06     26.6470E+06              0.     49.5185E+06
           36820     79.5825E+06     26.7224E+06              0.     50.4259E+06
           36821     79.7355E+06     26.8046E+06              0.     51.3426E+06
           36822     79.8845E+06     26.8938E+06              0.     52.2682E+06
           36823     80.0289E+06     26.9903E+06              0.     53.2024E+06
           36824     80.1683E+06     27.0943E+06              0.     54.1448E+06
           36825     80.3020E+06     27.2062E+06              0.     55.0951E+06
           36826     80.4296E+06     27.3263E+06              0.     56.0526E+06
           36827     80.5503E+06     27.4547E+06              0.     57.0171E+06
           36828     80.6635E+06     27.5918E+06              0.     57.9878E+06
           36829     80.7686E+06     27.7379E+06              0.     58.9643E+06
           36830     80.8647E+06     27.8931E+06              0.     59.9458E+06
           36831     80.9512E+06     28.0578E+06              0.     60.9318E+06
           36832     81.0272E+06     28.2322E+06              0.     61.9214E+06
           36833     81.0919E+06     28.4165E+06              0.     62.9138E+06
           36834     81.1444E+06     28.6109E+06              0.     63.9083E+06
           36835     81.1838E+06     28.8157E+06              0.     64.9038E+06
           36836     81.2091E+06     29.0310E+06              0.     65.8994E+06
           36837     81.2192E+06     29.2569E+06              0.     66.8939E+06
           36838     81.2132E+06     29.4937E+06              0.     67.8864E+06
           36839     81.1899E+06     29.7413E+06              0.     68.8754E+06
           36840     81.1481E+06     29.9999E+06              0.     69.8598E+06
           36841     81.0867E+06     30.2694E+06              0.     70.8381E+06
           36842     81.0044E+06     30.5498E+06              0.     71.8088E+06
           36843        80.9E+06     30.8411E+06              0.     72.7704E+06
           36844     80.7720E+06     31.1431E+06              0.     73.7212E+06
           36845     80.6192E+06     31.4555E+06              0.     74.6594E+06
           36846     80.4401E+06     31.7781E+06              0.     75.5831E+06
           36847     80.2332E+06     32.1106E+06              0.     76.4902E+06
           36848     79.9971E+06     32.4524E+06              0.     77.3787E+06
           36849     79.7303E+06     32.8030E+06              0.     78.2464E+06
           36850     79.4312E+06     33.1618E+06              0.     79.0908E+06
           36851     79.0982E+06     33.5280E+06              0.     79.9096E+06
           36852     78.7297E+06     33.9006E+06              0.     80.7000E+06
           36853     78.3242E+06     34.2786E+06              0.     81.4593E+06
           36854     77.8800E+06     34.6609E+06              0.     82.1847E+06
           36855     77.3955E+06     35.0461E+06              0.     82.8732E+06
           36856     76.8691E+06     35.4326E+06              0.     83.5217E+06
           36857     76.2993E+06     35.8187E+06              0.     84.1268E+06
           36858     75.6845E+06     36.2026E+06              0.     84.6852E+06
           36859     75.0231E+06     36.5820E+06              0.     85.1935E+06
           36860     74.3138E+06     36.9546E+06              0.      85.648E+06
           36861     73.5551E+06     37.3179E+06              0.     86.0450E+06
           36862     72.7458E+06     37.6691E+06              0.     86.3806E+06
           36863     71.8845E+06     38.0049E+06              0.     86.6510E+06
           36864     70.9702E+06     38.3221E+06              0.     86.8521E+06
           36865     70.0019E+06     38.6171E+06              0.     86.9799E+06
           36866     68.9788E+06     38.8858E+06              0.     87.0304E+06
           36867     67.9001E+06     39.1242E+06              0.     86.9993E+06
           36868     66.7653E+06     39.3277E+06              0.     86.8826E+06
           36869     65.5741E+06     39.4915E+06              0.     86.6761E+06
           36870     64.3263E+06     39.6105E+06              0.     86.3757E+06
           36871     63.0219E+06     39.6794E+06              0.     85.9774E+06
           36872     61.6613E+06     39.6926E+06              0.     85.4773E+06
           36873      60.245E+06     39.6441E+06              0.     84.8716E+06
           36874     58.7737E+06     39.5277E+06              0.     84.1565E+06
           36875     57.2485E+06     39.3372E+06              0.     83.3287E+06
           36876     55.6706E+06     39.0659E+06              0.     82.3849E+06
           36877     54.0416E+06     38.7070E+06              0.     81.3220E+06
           36878     52.3632E+06     38.2538E+06              0.     80.1374E+06
           36879     50.6374E+06     37.6991E+06              0.     78.8285E+06
           36880     48.8666E+06     37.0360E+06              0.     77.3933E+06
           36881     47.0532E+06     36.2574E+06              0.     75.8301E+06
           36882     45.1999E+06     35.3563E+06              0.     74.1374E+06
           36883     43.3098E+06     34.3258E+06              0.     72.3144E+06
           36884     41.3857E+06     33.1591E+06              0.     70.3604E+06
           36885     39.4311E+06     31.8496E+06              0.     68.2753E+06
           36886     37.4493E+06     30.3911E+06              0.     66.0595E+06
           36887     35.4438E+06     28.7774E+06              0.     63.7135E+06
           36888     33.4177E+06     27.0027E+06              0.     61.2386E+06
           36889     31.3722E+06     25.0611E+06              0.     58.6363E+06
           36890     29.8726E+06     22.4823E+06              0.     57.6775E+06
           36891     68.1665E+06     29.8949E+06              0.     2.69233E+06
           36892     68.1618E+06     29.8406E+06              0.     2.68753E+06
           36893     68.1805E+06     29.7974E+06              0.     2.65157E+06
           36894     68.1990E+06     29.7554E+06              0.     2.62097E+06
           36895     68.2173E+06     29.7145E+06              0.     2.59558E+06
           36896     68.2354E+06     29.6747E+06              0.     2.57526E+06
           36897     68.2534E+06     29.6360E+06              0.     2.55990E+06
           36898     68.2714E+06     29.5982E+06              0.     2.54935E+06
           36899     68.2892E+06     29.5613E+06              0.     2.54350E+06
           36900     68.3071E+06     29.5253E+06              0.     2.54225E+06
           36901     68.3249E+06     29.4902E+06              0.     2.54548E+06
           36902     68.3429E+06     29.4558E+06              0.     2.55310E+06
           36903     68.3608E+06     29.4221E+06              0.     2.56502E+06
           36904     68.3789E+06     29.3892E+06              0.     2.58113E+06
           36905     68.3972E+06     29.3569E+06              0.     2.60137E+06
           36906     68.4156E+06     29.3252E+06              0.     2.62566E+06
           36907     68.4342E+06     29.2941E+06              0.     2.65391E+06
           36908     68.4530E+06     29.2636E+06              0.     2.68607E+06
           36909     68.4720E+06     29.2335E+06              0.     2.72207E+06
           36910     68.4913E+06     29.2039E+06              0.     2.76185E+06
           36911     68.5110E+06     29.1748E+06              0.     2.80536E+06
           36912     68.5309E+06     29.1460E+06              0.     2.85255E+06
           36913     68.5512E+06     29.1176E+06              0.     2.90337E+06
           36914     68.5719E+06     29.0896E+06              0.     2.95779E+06
           36915     68.5930E+06     29.0618E+06              0.     3.01576E+06
           36916     68.6146E+06     29.0343E+06              0.     3.07726E+06
           36917     68.6365E+06     29.0071E+06              0.     3.14225E+06
           36918     68.6590E+06     28.9801E+06              0.     3.21071E+06
           36919     68.6819E+06     28.9533E+06              0.     3.28261E+06
           36920     68.7054E+06     28.9266E+06              0.     3.35795E+06
           36921     68.7295E+06     28.9001E+06              0.     3.43670E+06
           36922     68.7541E+06     28.8737E+06              0.     3.51886E+06
           36923     68.7793E+06     28.8474E+06              0.     3.60441E+06
           36924     68.8051E+06     28.8211E+06              0.     3.69335E+06
           36925     68.8316E+06     28.7949E+06              0.     3.78569E+06
           36926     68.8587E+06     28.7687E+06              0.     3.88141E+06
           36927     68.8866E+06     28.7425E+06              0.     3.98053E+06
           36928     68.9152E+06     28.7163E+06              0.     4.08306E+06
           36929     68.9445E+06     28.6900E+06              0.     4.18900E+06
           36930     68.9745E+06     28.6637E+06              0.     4.29837E+06
           36931     69.0054E+06     28.6373E+06              0.     4.41119E+06
           36932     69.0371E+06     28.6108E+06              0.     4.52747E+06
           36933     69.0696E+06     28.5841E+06              0.     4.64724E+06
           36934     69.1030E+06     28.5574E+06              0.     4.77052E+06
           36935     69.1372E+06     28.5304E+06              0.     4.89733E+06
           36936     69.1724E+06     28.5033E+06              0.     5.02772E+06
           36937     69.2085E+06     28.4760E+06              0.     5.16171E+06
           36938     69.2456E+06     28.4486E+06              0.     5.29933E+06
           36939     69.2836E+06     28.4208E+06              0.     5.44062E+06
           36940     69.3227E+06     28.3929E+06              0.     5.58563E+06
           36941     69.3628E+06     28.3647E+06              0.     5.73440E+06
           36942     69.4040E+06     28.3362E+06              0.     5.88696E+06
           36943     69.4462E+06     28.3074E+06              0.     6.04337E+06
           36944     69.4896E+06     28.2784E+06              0.     6.20368E+06
           36945     69.5341E+06     28.2491E+06              0.     6.36794E+06
           36946     69.5797E+06     28.2194E+06              0.     6.53619E+06
           36947     69.6266E+06     28.1894E+06              0.     6.70851E+06
           36948     69.6747E+06     28.1591E+06              0.     6.88493E+06
           36949      69.724E+06     28.1284E+06              0.     7.06554E+06
           36950     69.7746E+06     28.0973E+06              0.     7.25038E+06
           36951     69.8265E+06     28.0659E+06              0.     7.43953E+06
           36952     69.8798E+06     28.0342E+06              0.     7.63304E+06
           36953     69.9344E+06     28.0020E+06              0.     7.83100E+06
           36954     69.9903E+06     27.9694E+06              0.     8.03346E+06
           36955     70.0478E+06     27.9364E+06              0.     8.24050E+06
           36956     70.1066E+06     27.9030E+06              0.     8.45220E+06
           36957     70.1669E+06     27.8692E+06              0.     8.66864E+06
           36958     70.2288E+06     27.8350E+06              0.     8.88988E+06
           36959     70.2921E+06     27.8004E+06              0.     9.11602E+06
           36960     70.3571E+06     27.7653E+06              0.     9.34713E+06
           36961     70.4236E+06     27.7298E+06              0.     9.58331E+06
           36962     70.4918E+06     27.6938E+06              0.     9.82463E+06
           36963     70.5616E+06     27.6574E+06              0.     10.0712E+06
           36964     70.6332E+06     27.6206E+06              0.     10.3231E+06
           36965     70.7064E+06     27.5833E+06              0.     10.5804E+06
           36966     70.7814E+06     27.5456E+06              0.     10.8432E+06
           36967     70.8582E+06     27.5075E+06              0.     11.1116E+06
           36968     70.9368E+06     27.4689E+06              0.     11.3857E+06
           36969     71.0173E+06     27.4298E+06              0.     11.6656E+06
           36970     71.0996E+06     27.3904E+06              0.     11.9514E+06
           36971     71.1839E+06     27.3505E+06              0.     12.2432E+06
           36972     71.2701E+06     27.3102E+06              0.     12.5411E+06
           36973     71.3583E+06     27.2694E+06              0.     12.8453E+06
           36974     71.4486E+06     27.2283E+06              0.     13.1557E+06
           36975     71.5408E+06     27.1868E+06              0.     13.4726E+06
           36976     71.6352E+06     27.1449E+06              0.     13.7960E+06
           36977     71.7317E+06     27.1026E+06              0.     14.1260E+06
           36978     71.8303E+06     27.0600E+06              0.     14.4629E+06
           36979     71.9311E+06     27.0170E+06              0.     14.8065E+06
           36980     72.0341E+06     26.9737E+06              0.     15.1572E+06
           36981     72.1394E+06     26.9301E+06              0.     15.5150E+06
           36982     72.2470E+06     26.8862E+06              0.     15.8800E+06
           36983     72.3568E+06     26.8420E+06              0.     16.2523E+06
           36984     72.4690E+06     26.7976E+06              0.     16.6321E+06
           36985     72.5836E+06     26.7529E+06              0.     17.0195E+06
           36986     72.7006E+06     26.7081E+06              0.     17.4146E+06
           36987     72.8200E+06     26.6631E+06              0.     17.8175E+06
           36988     72.9418E+06     26.6180E+06              0.     18.2283E+06
           36989     73.0661E+06     26.5728E+06              0.     18.6472E+06
           36990     73.1930E+06     26.5275E+06              0.     19.0743E+06
           36991     73.3224E+06     26.4823E+06              0.     19.5097E+06
           36992     73.4543E+06     26.4370E+06              0.     19.9535E+06
           36993     73.5888E+06     26.3918E+06              0.     20.4059E+06
           36994     73.7259E+06     26.3467E+06              0.     20.8670E+06
           36995     73.8656E+06     26.3018E+06              0.     21.3369E+06
           36996     74.0080E+06     26.2571E+06              0.     21.8158E+06
           36997     74.1530E+06     26.2126E+06              0.     22.3037E+06
           36998     74.3007E+06     26.1685E+06              0.     22.8007E+06
           36999     74.4511E+06     26.1248E+06              0.     23.3071E+06
           37000     74.6041E+06     26.0816E+06              0.     23.8229E+06
           37001     74.7598E+06     26.0389E+06              0.     24.3483E+06
           37002     74.9183E+06     25.9967E+06              0.     24.8833E+06
           37003     75.0794E+06     25.9553E+06              0.     25.4282E+06
           37004     75.2431E+06     25.9146E+06              0.     25.9829E+06
           37005     75.4096E+06     25.8748E+06              0.     26.5476E+06
           37006     75.5787E+06     25.8360E+06              0.     27.1225E+06
           37007     75.7505E+06     25.7981E+06              0.     27.7076E+06
           37008     75.9249E+06     25.7614E+06              0.     28.3030E+06
           37009     76.1019E+06     25.7260E+06              0.     28.9089E+06
           37010     76.2815E+06     25.6919E+06              0.     29.5254E+06
           37011     76.4636E+06     25.6592E+06              0.     30.1525E+06
           37012     76.6482E+06     25.6282E+06              0.     30.7903E+06
           37013     76.8352E+06     25.5988E+06              0.     31.4390E+06
           37014     77.0246E+06     25.5714E+06              0.     32.0986E+06
           37015     77.2163E+06     25.5459E+06              0.     32.7692E+06
           37016     77.4102E+06     25.5225E+06              0.     33.4508E+06
           37017     77.6063E+06     25.5014E+06              0.     34.1436E+06
           37018     77.8045E+06     25.4828E+06              0.     34.8475E+06
           37019     78.0047E+06     25.4667E+06              0.     35.5627E+06
           37020     78.2067E+06     25.4535E+06              0.     36.2892E+06
           37021     78.4105E+06     25.4432E+06              0.     37.0270E+06
           37022     78.6159E+06     25.4360E+06              0.     37.7761E+06
           37023     78.8227E+06     25.4321E+06              0.     38.5366E+06
           37024     79.0309E+06     25.4318E+06              0.     39.3084E+06
           37025     79.2402E+06     25.4352E+06              0.     40.0917E+06
           37026     79.4505E+06     25.4425E+06              0.     40.8862E+06
           37027     79.6615E+06     25.4541E+06              0.     41.6921E+06
           37028     79.8731E+06     25.4700E+06              0.     42.5092E+06
           37029     80.0850E+06     25.4905E+06              0.     43.3375E+06
           37030     80.2970E+06     25.5159E+06              0.     44.1769E+06
           37031     80.5087E+06     25.5464E+06              0.     45.0274E+06
           37032     80.7200E+06     25.5823E+06              0.     45.8887E+06
           37033     80.9304E+06     25.6239E+06              0.     46.7608E+06
           37034     81.1397E+06     25.6714E+06              0.     47.6436E+06
           37035     81.3475E+06     25.7251E+06              0.     48.5367E+06
           37036     81.5535E+06     25.7852E+06              0.     49.4401E+06
           37037     81.7571E+06     25.8521E+06              0.     50.3535E+06
           37038     81.9581E+06     25.9261E+06              0.     51.2766E+06
           37039     82.1559E+06     26.0075E+06              0.     52.2092E+06
           37040     82.3500E+06     26.0966E+06              0.     53.1509E+06
           37041     82.5399E+06     26.1936E+06              0.     54.1013E+06
           37042     82.7251E+06     26.2990E+06              0.     55.0602E+06
           37043      82.905E+06     26.4129E+06              0.     56.0270E+06
           37044     83.0789E+06     26.5358E+06              0.     57.0012E+06
           37045     83.2463E+06     26.6680E+06              0.     57.9825E+06
           37046     83.4063E+06     26.8097E+06              0.     58.9701E+06
           37047     83.5583E+06     26.9613E+06              0.     59.9636E+06
           37048     83.7014E+06     27.1230E+06              0.     60.9622E+06
           37049     83.8350E+06     27.2953E+06              0.     61.9652E+06
           37050     83.9580E+06     27.4783E+06              0.     62.9718E+06
           37051     84.0697E+06     27.6723E+06              0.     63.9813E+06
           37052     84.1689E+06     27.8777E+06              0.     64.9927E+06
           37053     84.2549E+06     28.0945E+06              0.     66.0050E+06
           37054     84.3264E+06     28.3232E+06              0.     67.0172E+06
           37055     84.3824E+06     28.5638E+06              0.     68.0282E+06
           37056     84.4218E+06     28.8166E+06              0.     69.0368E+06
           37057     84.4433E+06     29.0816E+06              0.     70.0416E+06
           37058     84.4457E+06     29.3590E+06              0.     71.0414E+06
           37059     84.4277E+06     29.6488E+06              0.     72.0346E+06
           37060      84.388E+06     29.9510E+06              0.     73.0197E+06
           37061     84.3252E+06     30.2656E+06              0.     73.9951E+06
           37062     84.2377E+06     30.5925E+06              0.     74.9588E+06
           37063     84.1242E+06     30.9314E+06              0.     75.9091E+06
           37064     83.9830E+06     31.2821E+06              0.     76.8439E+06
           37065     83.8127E+06     31.6442E+06              0.     77.7611E+06
           37066     83.6115E+06     32.0174E+06              0.     78.6585E+06
           37067     83.3779E+06     32.4009E+06              0.     79.5337E+06
           37068     83.1101E+06     32.7943E+06              0.     80.3841E+06
           37069     82.8064E+06     33.1966E+06              0.     81.2072E+06
           37070     82.4651E+06     33.6069E+06              0.     82.0001E+06
           37071     82.0844E+06     34.0241E+06              0.     82.7599E+06
           37072     81.6627E+06     34.4470E+06              0.     83.4836E+06
           37073      81.198E+06     34.8742E+06              0.     84.1680E+06
           37074     80.6887E+06     35.3040E+06              0.     84.8097E+06
           37075     80.1331E+06     35.7345E+06              0.     85.4053E+06
           37076     79.5295E+06     36.1638E+06              0.     85.9511E+06
           37077     78.8763E+06     36.5896E+06              0.     86.4435E+06
           37078     78.1718E+06     37.0092E+06              0.     86.8785E+06
           37079     77.4146E+06     37.4201E+06              0.     87.2522E+06
           37080     76.6033E+06     37.8190E+06              0.     87.5605E+06
           37081     75.7365E+06     38.2026E+06              0.     87.7993E+06
           37082     74.8131E+06     38.5674E+06              0.     87.9643E+06
           37083     73.8321E+06     38.9093E+06              0.     88.0512E+06
           37084     72.7925E+06     39.2242E+06              0.     88.0557E+06
           37085     71.6936E+06     39.5075E+06              0.     87.9734E+06
           37086     70.5350E+06     39.7542E+06              0.     87.7999E+06
           37087     69.3162E+06     39.9592E+06              0.     87.5309E+06
           37088     68.0374E+06     40.1169E+06              0.     87.1621E+06
           37089     66.6984E+06     40.2217E+06              0.     86.6894E+06
           37090     65.2999E+06     40.2673E+06              0.     86.1087E+06
           37091     63.8424E+06     40.2473E+06              0.     85.4160E+06
           37092     62.3269E+06     40.1552E+06              0.     84.6076E+06
           37093     60.7546E+06      39.984E+06              0.     83.6800E+06
           37094     59.1270E+06     39.7267E+06              0.     82.6300E+06
           37095     57.4458E+06     39.3761E+06              0.     81.4547E+06
           37096     55.7132E+06     38.9248E+06              0.     80.1513E+06
           37097     53.9313E+06     38.3654E+06              0.     78.7176E+06
           37098     52.1028E+06     37.6904E+06              0.     77.1517E+06
           37099     50.2304E+06     36.8924E+06              0.     75.4521E+06
           37100     48.3172E+06     35.9640E+06              0.     73.6178E+06
           37101     46.3665E+06     34.8982E+06              0.     71.6482E+06
           37102     44.3815E+06     33.6878E+06              0.     69.5431E+06
           37103     42.3658E+06     32.3262E+06              0.     67.3028E+06
           37104     40.3232E+06     30.8071E+06              0.     64.9281E+06
           37105     38.2575E+06     29.1243E+06              0.     62.4202E+06
           37106     36.1732E+06     27.2727E+06              0.     59.7808E+06
           37107     34.6878E+06     24.7782E+06              0.     58.8242E+06
           37108     68.2724E+06     29.9399E+06              0.     2.67290E+06
           37109     68.2671E+06     29.8790E+06              0.     2.66814E+06
           37110     68.2881E+06     29.8305E+06              0.     2.63245E+06
           37111     68.3088E+06     29.7833E+06              0.     2.60207E+06
           37112     68.3293E+06     29.7375E+06              0.     2.57687E+06
           37113     68.3496E+06     29.6928E+06              0.     2.55671E+06
           37114     68.3698E+06     29.6493E+06              0.     2.54146E+06
           37115     68.3899E+06     29.6069E+06              0.     2.53099E+06
           37116     68.4099E+06     29.5655E+06              0.     2.52520E+06
           37117     68.4300E+06     29.5251E+06              0.     2.52396E+06
           37118       68.45E+06     29.4856E+06              0.     2.52718E+06
           37119     68.4701E+06     29.4470E+06              0.     2.53475E+06
           37120     68.4903E+06     29.4092E+06              0.     2.54659E+06
           37121     68.5106E+06     29.3722E+06              0.     2.56260E+06
           37122     68.5310E+06     29.3360E+06              0.     2.58270E+06
           37123     68.5517E+06     29.3004E+06              0.     2.60682E+06
           37124     68.5725E+06     29.2655E+06              0.     2.63488E+06
           37125     68.5936E+06     29.2311E+06              0.     2.66681E+06
           37126     68.6150E+06     29.1974E+06              0.     2.70256E+06
           37127     68.6367E+06     29.1641E+06              0.     2.74207E+06
           37128     68.6587E+06     29.1314E+06              0.     2.78528E+06
           37129     68.6811E+06     29.0991E+06              0.     2.83214E+06
           37130     68.7039E+06     29.0672E+06              0.     2.88261E+06
           37131     68.7271E+06     29.0357E+06              0.     2.93665E+06
           37132     68.7508E+06     29.0045E+06              0.     2.99422E+06
           37133     68.7749E+06     28.9736E+06              0.     3.05529E+06
           37134     68.7996E+06     28.9430E+06              0.     3.11984E+06
           37135     68.8248E+06     28.9126E+06              0.     3.18782E+06
           37136     68.8506E+06     28.8825E+06              0.     3.25923E+06
           37137     68.8770E+06     28.8525E+06              0.     3.33405E+06
           37138     68.9039E+06     28.8226E+06              0.     3.41225E+06
           37139     68.9316E+06     28.7929E+06              0.     3.49384E+06
           37140     68.9599E+06     28.7633E+06              0.     3.57880E+06
           37141     68.9889E+06     28.7338E+06              0.     3.66713E+06
           37142     69.0186E+06     28.7043E+06              0.     3.75883E+06
           37143     69.0491E+06     28.6748E+06              0.     3.85389E+06
           37144     69.0804E+06     28.6453E+06              0.     3.95234E+06
           37145     69.1125E+06     28.6158E+06              0.     4.05416E+06
           37146     69.1454E+06     28.5862E+06              0.     4.15937E+06
           37147     69.1791E+06     28.5566E+06              0.     4.26800E+06
           37148     69.2138E+06     28.5268E+06              0.     4.38004E+06
           37149     69.2494E+06     28.4969E+06              0.     4.49553E+06
           37150     69.2859E+06     28.4669E+06              0.     4.61448E+06
           37151     69.3234E+06     28.4367E+06              0.     4.73692E+06
           37152     69.3619E+06     28.4064E+06              0.     4.86288E+06
           37153     69.4014E+06     28.3758E+06              0.     4.99238E+06
           37154     69.4420E+06     28.3450E+06              0.     5.12546E+06
           37155     69.4836E+06     28.3140E+06              0.     5.26216E+06
           37156     69.5264E+06     28.2827E+06              0.     5.40250E+06
           37157     69.5703E+06     28.2511E+06              0.     5.54654E+06
           37158     69.6153E+06     28.2193E+06              0.     5.69431E+06
           37159     69.6616E+06     28.1871E+06              0.     5.84586E+06
           37160     69.7091E+06     28.1546E+06              0.     6.00123E+06
           37161     69.7578E+06     28.1218E+06              0.     6.16047E+06
           37162     69.8078E+06     28.0886E+06              0.     6.32364E+06
           37163     69.8592E+06     28.0550E+06              0.     6.49079E+06
           37164     69.9119E+06     28.0211E+06              0.     6.66197E+06
           37165     69.9659E+06     27.9868E+06              0.     6.83724E+06
           37166     70.0214E+06     27.9520E+06              0.     7.01667E+06
           37167     70.0783E+06     27.9168E+06              0.     7.20031E+06
           37168     70.1367E+06     27.8812E+06              0.     7.38823E+06
           37169     70.1965E+06     27.8452E+06              0.     7.58050E+06
           37170     70.2580E+06     27.8087E+06              0.     7.77718E+06
           37171     70.3209E+06     27.7717E+06              0.     7.97834E+06
           37172     70.3855E+06     27.7343E+06              0.     8.18407E+06
           37173     70.4517E+06     27.6964E+06              0.     8.39442E+06
           37174     70.5196E+06     27.6580E+06              0.     8.60949E+06
           37175     70.5892E+06     27.6191E+06              0.     8.82935E+06
           37176     70.6605E+06     27.5797E+06              0.     9.05407E+06
           37177     70.7336E+06     27.5398E+06              0.     9.28375E+06
           37178     70.8085E+06     27.4993E+06              0.     9.51846E+06
           37179     70.8853E+06     27.4584E+06              0.     9.75830E+06
           37180     70.9639E+06     27.4169E+06              0.     10.0033E+06
           37181     71.0445E+06     27.3749E+06              0.     10.2537E+06
           37182     71.1270E+06     27.3323E+06              0.     10.5094E+06
           37183     71.2115E+06     27.2892E+06              0.     10.7707E+06
           37184     71.2980E+06     27.2456E+06              0.     11.0375E+06
           37185     71.3866E+06     27.2015E+06              0.     11.3100E+06
           37186     71.4773E+06     27.1568E+06              0.     11.5882E+06
           37187     71.5702E+06     27.1116E+06              0.     11.8724E+06
           37188     71.6652E+06     27.0659E+06              0.     12.1625E+06
           37189     71.7624E+06     27.0196E+06              0.     12.4587E+06
           37190     71.8619E+06     26.9729E+06              0.     12.7611E+06
           37191     71.9637E+06     26.9256E+06              0.     13.0698E+06
           37192     72.0679E+06     26.8779E+06              0.     13.3849E+06
           37193     72.1744E+06     26.8296E+06              0.     13.7065E+06
           37194     72.2833E+06     26.7809E+06              0.     14.0348E+06
           37195     72.3947E+06     26.7317E+06              0.     14.3698E+06
           37196     72.5086E+06     26.6820E+06              0.     14.7116E+06
           37197     72.6250E+06     26.6319E+06              0.     15.0605E+06
           37198     72.7440E+06     26.5814E+06              0.     15.4164E+06
           37199     72.8656E+06     26.5305E+06              0.     15.7795E+06
           37200     72.9899E+06     26.4792E+06              0.     16.1499E+06
           37201     73.1168E+06     26.4276E+06              0.     16.5278E+06
           37202     73.2465E+06     26.3756E+06              0.     16.9133E+06
           37203     73.3789E+06     26.3233E+06              0.     17.3065E+06
           37204     73.5141E+06     26.2707E+06              0.     17.7074E+06
           37205     73.6522E+06     26.2179E+06              0.     18.1163E+06
           37206     73.7932E+06     26.1649E+06              0.     18.5333E+06
           37207     73.9370E+06     26.1117E+06              0.     18.9584E+06
           37208     74.0838E+06     26.0584E+06              0.     19.3919E+06
           37209     74.2335E+06     26.0050E+06              0.     19.8338E+06
           37210     74.3863E+06     25.9515E+06              0.     20.2843E+06
           37211     74.5421E+06     25.8980E+06              0.     20.7435E+06
           37212     74.7009E+06     25.8446E+06              0.     21.2115E+06
           37213     74.8628E+06     25.7913E+06              0.     21.6884E+06
           37214     75.0279E+06     25.7381E+06              0.     22.1745E+06
           37215     75.1960E+06     25.6851E+06              0.     22.6697E+06
           37216     75.3674E+06     25.6324E+06              0.     23.1743E+06
           37217     75.5419E+06     25.5801E+06              0.     23.6883E+06
           37218     75.7195E+06     25.5282E+06              0.     24.2119E+06
           37219     75.9004E+06     25.4768E+06              0.     24.7452E+06
           37220     76.0845E+06     25.4259E+06              0.     25.2883E+06
           37221     76.2718E+06     25.3757E+06              0.     25.8414E+06
           37222     76.4623E+06     25.3263E+06              0.     26.4045E+06
           37223     76.6560E+06     25.2777E+06              0.     26.9778E+06
           37224     76.8530E+06     25.2300E+06              0.     27.5615E+06
           37225     77.0531E+06     25.1834E+06              0.     28.1555E+06
           37226     77.2564E+06     25.1380E+06              0.     28.7601E+06
           37227     77.4629E+06     25.0938E+06              0.     29.3753E+06
           37228     77.6726E+06     25.0509E+06              0.     30.0012E+06
           37229     77.8853E+06     25.0096E+06              0.     30.6380E+06
           37230     78.1011E+06     24.9700E+06              0.     31.2857E+06
           37231     78.3199E+06     24.9321E+06              0.     31.9444E+06
           37232     78.5418E+06     24.8962E+06              0.     32.6142E+06
           37233     78.7665E+06     24.8623E+06              0.     33.2952E+06
           37234     78.9940E+06     24.8306E+06              0.     33.9875E+06
           37235     79.2244E+06     24.8014E+06              0.     34.6911E+06
           37236     79.4574E+06     24.7747E+06              0.     35.4061E+06
           37237     79.6930E+06     24.7508E+06              0.     36.1326E+06
           37238     79.9311E+06     24.7298E+06              0.     36.8706E+06
           37239     80.1715E+06     24.7120E+06              0.     37.6201E+06
           37240     80.4142E+06     24.6974E+06              0.     38.3811E+06
           37241     80.6589E+06     24.6865E+06              0.     39.1538E+06
           37242     80.9056E+06     24.6792E+06              0.     39.9380E+06
           37243     81.1541E+06     24.6760E+06              0.     40.7338E+06
           37244     81.4041E+06     24.6770E+06              0.     41.5412E+06
           37245     81.6555E+06     24.6825E+06              0.     42.3602E+06
           37246     81.9080E+06     24.6927E+06              0.     43.1906E+06
           37247     82.1614E+06     24.7078E+06              0.     44.0324E+06
           37248     82.4155E+06     24.7283E+06              0.     44.8856E+06
           37249     82.6700E+06     24.7542E+06              0.     45.7501E+06
           37250     82.9245E+06     24.7860E+06              0.     46.6257E+06
           37251     83.1788E+06     24.8238E+06              0.     47.5123E+06
           37252     83.4325E+06     24.8681E+06              0.     48.4097E+06
           37253     83.6852E+06     24.9191E+06              0.     49.3178E+06
           37254     83.9366E+06     24.9772E+06              0.     50.2364E+06
           37255     84.1861E+06     25.0426E+06              0.     51.1652E+06
           37256     84.4335E+06     25.1157E+06              0.     52.1039E+06
           37257     84.6781E+06     25.1969E+06              0.     53.0523E+06
           37258     84.9194E+06     25.2864E+06              0.     54.0100E+06
           37259     85.1570E+06     25.3847E+06              0.     54.9767E+06
           37260     85.3902E+06     25.4921E+06              0.     55.9519E+06
           37261     85.6183E+06     25.6089E+06              0.     56.9353E+06
           37262     85.8408E+06     25.7356E+06              0.     57.9262E+06
           37263     86.0570E+06     25.8724E+06              0.     58.9243E+06
           37264     86.2660E+06     26.0197E+06              0.     59.9290E+06
           37265     86.4671E+06     26.1779E+06              0.     60.9395E+06
           37266     86.6595E+06     26.3474E+06              0.     61.9552E+06
           37267     86.8423E+06     26.5284E+06              0.     62.9754E+06
           37268     87.0146E+06     26.7214E+06              0.     63.9992E+06
           37269     87.1754E+06     26.9266E+06              0.     65.0259E+06
           37270     87.3236E+06     27.1444E+06              0.     66.0543E+06
           37271     87.4582E+06     27.3750E+06              0.     67.0837E+06
           37272     87.5781E+06     27.6188E+06              0.     68.1127E+06
           37273     87.6821E+06     27.8759E+06              0.     69.1403E+06
           37274     87.7689E+06     28.1467E+06              0.     70.1653E+06
           37275     87.8373E+06     28.4312E+06              0.     71.1862E+06
           37276     87.8858E+06     28.7296E+06              0.     72.2016E+06
           37277     87.9132E+06     29.0420E+06              0.     73.2099E+06
           37278     87.9178E+06     29.3684E+06              0.     74.2096E+06
           37279     87.8983E+06     29.7089E+06              0.     75.1988E+06
           37280      87.853E+06     30.0634E+06              0.     76.1757E+06
           37281     87.7803E+06     30.4316E+06              0.     77.1382E+06
           37282     87.6786E+06     30.8134E+06              0.     78.0843E+06
           37283     87.5460E+06     31.2083E+06              0.     79.0117E+06
           37284     87.3809E+06     31.6160E+06              0.     79.9179E+06
           37285     87.1815E+06     32.0359E+06              0.     80.8005E+06
           37286     86.9458E+06     32.4673E+06              0.     81.6568E+06
           37287     86.6720E+06     32.9094E+06              0.     82.4840E+06
           37288     86.3583E+06     33.3612E+06              0.     83.2790E+06
           37289     86.0028E+06     33.8216E+06              0.     84.0389E+06
           37290     85.6034E+06     34.2891E+06              0.     84.7603E+06
           37291     85.1583E+06     34.7624E+06              0.     85.4397E+06
           37292     84.6657E+06     35.2396E+06              0.     86.0738E+06
           37293     84.1236E+06     35.7189E+06              0.     86.6586E+06
           37294     83.5302E+06     36.1980E+06              0.     87.1905E+06
           37295     82.8837E+06     36.6744E+06              0.     87.6653E+06
           37296     82.1825E+06     37.1455E+06              0.     88.0790E+06
           37297     81.4249E+06     37.6081E+06              0.     88.4273E+06
           37298     80.6094E+06     38.0591E+06              0.     88.7058E+06
           37299     79.7347E+06     38.4948E+06              0.     88.9103E+06
           37300     78.7994E+06     38.9112E+06              0.     89.0360E+06
           37301     77.8026E+06     39.3041E+06              0.     89.0785E+06
           37302     76.7432E+06     39.6688E+06              0.     89.0331E+06
           37303     75.6206E+06     40.0004E+06              0.     88.8952E+06
           37304     74.4343E+06     40.2935E+06              0.     88.6604E+06
           37305      73.184E+06     40.5425E+06              0.     88.3238E+06
           37306     71.8698E+06     40.7414E+06              0.     87.8812E+06
           37307     70.4918E+06     40.8839E+06              0.     87.3282E+06
           37308     69.0507E+06     40.9634E+06              0.     86.6605E+06
           37309     67.5473E+06     40.9729E+06              0.     85.8742E+06
           37310     65.9828E+06     40.9053E+06              0.     84.9655E+06
           37311     64.3585E+06     40.7532E+06              0.     83.9309E+06
           37312     62.6762E+06     40.5089E+06              0.     82.7672E+06
           37313      60.938E+06     40.1647E+06              0.     81.4715E+06
           37314     59.1462E+06     39.7128E+06              0.     80.0414E+06
           37315     57.3035E+06     39.1453E+06              0.     78.4747E+06
           37316     55.4126E+06     38.4544E+06              0.     76.7699E+06
           37317     53.4769E+06     37.6321E+06              0.     74.9259E+06
           37318     51.4995E+06     36.6709E+06              0.     72.9419E+06
           37319     49.4840E+06     35.5634E+06              0.     70.8178E+06
           37320     47.4342E+06     34.3024E+06              0.     68.5538E+06
           37321     45.3537E+06     32.8811E+06              0.     66.1509E+06
           37322     43.2467E+06     31.2932E+06              0.     63.6102E+06
           37323     41.1179E+06     29.5330E+06              0.     60.9337E+06
           37324     39.6403E+06     27.1212E+06              0.     59.9763E+06
           37325     68.3775E+06     29.9846E+06              0.     2.65121E+06
           37326     68.3716E+06     29.9170E+06              0.     2.64649E+06
           37327     68.3948E+06     29.8633E+06              0.     2.61109E+06
           37328     68.4177E+06     29.8110E+06              0.     2.58097E+06
           37329     68.4404E+06     29.7602E+06              0.     2.55598E+06
           37330     68.4629E+06     29.7107E+06              0.     2.53599E+06
           37331     68.4853E+06     29.6625E+06              0.     2.52087E+06
           37332     68.5075E+06     29.6154E+06              0.     2.51049E+06
           37333     68.5297E+06     29.5696E+06              0.     2.50475E+06
           37334     68.5519E+06     29.5248E+06              0.     2.50353E+06
           37335     68.5741E+06     29.4810E+06              0.     2.50673E+06
           37336     68.5964E+06     29.4382E+06              0.     2.51425E+06
           37337     68.6187E+06     29.3964E+06              0.     2.52600E+06
           37338     68.6412E+06     29.3554E+06              0.     2.54188E+06
           37339     68.6639E+06     29.3152E+06              0.     2.56183E+06
           37340     68.6867E+06     29.2757E+06              0.     2.58576E+06
           37341     68.7098E+06      29.237E+06              0.     2.61361E+06
           37342     68.7332E+06     29.1989E+06              0.     2.64530E+06
           37343     68.7569E+06     29.1615E+06              0.     2.68077E+06
           37344     68.7809E+06     29.1247E+06              0.     2.71997E+06
           37345     68.8053E+06     29.0883E+06              0.     2.76284E+06
           37346     68.8301E+06     29.0525E+06              0.     2.80933E+06
           37347     68.8554E+06     29.0171E+06              0.     2.85941E+06
           37348     68.8811E+06     28.9822E+06              0.     2.91302E+06
           37349     68.9074E+06     28.9476E+06              0.     2.97014E+06
           37350     68.9341E+06     28.9133E+06              0.     3.03073E+06
           37351     68.9615E+06     28.8793E+06              0.     3.09477E+06
           37352     68.9894E+06     28.8456E+06              0.     3.16222E+06
           37353     69.0180E+06     28.8122E+06              0.     3.23307E+06
           37354     69.0472E+06     28.7789E+06              0.     3.30730E+06
           37355     69.0771E+06     28.7458E+06              0.     3.38490E+06
           37356     69.1078E+06     28.7128E+06              0.     3.46585E+06
           37357     69.1391E+06     28.6799E+06              0.     3.55015E+06
           37358     69.1713E+06     28.6471E+06              0.     3.63779E+06
           37359     69.2043E+06     28.6144E+06              0.     3.72877E+06
           37360     69.2381E+06     28.5816E+06              0.     3.82310E+06
           37361     69.2727E+06     28.5489E+06              0.     3.92077E+06
           37362     69.3083E+06     28.5161E+06              0.     4.02180E+06
           37363     69.3448E+06     28.4832E+06              0.     4.12620E+06
           37364     69.3823E+06     28.4502E+06              0.     4.23398E+06
           37365     69.4207E+06     28.4172E+06              0.     4.34516E+06
           37366     69.4602E+06     28.3840E+06              0.     4.45976E+06
           37367     69.5006E+06     28.3506E+06              0.     4.57779E+06
           37368     69.5422E+06     28.3170E+06              0.     4.69929E+06
           37369     69.5849E+06     28.2832E+06              0.     4.82428E+06
           37370     69.6288E+06     28.2492E+06              0.     4.95279E+06
           37371     69.6737E+06     28.2149E+06              0.     5.08485E+06
           37372     69.7199E+06     28.1804E+06              0.     5.22050E+06
           37373     69.7674E+06     28.1455E+06              0.     5.35978E+06
           37374     69.8161E+06     28.1104E+06              0.     5.50272E+06
           37375     69.8661E+06     28.0749E+06              0.     5.64936E+06
           37376     69.9174E+06     28.0391E+06              0.     5.79976E+06
           37377     69.9701E+06     28.0029E+06              0.     5.95396E+06
           37378     70.0241E+06     27.9663E+06              0.     6.11200E+06
           37379     70.0797E+06     27.9293E+06              0.     6.27394E+06
           37380     70.1366E+06     27.8918E+06              0.     6.43984E+06
           37381     70.1951E+06     27.8540E+06              0.     6.60974E+06
           37382     70.2551E+06     27.8156E+06              0.     6.78370E+06
           37383     70.3167E+06     27.7769E+06              0.     6.96180E+06
           37384     70.3798E+06     27.7376E+06              0.     7.14408E+06
           37385     70.4446E+06     27.6978E+06              0.     7.33061E+06
           37386     70.5111E+06     27.6576E+06              0.     7.52146E+06
           37387     70.5793E+06     27.6168E+06              0.     7.71670E+06
           37388     70.6492E+06     27.5755E+06              0.     7.91639E+06
           37389     70.7209E+06     27.5336E+06              0.     8.12062E+06
           37390     70.7945E+06     27.4912E+06              0.     8.32945E+06
           37391     70.8699E+06     27.4482E+06              0.     8.54297E+06
           37392     70.9472E+06     27.4046E+06              0.     8.76124E+06
           37393     71.0264E+06     27.3605E+06              0.     8.98436E+06
           37394     71.1076E+06     27.3157E+06              0.     9.21240E+06
           37395     71.1908E+06     27.2704E+06              0.     9.44544E+06
           37396     71.2761E+06     27.2244E+06              0.     9.68359E+06
           37397     71.3635E+06     27.1779E+06              0.     9.92691E+06
           37398     71.4531E+06     27.1307E+06              0.     10.1755E+06
           37399     71.5448E+06     27.0829E+06              0.     10.4295E+06
           37400     71.6387E+06     27.0345E+06              0.     10.6889E+06
           37401     71.7349E+06     26.9855E+06              0.     10.9539E+06
           37402     71.8335E+06     26.9358E+06              0.     11.2245E+06
           37403     71.9343E+06     26.8855E+06              0.     11.5009E+06
           37404     72.0376E+06     26.8346E+06              0.     11.7831E+06
           37405     72.1433E+06     26.7831E+06              0.     12.0713E+06
           37406     72.2516E+06     26.7309E+06              0.     12.3656E+06
           37407     72.3623E+06     26.6782E+06              0.     12.6660E+06
           37408     72.4756E+06     26.6248E+06              0.     12.9726E+06
           37409     72.5916E+06     26.5708E+06              0.     13.2857E+06
           37410     72.7102E+06     26.5162E+06              0.     13.6053E+06
           37411     72.8316E+06     26.4611E+06              0.     13.9314E+06
           37412     72.9556E+06     26.4053E+06              0.     14.2643E+06
           37413     73.0826E+06     26.3490E+06              0.     14.6040E+06
           37414     73.2123E+06     26.2922E+06              0.     14.9507E+06
           37415     73.3450E+06     26.2348E+06              0.     15.3044E+06
           37416     73.4806E+06     26.1769E+06              0.     15.6653E+06
           37417     73.6192E+06     26.1185E+06              0.     16.0336E+06
           37418     73.7608E+06     26.0596E+06              0.     16.4092E+06
           37419     73.9055E+06     26.0003E+06              0.     16.7924E+06
           37420     74.0534E+06     25.9406E+06              0.     17.1833E+06
           37421     74.2044E+06     25.8805E+06              0.     17.5820E+06
           37422     74.3586E+06     25.8200E+06              0.     17.9886E+06
           37423     74.5161E+06     25.7592E+06              0.     18.4033E+06
           37424     74.6769E+06     25.6980E+06              0.     18.8261E+06
           37425     74.8410E+06     25.6367E+06              0.     19.2572E+06
           37426     75.0086E+06     25.5751E+06              0.     19.6968E+06
           37427     75.1795E+06     25.5133E+06              0.     20.1450E+06
           37428     75.3539E+06     25.4515E+06              0.     20.6018E+06
           37429     75.5319E+06     25.3895E+06              0.     21.0675E+06
           37430     75.7133E+06     25.3275E+06              0.     21.5421E+06
           37431     75.8983E+06     25.2656E+06              0.     22.0258E+06
           37432     76.0870E+06     25.2038E+06              0.     22.5188E+06
           37433     76.2792E+06     25.1421E+06              0.     23.0210E+06
           37434     76.4752E+06     25.0807E+06              0.     23.5328E+06
           37435     76.6748E+06     25.0195E+06              0.     24.0541E+06
           37436     76.8781E+06     24.9588E+06              0.     24.5852E+06
           37437     77.0852E+06     24.8985E+06              0.     25.1262E+06
           37438     77.2960E+06     24.8388E+06              0.     25.6771E+06
           37439     77.5105E+06     24.7797E+06              0.     26.2381E+06
           37440     77.7289E+06     24.7213E+06              0.     26.8094E+06
           37441     77.9510E+06     24.6638E+06              0.     27.3910E+06
           37442     78.1769E+06     24.6072E+06              0.     27.9831E+06
           37443     78.4066E+06     24.5517E+06              0.     28.5857E+06
           37444     78.6400E+06     24.4973E+06              0.     29.1991E+06
           37445     78.8772E+06     24.4442E+06              0.     29.8233E+06
           37446     79.1182E+06     24.3926E+06              0.     30.4584E+06
           37447     79.3629E+06     24.3425E+06              0.     31.1045E+06
           37448     79.6112E+06     24.2942E+06              0.     31.7617E+06
           37449     79.8632E+06     24.2477E+06              0.     32.4302E+06
           37450     80.1188E+06     24.2032E+06              0.     33.1100E+06
           37451     80.3779E+06     24.1608E+06              0.     33.8011E+06
           37452     80.6405E+06     24.1209E+06              0.     34.5037E+06
           37453     80.9065E+06     24.0834E+06              0.     35.2179E+06
           37454     81.1758E+06     24.0487E+06              0.     35.9437E+06
           37455     81.4484E+06     24.0169E+06              0.     36.6811E+06
           37456     81.7241E+06     23.9882E+06              0.     37.4303E+06
           37457     82.0028E+06     23.9628E+06              0.     38.1912E+06
           37458     82.2844E+06     23.9410E+06              0.     38.9640E+06
           37459     82.5687E+06     23.9230E+06              0.     39.7485E+06
           37460     82.8556E+06     23.9090E+06              0.     40.5449E+06
           37461     83.1448E+06     23.8992E+06              0.     41.3530E+06
           37462     83.4363E+06      23.894E+06              0.     42.1730E+06
           37463     83.7298E+06     23.8936E+06              0.     43.0048E+06
           37464     84.0251E+06     23.8982E+06              0.     43.8483E+06
           37465     84.3220E+06     23.9082E+06              0.     44.7035E+06
           37466     84.6201E+06     23.9239E+06              0.     45.5702E+06
           37467     84.9192E+06     23.9456E+06              0.     46.4485E+06
           37468     85.2189E+06     23.9735E+06              0.     47.3382E+06
           37469     85.5190E+06     24.0080E+06              0.     48.2391E+06
           37470     85.8191E+06     24.0495E+06              0.     49.1511E+06
           37471     86.1188E+06     24.0983E+06              0.     50.0740E+06
           37472     86.4177E+06     24.1547E+06              0.     51.0076E+06
           37473     86.7153E+06     24.2191E+06              0.     51.9517E+06
           37474     87.0111E+06     24.2920E+06              0.     52.9059E+06
           37475     87.3047E+06     24.3735E+06              0.     53.8701E+06
           37476     87.5955E+06     24.4643E+06              0.     54.8438E+06
           37477     87.8829E+06     24.5645E+06              0.     55.8266E+06
           37478     88.1663E+06     24.6748E+06              0.     56.8182E+06
           37479     88.4450E+06     24.7953E+06              0.     57.8182E+06
           37480     88.7184E+06     24.9266E+06              0.     58.8259E+06
           37481     88.9856E+06     25.0691E+06              0.     59.8409E+06
           37482     89.2460E+06     25.2232E+06              0.     60.8626E+06
           37483     89.4986E+06     25.3892E+06              0.     61.8903E+06
           37484     89.7425E+06     25.5676E+06              0.     62.9233E+06
           37485     89.9769E+06     25.7588E+06              0.     63.9608E+06
           37486     90.2007E+06     25.9632E+06              0.     65.0020E+06
           37487     90.4129E+06     26.1811E+06              0.     66.0460E+06
           37488     90.6124E+06     26.4130E+06              0.     67.0918E+06
           37489     90.7980E+06     26.6591E+06              0.     68.1383E+06
           37490     90.9686E+06     26.9198E+06              0.     69.1845E+06
           37491     91.1227E+06     27.1954E+06              0.     70.2290E+06
           37492     91.2592E+06     27.4862E+06              0.     71.2706E+06
           37493     91.3765E+06     27.7924E+06              0.     72.3078E+06
           37494     91.4732E+06     28.1142E+06              0.     73.3391E+06
           37495     91.5479E+06     28.4517E+06              0.     74.3628E+06
           37496     91.5988E+06     28.8050E+06              0.     75.3774E+06
           37497     91.6245E+06     29.1741E+06              0.     76.3807E+06
           37498     91.6230E+06     29.5591E+06              0.     77.3710E+06
           37499     91.5928E+06     29.9597E+06              0.     78.3460E+06
           37500     91.5319E+06     30.3757E+06              0.     79.3035E+06
           37501     91.4384E+06     30.8068E+06              0.     80.2411E+06
           37502     91.3106E+06     31.2526E+06              0.     81.1562E+06
           37503     91.1463E+06     31.7125E+06              0.     82.0462E+06
           37504     90.9436E+06     32.1858E+06              0.     82.9083E+06
           37505     90.7004E+06     32.6716E+06              0.     83.7393E+06
           37506     90.4147E+06     33.1689E+06              0.     84.5362E+06
           37507     90.0844E+06     33.6765E+06              0.     85.2956E+06
           37508     89.7073E+06     34.1930E+06              0.     86.0140E+06
           37509     89.2815E+06     34.7168E+06              0.     86.6878E+06
           37510     88.8049E+06     35.2460E+06              0.     87.3132E+06
           37511     88.2754E+06     35.7786E+06              0.     87.8861E+06
           37512     87.6910E+06     36.3120E+06              0.     88.4025E+06
           37513     87.0499E+06     36.8438E+06              0.      88.858E+06
           37514     86.3501E+06     37.3709E+06              0.     89.2483E+06
           37515     85.5900E+06     37.8900E+06              0.     89.5689E+06
           37516      84.768E+06     38.3976E+06              0.     89.8150E+06
           37517     83.8825E+06     38.8898E+06              0.     89.9820E+06
           37518     82.9323E+06     39.3621E+06              0.     90.0651E+06
           37519     81.9163E+06     39.8100E+06              0.     90.0593E+06
           37520     80.8334E+06     40.2283E+06              0.     89.9599E+06
           37521     79.6832E+06     40.6117E+06              0.     89.7619E+06
           37522     78.4649E+06     40.9544E+06              0.     89.4604E+06
           37523     77.1786E+06     41.2502E+06              0.     89.0508E+06
           37524     75.8244E+06     41.4925E+06              0.     88.5284E+06
           37525     74.4026E+06     41.6745E+06              0.     87.8887E+06
           37526     72.9139E+06     41.7890E+06              0.     87.1273E+06
           37527     71.3595E+06     41.8285E+06              0.     86.2402E+06
           37528     69.7406E+06     41.7852E+06              0.     85.2237E+06
           37529     68.0592E+06     41.6511E+06              0.     84.0741E+06
           37530     66.3170E+06     41.4181E+06              0.     82.7885E+06
           37531     64.5167E+06     41.0778E+06              0.     81.3642E+06
           37532     62.6607E+06      40.622E+06              0.     79.7988E+06
           37533     60.7522E+06     40.0422E+06              0.     78.0906E+06
           37534     58.7943E+06     39.3302E+06              0.     76.2384E+06
           37535     56.7906E+06     38.4778E+06              0.     74.2413E+06
           37536     54.7446E+06     37.4770E+06              0.     72.0993E+06
           37537     52.6604E+06     36.3203E+06              0.     69.8126E+06
           37538     50.5417E+06     35.0003E+06              0.     67.3822E+06
           37539      48.392E+06     33.5100E+06              0.     64.8096E+06
           37540     46.2144E+06     31.8431E+06              0.     62.0968E+06
           37541     44.7440E+06     29.5160E+06              0.     61.1432E+06
           37542     68.4817E+06     30.0289E+06              0.     2.62727E+06
           37543     68.4752E+06     29.9547E+06              0.     2.62260E+06
           37544     68.5006E+06     29.8958E+06              0.     2.58752E+06
           37545     68.5257E+06     29.8385E+06              0.     2.55768E+06
           37546     68.5506E+06     29.7827E+06              0.     2.53292E+06
           37547     68.5753E+06     29.7284E+06              0.     2.51311E+06
           37548     68.5998E+06     29.6755E+06              0.     2.49813E+06
           37549     68.6242E+06     29.6239E+06              0.     2.48786E+06
           37550     68.6485E+06     29.5736E+06              0.     2.48218E+06
           37551     68.6728E+06     29.5245E+06              0.     2.48097E+06
           37552     68.6972E+06     29.4765E+06              0.     2.48415E+06
           37553     68.7216E+06     29.4295E+06              0.     2.49161E+06
           37554     68.7461E+06     29.3836E+06              0.     2.50326E+06
           37555     68.7707E+06     29.3386E+06              0.     2.51901E+06
           37556     68.7956E+06     29.2945E+06              0.     2.53879E+06
           37557     68.8206E+06     29.2513E+06              0.     2.56251E+06
           37558     68.8460E+06     29.2088E+06              0.     2.59012E+06
           37559     68.8716E+06     29.1670E+06              0.     2.62153E+06
           37560     68.8976E+06     29.1259E+06              0.     2.65669E+06
           37561     68.9239E+06     29.0855E+06              0.     2.69555E+06
           37562     68.9507E+06     29.0456E+06              0.     2.73804E+06
           37563     68.9779E+06     29.0063E+06              0.     2.78413E+06
           37564     69.0056E+06     28.9675E+06              0.     2.83377E+06
           37565     69.0338E+06     28.9291E+06              0.     2.88692E+06
           37566     69.0626E+06     28.8911E+06              0.     2.94354E+06
           37567     69.0920E+06     28.8535E+06              0.     3.00360E+06
           37568     69.1220E+06     28.8162E+06              0.     3.06707E+06
           37569     69.1526E+06     28.7792E+06              0.     3.13393E+06
           37570     69.1840E+06     28.7424E+06              0.     3.20417E+06
           37571     69.2160E+06     28.7059E+06              0.     3.27775E+06
           37572     69.2489E+06     28.6695E+06              0.     3.35466E+06
           37573     69.2825E+06     28.6333E+06              0.     3.43491E+06
           37574     69.3169E+06     28.5972E+06              0.     3.51847E+06
           37575     69.3522E+06     28.5612E+06              0.     3.60535E+06
           37576     69.3884E+06     28.5252E+06              0.     3.69554E+06
           37577     69.4254E+06     28.4892E+06              0.     3.78904E+06
           37578     69.4635E+06     28.4532E+06              0.     3.88587E+06
           37579     69.5025E+06     28.4171E+06              0.     3.98602E+06
           37580     69.5426E+06     28.3810E+06              0.     4.08951E+06
           37581     69.5837E+06     28.3448E+06              0.     4.19636E+06
           37582     69.6259E+06     28.3084E+06              0.     4.30658E+06
           37583     69.6692E+06     28.2719E+06              0.     4.42018E+06
           37584     69.7136E+06     28.2352E+06              0.     4.53720E+06
           37585     69.7593E+06     28.1982E+06              0.     4.65765E+06
           37586     69.8061E+06     28.1610E+06              0.     4.78156E+06
           37587     69.8542E+06     28.1236E+06              0.     4.90897E+06
           37588     69.9036E+06     28.0859E+06              0.     5.03990E+06
           37589     69.9543E+06     28.0479E+06              0.     5.17439E+06
           37590     70.0064E+06     28.0095E+06              0.     5.31247E+06
           37591     70.0599E+06     27.9708E+06              0.     5.45419E+06
           37592     70.1147E+06     27.9317E+06              0.     5.59959E+06
           37593     70.1711E+06     27.8922E+06              0.     5.74871E+06
           37594     70.2289E+06     27.8523E+06              0.      5.9016E+06
           37595     70.2883E+06     27.8120E+06              0.     6.05831E+06
           37596     70.3493E+06     27.7712E+06              0.     6.21888E+06
           37597     70.4118E+06     27.7299E+06              0.     6.38338E+06
           37598     70.4760E+06     27.6882E+06              0.     6.55185E+06
           37599     70.5419E+06     27.6459E+06              0.     6.72436E+06
           37600     70.6096E+06     27.6031E+06              0.     6.90096E+06
           37601     70.6789E+06     27.5598E+06              0.     7.08173E+06
           37602     70.7501E+06     27.5159E+06              0.     7.26671E+06
           37603     70.8231E+06     27.4714E+06              0.     7.45598E+06
           37604     70.8980E+06     27.4263E+06              0.     7.64960E+06
           37605     70.9749E+06     27.3807E+06              0.     7.84766E+06
           37606     71.0537E+06     27.3344E+06              0.     8.05021E+06
           37607     71.1345E+06     27.2875E+06              0.     8.25733E+06
           37608     71.2173E+06     27.2400E+06              0.     8.46911E+06
           37609     71.3023E+06     27.1918E+06              0.     8.68561E+06
           37610     71.3894E+06     27.1429E+06              0.     8.90692E+06
           37611     71.4787E+06     27.0934E+06              0.     9.13313E+06
           37612     71.5702E+06     27.0432E+06              0.     9.36431E+06
           37613     71.6639E+06     26.9923E+06              0.     9.60055E+06
           37614     71.7600E+06     26.9407E+06              0.     9.84194E+06
           37615     71.8585E+06     26.8884E+06              0.     10.0886E+06
           37616     71.9594E+06     26.8354E+06              0.     10.3405E+06
           37617     72.0627E+06     26.7817E+06              0.     10.5979E+06
           37618     72.1685E+06     26.7273E+06              0.     10.8608E+06
           37619     72.2769E+06     26.6721E+06              0.     11.1294E+06
           37620     72.3879E+06     26.6163E+06              0.     11.4036E+06
           37621     72.5016E+06     26.5597E+06              0.     11.6837E+06
           37622     72.6180E+06     26.5024E+06              0.     11.9697E+06
           37623     72.7371E+06     26.4443E+06              0.     12.2617E+06
           37624     72.8590E+06     26.3856E+06              0.     12.5599E+06
           37625     72.9838E+06     26.3261E+06              0.     12.8643E+06
           37626     73.1115E+06     26.2659E+06              0.     13.1750E+06
           37627     73.2422E+06     26.2050E+06              0.     13.4922E+06
           37628     73.3758E+06     26.1435E+06              0.     13.8160E+06
           37629     73.5126E+06     26.0812E+06              0.     14.1465E+06
           37630     73.6525E+06     26.0183E+06              0.     14.4837E+06
           37631     73.7955E+06     25.9547E+06              0.     14.8279E+06
           37632     73.9417E+06     25.8905E+06              0.     15.1792E+06
           37633     74.0913E+06     25.8256E+06              0.     15.5375E+06
           37634     74.2442E+06     25.7601E+06              0.     15.9032E+06
           37635     74.4004E+06     25.6941E+06              0.     16.2763E+06
           37636     74.5601E+06     25.6274E+06              0.     16.6569E+06
           37637     74.7233E+06     25.5603E+06              0.     17.0452E+06
           37638     74.8901E+06     25.4926E+06              0.     17.4412E+06
           37639     75.0604E+06     25.4245E+06              0.     17.8452E+06
           37640     75.2344E+06     25.3559E+06              0.     18.2571E+06
           37641     75.4121E+06     25.2868E+06              0.     18.6773E+06
           37642     75.5935E+06     25.2174E+06              0.     19.1057E+06
           37643     75.7788E+06     25.1477E+06              0.     19.5426E+06
           37644     75.9678E+06     25.0777E+06              0.     19.9880E+06
           37645     76.1608E+06     25.0074E+06              0.     20.4421E+06
           37646     76.3578E+06     24.9370E+06              0.     20.9050E+06
           37647     76.5587E+06     24.8664E+06              0.     21.3769E+06
           37648     76.7637E+06     24.7957E+06              0.     21.8578E+06
           37649     76.9727E+06     24.7250E+06              0.     22.3480E+06
           37650     77.1859E+06     24.6543E+06              0.     22.8475E+06
           37651     77.4032E+06     24.5837E+06              0.     23.3565E+06
           37652     77.6247E+06     24.5134E+06              0.     23.8752E+06
           37653     77.8504E+06     24.4433E+06              0.     24.4035E+06
           37654     78.0804E+06     24.3735E+06              0.     24.9418E+06
           37655     78.3147E+06     24.3042E+06              0.     25.4901E+06
           37656     78.5533E+06     24.2354E+06              0.     26.0484E+06
           37657     78.7963E+06     24.1673E+06              0.     26.6171E+06
           37658     79.0436E+06     24.0998E+06              0.     27.1962E+06
           37659     79.2952E+06     24.0332E+06              0.     27.7857E+06
           37660     79.5513E+06     23.9676E+06              0.     28.3859E+06
           37661     79.8117E+06     23.9030E+06              0.     28.9969E+06
           37662     80.0765E+06     23.8396E+06              0.     29.6187E+06
           37663     80.3457E+06     23.7776E+06              0.     30.2516E+06
           37664     80.6193E+06     23.7170E+06              0.     30.8955E+06
           37665     80.8972E+06     23.6581E+06              0.     31.5506E+06
           37666     81.1794E+06     23.6010E+06              0.     32.2171E+06
           37667     81.4659E+06     23.5457E+06              0.     32.8950E+06
           37668     81.7567E+06     23.4926E+06              0.     33.5843E+06
           37669     82.0516E+06     23.4418E+06              0.     34.2853E+06
           37670     82.3508E+06     23.3935E+06              0.     34.9980E+06
           37671     82.6539E+06     23.3478E+06              0.     35.7224E+06
           37672     82.9611E+06     23.3050E+06              0.     36.4586E+06
           37673     83.2722E+06     23.2653E+06              0.     37.2067E+06
           37674     83.5871E+06     23.2290E+06              0.     37.9668E+06
           37675     83.9057E+06     23.1961E+06              0.     38.7388E+06
           37676     84.2278E+06     23.1671E+06              0.     39.5229E+06
           37677     84.5534E+06     23.1421E+06              0.     40.3191E+06
           37678     84.8822E+06     23.1214E+06              0.     41.1273E+06
           37679     85.2141E+06     23.1052E+06              0.     41.9475E+06
           37680     85.5489E+06     23.0940E+06              0.     42.7798E+06
           37681     85.8864E+06     23.0878E+06              0.     43.6242E+06
           37682     86.2263E+06     23.0872E+06              0.     44.4805E+06
           37683     86.5685E+06     23.0923E+06              0.     45.3488E+06
           37684     86.9126E+06     23.1035E+06              0.     46.2289E+06
           37685     87.2583E+06     23.1211E+06              0.     47.1208E+06
           37686     87.6053E+06     23.1456E+06              0.     48.0244E+06
           37687     87.9533E+06     23.1772E+06              0.     48.9394E+06
           37688     88.3019E+06     23.2163E+06              0.     49.8658E+06
           37689     88.6507E+06     23.2633E+06              0.     50.8034E+06
           37690     88.9992E+06     23.3186E+06              0.     51.7519E+06
           37691     89.3470E+06     23.3826E+06              0.     52.7112E+06
           37692     89.6936E+06     23.4557E+06              0.     53.6809E+06
           37693     90.0385E+06     23.5384E+06              0.     54.6607E+06
           37694     90.3810E+06     23.6311E+06              0.     55.6503E+06
           37695     90.7206E+06     23.7341E+06              0.     56.6493E+06
           37696     91.0566E+06     23.8480E+06              0.     57.6573E+06
           37697     91.3882E+06     23.9733E+06              0.     58.6739E+06
           37698     91.7148E+06     24.1102E+06              0.     59.6984E+06
           37699     92.0356E+06     24.2595E+06              0.     60.7304E+06
           37700     92.3497E+06     24.4214E+06              0.     61.7693E+06
           37701     92.6562E+06     24.5965E+06              0.     62.8143E+06
           37702     92.9542E+06     24.7852E+06              0.     63.8647E+06
           37703     93.2426E+06     24.9880E+06              0.     64.9197E+06
           37704     93.5204E+06     25.2053E+06              0.     65.9785E+06
           37705     93.7865E+06     25.4376E+06              0.     67.0401E+06
           37706     94.0397E+06     25.6852E+06              0.     68.1034E+06
           37707     94.2787E+06     25.9487E+06              0.     69.1675E+06
           37708     94.5023E+06     26.2284E+06              0.     70.2310E+06
           37709     94.7090E+06     26.5246E+06              0.     71.2927E+06
           37710     94.8973E+06     26.8377E+06              0.     72.3513E+06
           37711     95.0659E+06     27.1679E+06              0.     73.4051E+06
           37712     95.2130E+06     27.5156E+06              0.     74.4527E+06
           37713     95.3371E+06     27.8808E+06              0.     75.4922E+06
           37714     95.4363E+06     28.2638E+06              0.     76.5219E+06
           37715     95.5090E+06     28.6646E+06              0.     77.5397E+06
           37716     95.5532E+06     29.0832E+06              0.     78.5436E+06
           37717     95.5671E+06     29.5194E+06              0.     79.5314E+06
           37718     95.5486E+06     29.9731E+06              0.     80.5005E+06
           37719     95.4957E+06     30.4440E+06              0.     81.4485E+06
           37720     95.4063E+06     30.9316E+06              0.     82.3727E+06
           37721     95.2782E+06     31.4354E+06              0.     83.2702E+06
           37722     95.1093E+06     31.9546E+06              0.     84.1379E+06
           37723     94.8973E+06     32.4884E+06              0.     84.9726E+06
           37724     94.6399E+06     33.0356E+06              0.     85.7710E+06
           37725     94.3350E+06     33.5950E+06              0.     86.5295E+06
           37726     93.9801E+06     34.1651E+06              0.     87.2443E+06
           37727     93.5732E+06     34.7442E+06              0.     87.9116E+06
           37728     93.1118E+06     35.3301E+06              0.     88.5272E+06
           37729     92.5938E+06     35.9208E+06              0.     89.0869E+06
           37730     92.0171E+06     36.5136E+06              0.     89.5862E+06
           37731     91.3796E+06     37.1056E+06              0.     90.0206E+06
           37732     90.6793E+06     37.6937E+06              0.     90.3854E+06
           37733     89.9143E+06     38.2742E+06              0.     90.6757E+06
           37734     89.0829E+06     38.8432E+06              0.     90.8865E+06
           37735     88.1837E+06     39.3963E+06              0.     91.0127E+06
           37736     87.2151E+06     39.9290E+06              0.     91.0494E+06
           37737     86.1761E+06     40.4361E+06              0.     90.9912E+06
           37738     85.0658E+06     40.9119E+06              0.     90.8330E+06
           37739     83.8834E+06     41.3507E+06              0.     90.5697E+06
           37740     82.6287E+06     41.7460E+06              0.     90.1962E+06
           37741     81.3015E+06     42.0912E+06              0.     89.7075E+06
           37742     79.9021E+06     42.3789E+06              0.     89.0988E+06
           37743     78.4312E+06     42.6019E+06              0.     88.3654E+06
           37744     76.8896E+06     42.7521E+06              0.     87.5029E+06
           37745     75.2786E+06     42.8216E+06              0.     86.5072E+06
           37746     73.6000E+06     42.8018E+06              0.     85.3746E+06
           37747     71.8558E+06     42.6841E+06              0.     84.1017E+06
           37748     70.0484E+06     42.4598E+06              0.     82.6855E+06
           37749     68.1805E+06     42.1200E+06              0.     81.1235E+06
           37750     66.2551E+06     41.6557E+06              0.     79.4139E+06
           37751     64.2757E+06     41.0583E+06              0.     77.5552E+06
           37752     62.2459E+06     40.3189E+06              0.     75.5465E+06
           37753     60.1696E+06     39.4291E+06              0.     73.3877E+06
           37754     58.0509E+06     38.3807E+06              0.     71.0791E+06
           37755     55.8939E+06     37.1659E+06              0.     68.6218E+06
           37756     53.7035E+06     35.7776E+06              0.     66.0173E+06
           37757     51.4844E+06     34.2088E+06              0.     63.2678E+06
           37758     50.0304E+06     31.9750E+06              0.     62.3194E+06
           37759     68.5849E+06     30.0728E+06              0.     2.60109E+06
           37760     68.5778E+06     29.9921E+06              0.     2.59648E+06
           37761     68.6055E+06      29.928E+06              0.     2.56176E+06
           37762     68.6328E+06     29.8657E+06              0.     2.53221E+06
           37763     68.6598E+06     29.8050E+06              0.     2.50770E+06
           37764     68.6866E+06     29.7460E+06              0.     2.48810E+06
           37765     68.7132E+06     29.6884E+06              0.     2.47328E+06
           37766     68.7398E+06     29.6323E+06              0.     2.46311E+06
           37767     68.7662E+06     29.5776E+06              0.     2.45749E+06
           37768     68.7926E+06     29.5242E+06              0.     2.45631E+06
           37769     68.8191E+06     29.4720E+06              0.     2.45946E+06
           37770     68.8456E+06     29.4209E+06              0.     2.46685E+06
           37771     68.8722E+06     29.3710E+06              0.     2.47839E+06
           37772     68.8990E+06     29.3220E+06              0.     2.49400E+06
           37773     68.9260E+06     29.2741E+06              0.     2.51359E+06
           37774     68.9533E+06     29.2270E+06              0.     2.53709E+06
           37775     68.9808E+06     29.1808E+06              0.     2.56442E+06
           37776     69.0087E+06     29.1354E+06              0.     2.59553E+06
           37777     69.0369E+06     29.0907E+06              0.     2.63036E+06
           37778     69.0656E+06     29.0467E+06              0.     2.66884E+06
           37779     69.0947E+06     29.0033E+06              0.     2.71092E+06
           37780     69.1243E+06     28.9605E+06              0.     2.75656E+06
           37781     69.1544E+06     28.9183E+06              0.     2.80572E+06
           37782     69.1851E+06     28.8765E+06              0.     2.85835E+06
           37783     69.2164E+06     28.8352E+06              0.     2.91442E+06
           37784     69.2484E+06     28.7942E+06              0.     2.97390E+06
           37785     69.2810E+06     28.7536E+06              0.     3.03676E+06
           37786     69.3143E+06     28.7134E+06              0.     3.10298E+06
           37787     69.3484E+06     28.6734E+06              0.     3.17253E+06
           37788     69.3833E+06     28.6336E+06              0.     3.24540E+06
           37789     69.4190E+06     28.5940E+06              0.     3.32157E+06
           37790     69.4555E+06     28.5546E+06              0.     3.40104E+06
           37791      69.493E+06     28.5153E+06              0.     3.48379E+06
           37792     69.5314E+06     28.4760E+06              0.     3.56983E+06
           37793     69.5707E+06     28.4368E+06              0.     3.65915E+06
           37794     69.6111E+06     28.3976E+06              0.     3.75176E+06
           37795     69.6525E+06     28.3584E+06              0.     3.84765E+06
           37796     69.6949E+06     28.3191E+06              0.     3.94684E+06
           37797     69.7385E+06     28.2798E+06              0.     4.04934E+06
           37798     69.7832E+06     28.2403E+06              0.     4.15516E+06
           37799     69.8291E+06     28.2006E+06              0.     4.26432E+06
           37800     69.8762E+06     28.1608E+06              0.     4.37683E+06
           37801     69.9246E+06     28.1208E+06              0.     4.49273E+06
           37802     69.9743E+06     28.0805E+06              0.     4.61203E+06
           37803     70.0253E+06     28.0400E+06              0.     4.73476E+06
           37804     70.0776E+06     27.9992E+06              0.     4.86095E+06
           37805     70.1314E+06     27.9580E+06              0.     4.99064E+06
           37806     70.1866E+06     27.9166E+06              0.     5.12385E+06
           37807     70.2432E+06     27.8747E+06              0.     5.26063E+06
           37808     70.3014E+06     27.8325E+06              0.     5.40100E+06
           37809     70.3612E+06     27.7898E+06              0.     5.54503E+06
           37810     70.4225E+06     27.7467E+06              0.     5.69274E+06
           37811     70.4855E+06     27.7031E+06              0.     5.84419E+06
           37812     70.5501E+06     27.6591E+06              0.     5.99943E+06
           37813     70.6165E+06     27.6146E+06              0.     6.15849E+06
           37814     70.6846E+06     27.5695E+06              0.     6.32145E+06
           37815     70.7545E+06     27.5239E+06              0.     6.48835E+06
           37816     70.8262E+06     27.4777E+06              0.     6.65925E+06
           37817     70.8998E+06     27.4309E+06              0.     6.83422E+06
           37818     70.9754E+06     27.3835E+06              0.     7.01330E+06
           37819     71.0529E+06     27.3355E+06              0.     7.19658E+06
           37820     71.1324E+06     27.2869E+06              0.     7.38410E+06
           37821     71.2140E+06     27.2376E+06              0.     7.57595E+06
           37822     71.2977E+06     27.1876E+06              0.     7.77218E+06
           37823     71.3835E+06     27.1370E+06              0.     7.97288E+06
           37824     71.4715E+06     27.0857E+06              0.     8.17812E+06
           37825     71.5618E+06     27.0336E+06              0.     8.38797E+06
           37826     71.6544E+06     26.9808E+06              0.     8.60251E+06
           37827     71.7492E+06     26.9273E+06              0.     8.82183E+06
           37828     71.8465E+06     26.8730E+06              0.     9.04600E+06
           37829     71.9462E+06     26.8180E+06              0.     9.27511E+06
           37830     72.0484E+06     26.7622E+06              0.     9.50924E+06
           37831     72.1531E+06     26.7056E+06              0.     9.74849E+06
           37832     72.2605E+06     26.6482E+06              0.     9.99294E+06
           37833     72.3704E+06     26.5900E+06              0.     10.2427E+06
           37834     72.4831E+06     26.5310E+06              0.     10.4978E+06
           37835     72.5985E+06     26.4712E+06              0.     10.7584E+06
           37836     72.7167E+06     26.4106E+06              0.     11.0246E+06
           37837     72.8377E+06     26.3492E+06              0.     11.2965E+06
           37838     72.9617E+06     26.2870E+06              0.     11.5742E+06
           37839     73.0886E+06     26.2239E+06              0.     11.8577E+06
           37840     73.2186E+06     26.1600E+06              0.     12.1472E+06
           37841     73.3516E+06     26.0953E+06              0.     12.4429E+06
           37842     73.4878E+06     26.0298E+06              0.     12.7447E+06
           37843     73.6272E+06     25.9634E+06              0.     13.0529E+06
           37844     73.7698E+06     25.8963E+06              0.     13.3674E+06
           37845     73.9157E+06     25.8284E+06              0.     13.6885E+06
           37846     74.0650E+06     25.7596E+06              0.     14.0163E+06
           37847     74.2178E+06     25.6901E+06              0.     14.3508E+06
           37848     74.3740E+06     25.6198E+06              0.     14.6922E+06
           37849     74.5338E+06     25.5487E+06              0.     15.0407E+06
           37850     74.6972E+06     25.4770E+06              0.     15.3962E+06
           37851     74.8643E+06     25.4044E+06              0.     15.7590E+06
           37852     75.0351E+06     25.3312E+06              0.     16.1292E+06
           37853     75.2097E+06     25.2573E+06              0.     16.5068E+06
           37854     75.3882E+06     25.1828E+06              0.     16.8921E+06
           37855     75.5705E+06     25.1076E+06              0.     17.2852E+06
           37856     75.7569E+06     25.0318E+06              0.     17.6861E+06
           37857     75.9473E+06     24.9554E+06              0.     18.0950E+06
           37858     76.1418E+06     24.8785E+06              0.     18.5121E+06
           37859     76.3405E+06     24.8011E+06              0.     18.9374E+06
           37860     76.5434E+06     24.7232E+06              0.     19.3711E+06
           37861     76.7505E+06     24.6450E+06              0.     19.8134E+06
           37862      76.962E+06     24.5663E+06              0.     20.2643E+06
           37863     77.1779E+06     24.4874E+06              0.     20.7241E+06
           37864     77.3982E+06     24.4081E+06              0.     21.1928E+06
           37865     77.6230E+06     24.3287E+06              0.     21.6705E+06
           37866     77.8524E+06     24.2491E+06              0.     22.1575E+06
           37867     78.0864E+06     24.1695E+06              0.     22.6538E+06
           37868     78.3251E+06     24.0898E+06              0.     23.1596E+06
           37869     78.5684E+06     24.0102E+06              0.     23.6750E+06
           37870     78.8165E+06     23.9307E+06              0.     24.2002E+06
           37871     79.0694E+06     23.8515E+06              0.     24.7352E+06
           37872     79.3271E+06     23.7726E+06              0.     25.2803E+06
           37873     79.5897E+06     23.6941E+06              0.     25.8355E+06
           37874     79.8572E+06     23.6161E+06              0.     26.4010E+06
           37875     80.1297E+06     23.5387E+06              0.     26.9770E+06
           37876     80.4071E+06     23.4621E+06              0.     27.5635E+06
           37877     80.6895E+06     23.3863E+06              0.     28.1607E+06
           37878     80.9769E+06     23.3115E+06              0.     28.7686E+06
           37879     81.2693E+06     23.2377E+06              0.     29.3875E+06
           37880     81.5667E+06     23.1652E+06              0.     30.0175E+06
           37881     81.8691E+06     23.0941E+06              0.     30.6586E+06
           37882     82.1766E+06     23.0245E+06              0.     31.3110E+06
           37883     82.4891E+06     22.9567E+06              0.     31.9749E+06
           37884     82.8066E+06     22.8906E+06              0.     32.6502E+06
           37885     83.1291E+06     22.8267E+06              0.     33.3371E+06
           37886     83.4565E+06     22.7649E+06              0.     34.0357E+06
           37887     83.7888E+06     22.7056E+06              0.     34.7462E+06
           37888     84.1259E+06     22.6488E+06              0.     35.4685E+06
           37889     84.4678E+06     22.5949E+06              0.     36.2028E+06
           37890     84.8144E+06     22.5441E+06              0.     36.9492E+06
           37891     85.1656E+06     22.4966E+06              0.     37.7076E+06
           37892     85.5214E+06     22.4525E+06              0.     38.4783E+06
           37893     85.8815E+06     22.4123E+06              0.     39.2611E+06
           37894     86.2460E+06     22.3761E+06              0.     40.0563E+06
           37895     86.6146E+06     22.3442E+06              0.     40.8637E+06
           37896     86.9871E+06     22.3169E+06              0.     41.6834E+06
           37897     87.3635E+06     22.2946E+06              0.     42.5155E+06
           37898     87.7435E+06     22.2774E+06              0.     43.3598E+06
           37899     88.1268E+06     22.2658E+06              0.     44.2165E+06
           37900     88.5134E+06     22.2600E+06              0.     45.0854E+06
           37901     88.9029E+06     22.2605E+06              0.     45.9665E+06
           37902     89.2950E+06     22.2676E+06              0.     46.8598E+06
           37903     89.6894E+06     22.2816E+06              0.     47.7651E+06
           37904     90.0858E+06     22.3029E+06              0.     48.6823E+06
           37905     90.4838E+06     22.3319E+06              0.     49.6113E+06
           37906     90.8831E+06     22.3691E+06              0.     50.5519E+06
           37907     91.2832E+06     22.4149E+06              0.     51.5040E+06
           37908     91.6837E+06     22.4697E+06              0.     52.4674E+06
           37909     92.0840E+06     22.5339E+06              0.     53.4417E+06
           37910     92.4837E+06     22.6080E+06              0.     54.4267E+06
           37911     92.8822E+06     22.6925E+06              0.     55.4222E+06
           37912     93.2789E+06     22.7878E+06              0.     56.4277E+06
           37913     93.6731E+06     22.8945E+06              0.     57.4429E+06
           37914     94.0641E+06     23.0130E+06              0.     58.4673E+06
           37915     94.4512E+06     23.1439E+06              0.     59.5005E+06
           37916     94.8336E+06     23.2877E+06              0.     60.5420E+06
           37917     95.2105E+06     23.4448E+06              0.     61.5910E+06
           37918     95.5809E+06     23.6158E+06              0.     62.6472E+06
           37919     95.9439E+06     23.8013E+06              0.     63.7096E+06
           37920     96.2984E+06     24.0017E+06              0.     64.7777E+06
           37921     96.6435E+06     24.2177E+06              0.     65.8504E+06
           37922     96.9780E+06     24.4495E+06              0.     66.9270E+06
           37923     97.3005E+06     24.6979E+06              0.     68.0065E+06
           37924     97.6100E+06     24.9633E+06              0.     69.0877E+06
           37925     97.9049E+06     25.2461E+06              0.     70.1696E+06
           37926     98.1840E+06     25.5468E+06              0.     71.2509E+06
           37927     98.4457E+06     25.8659E+06              0.     72.3302E+06
           37928     98.6884E+06     26.2037E+06              0.     73.4061E+06
           37929     98.9106E+06     26.5605E+06              0.     74.4769E+06
           37930     99.1104E+06     26.9368E+06              0.     75.5411E+06
           37931     99.2862E+06     27.3326E+06              0.     76.5968E+06
           37932     99.4359E+06     27.7483E+06              0.     77.6421E+06
           37933     99.5577E+06     28.1839E+06              0.     78.6748E+06
           37934     99.6495E+06     28.6394E+06              0.     79.6928E+06
           37935     99.7092E+06     29.1148E+06              0.     80.6936E+06
           37936     99.7348E+06     29.6099E+06              0.     81.6747E+06
           37937     99.7238E+06     30.1244E+06              0.     82.6334E+06
           37938     99.6741E+06     30.6579E+06              0.     83.5667E+06
           37939     99.5833E+06     31.2098E+06              0.     84.4717E+06
           37940     99.4490E+06     31.7794E+06              0.     85.3451E+06
           37941     99.2688E+06     32.3656E+06              0.     86.1834E+06
           37942     99.0402E+06     32.9674E+06              0.     86.9830E+06
           37943     98.7606E+06     33.5834E+06              0.     87.7401E+06
           37944     98.4278E+06     34.2121E+06              0.     88.4507E+06
           37945     98.0391E+06     34.8514E+06              0.     89.1105E+06
           37946     97.5921E+06     35.4994E+06              0.     89.7153E+06
           37947     97.0844E+06     36.1534E+06              0.     90.2603E+06
           37948     96.5138E+06     36.8108E+06              0.     90.7410E+06
           37949     95.8780E+06     37.4684E+06              0.     91.1522E+06
           37950     95.1747E+06     38.1226E+06              0.     91.4890E+06
           37951     94.4022E+06     38.7695E+06              0.     91.7462E+06
           37952     93.5585E+06     39.4049E+06              0.     91.9185E+06
           37953     92.6420E+06     40.0240E+06              0.     92.0004E+06
           37954     91.6512E+06     40.6216E+06              0.     91.9864E+06
           37955     90.5852E+06     41.1921E+06              0.     91.8712E+06
           37956     89.4428E+06     41.7295E+06              0.     91.6493E+06
           37957     88.2236E+06     42.2271E+06              0.     91.3151E+06
           37958     86.9273E+06     42.6780E+06              0.     90.8633E+06
           37959     85.5539E+06     43.0749E+06              0.     90.2888E+06
           37960     84.1039E+06     43.4098E+06              0.     89.5866E+06
           37961     82.5780E+06     43.6747E+06              0.     88.7519E+06
           37962     80.9777E+06     43.8609E+06              0.     87.7802E+06
           37963     79.3044E+06     43.9596E+06              0.     86.6675E+06
           37964     77.5601E+06     43.9617E+06              0.     85.4101E+06
           37965     75.7474E+06     43.8579E+06              0.     84.0046E+06
           37966     73.8689E+06     43.6387E+06              0.     82.4485E+06
           37967     71.9278E+06     43.2947E+06              0.     80.7395E+06
           37968     69.9277E+06     42.8165E+06              0.     78.8761E+06
           37969     67.8723E+06     42.1948E+06              0.     76.8574E+06
           37970     65.7657E+06     41.4204E+06              0.     74.6830E+06
           37971     63.6123E+06     40.4846E+06              0.     72.3534E+06
           37972     61.4166E+06     39.3790E+06              0.     69.8696E+06
           37973     59.1832E+06     38.0957E+06              0.     67.2333E+06
           37974     56.9177E+06     36.6283E+06              0.     64.4468E+06
           37975     55.4746E+06     34.4863E+06              0.     63.5014E+06
           37976     68.6870E+06     30.1161E+06              0.     2.57271E+06
           37977     68.6794E+06     30.0290E+06              0.     2.56815E+06
           37978     68.7092E+06     29.9598E+06              0.     2.53381E+06
           37979     68.7387E+06     29.8926E+06              0.     2.50459E+06
           37980     68.7678E+06     29.8271E+06              0.     2.48036E+06
           37981     68.7968E+06     29.7633E+06              0.     2.46098E+06
           37982     68.8255E+06     29.7012E+06              0.     2.44632E+06
           37983     68.8541E+06     29.6407E+06              0.     2.43627E+06
           37984     68.8827E+06     29.5816E+06              0.     2.43072E+06
           37985     68.9112E+06     29.5239E+06              0.     2.42956E+06
           37986     68.9397E+06     29.4675E+06              0.     2.43268E+06
           37987     68.9683E+06     29.4124E+06              0.     2.44000E+06
           37988     68.9971E+06     29.3584E+06              0.     2.45142E+06
           37989     69.0260E+06     29.3056E+06              0.     2.46687E+06
           37990     69.0552E+06     29.2538E+06              0.     2.48625E+06
           37991     69.0846E+06     29.2030E+06              0.     2.50950E+06
           37992     69.1143E+06     29.1531E+06              0.     2.53655E+06
           37993     69.1444E+06     29.1040E+06              0.     2.56733E+06
           37994     69.1749E+06     29.0558E+06              0.     2.60178E+06
           37995     69.2058E+06     29.0082E+06              0.     2.63985E+06
           37996     69.2372E+06     28.9614E+06              0.     2.68149E+06
           37997     69.2692E+06     28.9152E+06              0.     2.72665E+06
           37998     69.3017E+06     28.8695E+06              0.     2.77528E+06
           37999     69.3349E+06     28.8244E+06              0.     2.82735E+06
           38000     69.3687E+06     28.7798E+06              0.     2.88283E+06
           38001     69.4031E+06     28.7356E+06              0.     2.94168E+06
           38002     69.4384E+06     28.6917E+06              0.     3.00387E+06
           38003     69.4744E+06     28.6482E+06              0.     3.06938E+06
           38004     69.5112E+06     28.6050E+06              0.     3.13819E+06
           38005     69.5488E+06     28.5620E+06              0.     3.21028E+06
           38006     69.5874E+06     28.5192E+06              0.     3.28565E+06
           38007     69.6268E+06     28.4766E+06              0.     3.36427E+06
           38008     69.6673E+06     28.4341E+06              0.     3.44615E+06
           38009     69.7088E+06     28.3917E+06              0.     3.53127E+06
           38010     69.7512E+06     28.3493E+06              0.     3.61965E+06
           38011     69.7948E+06     28.3070E+06              0.     3.71127E+06
           38012     69.8395E+06     28.2646E+06              0.     3.80615E+06
           38013     69.8854E+06     28.2221E+06              0.     3.90429E+06
           38014     69.9325E+06     28.1795E+06              0.     4.00571E+06
           38015     69.9808E+06     28.1368E+06              0.     4.11041E+06
           38016     70.0303E+06     28.0940E+06              0.     4.21842E+06
           38017     70.0812E+06     28.0509E+06              0.     4.32975E+06
           38018     70.1335E+06     28.0076E+06              0.     4.44443E+06
           38019     70.1871E+06     27.9640E+06              0.     4.56247E+06
           38020     70.2422E+06     27.9202E+06              0.     4.68392E+06
           38021     70.2988E+06     27.8760E+06              0.     4.80878E+06
           38022     70.3568E+06     27.8315E+06              0.     4.93711E+06
           38023     70.4165E+06     27.7866E+06              0.     5.06893E+06
           38024     70.4777E+06     27.7413E+06              0.     5.20428E+06
           38025     70.5406E+06     27.6955E+06              0.     5.34319E+06
           38026     70.6051E+06     27.6493E+06              0.     5.48572E+06
           38027     70.6714E+06     27.6026E+06              0.      5.6319E+06
           38028     70.7394E+06     27.5555E+06              0.     5.78178E+06
           38029     70.8093E+06     27.5077E+06              0.     5.93540E+06
           38030     70.8810E+06     27.4595E+06              0.     6.09283E+06
           38031     70.9546E+06     27.4106E+06              0.     6.25411E+06
           38032     71.0301E+06     27.3612E+06              0.     6.41929E+06
           38033     71.1077E+06     27.3111E+06              0.     6.58844E+06
           38034     71.1872E+06     27.2604E+06              0.     6.76161E+06
           38035     71.2689E+06     27.2090E+06              0.     6.93886E+06
           38036     71.3527E+06     27.1569E+06              0.     7.12026E+06
           38037     71.4387E+06     27.1042E+06              0.     7.30588E+06
           38038     71.5269E+06     27.0507E+06              0.     7.49578E+06
           38039     71.6173E+06     26.9965E+06              0.     7.69003E+06
           38040     71.7101E+06     26.9415E+06              0.     7.88870E+06
           38041     71.8053E+06     26.8857E+06              0.     8.09187E+06
           38042     71.9029E+06     26.8292E+06              0.     8.29961E+06
           38043     72.0030E+06     26.7718E+06              0.     8.51201E+06
           38044     72.1056E+06     26.7137E+06              0.     8.72913E+06
           38045     72.2108E+06     26.6547E+06              0.     8.95107E+06
           38046     72.3187E+06     26.5949E+06              0.     9.17791E+06
           38047     72.4292E+06     26.5342E+06              0.     9.40973E+06
           38048     72.5425E+06     26.4726E+06              0.     9.64662E+06
           38049     72.6586E+06     26.4102E+06              0.     9.88867E+06
           38050     72.7776E+06     26.3469E+06              0.     10.1360E+06
           38051     72.8995E+06     26.2827E+06              0.     10.3886E+06
           38052     73.0244E+06     26.2175E+06              0.     10.6467E+06
           38053     73.1523E+06     26.1515E+06              0.     10.9103E+06
           38054     73.2833E+06     26.0846E+06              0.     11.1796E+06
           38055     73.4175E+06     26.0167E+06              0.     11.4546E+06
           38056     73.5549E+06     25.9480E+06              0.     11.7354E+06
           38057     73.6956E+06     25.8783E+06              0.     12.0222E+06
           38058     73.8397E+06     25.8077E+06              0.     12.3151E+06
           38059     73.9872E+06     25.7361E+06              0.     12.6141E+06
           38060     74.1381E+06     25.6637E+06              0.     12.9194E+06
           38061     74.2926E+06     25.5903E+06              0.     13.2310E+06
           38062     74.4507E+06     25.5160E+06              0.     13.5492E+06
           38063     74.6125E+06     25.4408E+06              0.     13.8739E+06
           38064     74.7781E+06     25.3648E+06              0.     14.2054E+06
           38065     74.9474E+06     25.2878E+06              0.     14.5437E+06
           38066     75.1206E+06     25.2100E+06              0.     14.8890E+06
           38067     75.2978E+06     25.1313E+06              0.     15.2414E+06
           38068     75.4790E+06     25.0518E+06              0.     15.6010E+06
           38069     75.6642E+06     24.9714E+06              0.     15.9679E+06
           38070     75.8537E+06     24.8903E+06              0.     16.3423E+06
           38071     76.0473E+06     24.8083E+06              0.     16.7242E+06
           38072     76.2452E+06     24.7257E+06              0.     17.1139E+06
           38073     76.4475E+06     24.6423E+06              0.     17.5114E+06
           38074     76.6542E+06     24.5582E+06              0.     17.9169E+06
           38075     76.8655E+06     24.4734E+06              0.     18.3305E+06
           38076     77.0813E+06     24.3880E+06              0.     18.7524E+06
           38077     77.3017E+06     24.3021E+06              0.     19.1826E+06
           38078     77.5268E+06     24.2156E+06              0.     19.6213E+06
           38079     77.7567E+06     24.1286E+06              0.     20.0686E+06
           38080     77.9914E+06     24.0411E+06              0.     20.5248E+06
           38081     78.2311E+06     23.9533E+06              0.     20.9898E+06
           38082     78.4757E+06     23.8651E+06              0.     21.4639E+06
           38083     78.7254E+06     23.7767E+06              0.     21.9472E+06
           38084     78.9801E+06     23.6881E+06              0.     22.4399E+06
           38085     79.2400E+06     23.5993E+06              0.     22.9420E+06
           38086     79.5051E+06     23.5105E+06              0.     23.4537E+06
           38087     79.7755E+06     23.4216E+06              0.     23.9751E+06
           38088     80.0512E+06     23.3329E+06              0.     24.5065E+06
           38089     80.3323E+06     23.2444E+06              0.     25.0479E+06
           38090     80.6188E+06     23.1562E+06              0.     25.5994E+06
           38091     80.9108E+06     23.0684E+06              0.     26.1613E+06
           38092     81.2083E+06     22.9810E+06              0.     26.7335E+06
           38093     81.5114E+06     22.8943E+06              0.     27.3164E+06
           38094     81.8201E+06     22.8083E+06              0.     27.9100E+06
           38095     82.1344E+06     22.7232E+06              0.     28.5144E+06
           38096     82.4544E+06     22.6391E+06              0.     29.1297E+06
           38097     82.7800E+06     22.5561E+06              0.     29.7562E+06
           38098     83.1113E+06     22.4744E+06              0.     30.3939E+06
           38099     83.4484E+06     22.3941E+06              0.     31.0430E+06
           38100     83.7911E+06     22.3154E+06              0.     31.7035E+06
           38101     84.1396E+06     22.2385E+06              0.     32.3756E+06
           38102     84.4938E+06     22.1636E+06              0.     33.0594E+06
           38103     84.8536E+06     22.0908E+06              0.      33.755E+06
           38104     85.2191E+06     22.0203E+06              0.     34.4625E+06
           38105     85.5903E+06     21.9524E+06              0.     35.1821E+06
           38106     85.9670E+06     21.8873E+06              0.     35.9137E+06
           38107     86.3492E+06     21.8252E+06              0.     36.6575E+06
           38108     86.7369E+06     21.7663E+06              0.     37.4136E+06
           38109     87.1299E+06     21.7109E+06              0.     38.1821E+06
           38110     87.5282E+06     21.6593E+06              0.     38.9629E+06
           38111     87.9317E+06     21.6118E+06              0.     39.7563E+06
           38112     88.3402E+06     21.5685E+06              0.     40.5621E+06
           38113     88.7536E+06     21.5299E+06              0.     41.3805E+06
           38114     89.1718E+06     21.4962E+06              0.     42.2114E+06
           38115     89.5945E+06     21.4678E+06              0.     43.0550E+06
           38116     90.0216E+06     21.4449E+06              0.     43.9111E+06
           38117     90.4529E+06     21.4281E+06              0.     44.7798E+06
           38118     90.8881E+06     21.4175E+06              0.      45.661E+06
           38119     91.3269E+06     21.4136E+06              0.     46.5547E+06
           38120     91.7692E+06     21.4168E+06              0.     47.4608E+06
           38121     92.2144E+06     21.4275E+06              0.     48.3793E+06
           38122     92.6624E+06     21.4462E+06              0.     49.3100E+06
           38123     93.1128E+06     21.4731E+06              0.     50.2527E+06
           38124     93.5650E+06     21.5089E+06              0.     51.2074E+06
           38125     94.0188E+06     21.5540E+06              0.     52.1739E+06
           38126     94.4736E+06     21.6088E+06              0.     53.1519E+06
           38127     94.9289E+06     21.6739E+06              0.     54.1412E+06
           38128     95.3842E+06     21.7497E+06              0.     55.1415E+06
           38129     95.8388E+06     21.8367E+06              0.     56.1526E+06
           38130     96.2921E+06     21.9356E+06              0.     57.1739E+06
           38131     96.7435E+06     22.0468E+06              0.     58.2053E+06
           38132     97.1922E+06     22.1710E+06              0.     59.2462E+06
           38133     97.6374E+06     22.3086E+06              0.     60.2961E+06
           38134     98.0782E+06     22.4602E+06              0.     61.3545E+06
           38135     98.5139E+06     22.6265E+06              0.     62.4208E+06
           38136     98.9433E+06     22.8080E+06              0.     63.4944E+06
           38137     99.3655E+06     23.0053E+06              0.     64.5745E+06
           38138     99.7795E+06     23.2189E+06              0.     65.6604E+06
           38139     100.184E+06     23.4496E+06              0.     66.7511E+06
           38140     100.578E+06     23.6978E+06              0.     67.8459E+06
           38141     100.959E+06     23.9642E+06              0.     68.9435E+06
           38142     101.328E+06     24.2492E+06              0.      70.043E+06
           38143     101.682E+06     24.5535E+06              0.     71.1431E+06
           38144     102.019E+06     24.8776E+06              0.     72.2425E+06
           38145     102.338E+06     25.2219E+06              0.     73.3398E+06
           38146     102.638E+06     25.5870E+06              0.     74.4335E+06
           38147     102.916E+06     25.9732E+06              0.     75.5219E+06
           38148     103.171E+06     26.3808E+06              0.     76.6033E+06
           38149     103.401E+06     26.8104E+06              0.     77.6756E+06
           38150     103.603E+06     27.2619E+06              0.     78.7370E+06
           38151     103.777E+06     27.7357E+06              0.     79.7851E+06
           38152     103.918E+06     28.2318E+06              0.     80.8175E+06
           38153     104.026E+06     28.7502E+06              0.     81.8318E+06
           38154     104.097E+06     29.2906E+06              0.     82.8252E+06
           38155     104.129E+06     29.8529E+06              0.     83.7949E+06
           38156     104.121E+06     30.4366E+06              0.     84.7377E+06
           38157     104.068E+06     31.0412E+06              0.     85.6503E+06
           38158     103.970E+06     31.6658E+06              0.     86.5294E+06
           38159     103.822E+06     32.3094E+06              0.     87.3711E+06
           38160     103.622E+06     32.9708E+06              0.     88.1717E+06
           38161     103.368E+06     33.6487E+06              0.     88.9269E+06
           38162     103.057E+06     34.3412E+06              0.     89.6326E+06
           38163     102.686E+06     35.0463E+06              0.     90.2841E+06
           38164     102.252E+06     35.7617E+06              0.     90.8768E+06
           38165     101.753E+06     36.4848E+06              0.     91.4058E+06
           38166     101.187E+06     37.2123E+06              0.     91.8658E+06
           38167     100.550E+06     37.9410E+06              0.     92.2517E+06
           38168     99.8417E+06     38.6669E+06              0.     92.5579E+06
           38169     99.0585E+06     39.3858E+06              0.     92.7790E+06
           38170     98.1990E+06     40.0929E+06              0.     92.9091E+06
           38171     97.2614E+06     40.7829E+06              0.     92.9426E+06
           38172     96.2443E+06     41.4502E+06              0.     92.8737E+06
           38173     95.1465E+06     42.0885E+06              0.     92.6963E+06
           38174     93.9672E+06     42.6912E+06              0.     92.4049E+06
           38175     92.7058E+06     43.2510E+06              0.     91.9936E+06
           38176     91.3623E+06     43.7603E+06              0.     91.4569E+06
           38177     89.9369E+06     44.2110E+06              0.     90.7893E+06
           38178     88.4302E+06     44.5944E+06              0.     89.9858E+06
           38179     86.8435E+06     44.9017E+06              0.     89.0414E+06
           38180     85.1781E+06     45.1234E+06              0.     87.9517E+06
           38181     83.4362E+06     45.2499E+06              0.     86.7127E+06
           38182     81.6201E+06     45.2713E+06              0.     85.3208E+06
           38183     79.7326E+06     45.1777E+06              0.     83.7731E+06
           38184     77.7771E+06     44.9589E+06              0.     82.0671E+06
           38185     75.7571E+06     44.6049E+06              0.     80.2010E+06
           38186     73.6766E+06     44.1057E+06              0.     78.1739E+06
           38187     71.5400E+06     43.4514E+06              0.     75.9854E+06
           38188     69.3518E+06     42.6328E+06              0.     73.6358E+06
           38189     67.1166E+06     41.6407E+06              0.     71.1262E+06
           38190     64.8394E+06     40.4667E+06              0.     68.4586E+06
           38191     62.5222E+06     39.1016E+06              0.     65.6356E+06
           38192     61.0895E+06     37.0537E+06              0.     64.6985E+06
           38193     68.7880E+06     30.1590E+06              0.     2.54214E+06
           38194     68.7798E+06     30.0655E+06              0.     2.53764E+06
           38195     68.8118E+06     29.9913E+06              0.     2.50372E+06
           38196     68.8434E+06     29.9191E+06              0.     2.47485E+06
           38197     68.8747E+06     29.8489E+06              0.     2.45091E+06
           38198     68.9057E+06     29.7805E+06              0.     2.43176E+06
           38199     68.9365E+06     29.7138E+06              0.     2.41728E+06
           38200     68.9672E+06     29.6488E+06              0.     2.40736E+06
           38201     68.9978E+06     29.5854E+06              0.     2.40188E+06
           38202     69.0284E+06     29.5235E+06              0.     2.40074E+06
           38203      69.059E+06     29.4631E+06              0.     2.40383E+06
           38204     69.0897E+06     29.4039E+06              0.     2.41107E+06
           38205     69.1205E+06     29.3460E+06              0.     2.42237E+06
           38206     69.1516E+06     29.2893E+06              0.     2.43763E+06
           38207     69.1828E+06     29.2338E+06              0.     2.45680E+06
           38208     69.2144E+06     29.1792E+06              0.     2.47978E+06
           38209     69.2463E+06     29.1257E+06              0.     2.50651E+06
           38210     69.2786E+06     29.0730E+06              0.     2.53694E+06
           38211     69.3113E+06     29.0212E+06              0.     2.57099E+06
           38212     69.3444E+06     28.9702E+06              0.     2.60862E+06
           38213     69.3782E+06     28.9200E+06              0.     2.64978E+06
           38214     69.4124E+06     28.8704E+06              0.     2.69441E+06
           38215     69.4473E+06     28.8214E+06              0.     2.74248E+06
           38216     69.4829E+06     28.7729E+06              0.     2.79395E+06
           38217     69.5192E+06     28.7250E+06              0.     2.84878E+06
           38218     69.5562E+06     28.6776E+06              0.     2.90694E+06
           38219     69.5940E+06     28.6305E+06              0.     2.96841E+06
           38220     69.6326E+06     28.5838E+06              0.     3.03316E+06
           38221     69.6721E+06     28.5374E+06              0.     3.10117E+06
           38222     69.7125E+06     28.4912E+06              0.     3.17243E+06
           38223     69.7539E+06     28.4453E+06              0.     3.24692E+06
           38224     69.7962E+06     28.3995E+06              0.     3.32464E+06
           38225     69.8396E+06     28.3539E+06              0.     3.40556E+06
           38226     69.8841E+06     28.3083E+06              0.     3.48970E+06
           38227     69.9298E+06     28.2628E+06              0.     3.57705E+06
           38228     69.9765E+06     28.2173E+06              0.     3.66762E+06
           38229     70.0245E+06     28.1718E+06              0.     3.76140E+06
           38230     70.0737E+06     28.1261E+06              0.     3.85841E+06
           38231     70.1242E+06     28.0804E+06              0.     3.95865E+06
           38232     70.1761E+06     28.0345E+06              0.     4.06215E+06
           38233     70.2293E+06     27.9884E+06              0.     4.16891E+06
           38234     70.2839E+06     27.9422E+06              0.     4.27896E+06
           38235     70.3400E+06     27.8956E+06              0.     4.39232E+06
           38236     70.3976E+06     27.8488E+06              0.     4.50901E+06
           38237     70.4568E+06     27.8016E+06              0.     4.62906E+06
           38238     70.5175E+06     27.7542E+06              0.     4.75250E+06
           38239     70.5798E+06     27.7063E+06              0.     4.87936E+06
           38240     70.6438E+06     27.6580E+06              0.     5.00967E+06
           38241     70.7096E+06     27.6093E+06              0.     5.14348E+06
           38242     70.7771E+06     27.5601E+06              0.     5.28081E+06
           38243     70.8464E+06     27.5104E+06              0.     5.42171E+06
           38244     70.9175E+06     27.4601E+06              0.     5.56623E+06
           38245     70.9906E+06     27.4094E+06              0.     5.71441E+06
           38246     71.0656E+06     27.3580E+06              0.     5.86629E+06
           38247     71.1426E+06     27.3060E+06              0.     6.02194E+06
           38248     71.2217E+06     27.2535E+06              0.     6.18139E+06
           38249     71.3028E+06     27.2002E+06              0.     6.34472E+06
           38250     71.3861E+06     27.1463E+06              0.     6.51196E+06
           38251     71.4716E+06     27.0917E+06              0.     6.68318E+06
           38252     71.5592E+06     27.0363E+06              0.     6.85845E+06
           38253     71.6492E+06     26.9802E+06              0.     7.03783E+06
           38254     71.7416E+06     26.9234E+06              0.     7.22137E+06
           38255     71.8363E+06     26.8658E+06              0.     7.40916E+06
           38256     71.9335E+06     26.8073E+06              0.     7.60125E+06
           38257     72.0332E+06     26.7480E+06              0.     7.79772E+06
           38258     72.1355E+06     26.6879E+06              0.     7.99864E+06
           38259     72.2404E+06     26.6269E+06              0.     8.20410E+06
           38260     72.3479E+06     26.5651E+06              0.     8.41416E+06
           38261     72.4582E+06     26.5023E+06              0.     8.62890E+06
           38262     72.5712E+06     26.4387E+06              0.     8.84842E+06
           38263     72.6872E+06     26.3741E+06              0.     9.07278E+06
           38264     72.8060E+06     26.3086E+06              0.     9.30208E+06
           38265     72.9278E+06     26.2421E+06              0.     9.53640E+06
           38266     73.0526E+06     26.1747E+06              0.     9.77584E+06
           38267     73.1805E+06     26.1063E+06              0.     10.0205E+06
           38268     73.3115E+06     26.0369E+06              0.     10.2704E+06
           38269     73.4458E+06     25.9665E+06              0.     10.5258E+06
           38270     73.5834E+06     25.8951E+06              0.     10.7866E+06
           38271     73.7243E+06     25.8227E+06              0.     11.0530E+06
           38272     73.8686E+06     25.7493E+06              0.     11.3251E+06
           38273     74.0164E+06     25.6748E+06              0.     11.6030E+06
           38274     74.1678E+06     25.5994E+06              0.     11.8868E+06
           38275     74.3228E+06     25.5229E+06              0.     12.1766E+06
           38276     74.4815E+06     25.4454E+06              0.     12.4725E+06
           38277     74.6439E+06     25.3669E+06              0.     12.7746E+06
           38278     74.8102E+06     25.2873E+06              0.     13.0831E+06
           38279     74.9804E+06     25.2068E+06              0.     13.3980E+06
           38280     75.1546E+06     25.1252E+06              0.     13.7194E+06
           38281     75.3328E+06     25.0426E+06              0.     14.0476E+06
           38282     75.5151E+06     24.9590E+06              0.     14.3825E+06
           38283     75.7017E+06     24.8744E+06              0.     14.7243E+06
           38284     75.8925E+06     24.7889E+06              0.     15.0732E+06
           38285     76.0877E+06     24.7024E+06              0.     15.4293E+06
           38286     76.2873E+06     24.6150E+06              0.     15.7926E+06
           38287     76.4914E+06     24.5266E+06              0.     16.1634E+06
           38288     76.7002E+06     24.4374E+06              0.     16.5416E+06
           38289     76.9135E+06     24.3472E+06              0.     16.9276E+06
           38290     77.1316E+06     24.2563E+06              0.     17.3213E+06
           38291     77.3546E+06     24.1645E+06              0.     17.7230E+06
           38292     77.5824E+06     24.0719E+06              0.     18.1328E+06
           38293     77.8152E+06     23.9786E+06              0.     18.5507E+06
           38294     78.0531E+06     23.8846E+06              0.     18.9770E+06
           38295     78.2961E+06     23.7899E+06              0.     19.4117E+06
           38296     78.5443E+06     23.6945E+06              0.     19.8551E+06
           38297     78.7977E+06     23.5987E+06              0.     20.3072E+06
           38298     79.0566E+06     23.5022E+06              0.     20.7682E+06
           38299     79.3209E+06     23.4054E+06              0.     21.2382E+06
           38300     79.5907E+06     23.3081E+06              0.     21.7174E+06
           38301     79.8660E+06     23.2105E+06              0.     22.2059E+06
           38302     80.1471E+06     23.1127E+06              0.     22.7038E+06
           38303     80.4338E+06     23.0146E+06              0.     23.2113E+06
           38304     80.7264E+06     22.9165E+06              0.     23.7286E+06
           38305     81.0248E+06     22.8183E+06              0.     24.2557E+06
           38306     81.3292E+06     22.7202E+06              0.     24.7929E+06
           38307     81.6396E+06     22.6222E+06              0.     25.3402E+06
           38308     81.9560E+06     22.5246E+06              0.     25.8978E+06
           38309     82.2785E+06     22.4273E+06              0.     26.4659E+06
           38310     82.6072E+06     22.3305E+06              0.     27.0445E+06
           38311     82.9421E+06     22.2343E+06              0.     27.6339E+06
           38312     83.2832E+06     22.1389E+06              0.     28.2341E+06
           38313     83.6307E+06     22.0443E+06              0.     28.8454E+06
           38314     83.9845E+06     21.9508E+06              0.     29.4678E+06
           38315     84.3447E+06     21.8584E+06              0.     30.1014E+06
           38316     84.7112E+06     21.7674E+06              0.     30.7464E+06
           38317     85.0842E+06     21.6778E+06              0.      31.403E+06
           38318     85.4636E+06     21.5900E+06              0.     32.0712E+06
           38319     85.8495E+06      21.504E+06              0.     32.7512E+06
           38320     86.2418E+06     21.4201E+06              0.     33.4431E+06
           38321     86.6406E+06     21.3384E+06              0.     34.1470E+06
           38322     87.0457E+06     21.2593E+06              0.     34.8630E+06
           38323     87.4572E+06     21.1828E+06              0.     35.5912E+06
           38324     87.8751E+06     21.1093E+06              0.     36.3318E+06
           38325     88.2993E+06     21.0390E+06              0.     37.0848E+06
           38326     88.7297E+06     20.9721E+06              0.     37.8502E+06
           38327     89.1662E+06     20.9090E+06              0.     38.6283E+06
           38328     89.6089E+06     20.8499E+06              0.     39.4190E+06
           38329     90.0575E+06     20.7951E+06              0.     40.2224E+06
           38330     90.5119E+06     20.7449E+06              0.     41.0386E+06
           38331     90.9720E+06     20.6997E+06              0.     41.8676E+06
           38332     91.4377E+06     20.6597E+06              0.     42.7094E+06
           38333     91.9088E+06     20.6254E+06              0.     43.5641E+06
           38334     92.3851E+06     20.5972E+06              0.     44.4316E+06
           38335     92.8663E+06     20.5753E+06              0.     45.3121E+06
           38336     93.3522E+06     20.5602E+06              0.     46.2053E+06
           38337     93.8426E+06     20.5523E+06              0.     47.1113E+06
           38338     94.3372E+06     20.5520E+06              0.     48.0300E+06
           38339     94.8356E+06     20.5598E+06              0.     48.9614E+06
           38340     95.3375E+06     20.5762E+06              0.     49.9053E+06
           38341     95.8425E+06     20.6016E+06              0.     50.8617E+06
           38342     96.3501E+06     20.6365E+06              0.     51.8303E+06
           38343     96.8600E+06     20.6815E+06              0.     52.8109E+06
           38344     97.3716E+06     20.7370E+06              0.     53.8035E+06
           38345     97.8844E+06     20.8036E+06              0.     54.8076E+06
           38346     98.3978E+06     20.8818E+06              0.     55.8232E+06
           38347     98.9112E+06     20.9723E+06              0.     56.8497E+06
           38348     99.4239E+06     21.0756E+06              0.     57.8870E+06
           38349     99.9352E+06     21.1923E+06              0.     58.9345E+06
           38350     100.444E+06     21.3231E+06              0.     59.9919E+06
           38351     100.950E+06     21.4686E+06              0.     61.0586E+06
           38352     101.452E+06     21.6293E+06              0.     62.1341E+06
           38353     101.950E+06     21.8061E+06              0.     63.2178E+06
           38354     102.441E+06     21.9994E+06              0.      64.309E+06
           38355     102.925E+06     22.2100E+06              0.     65.4070E+06
           38356     103.402E+06     22.4386E+06              0.     66.5110E+06
           38357     103.868E+06     22.6857E+06              0.     67.6200E+06
           38358     104.324E+06     22.9521E+06              0.     68.7332E+06
           38359     104.768E+06     23.2385E+06              0.     69.8495E+06
           38360     105.199E+06     23.5453E+06              0.     70.9676E+06
           38361     105.614E+06     23.8734E+06              0.     72.0864E+06
           38362     106.012E+06     24.2232E+06              0.     73.2044E+06
           38363     106.392E+06     24.5954E+06              0.     74.3203E+06
           38364     106.752E+06     24.9904E+06              0.     75.4323E+06
           38365     107.089E+06     25.4089E+06              0.     76.5388E+06
           38366     107.402E+06     25.8511E+06              0.     77.6378E+06
           38367     107.688E+06     26.3176E+06              0.     78.7274E+06
           38368     107.946E+06     26.8085E+06              0.     79.8054E+06
           38369     108.172E+06     27.3242E+06              0.     80.8694E+06
           38370     108.366E+06     27.8647E+06              0.     81.9169E+06
           38371     108.523E+06     28.4300E+06              0.     82.9452E+06
           38372     108.642E+06     29.0201E+06              0.     83.9514E+06
           38373     108.719E+06     29.6347E+06              0.     84.9325E+06
           38374     108.753E+06     30.2733E+06              0.     85.8850E+06
           38375     108.740E+06     30.9354E+06              0.     86.8055E+06
           38376     108.678E+06     31.6201E+06              0.     87.6903E+06
           38377     108.563E+06     32.3263E+06              0.     88.5355E+06
           38378     108.393E+06     33.0529E+06              0.     89.3367E+06
           38379     108.164E+06     33.7981E+06              0.     90.0897E+06
           38380     107.874E+06     34.5602E+06              0.     90.7897E+06
           38381     107.519E+06      35.337E+06              0.     91.4319E+06
           38382     107.098E+06     36.1258E+06              0.     92.0113E+06
           38383     106.606E+06     36.9238E+06              0.     92.5224E+06
           38384     106.042E+06     37.7276E+06              0.     92.9599E+06
           38385     105.403E+06     38.5334E+06              0.     93.3179E+06
           38386     104.686E+06     39.3369E+06              0.     93.5907E+06
           38387     103.888E+06     40.1334E+06              0.     93.7723E+06
           38388     103.009E+06     40.9176E+06              0.     93.8564E+06
           38389     102.046E+06     41.6837E+06              0.     93.8371E+06
           38390     100.998E+06     42.4255E+06              0.     93.7080E+06
           38391     99.8633E+06     43.1360E+06              0.     93.4629E+06
           38392     98.6415E+06     43.8079E+06              0.     93.0957E+06
           38393     97.3322E+06     44.4332E+06              0.     92.6005E+06
           38394     95.9354E+06     45.0034E+06              0.     91.9713E+06
           38395     94.4517E+06     45.5095E+06              0.     91.2025E+06
           38396     92.8819E+06     45.9422E+06              0.     90.2890E+06
           38397     91.2276E+06     46.2915E+06              0.     89.2259E+06
           38398     89.4906E+06     46.5473E+06              0.     88.0086E+06
           38399     87.6734E+06     46.6992E+06              0.     86.6333E+06
           38400     85.7789E+06     46.7363E+06              0.     85.0967E+06
           38401     83.8104E+06      46.648E+06              0.     83.3961E+06
           38402     81.7716E+06     46.4234E+06              0.     81.5296E+06
           38403     79.6668E+06     46.0519E+06              0.     79.4960E+06
           38404     77.5004E+06     45.5228E+06              0.     77.2947E+06
           38405     75.2772E+06     44.8262E+06              0.     74.9262E+06
           38406     73.0023E+06     43.9523E+06              0.     72.3917E+06
           38407     70.6812E+06     42.8924E+06              0.     69.6928E+06
           38408     68.3238E+06     41.6394E+06              0.     66.8327E+06
           38409     66.9106E+06     39.6913E+06              0.     65.9009E+06
           38410     68.8878E+06     30.2013E+06              0.     2.50941E+06
           38411     68.8790E+06     30.1016E+06              0.     2.50498E+06
           38412     68.9131E+06     30.0224E+06              0.     2.47149E+06
           38413     68.9468E+06     29.9453E+06              0.     2.44300E+06
           38414     68.9802E+06     29.8704E+06              0.     2.41937E+06
           38415     69.0133E+06     29.7974E+06              0.     2.40048E+06
           38416     69.0461E+06     29.7263E+06              0.     2.38619E+06
           38417     69.0789E+06     29.6569E+06              0.     2.37640E+06
           38418     69.1115E+06     29.5893E+06              0.     2.37100E+06
           38419     69.1442E+06     29.5232E+06              0.     2.36988E+06
           38420     69.1768E+06     29.4587E+06              0.     2.37294E+06
           38421     69.2096E+06     29.3955E+06              0.     2.38009E+06
           38422     69.2425E+06     29.3338E+06              0.     2.39125E+06
           38423     69.2756E+06     29.2733E+06              0.     2.40633E+06
           38424     69.3089E+06     29.2139E+06              0.     2.42525E+06
           38425     69.3426E+06     29.1557E+06              0.     2.44795E+06
           38426     69.3766E+06     29.0986E+06              0.     2.47435E+06
           38427     69.4111E+06     29.0424E+06              0.     2.50439E+06
           38428     69.4460E+06     28.9871E+06              0.     2.53802E+06
           38429     69.4814E+06     28.9327E+06              0.     2.57517E+06
           38430     69.5174E+06     28.8790E+06              0.     2.61581E+06
           38431     69.5539E+06     28.8261E+06              0.     2.65988E+06
           38432     69.5912E+06     28.7738E+06              0.     2.70734E+06
           38433     69.6291E+06     28.7221E+06              0.     2.75816E+06
           38434     69.6678E+06     28.6709E+06              0.     2.81230E+06
           38435     69.7073E+06     28.6202E+06              0.     2.86973E+06
           38436     69.7477E+06     28.5700E+06              0.     2.93042E+06
           38437     69.7889E+06     28.5201E+06              0.     2.99436E+06
           38438     69.8310E+06     28.4706E+06              0.     3.06151E+06
           38439     69.8742E+06     28.4213E+06              0.     3.13187E+06
           38440     69.9183E+06     28.3722E+06              0.     3.20543E+06
           38441     69.9636E+06     28.3234E+06              0.     3.28216E+06
           38442     70.0099E+06     28.2746E+06              0.     3.36207E+06
           38443     70.0574E+06     28.2260E+06              0.     3.44515E+06
           38444     70.1061E+06     28.1774E+06              0.     3.53140E+06
           38445     70.1560E+06     28.1287E+06              0.     3.62083E+06
           38446     70.2072E+06     28.0801E+06              0.     3.71343E+06
           38447     70.2598E+06     28.0313E+06              0.     3.80922E+06
           38448     70.3137E+06     27.9825E+06              0.     3.90821E+06
           38449     70.3691E+06     27.9334E+06              0.     4.01041E+06
           38450     70.4259E+06     27.8842E+06              0.     4.11584E+06
           38451     70.4842E+06     27.8347E+06              0.     4.22452E+06
           38452     70.5441E+06     27.7850E+06              0.     4.33646E+06
           38453     70.6056E+06     27.7350E+06              0.     4.45169E+06
           38454     70.6687E+06     27.6846E+06              0.     4.57025E+06
           38455     70.7335E+06     27.6338E+06              0.     4.69215E+06
           38456     70.8001E+06     27.5826E+06              0.     4.81743E+06
           38457     70.8685E+06     27.5309E+06              0.     4.94612E+06
           38458     70.9387E+06     27.4788E+06              0.     5.07826E+06
           38459     71.0108E+06     27.4262E+06              0.     5.21389E+06
           38460     71.0848E+06     27.3731E+06              0.     5.35305E+06
           38461     71.1608E+06     27.3193E+06              0.     5.49578E+06
           38462     71.2388E+06     27.2650E+06              0.     5.64213E+06
           38463     71.3189E+06     27.2101E+06              0.     5.79215E+06
           38464     71.4011E+06     27.1545E+06              0.     5.94588E+06
           38465     71.4856E+06     27.0982E+06              0.     6.10337E+06
           38466     71.5722E+06     27.0412E+06              0.     6.26469E+06
           38467     71.6612E+06     26.9835E+06              0.     6.42988E+06
           38468     71.7525E+06     26.9250E+06              0.     6.59902E+06
           38469     71.8462E+06     26.8657E+06              0.     6.77214E+06
           38470     71.9423E+06     26.8056E+06              0.     6.94933E+06
           38471     72.0410E+06     26.7447E+06              0.     7.13065E+06
           38472     72.1422E+06     26.6830E+06              0.     7.31615E+06
           38473     72.2460E+06     26.6204E+06              0.     7.50592E+06
           38474     72.3525E+06     26.5568E+06              0.     7.70002E+06
           38475     72.4618E+06     26.4924E+06              0.     7.89852E+06
           38476     72.5739E+06     26.4270E+06              0.      8.1015E+06
           38477     72.6888E+06     26.3607E+06              0.     8.30904E+06
           38478     72.8067E+06     26.2934E+06              0.     8.52121E+06
           38479     72.9275E+06     26.2251E+06              0.     8.73811E+06
           38480     73.0514E+06     26.1559E+06              0.      8.9598E+06
           38481     73.1784E+06     26.0855E+06              0.     9.18638E+06
           38482     73.3086E+06     26.0142E+06              0.     9.41793E+06
           38483     73.4420E+06     25.9418E+06              0.     9.65454E+06
           38484     73.5788E+06     25.8684E+06              0.     9.89630E+06
           38485     73.7189E+06     25.7938E+06              0.     10.1433E+06
           38486     73.8625E+06     25.7182E+06              0.     10.3957E+06
           38487     74.0096E+06     25.6415E+06              0.     10.6534E+06
           38488     74.1603E+06     25.5637E+06              0.     10.9168E+06
           38489     74.3147E+06     25.4848E+06              0.     11.1857E+06
           38490     74.4728E+06     25.4047E+06              0.     11.4604E+06
           38491     74.6347E+06     25.3236E+06              0.     11.7410E+06
           38492     74.8005E+06     25.2413E+06              0.     12.0274E+06
           38493     74.9703E+06     25.1578E+06              0.     12.3200E+06
           38494     75.1441E+06     25.0733E+06              0.     12.6187E+06
           38495     75.3221E+06     24.9876E+06              0.     12.9237E+06
           38496     75.5042E+06     24.9008E+06              0.     13.2350E+06
           38497     75.6907E+06     24.8129E+06              0.     13.5529E+06
           38498     75.8815E+06     24.7239E+06              0.     13.8774E+06
           38499     76.0767E+06     24.6337E+06              0.     14.2086E+06
           38500     76.2765E+06     24.5425E+06              0.     14.5467E+06
           38501     76.4808E+06     24.4501E+06              0.     14.8918E+06
           38502     76.6899E+06     24.3567E+06              0.     15.2440E+06
           38503     76.9037E+06     24.2622E+06              0.     15.6034E+06
           38504     77.1224E+06     24.1667E+06              0.     15.9702E+06
           38505     77.3461E+06     24.0702E+06              0.     16.3444E+06
           38506     77.5748E+06     23.9727E+06              0.     16.7263E+06
           38507     77.8086E+06     23.8742E+06              0.     17.1159E+06
           38508     78.0476E+06     23.7747E+06              0.     17.5134E+06
           38509     78.2919E+06     23.6744E+06              0.     17.9189E+06
           38510     78.5416E+06     23.5732E+06              0.     18.3326E+06
           38511     78.7968E+06     23.4711E+06              0.     18.7545E+06
           38512     79.0575E+06     23.3683E+06              0.     19.1849E+06
           38513     79.3239E+06     23.2647E+06              0.     19.6238E+06
           38514     79.5960E+06     23.1604E+06              0.     20.0715E+06
           38515     79.8739E+06     23.0554E+06              0.     20.5280E+06
           38516     80.1577E+06     22.9499E+06              0.     20.9934E+06
           38517     80.4476E+06     22.8438E+06              0.     21.4680E+06
           38518     80.7434E+06     22.7373E+06              0.     21.9519E+06
           38519     81.0455E+06     22.6304E+06              0.     22.4452E+06
           38520     81.3538E+06     22.5232E+06              0.     22.9480E+06
           38521     81.6684E+06     22.4157E+06              0.     23.4606E+06
           38522     81.9895E+06     22.3081E+06              0.     23.9830E+06
           38523     82.3170E+06     22.2004E+06              0.     24.5154E+06
           38524     82.6510E+06     22.0927E+06              0.     25.0580E+06
           38525     82.9917E+06     21.9852E+06              0.     25.6108E+06
           38526     83.3392E+06     21.8780E+06              0.     26.1741E+06
           38527     83.6933E+06     21.7711E+06              0.     26.7480E+06
           38528     84.0543E+06     21.6647E+06              0.     27.3326E+06
           38529     84.4222E+06     21.5589E+06              0.     27.9281E+06
           38530     84.7971E+06     21.4539E+06              0.     28.5346E+06
           38531     85.1790E+06     21.3498E+06              0.     29.1522E+06
           38532     85.5679E+06     21.2468E+06              0.     29.7811E+06
           38533     85.9639E+06     21.1450E+06              0.     30.4215E+06
           38534     86.3671E+06     21.0446E+06              0.     31.0735E+06
           38535     86.7774E+06     20.9457E+06              0.     31.7371E+06
           38536     87.1949E+06     20.8486E+06              0.     32.4126E+06
           38537     87.6196E+06     20.7535E+06              0.     33.1001E+06
           38538     88.0516E+06     20.6606E+06              0.     33.7996E+06
           38539     88.4907E+06     20.5701E+06              0.     34.5113E+06
           38540     88.9370E+06     20.4822E+06              0.     35.2354E+06
           38541     89.3906E+06     20.3972E+06              0.     35.9719E+06
           38542     89.8513E+06     20.3153E+06              0.     36.7210E+06
           38543     90.3191E+06     20.2368E+06              0.     37.4827E+06
           38544     90.7940E+06     20.1620E+06              0.     38.2571E+06
           38545     91.2758E+06     20.0912E+06              0.     39.0443E+06
           38546     91.7646E+06     20.0247E+06              0.     39.8445E+06
           38547     92.2602E+06     19.9627E+06              0.     40.6576E+06
           38548     92.7624E+06     19.9058E+06              0.     41.4838E+06
           38549     93.2713E+06     19.8541E+06              0.     42.3230E+06
           38550     93.7865E+06     19.8081E+06              0.     43.1753E+06
           38551     94.3080E+06     19.7682E+06              0.     44.0408E+06
           38552     94.8355E+06     19.7347E+06              0.     44.9195E+06
           38553     95.3688E+06     19.7081E+06              0.     45.8113E+06
           38554     95.9077E+06     19.6888E+06              0.     46.7162E+06
           38555     96.4519E+06     19.6772E+06              0.     47.6342E+06
           38556     97.0011E+06     19.6739E+06              0.     48.5653E+06
           38557     97.5550E+06     19.6793E+06              0.     49.5093E+06
           38558     98.1132E+06     19.6939E+06              0.     50.4663E+06
           38559     98.6753E+06     19.7182E+06              0.     51.4359E+06
           38560     99.2408E+06     19.7528E+06              0.     52.4182E+06
           38561     99.8094E+06     19.7982E+06              0.     53.4129E+06
           38562     100.380E+06     19.8551E+06              0.     54.4199E+06
           38563     100.953E+06     19.9240E+06              0.     55.4388E+06
           38564     101.528E+06     20.0055E+06              0.     56.4695E+06
           38565     102.103E+06     20.1003E+06              0.     57.5115E+06
           38566     102.677E+06     20.2090E+06              0.     58.5646E+06
           38567     103.251E+06     20.3323E+06              0.     59.6283E+06
           38568     103.824E+06     20.4708E+06              0.     60.7022E+06
           38569     104.394E+06     20.6253E+06              0.     61.7858E+06
           38570     104.960E+06     20.7965E+06              0.     62.8786E+06
           38571     105.522E+06     20.9851E+06              0.     63.9798E+06
           38572     106.078E+06     21.1918E+06              0.     65.0889E+06
           38573     106.628E+06     21.4173E+06              0.     66.2051E+06
           38574     107.169E+06     21.6625E+06              0.     67.3275E+06
           38575     107.702E+06     21.9280E+06              0.     68.4552E+06
           38576     108.223E+06     22.2146E+06              0.     69.5873E+06
           38577     108.732E+06     22.5230E+06              0.     70.7225E+06
           38578     109.228E+06     22.8539E+06              0.     71.8598E+06
           38579     109.708E+06     23.2082E+06              0.     72.9977E+06
           38580     110.170E+06     23.5863E+06              0.     74.1350E+06
           38581     110.614E+06     23.9891E+06              0.     75.2700E+06
           38582     111.036E+06     24.4171E+06              0.     76.4010E+06
           38583     111.435E+06     24.8709E+06              0.     77.5262E+06
           38584     111.808E+06     25.3511E+06              0.     78.6436E+06
           38585     112.154E+06     25.8580E+06              0.     79.7511E+06
           38586     112.469E+06     26.3920E+06              0.     80.8465E+06
           38587     112.752E+06     26.9535E+06              0.     81.9270E+06
           38588     112.999E+06     27.5426E+06              0.     82.9902E+06
           38589     113.209E+06     28.1593E+06              0.     84.0331E+06
           38590     113.377E+06     28.8037E+06              0.     85.0527E+06
           38591     113.502E+06     29.4753E+06              0.     86.0456E+06
           38592     113.579E+06     30.1739E+06              0.     87.0082E+06
           38593     113.607E+06     30.8987E+06              0.     87.9369E+06
           38594     113.582E+06     31.6490E+06              0.     88.8276E+06
           38595     113.500E+06     32.4236E+06              0.     89.6761E+06
           38596     113.360E+06     33.2211E+06              0.     90.4778E+06
           38597     113.156E+06     34.0398E+06              0.     91.2280E+06
           38598     112.887E+06     34.8776E+06              0.     91.9216E+06
           38599     112.548E+06     35.7323E+06              0.     92.5535E+06
           38600     112.137E+06     36.6009E+06              0.     93.1181E+06
           38601     111.651E+06     37.4803E+06              0.     93.6097E+06
           38602     111.087E+06     38.3667E+06              0.     94.0224E+06
           38603     110.441E+06     39.2559E+06              0.     94.3499E+06
           38604     109.712E+06     40.1432E+06              0.     94.5860E+06
           38605     108.897E+06     41.0233E+06              0.     94.7243E+06
           38606     107.994E+06     41.8904E+06              0.     94.7581E+06
           38607     107.000E+06     42.7380E+06              0.     94.6809E+06
           38608     105.916E+06     43.5592E+06              0.     94.4860E+06
           38609     104.739E+06     44.3463E+06              0.     94.1669E+06
           38610     103.468E+06     45.0911E+06              0.     93.7170E+06
           38611     102.105E+06     45.7847E+06              0.     93.1302E+06
           38612     100.648E+06     46.4178E+06              0.     92.4002E+06
           38613     99.0993E+06     46.9805E+06              0.     91.5214E+06
           38614     97.4594E+06     47.4624E+06              0.     90.4884E+06
           38615     95.7304E+06     47.8527E+06              0.     89.2964E+06
           38616     93.9147E+06     48.1403E+06              0.     87.9410E+06
           38617     92.0153E+06     48.3137E+06              0.     86.4186E+06
           38618     90.0354E+06     48.3615E+06              0.     84.7262E+06
           38619     87.9792E+06     48.2719E+06              0.     82.8616E+06
           38620     85.8509E+06     48.0337E+06              0.     80.8234E+06
           38621     83.6552E+06     47.6353E+06              0.     78.6111E+06
           38622     81.3972E+06     47.0659E+06              0.     76.2249E+06
           38623     79.0820E+06     46.3150E+06              0.     73.6663E+06
           38624     76.7144E+06     45.3722E+06              0.     70.9375E+06
           38625     74.2951E+06     44.2271E+06              0.     68.0415E+06
           38626     72.8859E+06     42.3750E+06              0.     67.1202E+06
           38627     68.9862E+06     30.2431E+06              0.     2.47455E+06
           38628     68.9769E+06     30.1371E+06              0.     2.47018E+06
           38629     69.0131E+06     30.0530E+06              0.     2.43717E+06
           38630     69.0489E+06     29.9712E+06              0.     2.40908E+06
           38631     69.0843E+06     29.8916E+06              0.     2.38578E+06
           38632     69.1194E+06     29.8140E+06              0.     2.36715E+06
           38633     69.1543E+06     29.7385E+06              0.     2.35307E+06
           38634     69.1891E+06     29.6649E+06              0.     2.34343E+06
           38635     69.2237E+06     29.5930E+06              0.     2.33810E+06
           38636     69.2584E+06     29.5229E+06              0.     2.33700E+06
           38637     69.2931E+06     29.4543E+06              0.     2.34003E+06
           38638     69.3278E+06     29.3873E+06              0.     2.34709E+06
           38639     69.3628E+06     29.3216E+06              0.     2.35810E+06
           38640     69.3979E+06     29.2574E+06              0.     2.37297E+06
           38641     69.4334E+06     29.1944E+06              0.     2.39164E+06
           38642     69.4691E+06     29.1325E+06              0.     2.41403E+06
           38643     69.5052E+06     29.0718E+06              0.     2.44007E+06
           38644     69.5418E+06     29.0122E+06              0.     2.46971E+06
           38645     69.5789E+06     28.9534E+06              0.     2.50288E+06
           38646     69.6165E+06     28.8956E+06              0.     2.53953E+06
           38647     69.6547E+06     28.8386E+06              0.     2.57961E+06
           38648     69.6936E+06     28.7824E+06              0.     2.62308E+06
           38649     69.7331E+06     28.7268E+06              0.     2.66990E+06
           38650     69.7734E+06     28.6719E+06              0.     2.72002E+06
           38651     69.8145E+06     28.6175E+06              0.     2.77342E+06
           38652     69.8565E+06     28.5637E+06              0.     2.83007E+06
           38653     69.8993E+06     28.5103E+06              0.     2.88994E+06
           38654     69.9431E+06     28.4573E+06              0.       2.953E+06
           38655     69.9879E+06     28.4046E+06              0.     3.01924E+06
           38656     70.0337E+06     28.3523E+06              0.     3.08864E+06
           38657     70.0806E+06     28.3001E+06              0.     3.16119E+06
           38658     70.1287E+06     28.2482E+06              0.     3.23688E+06
           38659     70.1779E+06     28.1964E+06              0.     3.31571E+06
           38660     70.2284E+06     28.1447E+06              0.     3.39766E+06
           38661     70.2801E+06     28.0930E+06              0.     3.48274E+06
           38662     70.3331E+06     28.0413E+06              0.     3.57095E+06
           38663     70.3876E+06     27.9896E+06              0.     3.66229E+06
           38664     70.4434E+06     27.9378E+06              0.     3.75679E+06
           38665     70.5007E+06     27.8858E+06              0.     3.85443E+06
           38666     70.5595E+06     27.8337E+06              0.     3.95525E+06
           38667     70.6199E+06     27.7813E+06              0.     4.05925E+06
           38668     70.6818E+06     27.7287E+06              0.     4.16645E+06
           38669     70.7455E+06     27.6758E+06              0.     4.27688E+06
           38670     70.8108E+06     27.6226E+06              0.     4.39056E+06
           38671     70.8779E+06     27.5690E+06              0.     4.50752E+06
           38672     70.9468E+06     27.5150E+06              0.     4.62777E+06
           38673     71.0175E+06     27.4605E+06              0.     4.75137E+06
           38674     71.0902E+06     27.4056E+06              0.     4.87833E+06
           38675     71.1648E+06     27.3501E+06              0.     5.00869E+06
           38676     71.2414E+06     27.2941E+06              0.     5.14251E+06
           38677     71.3200E+06     27.2375E+06              0.     5.27980E+06
           38678     71.4008E+06     27.1803E+06              0.     5.42062E+06
           38679     71.4837E+06     27.1225E+06              0.     5.56501E+06
           38680     71.5689E+06     27.0640E+06              0.     5.71302E+06
           38681     71.6563E+06     27.0048E+06              0.     5.86470E+06
           38682     71.7460E+06     26.9449E+06              0.     6.02010E+06
           38683     71.8382E+06     26.8842E+06              0.     6.17927E+06
           38684     71.9327E+06     26.8227E+06              0.     6.34227E+06
           38685     72.0298E+06     26.7604E+06              0.     6.50916E+06
           38686     72.1294E+06     26.6973E+06              0.     6.68000E+06
           38687     72.2316E+06     26.6333E+06              0.     6.85485E+06
           38688     72.3365E+06     26.5684E+06              0.     7.03377E+06
           38689     72.4441E+06     26.5025E+06              0.     7.21684E+06
           38690     72.5545E+06     26.4358E+06              0.     7.40411E+06
           38691     72.6678E+06     26.3681E+06              0.     7.59566E+06
           38692     72.7840E+06     26.2994E+06              0.     7.79157E+06
           38693     72.9032E+06     26.2297E+06              0.     7.99190E+06
           38694     73.0254E+06     26.1589E+06              0.     8.19673E+06
           38695     73.1507E+06     26.0871E+06              0.     8.40615E+06
           38696     73.2793E+06     26.0143E+06              0.     8.62023E+06
           38697     73.4110E+06     25.9403E+06              0.     8.83906E+06
           38698     73.5461E+06     25.8653E+06              0.     9.06271E+06
           38699     73.6846E+06     25.7891E+06              0.     9.29128E+06
           38700     73.8266E+06     25.7118E+06              0.     9.52486E+06
           38701     73.9721E+06     25.6334E+06              0.     9.76353E+06
           38702     74.1212E+06     25.5538E+06              0.     10.0074E+06
           38703     74.2740E+06     25.4730E+06              0.     10.2565E+06
           38704     74.4305E+06     25.3910E+06              0.     10.5110E+06
           38705     74.5909E+06     25.3079E+06              0.     10.7710E+06
           38706     74.7552E+06     25.2235E+06              0.     11.0366E+06
           38707     74.9235E+06     25.1379E+06              0.     11.3078E+06
           38708     75.0959E+06     25.0511E+06              0.     11.5849E+06
           38709     75.2724E+06     24.9630E+06              0.     11.8678E+06
           38710     75.4532E+06     24.8737E+06              0.     12.1567E+06
           38711     75.6383E+06     24.7832E+06              0.     12.4517E+06
           38712     75.8277E+06     24.6915E+06              0.     12.7529E+06
           38713     76.0217E+06     24.5985E+06              0.     13.0605E+06
           38714     76.2203E+06     24.5043E+06              0.     13.3745E+06
           38715     76.4236E+06     24.4088E+06              0.     13.6950E+06
           38716     76.6316E+06     24.3122E+06              0.     14.0223E+06
           38717     76.8444E+06     24.2143E+06              0.     14.3563E+06
           38718     77.0622E+06     24.1152E+06              0.     14.6972E+06
           38719     77.2850E+06     24.0150E+06              0.     15.0452E+06
           38720     77.5129E+06     23.9135E+06              0.     15.4004E+06
           38721     77.7461E+06     23.8109E+06              0.     15.7628E+06
           38722     77.9846E+06     23.7072E+06              0.     16.1327E+06
           38723     78.2284E+06     23.6023E+06              0.     16.5102E+06
           38724     78.4778E+06     23.4963E+06              0.     16.8953E+06
           38725     78.7328E+06     23.3893E+06              0.     17.2882E+06
           38726     78.9934E+06     23.2812E+06              0.     17.6891E+06
           38727     79.2598E+06     23.1722E+06              0.     18.0981E+06
           38728     79.5322E+06     23.0622E+06              0.     18.5153E+06
           38729     79.8105E+06     22.9512E+06              0.     18.9409E+06
           38730     80.0949E+06     22.8394E+06              0.     19.3750E+06
           38731     80.3855E+06     22.7267E+06              0.     19.8178E+06
           38732     80.6823E+06     22.6133E+06              0.     20.2693E+06
           38733     80.9855E+06     22.4991E+06              0.     20.7298E+06
           38734     81.2952E+06     22.3843E+06              0.     21.1993E+06
           38735     81.6115E+06     22.2689E+06              0.     21.6781E+06
           38736     81.9344E+06     22.1530E+06              0.     22.1663E+06
           38737     82.2641E+06     22.0366E+06              0.     22.6640E+06
           38738     82.6006E+06     21.9198E+06              0.     23.1713E+06
           38739     82.9441E+06     21.8028E+06              0.     23.6885E+06
           38740     83.2946E+06     21.6855E+06              0.     24.2156E+06
           38741     83.6523E+06     21.5682E+06              0.     24.7529E+06
           38742     84.0171E+06     21.4509E+06              0.     25.3004E+06
           38743     84.3893E+06     21.3337E+06              0.     25.8584E+06
           38744     84.7688E+06     21.2167E+06              0.     26.4269E+06
           38745     85.1558E+06     21.1002E+06              0.     27.0061E+06
           38746     85.5503E+06     20.9841E+06              0.     27.5962E+06
           38747     85.9525E+06     20.8686E+06              0.     28.1974E+06
           38748     86.3623E+06     20.7539E+06              0.     28.8096E+06
           38749     86.7799E+06     20.6402E+06              0.     29.4332E+06
           38750     87.2052E+06     20.5276E+06              0.     30.0683E+06
           38751     87.6384E+06     20.4162E+06              0.     30.7150E+06
           38752     88.0796E+06     20.3063E+06              0.     31.3734E+06
           38753     88.5286E+06     20.1981E+06              0.     32.0436E+06
           38754     88.9857E+06     20.0918E+06              0.     32.7259E+06
           38755     89.4508E+06     19.9875E+06              0.     33.4204E+06
           38756     89.9238E+06     19.8856E+06              0.     34.1271E+06
           38757     90.4050E+06     19.7861E+06              0.     34.8463E+06
           38758     90.8942E+06     19.6895E+06              0.     35.5779E+06
           38759     91.3914E+06     19.5960E+06              0.     36.3223E+06
           38760     91.8966E+06     19.5058E+06              0.     37.0794E+06
           38761     92.4098E+06     19.4192E+06              0.     37.8493E+06
           38762     92.9309E+06     19.3365E+06              0.     38.6323E+06
           38763     93.4599E+06     19.2581E+06              0.     39.4283E+06
           38764     93.9967E+06     19.1843E+06              0.     40.2375E+06
           38765     94.5412E+06     19.1154E+06              0.     41.0599E+06
           38766     95.0932E+06     19.0518E+06              0.     41.8956E+06
           38767     95.6528E+06     18.9939E+06              0.     42.7446E+06
           38768     96.2196E+06     18.9421E+06              0.     43.6071E+06
           38769     96.7936E+06     18.8967E+06              0.     44.4830E+06
           38770     97.3746E+06     18.8583E+06              0.     45.3724E+06
           38771     97.9622E+06     18.8273E+06              0.     46.2752E+06
           38772     98.5564E+06     18.8041E+06              0.     47.1915E+06
           38773     99.1567E+06     18.7893E+06              0.     48.1213E+06
           38774     99.7630E+06     18.7833E+06              0.     49.0644E+06
           38775     100.375E+06     18.7867E+06              0.     50.0208E+06
           38776     100.992E+06     18.8000E+06              0.     50.9905E+06
           38777     101.614E+06     18.8238E+06              0.     51.9733E+06
           38778     102.240E+06     18.8587E+06              0.     52.9691E+06
           38779     102.870E+06     18.9054E+06              0.     53.9777E+06
           38780     103.503E+06     18.9643E+06              0.     54.9989E+06
           38781     104.139E+06     19.0363E+06              0.     56.0324E+06
           38782     104.777E+06     19.1220E+06              0.     57.0781E+06
           38783     105.416E+06     19.2220E+06              0.     58.1356E+06
           38784     106.056E+06     19.3371E+06              0.     59.2045E+06
           38785     106.696E+06     19.4680E+06              0.     60.2845E+06
           38786     107.335E+06     19.6155E+06              0.     61.3750E+06
           38787     107.971E+06     19.7803E+06              0.     62.4757E+06
           38788     108.605E+06     19.9633E+06              0.     63.5858E+06
           38789     109.235E+06     20.1652E+06              0.     64.7049E+06
           38790     109.859E+06     20.3868E+06              0.     65.8321E+06
           38791     110.477E+06     20.6290E+06              0.     66.9667E+06
           38792     111.088E+06     20.8926E+06              0.     68.1079E+06
           38793     111.689E+06     21.1784E+06              0.     69.2547E+06
           38794     112.279E+06     21.4873E+06              0.     70.4060E+06
           38795     112.857E+06     21.8201E+06              0.     71.5608E+06
           38796     113.421E+06     22.1776E+06              0.     72.7177E+06
           38797     113.968E+06     22.5606E+06              0.     73.8755E+06
           38798     114.498E+06     22.9699E+06              0.     75.0326E+06
           38799     115.009E+06     23.4062E+06              0.     76.1874E+06
           38800     115.497E+06     23.8703E+06              0.     77.3381E+06
           38801     115.961E+06     24.3628E+06              0.     78.4827E+06
           38802     116.398E+06     24.8844E+06              0.     79.6193E+06
           38803     116.806E+06     25.4355E+06              0.     80.7456E+06
           38804     117.182E+06     26.0167E+06              0.     81.8590E+06
           38805     117.523E+06     26.6282E+06              0.     82.9570E+06
           38806     117.827E+06     27.2704E+06              0.     84.0366E+06
           38807     118.091E+06     27.9432E+06              0.     85.0948E+06
           38808     118.311E+06     28.6467E+06              0.     86.1284E+06
           38809     118.484E+06     29.3807E+06              0.     87.1337E+06
           38810     118.607E+06     30.1447E+06              0.     88.1070E+06
           38811     118.677E+06     30.9380E+06              0.     89.0442E+06
           38812     118.690E+06     31.7597E+06              0.      89.941E+06
           38813     118.642E+06     32.6087E+06              0.     90.7928E+06
           38814     118.531E+06     33.4835E+06              0.     91.5947E+06
           38815     118.353E+06     34.3822E+06              0.     92.3417E+06
           38816     118.103E+06     35.3025E+06              0.     93.0282E+06
           38817     117.779E+06     36.2418E+06              0.     93.6486E+06
           38818     117.377E+06     37.1971E+06              0.     94.1969E+06
           38819     116.894E+06     38.1647E+06              0.     94.6669E+06
           38820     116.327E+06     39.1405E+06              0.     95.0523E+06
           38821     115.672E+06     40.1198E+06              0.     95.3463E+06
           38822     114.927E+06     41.0974E+06              0.     95.5421E+06
           38823     114.090E+06     42.0675E+06              0.     95.6329E+06
           38824     113.158E+06     43.0234E+06              0.     95.6115E+06
           38825     112.129E+06     43.9580E+06              0.     95.4708E+06
           38826     111.002E+06     44.8636E+06              0.     95.2039E+06
           38827     109.776E+06     45.7315E+06              0.     94.8037E+06
           38828     108.451E+06     46.5526E+06              0.     94.2634E+06
           38829     107.026E+06     47.3171E+06              0.     93.5764E+06
           38830     105.502E+06     48.0146E+06              0.     92.7364E+06
           38831     103.881E+06     48.6343E+06              0.     91.7376E+06
           38832     102.163E+06     49.1645E+06              0.     90.5747E+06
           38833     100.352E+06     49.5934E+06              0.     89.2428E+06
           38834     98.4499E+06     49.9090E+06              0.     87.7379E+06
           38835     96.4608E+06     50.0988E+06              0.     86.0567E+06
           38836     94.3886E+06     50.1504E+06              0.     84.1966E+06
           38837     92.2378E+06     50.0513E+06              0.     82.1560E+06
           38838     90.0135E+06     49.7894E+06              0.     79.9344E+06
           38839     87.7209E+06     49.3529E+06              0.     77.5319E+06
           38840     85.3659E+06     48.7303E+06              0.       74.95E+06
           38841      82.955E+06     47.9113E+06              0.     72.1910E+06
           38842     80.4983E+06     46.8871E+06              0.     69.2579E+06
           38843     79.1182E+06     45.1469E+06              0.     68.3489E+06
           38844     69.0832E+06     30.2842E+06              0.     2.43759E+06
           38845     69.0733E+06     30.1721E+06              0.     2.43329E+06
           38846     69.1116E+06     30.0832E+06              0.     2.40077E+06
           38847     69.1494E+06     29.9966E+06              0.     2.37310E+06
           38848     69.1869E+06     29.9124E+06              0.     2.35016E+06
           38849     69.2240E+06     29.8305E+06              0.     2.33182E+06
           38850     69.2609E+06     29.7506E+06              0.     2.31795E+06
           38851     69.2977E+06     29.6727E+06              0.     2.30845E+06
           38852     69.3344E+06     29.5967E+06              0.     2.30322E+06
           38853     69.3710E+06     29.5225E+06              0.     2.30214E+06
           38854     69.4076E+06     29.4500E+06              0.     2.30512E+06
           38855     69.4444E+06     29.3791E+06              0.     2.31209E+06
           38856     69.4814E+06     29.3097E+06              0.     2.32294E+06
           38857     69.5185E+06     29.2417E+06              0.     2.33760E+06
           38858     69.5560E+06     29.1751E+06              0.     2.35600E+06
           38859     69.5938E+06     29.1097E+06              0.     2.37806E+06
           38860     69.6320E+06     29.0455E+06              0.     2.40372E+06
           38861     69.6707E+06     28.9823E+06              0.     2.43292E+06
           38862     69.7099E+06     28.9202E+06              0.     2.46560E+06
           38863     69.7497E+06     28.8591E+06              0.     2.50172E+06
           38864     69.7901E+06     28.7988E+06              0.     2.54121E+06
           38865     69.8312E+06     28.7393E+06              0.     2.58405E+06
           38866     69.8730E+06     28.6805E+06              0.     2.63017E+06
           38867     69.9157E+06     28.6224E+06              0.     2.67957E+06
           38868     69.9591E+06     28.5649E+06              0.     2.73218E+06
           38869     70.0035E+06     28.5079E+06              0.     2.78800E+06
           38870     70.0488E+06     28.4514E+06              0.     2.84698E+06
           38871     70.0952E+06     28.3953E+06              0.     2.90912E+06
           38872     70.1425E+06     28.3396E+06              0.     2.97439E+06
           38873     70.1910E+06     28.2842E+06              0.     3.04277E+06
           38874     70.2406E+06     28.2291E+06              0.     3.11426E+06
           38875     70.2914E+06     28.1741E+06              0.     3.18884E+06
           38876     70.3435E+06     28.1193E+06              0.     3.26651E+06
           38877     70.3969E+06     28.0645E+06              0.     3.34726E+06
           38878     70.4516E+06     28.0098E+06              0.     3.43109E+06
           38879     70.5077E+06     27.9551E+06              0.     3.51801E+06
           38880     70.5653E+06     27.9004E+06              0.     3.60802E+06
           38881     70.6244E+06     27.8455E+06              0.     3.70113E+06
           38882     70.6850E+06     27.7905E+06              0.     3.79735E+06
           38883     70.7472E+06     27.7353E+06              0.     3.89670E+06
           38884     70.8111E+06     27.6799E+06              0.     3.99918E+06
           38885     70.8767E+06     27.6242E+06              0.     4.10482E+06
           38886      70.944E+06     27.5682E+06              0.     4.21364E+06
           38887     71.0131E+06     27.5118E+06              0.     4.32567E+06
           38888     71.0841E+06     27.4550E+06              0.     4.44092E+06
           38889     71.1570E+06     27.3978E+06              0.     4.55943E+06
           38890     71.2319E+06     27.3401E+06              0.     4.68123E+06
           38891     71.3088E+06     27.2819E+06              0.     4.80635E+06
           38892     71.3877E+06     27.2232E+06              0.     4.93483E+06
           38893     71.4688E+06     27.1638E+06              0.     5.06670E+06
           38894     71.5520E+06     27.1039E+06              0.     5.20201E+06
           38895     71.6375E+06     27.0433E+06              0.     5.34080E+06
           38896     71.7253E+06     26.9820E+06              0.     5.48310E+06
           38897     71.8154E+06       26.92E+06              0.     5.62898E+06
           38898     71.9079E+06     26.8572E+06              0.     5.77848E+06
           38899     72.0029E+06     26.7937E+06              0.     5.93164E+06
           38900     72.1004E+06     26.7294E+06              0.     6.08853E+06
           38901     72.2005E+06     26.6642E+06              0.     6.24920E+06
           38902     72.3032E+06     26.5981E+06              0.     6.41370E+06
           38903     72.4087E+06     26.5311E+06              0.     6.58210E+06
           38904     72.5169E+06     26.4633E+06              0.     6.75445E+06
           38905     72.6279E+06     26.3944E+06              0.     6.93082E+06
           38906     72.7419E+06     26.3246E+06              0.     7.11128E+06
           38907     72.8588E+06     26.2538E+06              0.     7.29590E+06
           38908     72.9787E+06     26.1819E+06              0.     7.48474E+06
           38909     73.1017E+06     26.1090E+06              0.     7.67787E+06
           38910     73.2279E+06     26.0350E+06              0.     7.87538E+06
           38911     73.3574E+06     25.9599E+06              0.     8.07733E+06
           38912     73.4901E+06     25.8836E+06              0.     8.28380E+06
           38913     73.6262E+06     25.8063E+06              0.     8.49488E+06
           38914     73.7658E+06     25.7277E+06              0.     8.71064E+06
           38915     73.9089E+06     25.6480E+06              0.     8.93117E+06
           38916     74.0556E+06     25.5671E+06              0.     9.15656E+06
           38917     74.2060E+06     25.4850E+06              0.     9.38689E+06
           38918     74.3601E+06     25.4016E+06              0.     9.62225E+06
           38919     74.5180E+06     25.3169E+06              0.     9.86274E+06
           38920     74.6799E+06     25.2310E+06              0.     10.1084E+06
           38921     74.8458E+06     25.1439E+06              0.     10.3595E+06
           38922     75.0157E+06     25.0554E+06              0.     10.6159E+06
           38923     75.1899E+06     24.9656E+06              0.     10.8778E+06
           38924     75.3682E+06     24.8745E+06              0.     11.1454E+06
           38925     75.5509E+06     24.7821E+06              0.     11.4186E+06
           38926     75.7380E+06     24.6884E+06              0.     11.6977E+06
           38927     75.9296E+06     24.5933E+06              0.     11.9827E+06
           38928     76.1259E+06     24.4969E+06              0.     12.2738E+06
           38929     76.3268E+06     24.3992E+06              0.     12.5710E+06
           38930     76.5325E+06     24.3001E+06              0.     12.8744E+06
           38931     76.7431E+06     24.1996E+06              0.     13.1843E+06
           38932     76.9586E+06     24.0979E+06              0.     13.5006E+06
           38933     77.1792E+06     23.9947E+06              0.     13.8235E+06
           38934     77.4050E+06     23.8903E+06              0.     14.1532E+06
           38935     77.6361E+06     23.7846E+06              0.     14.4897E+06
           38936     77.8725E+06     23.6775E+06              0.     14.8331E+06
           38937     78.1144E+06     23.5691E+06              0.     15.1837E+06
           38938     78.3618E+06     23.4595E+06              0.     15.5415E+06
           38939     78.6150E+06     23.3486E+06              0.     15.9067E+06
           38940     78.8738E+06     23.2365E+06              0.     16.2793E+06
           38941     79.1386E+06     23.1231E+06              0.     16.6596E+06
           38942     79.4094E+06     23.0085E+06              0.     17.0476E+06
           38943     79.6862E+06     22.8928E+06              0.     17.4435E+06
           38944     79.9692E+06     22.7760E+06              0.     17.8474E+06
           38945     80.2585E+06     22.6580E+06              0.     18.2595E+06
           38946     80.5543E+06     22.5391E+06              0.     18.6799E+06
           38947     80.8565E+06     22.4191E+06              0.     19.1088E+06
           38948     81.1654E+06     22.2981E+06              0.     19.5462E+06
           38949     81.4810E+06     22.1762E+06              0.     19.9923E+06
           38950     81.8035E+06     22.0535E+06              0.     20.4474E+06
           38951     82.1328E+06     21.9300E+06              0.     20.9114E+06
           38952     82.4693E+06     21.8057E+06              0.     21.3847E+06
           38953     82.8129E+06     21.6808E+06              0.     21.8672E+06
           38954     83.1638E+06     21.5553E+06              0.     22.3592E+06
           38955     83.5221E+06     21.4293E+06              0.     22.8609E+06
           38956     83.8879E+06     21.3029E+06              0.     23.3723E+06
           38957     84.2612E+06     21.1761E+06              0.     23.8937E+06
           38958     84.6423E+06     21.0492E+06              0.     24.4251E+06
           38959     85.0311E+06     20.9221E+06              0.     24.9667E+06
           38960     85.4279E+06     20.7950E+06              0.     25.5188E+06
           38961     85.8326E+06     20.6680E+06              0.     26.0814E+06
           38962     86.2454E+06     20.5412E+06              0.     26.6547E+06
           38963     86.6664E+06     20.4148E+06              0.     27.2388E+06
           38964     87.0957E+06     20.2889E+06              0.     27.8339E+06
           38965     87.5333E+06     20.1636E+06              0.     28.4402E+06
           38966     87.9793E+06     20.0392E+06              0.     29.0578E+06
           38967     88.4339E+06     19.9158E+06              0.     29.6869E+06
           38968     88.8971E+06     19.7935E+06              0.     30.3276E+06
           38969     89.3689E+06     19.6726E+06              0.     30.9801E+06
           38970     89.8494E+06     19.5532E+06              0.     31.6444E+06
           38971     90.3386E+06     19.4355E+06              0.     32.3208E+06
           38972     90.8367E+06     19.3199E+06              0.     33.0095E+06
           38973     91.3437E+06     19.2064E+06              0.     33.7104E+06
           38974     91.8595E+06     19.0954E+06              0.     34.4239E+06
           38975     92.3843E+06     18.9872E+06              0.     35.1499E+06
           38976     92.9179E+06     18.8819E+06              0.     35.8887E+06
           38977     93.4605E+06     18.7798E+06              0.     36.6404E+06
           38978     94.0120E+06     18.6813E+06              0.     37.4051E+06
           38979     94.5723E+06     18.5867E+06              0.     38.1828E+06
           38980     95.1416E+06     18.4963E+06              0.     38.9738E+06
           38981     95.7196E+06     18.4104E+06              0.     39.7781E+06
           38982     96.3063E+06     18.3294E+06              0.     40.5959E+06
           38983     96.9017E+06     18.2537E+06              0.     41.4271E+06
           38984     97.5056E+06     18.1836E+06              0.     42.2719E+06
           38985     98.1180E+06     18.1197E+06              0.     43.1304E+06
           38986     98.7386E+06     18.0623E+06              0.     44.0026E+06
           38987     99.3674E+06     18.0118E+06              0.     44.8885E+06
           38988     100.004E+06     17.9687E+06              0.     45.7882E+06
           38989     100.648E+06     17.9336E+06              0.     46.7017E+06
           38990     101.300E+06     17.9069E+06              0.     47.6290E+06
           38991     101.959E+06     17.8892E+06              0.     48.5701E+06
           38992     102.625E+06     17.8810E+06              0.     49.5250E+06
           38993     103.297E+06     17.8830E+06              0.     50.4935E+06
           38994     103.976E+06     17.8956E+06              0.     51.4757E+06
           38995     104.660E+06     17.9195E+06              0.     52.4714E+06
           38996     105.349E+06     17.9554E+06              0.     53.4804E+06
           38997     106.043E+06     18.0039E+06              0.     54.5027E+06
           38998     106.742E+06     18.0658E+06              0.     55.5380E+06
           38999     107.443E+06     18.1417E+06              0.     56.5862E+06
           39000     108.148E+06     18.2324E+06              0.     57.6468E+06
           39001     108.855E+06     18.3386E+06              0.     58.7197E+06
           39002     109.563E+06     18.4612E+06              0.     59.8045E+06
           39003     110.272E+06     18.6009E+06              0.     60.9007E+06
           39004     110.981E+06     18.7586E+06              0.     62.0080E+06
           39005     111.688E+06     18.9351E+06              0.     63.1258E+06
           39006     112.392E+06     19.1313E+06              0.     64.2535E+06
           39007     113.093E+06     19.3481E+06              0.     65.3906E+06
           39008     113.789E+06     19.5864E+06              0.     66.5362E+06
           39009     114.479E+06     19.8471E+06              0.     67.6896E+06
           39010     115.162E+06     20.1311E+06              0.     68.8500E+06
           39011     115.835E+06     20.4393E+06              0.     70.0163E+06
           39012     116.498E+06     20.7728E+06              0.     71.1875E+06
           39013     117.148E+06     21.1323E+06              0.     72.3624E+06
           39014     117.783E+06     21.5189E+06              0.     73.5396E+06
           39015     118.403E+06     21.9334E+06              0.     74.7179E+06
           39016     119.004E+06     22.3768E+06              0.     75.8956E+06
           39017     119.584E+06     22.8499E+06              0.     77.0709E+06
           39018     120.142E+06     23.3534E+06              0.     78.2421E+06
           39019     120.674E+06     23.8883E+06              0.     79.4071E+06
           39020     121.178E+06     24.4551E+06              0.     80.5638E+06
           39021     121.651E+06     25.0545E+06              0.     81.7096E+06
           39022     122.091E+06     25.6871E+06              0.     82.8421E+06
           39023     122.494E+06     26.3532E+06              0.     83.9583E+06
           39024     122.857E+06     27.0532E+06              0.     85.0553E+06
           39025     123.178E+06     27.7873E+06              0.     86.1297E+06
           39026     123.452E+06     28.5554E+06              0.     87.1781E+06
           39027     123.675E+06     29.3572E+06              0.     88.1965E+06
           39028     123.846E+06     30.1925E+06              0.     89.1810E+06
           39029     123.959E+06     31.0604E+06              0.     90.1272E+06
           39030     124.011E+06     31.9600E+06              0.     91.0303E+06
           39031     123.998E+06     32.8901E+06              0.     91.8855E+06
           39032     123.917E+06     33.8490E+06              0.     92.6875E+06
           39033     123.762E+06     34.8346E+06              0.     93.4306E+06
           39034     123.532E+06     35.8446E+06              0.     94.1091E+06
           39035     123.221E+06     36.8759E+06              0.     94.7168E+06
           39036     122.826E+06     37.9251E+06              0.     95.2471E+06
           39037     122.344E+06     38.9883E+06              0.     95.6934E+06
           39038     121.770E+06     40.0608E+06              0.     96.0487E+06
           39039     121.103E+06     41.1375E+06              0.     96.3057E+06
           39040     120.338E+06     42.2123E+06              0.     96.4573E+06
           39041     119.474E+06     43.2788E+06              0.     96.4958E+06
           39042     118.507E+06     44.3297E+06              0.     96.4136E+06
           39043     117.437E+06     45.3569E+06              0.     96.2033E+06
           39044     116.261E+06     46.3516E+06              0.     95.8572E+06
           39045     114.979E+06     47.3043E+06              0.     95.3680E+06
           39046     113.591E+06     48.2048E+06              0.     94.7284E+06
           39047     112.098E+06     49.0422E+06              0.     93.9318E+06
           39048     110.499E+06     49.8049E+06              0.     92.9716E+06
           39049     108.796E+06     50.4808E+06              0.     91.8419E+06
           39050     106.993E+06     51.0572E+06              0.     90.5374E+06
           39051     105.092E+06     51.5212E+06              0.     89.0537E+06
           39052     103.096E+06     51.8594E+06              0.     87.3868E+06
           39053     101.009E+06     52.0585E+06              0.     85.5341E+06
           39054     98.8372E+06     52.1051E+06              0.     83.4936E+06
           39055     96.5849E+06     51.9860E+06              0.     81.2645E+06
           39056     94.2581E+06     51.6882E+06              0.     78.8471E+06
           39057     91.8627E+06     51.1996E+06              0.     76.2428E+06
           39058     89.4049E+06     50.5084E+06              0.     73.4539E+06
           39059     86.8886E+06     49.6026E+06              0.     70.4840E+06
           39060     85.5166E+06     47.9668E+06              0.     69.5855E+06
           39061     69.1787E+06     30.3247E+06              0.     2.39855E+06
           39062     69.1683E+06     30.2066E+06              0.     2.39432E+06
           39063     69.2086E+06     30.1129E+06              0.     2.36233E+06
           39064     69.2485E+06     30.0217E+06              0.     2.33511E+06
           39065     69.2879E+06     29.9330E+06              0.     2.31254E+06
           39066     69.3270E+06     29.8466E+06              0.     2.29450E+06
           39067     69.3659E+06     29.7624E+06              0.     2.28086E+06
           39068     69.4046E+06     29.6804E+06              0.     2.27152E+06
           39069     69.4433E+06     29.6003E+06              0.     2.26637E+06
           39070     69.4818E+06     29.5221E+06              0.     2.26531E+06
           39071     69.5205E+06     29.4457E+06              0.     2.26826E+06
           39072     69.5592E+06     29.3710E+06              0.     2.27511E+06
           39073     69.5981E+06     29.2979E+06              0.     2.28580E+06
           39074     69.6373E+06     29.2263E+06              0.     2.30023E+06
           39075     69.6768E+06     29.1561E+06              0.     2.31834E+06
           39076     69.7166E+06     29.0872E+06              0.     2.34006E+06
           39077     69.7568E+06     29.0195E+06              0.     2.36532E+06
           39078     69.7976E+06     28.9530E+06              0.     2.39406E+06
           39079     69.8389E+06     28.8875E+06              0.     2.42623E+06
           39080     69.8808E+06     28.8231E+06              0.     2.46178E+06
           39081     69.9234E+06     28.7595E+06              0.     2.50065E+06
           39082     69.9667E+06     28.6968E+06              0.     2.54281E+06
           39083     70.0108E+06     28.6349E+06              0.     2.58821E+06
           39084     70.0557E+06     28.5736E+06              0.     2.63682E+06
           39085     70.1015E+06     28.5130E+06              0.     2.68861E+06
           39086     70.1483E+06     28.4530E+06              0.     2.74354E+06
           39087     70.1961E+06     28.3934E+06              0.      2.8016E+06
           39088     70.2449E+06     28.3343E+06              0.     2.86276E+06
           39089     70.2948E+06     28.2756E+06              0.     2.92700E+06
           39090     70.3459E+06     28.2172E+06              0.     2.99430E+06
           39091     70.3982E+06     28.1591E+06              0.     3.06466E+06
           39092     70.4517E+06     28.1011E+06              0.     3.13807E+06
           39093     70.5066E+06     28.0433E+06              0.     3.21452E+06
           39094     70.5629E+06     27.9856E+06              0.     3.29400E+06
           39095     70.6205E+06     27.9279E+06              0.     3.37651E+06
           39096     70.6797E+06     27.8703E+06              0.     3.46207E+06
           39097     70.7404E+06     27.8125E+06              0.     3.55066E+06
           39098     70.8026E+06     27.7547E+06              0.     3.64231E+06
           39099     70.8665E+06     27.6967E+06              0.     3.73702E+06
           39100     70.9321E+06     27.6385E+06              0.     3.83481E+06
           39101     70.9994E+06       27.58E+06              0.     3.93569E+06
           39102     71.0686E+06     27.5212E+06              0.     4.03967E+06
           39103     71.1395E+06     27.4622E+06              0.     4.14679E+06
           39104     71.2124E+06     27.4027E+06              0.     4.25706E+06
           39105     71.2872E+06     27.3428E+06              0.     4.37051E+06
           39106     71.3641E+06     27.2824E+06              0.     4.48717E+06
           39107     71.4430E+06     27.2216E+06              0.     4.60707E+06
           39108     71.5240E+06     27.1601E+06              0.     4.73024E+06
           39109     71.6073E+06     27.0982E+06              0.     4.85672E+06
           39110     71.6927E+06     27.0355E+06              0.     4.98654E+06
           39111     71.7805E+06     26.9723E+06              0.     5.11975E+06
           39112     71.8706E+06     26.9083E+06              0.     5.25638E+06
           39113     71.9632E+06     26.8436E+06              0.     5.39648E+06
           39114     72.0582E+06     26.7781E+06              0.     5.54010E+06
           39115     72.1557E+06     26.7119E+06              0.     5.68728E+06
           39116     72.2559E+06     26.6448E+06              0.     5.83808E+06
           39117     72.3587E+06     26.5768E+06              0.     5.99254E+06
           39118     72.4643E+06     26.5080E+06              0.     6.15073E+06
           39119     72.5726E+06     26.4382E+06              0.     6.31270E+06
           39120     72.6838E+06     26.3675E+06              0.     6.47851E+06
           39121     72.7979E+06     26.2958E+06              0.     6.64822E+06
           39122     72.9150E+06     26.2230E+06              0.     6.82189E+06
           39123     73.0352E+06     26.1493E+06              0.     6.99958E+06
           39124     73.1585E+06     26.0744E+06              0.     7.18138E+06
           39125     73.2850E+06     25.9984E+06              0.     7.36733E+06
           39126     73.4148E+06     25.9214E+06              0.     7.55753E+06
           39127     73.5479E+06     25.8431E+06              0.     7.75203E+06
           39128     73.6844E+06     25.7637E+06              0.     7.95091E+06
           39129     73.8245E+06     25.6831E+06              0.     8.15426E+06
           39130     73.9681E+06     25.6013E+06              0.     8.36215E+06
           39131     74.1153E+06     25.5182E+06              0.     8.57465E+06
           39132     74.2663E+06     25.4339E+06              0.     8.79186E+06
           39133     74.4211E+06     25.3483E+06              0.     9.01387E+06
           39134     74.5798E+06     25.2614E+06              0.     9.24074E+06
           39135     74.7424E+06     25.1731E+06              0.     9.47258E+06
           39136     74.9091E+06     25.0835E+06              0.     9.70948E+06
           39137     75.0800E+06     24.9926E+06              0.     9.95153E+06
           39138     75.2550E+06     24.9003E+06              0.     10.1988E+06
           39139     75.4344E+06     24.8066E+06              0.     10.4515E+06
           39140     75.6182E+06     24.7115E+06              0.     10.7095E+06
           39141     75.8065E+06     24.6149E+06              0.     10.9731E+06
           39142     75.9994E+06     24.5170E+06              0.     11.2424E+06
           39143     76.1970E+06     24.4177E+06              0.     11.5174E+06
           39144     76.3993E+06     24.3169E+06              0.     11.7983E+06
           39145     76.6065E+06     24.2146E+06              0.     12.0851E+06
           39146     76.8187E+06     24.1109E+06              0.     12.3780E+06
           39147     77.0360E+06     24.0058E+06              0.     12.6770E+06
           39148     77.2584E+06     23.8992E+06              0.     12.9824E+06
           39149     77.4862E+06     23.7912E+06              0.     13.2942E+06
           39150     77.7193E+06     23.6817E+06              0.     13.6125E+06
           39151     77.9578E+06     23.5708E+06              0.     13.9375E+06
           39152     78.2020E+06     23.4584E+06              0.     14.2692E+06
           39153     78.4519E+06     23.3446E+06              0.     14.6079E+06
           39154     78.7075E+06     23.2294E+06              0.     14.9535E+06
           39155     78.9691E+06     23.1128E+06              0.     15.3064E+06
           39156     79.2367E+06     22.9948E+06              0.     15.6665E+06
           39157     79.5104E+06     22.8755E+06              0.     16.0340E+06
           39158     79.7904E+06     22.7548E+06              0.     16.4090E+06
           39159     80.0768E+06     22.6328E+06              0.     16.7917E+06
           39160     80.3696E+06     22.5095E+06              0.     17.1822E+06
           39161     80.6690E+06     22.3849E+06              0.     17.5807E+06
           39162     80.9752E+06     22.2592E+06              0.     17.9873E+06
           39163     81.2882E+06     22.1322E+06              0.     18.4021E+06
           39164     81.6081E+06     22.0041E+06              0.     18.8252E+06
           39165     81.9351E+06     21.8749E+06              0.     19.2569E+06
           39166     82.2693E+06     21.7447E+06              0.     19.6973E+06
           39167     82.6108E+06     21.6134E+06              0.     20.1464E+06
           39168     82.9597E+06     21.4813E+06              0.     20.6045E+06
           39169     83.3161E+06     21.3482E+06              0.     21.0717E+06
           39170     83.6803E+06     21.2144E+06              0.     21.5482E+06
           39171     84.0522E+06     21.0799E+06              0.     22.0341E+06
           39172     84.4320E+06     20.9447E+06              0.     22.5295E+06
           39173     84.8199E+06     20.8089E+06              0.     23.0346E+06
           39174     85.2159E+06     20.6727E+06              0.     23.5497E+06
           39175     85.6201E+06     20.5361E+06              0.     24.0747E+06
           39176     86.0328E+06     20.3993E+06              0.     24.6100E+06
           39177     86.4539E+06     20.2623E+06              0.     25.1555E+06
           39178     86.8836E+06     20.1253E+06              0.     25.7116E+06
           39179     87.3221E+06     19.9884E+06              0.     26.2784E+06
           39180     87.7694E+06     19.8517E+06              0.     26.8559E+06
           39181     88.2255E+06     19.7154E+06              0.     27.4445E+06
           39182     88.6908E+06     19.5796E+06              0.     28.0441E+06
           39183     89.1652E+06     19.4445E+06              0.     28.6551E+06
           39184     89.6487E+06     19.3102E+06              0.     29.2775E+06
           39185     90.1417E+06     19.1770E+06              0.     29.9116E+06
           39186     90.6440E+06      19.045E+06              0.     30.5574E+06
           39187     91.1558E+06     18.9144E+06              0.     31.2151E+06
           39188     91.6771E+06     18.7855E+06              0.     31.8849E+06
           39189     92.2081E+06     18.6584E+06              0.     32.5669E+06
           39190     92.7487E+06     18.5335E+06              0.     33.2614E+06
           39191     93.2991E+06     18.4108E+06              0.     33.9683E+06
           39192     93.8593E+06     18.2908E+06              0.     34.6879E+06
           39193     94.4293E+06     18.1737E+06              0.     35.4204E+06
           39194     95.0092E+06     18.0597E+06              0.     36.1658E+06
           39195     95.5989E+06     17.9492E+06              0.     36.9243E+06
           39196     96.1984E+06     17.8425E+06              0.     37.6960E+06
           39197     96.8078E+06     17.7399E+06              0.     38.4811E+06
           39198     97.4271E+06     17.6419E+06              0.     39.2796E+06
           39199     98.0561E+06     17.5486E+06              0.     40.0917E+06
           39200     98.6948E+06     17.4606E+06              0.     40.9175E+06
           39201     99.3431E+06     17.3783E+06              0.     41.7571E+06
           39202     100.001E+06     17.3020E+06              0.     42.6106E+06
           39203     100.668E+06     17.2322E+06              0.     43.4780E+06
           39204     101.345E+06     17.1695E+06              0.     44.3595E+06
           39205     102.031E+06     17.1141E+06              0.     45.2550E+06
           39206     102.726E+06     17.0668E+06              0.     46.1646E+06
           39207     103.429E+06     17.0280E+06              0.     47.0884E+06
           39208     104.141E+06     16.9982E+06              0.     48.0264E+06
           39209     104.861E+06     16.9781E+06              0.     48.9785E+06
           39210     105.589E+06     16.9681E+06              0.     49.9447E+06
           39211     106.324E+06     16.9691E+06              0.     50.9251E+06
           39212     107.067E+06     16.9816E+06              0.     51.9194E+06
           39213     107.816E+06     17.0062E+06              0.     52.9278E+06
           39214     108.572E+06     17.0438E+06              0.     53.9499E+06
           39215     109.333E+06     17.0950E+06              0.     54.9857E+06
           39216     110.100E+06     17.1606E+06              0.     56.0349E+06
           39217     110.871E+06     17.2413E+06              0.     57.0975E+06
           39218     111.645E+06      17.338E+06              0.     58.1730E+06
           39219     112.423E+06     17.4515E+06              0.     59.2613E+06
           39220     113.203E+06     17.5827E+06              0.     60.3619E+06
           39221     113.984E+06     17.7325E+06              0.     61.4745E+06
           39222     114.766E+06     17.9017E+06              0.     62.5986E+06
           39223     115.546E+06     18.0913E+06              0.     63.7337E+06
           39224     116.325E+06     18.3023E+06              0.     64.8793E+06
           39225     117.101E+06     18.5357E+06              0.     66.0346E+06
           39226     117.873E+06     18.7924E+06              0.     67.1990E+06
           39227     118.639E+06     19.0735E+06              0.     68.3717E+06
           39228     119.397E+06     19.3800E+06              0.     69.5517E+06
           39229     120.146E+06     19.7129E+06              0.     70.7380E+06
           39230     120.885E+06     20.0733E+06              0.     71.9296E+06
           39231     121.611E+06     20.4622E+06              0.     73.1252E+06
           39232     122.323E+06     20.8807E+06              0.     74.3236E+06
           39233     123.018E+06     21.3297E+06              0.     75.5230E+06
           39234     123.694E+06     21.8103E+06              0.     76.7221E+06
           39235     124.348E+06     22.3235E+06              0.     77.9189E+06
           39236     124.979E+06     22.8701E+06              0.     79.1116E+06
           39237     125.583E+06     23.4512E+06              0.     80.2980E+06
           39238     126.157E+06     24.0673E+06              0.     81.4756E+06
           39239     126.700E+06     24.7194E+06              0.     82.6421E+06
           39240     127.206E+06     25.4080E+06              0.     83.7947E+06
           39241     127.674E+06     26.1337E+06              0.     84.9302E+06
           39242     128.100E+06     26.8968E+06              0.     86.0456E+06
           39243     128.479E+06     27.6975E+06              0.     87.1372E+06
           39244     128.809E+06     28.5359E+06              0.     88.2012E+06
           39245     129.086E+06     29.4118E+06              0.     89.2336E+06
           39246     129.305E+06     30.3246E+06              0.     90.2300E+06
           39247     129.463E+06     31.2739E+06              0.     91.1857E+06
           39248     129.555E+06     32.2583E+06              0.     92.0955E+06
           39249     129.577E+06     33.2767E+06              0.     92.9542E+06
           39250     129.525E+06     34.3271E+06              0.     93.7560E+06
           39251     129.395E+06     35.4073E+06              0.     94.4948E+06
           39252     129.183E+06     36.5146E+06              0.     95.1643E+06
           39253     128.883E+06     37.6457E+06              0.     95.7578E+06
           39254     128.493E+06     38.7969E+06              0.     96.2682E+06
           39255     128.009E+06     39.9635E+06              0.     96.6882E+06
           39256     127.426E+06     41.1405E+06              0.     97.0103E+06
           39257     126.741E+06     42.3220E+06              0.     97.2267E+06
           39258     125.951E+06     43.5013E+06              0.     97.3293E+06
           39259     125.054E+06     44.6711E+06              0.     97.3102E+06
           39260     124.047E+06     45.8232E+06              0.     97.1611E+06
           39261     122.928E+06     46.9484E+06              0.     96.8739E+06
           39262     121.696E+06     48.0370E+06              0.     96.4406E+06
           39263     120.351E+06     49.0783E+06              0.     95.8535E+06
           39264     118.893E+06     50.0607E+06              0.     95.1050E+06
           39265     117.321E+06     50.9722E+06              0.     94.1880E+06
           39266     115.639E+06     51.7998E+06              0.     93.0961E+06
           39267     113.847E+06     52.5300E+06              0.     91.8234E+06
           39268     111.950E+06     53.1490E+06              0.     90.3647E+06
           39269     109.949E+06     53.6425E+06              0.     88.7159E+06
           39270     107.851E+06     53.9961E+06              0.     86.8736E+06
           39271     105.659E+06     54.1952E+06              0.     84.8358E+06
           39272     103.380E+06     54.2255E+06              0.     82.6014E+06
           39273     101.019E+06     54.0731E+06              0.     80.1707E+06
           39274     98.5836E+06     53.7245E+06              0.     77.5450E+06
           39275     96.0791E+06     53.1671E+06              0.     74.7270E+06
           39276     93.5154E+06     52.3908E+06              0.     71.7206E+06
           39277     92.1666E+06     50.8685E+06              0.     70.8373E+06
           39278     69.2727E+06     30.3645E+06              0.     2.35747E+06
           39279     69.2617E+06     30.2405E+06              0.     2.35332E+06
           39280     69.3041E+06     30.1420E+06              0.     2.32188E+06
           39281     69.3459E+06     30.0463E+06              0.     2.29513E+06
           39282     69.3873E+06     29.9532E+06              0.     2.27295E+06
           39283     69.4284E+06     29.8625E+06              0.     2.25522E+06
           39284     69.4692E+06     29.7741E+06              0.     2.24182E+06
           39285     69.5098E+06     29.6879E+06              0.     2.23264E+06
           39286     69.5504E+06     29.6038E+06              0.     2.22759E+06
           39287     69.5909E+06     29.5218E+06              0.     2.22656E+06
           39288     69.6314E+06     29.4415E+06              0.     2.22946E+06
           39289     69.6721E+06     29.3631E+06              0.     2.23620E+06
           39290     69.7130E+06     29.2863E+06              0.     2.24671E+06
           39291     69.7541E+06     29.2111E+06              0.     2.26090E+06
           39292     69.7955E+06     29.1373E+06              0.     2.27871E+06
           39293     69.8373E+06     29.0650E+06              0.     2.30006E+06
           39294     69.8796E+06     28.9939E+06              0.     2.32490E+06
           39295     69.9224E+06     28.9241E+06              0.     2.35316E+06
           39296     69.9658E+06     28.8553E+06              0.     2.38479E+06
           39297     70.0098E+06     28.7876E+06              0.     2.41973E+06
           39298     70.0545E+06     28.7209E+06              0.     2.45795E+06
           39299        70.1E+06     28.6550E+06              0.     2.49940E+06
           39300     70.1463E+06     28.5900E+06              0.     2.54403E+06
           39301     70.1935E+06     28.5257E+06              0.     2.59182E+06
           39302     70.2416E+06     28.4620E+06              0.     2.64274E+06
           39303     70.2907E+06     28.3989E+06              0.     2.69674E+06
           39304     70.3408E+06     28.3364E+06              0.     2.75382E+06
           39305     70.3921E+06     28.2743E+06              0.     2.81395E+06
           39306     70.4446E+06     28.2126E+06              0.     2.87710E+06
           39307     70.4982E+06     28.1513E+06              0.     2.94328E+06
           39308     70.5531E+06     28.0902E+06              0.     3.01245E+06
           39309     70.6094E+06     28.0293E+06              0.     3.08462E+06
           39310     70.6670E+06     27.9686E+06              0.     3.15977E+06
           39311     70.7261E+06     27.9080E+06              0.     3.23792E+06
           39312     70.7867E+06     27.8474E+06              0.     3.31904E+06
           39313     70.8488E+06     27.7868E+06              0.     3.40316E+06
           39314     70.9125E+06     27.7261E+06              0.     3.49026E+06
           39315     70.9780E+06     27.6653E+06              0.     3.58037E+06
           39316     71.0451E+06     27.6043E+06              0.     3.67349E+06
           39317     71.1140E+06     27.5432E+06              0.     3.76963E+06
           39318     71.1847E+06     27.4817E+06              0.     3.86881E+06
           39319     71.2573E+06     27.4200E+06              0.     3.97106E+06
           39320     71.3319E+06     27.3579E+06              0.     4.07638E+06
           39321     71.4084E+06     27.2953E+06              0.     4.18480E+06
           39322     71.4870E+06     27.2324E+06              0.     4.29635E+06
           39323     71.5678E+06     27.1689E+06              0.     4.41106E+06
           39324     71.6507E+06     27.1049E+06              0.     4.52896E+06
           39325     71.7358E+06     27.0403E+06              0.     4.65007E+06
           39326     71.8233E+06     26.9751E+06              0.     4.77443E+06
           39327     71.9131E+06     26.9093E+06              0.     4.90209E+06
           39328     72.0053E+06     26.8428E+06              0.     5.03308E+06
           39329     72.1000E+06     26.7755E+06              0.     5.16743E+06
           39330     72.1972E+06     26.7074E+06              0.     5.30520E+06
           39331     72.2971E+06     26.6386E+06              0.     5.44644E+06
           39332     72.3996E+06     26.5689E+06              0.     5.59117E+06
           39333     72.5048E+06     26.4983E+06              0.     5.73947E+06
           39334     72.6129E+06     26.4268E+06              0.     5.89138E+06
           39335     72.7238E+06     26.3543E+06              0.     6.04695E+06
           39336     72.8376E+06     26.2809E+06              0.     6.20625E+06
           39337     72.9545E+06     26.2065E+06              0.     6.36932E+06
           39338     73.0744E+06     26.1310E+06              0.     6.53623E+06
           39339     73.1975E+06     26.0544E+06              0.     6.70704E+06
           39340     73.3239E+06     25.9767E+06              0.     6.88182E+06
           39341     73.4534E+06     25.8979E+06              0.     7.06063E+06
           39342     73.5864E+06     25.8179E+06              0.     7.24354E+06
           39343     73.7228E+06     25.7367E+06              0.     7.43062E+06
           39344     73.8628E+06     25.6543E+06              0.     7.62195E+06
           39345     74.0063E+06     25.5707E+06              0.     7.81759E+06
           39346     74.1535E+06     25.4858E+06              0.     8.01763E+06
           39347     74.3045E+06     25.3996E+06              0.     8.22214E+06
           39348     74.4593E+06     25.3120E+06              0.     8.43120E+06
           39349     74.6181E+06     25.2231E+06              0.     8.64490E+06
           39350     74.7808E+06     25.1329E+06              0.     8.86331E+06
           39351     74.9477E+06     25.0413E+06              0.     9.08653E+06
           39352     75.1188E+06     24.9482E+06              0.     9.31465E+06
           39353     75.2941E+06     24.8537E+06              0.     9.54774E+06
           39354     75.4738E+06     24.7578E+06              0.     9.78592E+06
           39355     75.6579E+06     24.6604E+06              0.     10.0293E+06
           39356     75.8466E+06     24.5616E+06              0.     10.2779E+06
           39357     76.0400E+06     24.4612E+06              0.     10.5318E+06
           39358     76.2380E+06     24.3593E+06              0.     10.7913E+06
           39359     76.4410E+06     24.2560E+06              0.     11.0563E+06
           39360     76.6489E+06     24.1510E+06              0.     11.3269E+06
           39361     76.8618E+06     24.0446E+06              0.     11.6034E+06
           39362     77.0798E+06     23.9366E+06              0.     11.8857E+06
           39363     77.3032E+06     23.8271E+06              0.     12.1740E+06
           39364     77.5318E+06     23.7160E+06              0.     12.4684E+06
           39365     77.7660E+06     23.6033E+06              0.     12.7691E+06
           39366     78.0057E+06     23.4891E+06              0.     13.0760E+06
           39367     78.2511E+06     23.3733E+06              0.     13.3895E+06
           39368     78.5023E+06     23.2560E+06              0.     13.7094E+06
           39369     78.7594E+06     23.1371E+06              0.     14.0361E+06
           39370     79.0225E+06     23.0166E+06              0.     14.3696E+06
           39371     79.2918E+06     22.8947E+06              0.     14.7100E+06
           39372     79.5673E+06     22.7712E+06              0.     15.0575E+06
           39373     79.8492E+06     22.6462E+06              0.     15.4122E+06
           39374     80.1376E+06     22.5197E+06              0.     15.7742E+06
           39375     80.4326E+06     22.3918E+06              0.     16.1437E+06
           39376     80.7344E+06     22.2624E+06              0.     16.5207E+06
           39377     81.0431E+06     22.1316E+06              0.     16.9055E+06
           39378     81.3587E+06     21.9994E+06              0.     17.2981E+06
           39379     81.6815E+06     21.8659E+06              0.     17.6988E+06
           39380     82.0115E+06     21.7310E+06              0.     18.1076E+06
           39381     82.3489E+06     21.5949E+06              0.     18.5247E+06
           39382     82.6938E+06     21.4575E+06              0.     18.9502E+06
           39383     83.0463E+06     21.3190E+06              0.     19.3843E+06
           39384     83.4066E+06     21.1794E+06              0.     19.8271E+06
           39385     83.7749E+06     21.0386E+06              0.     20.2788E+06
           39386     84.1511E+06     20.8969E+06              0.     20.7395E+06
           39387     84.5355E+06     20.7542E+06              0.     21.2094E+06
           39388     84.9283E+06     20.6107E+06              0.     21.6886E+06
           39389     85.3294E+06     20.4664E+06              0.     22.1774E+06
           39390     85.7391E+06     20.3214E+06              0.     22.6757E+06
           39391     86.1576E+06     20.1758E+06              0.     23.1839E+06
           39392     86.5848E+06     20.0296E+06              0.     23.7020E+06
           39393     87.0210E+06     19.8831E+06              0.     24.2303E+06
           39394     87.4663E+06     19.7363E+06              0.     24.7688E+06
           39395     87.9208E+06     19.5893E+06              0.     25.3178E+06
           39396     88.3847E+06     19.4423E+06              0.     25.8774E+06
           39397     88.8581E+06     19.2954E+06              0.     26.4478E+06
           39398     89.3410E+06     19.1487E+06              0.     27.0291E+06
           39399     89.8336E+06     19.0024E+06              0.     27.6215E+06
           39400     90.3361E+06     18.8566E+06              0.     28.2252E+06
           39401     90.8485E+06     18.7115E+06              0.     28.8403E+06
           39402     91.3710E+06     18.5674E+06              0.     29.4670E+06
           39403     91.9036E+06     18.4244E+06              0.     30.1055E+06
           39404     92.4465E+06     18.2826E+06              0.     30.7558E+06
           39405     92.9997E+06     18.1424E+06              0.     31.4183E+06
           39406     93.5634E+06     18.0039E+06              0.     32.0930E+06
           39407     94.1376E+06     17.8673E+06              0.     32.7801E+06
           39408     94.7224E+06     17.7330E+06              0.     33.4798E+06
           39409     95.3178E+06     17.6012E+06              0.     34.1921E+06
           39410     95.9240E+06     17.4722E+06              0.     34.9174E+06
           39411     96.5410E+06     17.3463E+06              0.     35.6557E+06
           39412     97.1688E+06     17.2237E+06              0.     36.4072E+06
           39413     97.8074E+06     17.1048E+06              0.     37.1719E+06
           39414     98.4569E+06     16.9900E+06              0.     37.9502E+06
           39415     99.1173E+06     16.8796E+06              0.     38.7420E+06
           39416     99.7885E+06     16.7740E+06              0.     39.5476E+06
           39417     100.470E+06     16.6736E+06              0.     40.3670E+06
           39418     101.163E+06     16.5787E+06              0.     41.2003E+06
           39419     101.867E+06     16.4900E+06              0.     42.0478E+06
           39420     102.581E+06     16.4077E+06              0.     42.9094E+06
           39421     103.305E+06     16.3323E+06              0.     43.7852E+06
           39422     104.040E+06     16.2645E+06              0.     44.6755E+06
           39423     104.786E+06     16.2047E+06              0.     45.5801E+06
           39424     105.541E+06     16.1534E+06              0.     46.4992E+06
           39425     106.306E+06     16.1112E+06              0.     47.4329E+06
           39426     107.081E+06     16.0788E+06              0.     48.3811E+06
           39427     107.864E+06     16.0567E+06              0.     49.3438E+06
           39428     108.657E+06     16.0456E+06              0.     50.3211E+06
           39429     109.459E+06     16.0462E+06              0.     51.3129E+06
           39430     110.269E+06     16.0591E+06              0.     52.3192E+06
           39431     111.086E+06     16.0852E+06              0.     53.3398E+06
           39432     111.911E+06     16.1252E+06              0.     54.3748E+06
           39433     112.743E+06     16.1798E+06              0.     55.4238E+06
           39434     113.580E+06     16.2500E+06              0.     56.4869E+06
           39435     114.424E+06     16.3365E+06              0.     57.5637E+06
           39436     115.272E+06     16.4402E+06              0.     58.6541E+06
           39437     116.124E+06     16.5622E+06              0.     59.7577E+06
           39438     116.979E+06     16.7032E+06              0.     60.8742E+06
           39439     117.836E+06     16.8643E+06              0.     62.0032E+06
           39440     118.694E+06     17.0464E+06              0.     63.1443E+06
           39441     119.553E+06     17.2507E+06              0.     64.2969E+06
           39442     120.410E+06     17.4782E+06              0.     65.4605E+06
           39443     121.265E+06     17.7299E+06              0.     66.6345E+06
           39444     122.115E+06     18.0069E+06              0.     67.8180E+06
           39445     122.961E+06     18.3105E+06              0.     69.0103E+06
           39446     123.799E+06     18.6417E+06              0.     70.2105E+06
           39447     124.629E+06     19.0016E+06              0.     71.4175E+06
           39448     125.448E+06     19.3915E+06              0.     72.6302E+06
           39449     126.254E+06     19.8125E+06              0.     73.8473E+06
           39450     127.046E+06     20.2658E+06              0.     75.0674E+06
           39451     127.820E+06     20.7525E+06              0.     76.2890E+06
           39452     128.575E+06     21.2738E+06              0.     77.5105E+06
           39453     129.308E+06     21.8307E+06              0.     78.7298E+06
           39454     130.016E+06     22.4243E+06              0.     79.9450E+06
           39455     130.696E+06     23.0556E+06              0.     81.1537E+06
           39456     131.345E+06     23.7255E+06              0.     82.3536E+06
           39457     131.959E+06     24.4350E+06              0.     83.5420E+06
           39458     132.537E+06     25.1847E+06              0.     84.7158E+06
           39459     133.072E+06     25.9752E+06              0.     85.8719E+06
           39460     133.563E+06     26.8069E+06              0.     87.0068E+06
           39461     134.005E+06     27.6803E+06              0.     88.1167E+06
           39462     134.394E+06     28.5953E+06              0.     89.1975E+06
           39463     134.726E+06     29.5517E+06              0.     90.2448E+06
           39464     134.996E+06     30.5492E+06              0.     91.2539E+06
           39465     135.200E+06     31.5869E+06              0.     92.2197E+06
           39466     135.333E+06     32.6637E+06              0.     93.1366E+06
           39467     135.391E+06     33.7781E+06              0.     93.9989E+06
           39468     135.369E+06      34.928E+06              0.     94.8003E+06
           39469     135.262E+06     36.1110E+06              0.     95.5342E+06
           39470     135.066E+06     37.3241E+06              0.     96.1937E+06
           39471     134.776E+06     38.5636E+06              0.     96.7714E+06
           39472     134.388E+06     39.8251E+06              0.     97.2598E+06
           39473     133.898E+06     41.1036E+06              0.     97.6507E+06
           39474     133.301E+06     42.3934E+06              0.     97.9361E+06
           39475     132.594E+06     43.6877E+06              0.     98.1073E+06
           39476     131.774E+06     44.9791E+06              0.     98.1558E+06
           39477     130.838E+06     46.2592E+06              0.     98.0729E+06
           39478     129.783E+06     47.5188E+06              0.     97.8497E+06
           39479     128.608E+06     48.7475E+06              0.     97.4776E+06
           39480     127.313E+06     49.9344E+06              0.     96.9481E+06
           39481     125.896E+06     51.0673E+06              0.     96.2529E+06
           39482     124.358E+06     52.1335E+06              0.     95.3844E+06
           39483     122.700E+06     53.1191E+06              0.     94.3352E+06
           39484     120.924E+06     54.0100E+06              0.     93.0989E+06
           39485     119.034E+06     54.7911E+06              0.     91.6697E+06
           39486     117.033E+06     55.4472E+06              0.     90.0428E+06
           39487     114.925E+06     55.9627E+06              0.     88.2145E+06
           39488     112.715E+06     56.3217E+06              0.     86.1823E+06
           39489     110.410E+06     56.5088E+06              0.     83.9450E+06
           39490     108.016E+06     56.5088E+06              0.     81.5026E+06
           39491     105.540E+06     56.3070E+06              0.     78.8566E+06
           39492     102.989E+06     55.8894E+06              0.     76.0100E+06
           39493     100.368E+06     55.2420E+06              0.     72.9671E+06
           39494     99.0361E+06     53.8364E+06              0.     72.1020E+06
           39495     69.3650E+06     30.4036E+06              0.     2.31439E+06
           39496     69.3535E+06     30.2737E+06              0.     2.31032E+06
           39497     69.3978E+06     30.1707E+06              0.     2.27945E+06
           39498     69.4416E+06     30.0705E+06              0.     2.25320E+06
           39499     69.4849E+06     29.9730E+06              0.     2.23143E+06
           39500     69.5279E+06     29.8780E+06              0.     2.21403E+06
           39501     69.5706E+06     29.7855E+06              0.     2.20088E+06
           39502     69.6132E+06     29.6953E+06              0.     2.19187E+06
           39503     69.6556E+06     29.6073E+06              0.     2.18691E+06
           39504      69.698E+06     29.5214E+06              0.     2.18591E+06
           39505     69.7404E+06     29.4374E+06              0.     2.18876E+06
           39506     69.7830E+06     29.3553E+06              0.     2.19539E+06
           39507     69.8258E+06     29.2749E+06              0.     2.20571E+06
           39508     69.8688E+06     29.1961E+06              0.     2.21965E+06
           39509     69.9122E+06     29.1189E+06              0.     2.23714E+06
           39510     69.9560E+06     29.0432E+06              0.     2.25811E+06
           39511     70.0002E+06     28.9688E+06              0.     2.28250E+06
           39512     70.0450E+06     28.8957E+06              0.     2.31025E+06
           39513     70.0904E+06     28.8237E+06              0.     2.34131E+06
           39514     70.1365E+06     28.7528E+06              0.     2.37562E+06
           39515     70.1833E+06     28.6830E+06              0.     2.41315E+06
           39516     70.2309E+06     28.6140E+06              0.     2.45385E+06
           39517     70.2794E+06     28.5459E+06              0.     2.49768E+06
           39518     70.3288E+06     28.4785E+06              0.     2.54461E+06
           39519     70.3792E+06     28.4119E+06              0.     2.59461E+06
           39520     70.4306E+06     28.3459E+06              0.     2.64764E+06
           39521     70.4831E+06     28.2804E+06              0.     2.70369E+06
           39522     70.5368E+06     28.2154E+06              0.     2.76273E+06
           39523     70.5917E+06     28.1508E+06              0.     2.82475E+06
           39524     70.6479E+06     28.0865E+06              0.     2.88973E+06
           39525     70.7054E+06     28.0225E+06              0.     2.95766E+06
           39526     70.7643E+06     27.9588E+06              0.     3.02852E+06
           39527     70.8246E+06     27.8952E+06              0.     3.10233E+06
           39528     70.8865E+06     27.8317E+06              0.     3.17906E+06
           39529     70.9499E+06     27.7682E+06              0.     3.25873E+06
           39530     71.0150E+06     27.7047E+06              0.     3.34133E+06
           39531     71.0817E+06     27.6412E+06              0.     3.42687E+06
           39532     71.1502E+06     27.5775E+06              0.     3.51536E+06
           39533     71.2205E+06     27.5136E+06              0.     3.60680E+06
           39534     71.2926E+06     27.4495E+06              0.     3.70122E+06
           39535     71.3667E+06     27.3852E+06              0.     3.79862E+06
           39536     71.4428E+06     27.3204E+06              0.     3.89903E+06
           39537     71.5208E+06     27.2554E+06              0.     4.00247E+06
           39538     71.6010E+06     27.1899E+06              0.     4.10895E+06
           39539     71.6834E+06     27.1239E+06              0.     4.21850E+06
           39540     71.7679E+06     27.0574E+06              0.     4.33116E+06
           39541     71.8547E+06     26.9903E+06              0.     4.44694E+06
           39542     71.9439E+06     26.9226E+06              0.     4.56589E+06
           39543     72.0355E+06     26.8543E+06              0.     4.68804E+06
           39544     72.1296E+06     26.7852E+06              0.     4.81342E+06
           39545     72.2262E+06     26.7155E+06              0.     4.94207E+06
           39546     72.3254E+06     26.6450E+06              0.     5.07403E+06
           39547     72.4272E+06     26.5736E+06              0.     5.20935E+06
           39548     72.5318E+06     26.5014E+06              0.     5.34808E+06
           39549     72.6392E+06     26.4283E+06              0.     5.49025E+06
           39550     72.7494E+06     26.3543E+06              0.     5.63591E+06
           39551     72.8626E+06     26.2793E+06              0.     5.78513E+06
           39552     72.9788E+06     26.2033E+06              0.     5.93795E+06
           39553     73.0981E+06     26.1263E+06              0.     6.09443E+06
           39554     73.2206E+06     26.0482E+06              0.     6.25462E+06
           39555     73.3462E+06     25.9690E+06              0.     6.41859E+06
           39556     73.4752E+06     25.8886E+06              0.     6.58639E+06
           39557     73.6075E+06     25.8071E+06              0.     6.75809E+06
           39558     73.7433E+06     25.7244E+06              0.     6.93376E+06
           39559     73.8827E+06     25.6405E+06              0.     7.11346E+06
           39560     74.0256E+06     25.5552E+06              0.     7.29727E+06
           39561     74.1723E+06     25.4687E+06              0.     7.48525E+06
           39562     74.3227E+06     25.3809E+06              0.     7.67747E+06
           39563     74.4770E+06     25.2918E+06              0.     7.87402E+06
           39564     74.6352E+06     25.2012E+06              0.     8.07497E+06
           39565     74.7975E+06     25.1093E+06              0.     8.28040E+06
           39566     74.9639E+06     25.0159E+06              0.     8.49038E+06
           39567     75.1345E+06     24.9211E+06              0.     8.70502E+06
           39568     75.3094E+06     24.8248E+06              0.     8.92438E+06
           39569     75.4888E+06     24.7271E+06              0.     9.14856E+06
           39570     75.6726E+06     24.6278E+06              0.     9.37764E+06
           39571     75.8610E+06     24.5269E+06              0.     9.61172E+06
           39572     76.0540E+06     24.4246E+06              0.     9.85090E+06
           39573     76.2519E+06     24.3206E+06              0.     10.0953E+06
           39574     76.4546E+06     24.2151E+06              0.     10.3449E+06
           39575     76.6624E+06     24.1080E+06              0.     10.5999E+06
           39576     76.8752E+06     23.9992E+06              0.     10.8604E+06
           39577     77.0932E+06     23.8888E+06              0.     11.1265E+06
           39578     77.3166E+06     23.7768E+06              0.     11.3983E+06
           39579     77.5453E+06     23.6631E+06              0.     11.6758E+06
           39580     77.7796E+06     23.5478E+06              0.     11.9593E+06
           39581     78.0195E+06     23.4308E+06              0.     12.2488E+06
           39582     78.2652E+06     23.3122E+06              0.     12.5444E+06
           39583     78.5167E+06     23.1918E+06              0.     12.8463E+06
           39584     78.7742E+06     23.0698E+06              0.     13.1545E+06
           39585     79.0379E+06     22.9462E+06              0.     13.4692E+06
           39586     79.3077E+06     22.8209E+06              0.     13.7905E+06
           39587     79.5839E+06     22.6939E+06              0.     14.1185E+06
           39588     79.8666E+06     22.5652E+06              0.     14.4534E+06
           39589     80.1559E+06     22.4350E+06              0.     14.7952E+06
           39590     80.4519E+06     22.3031E+06              0.     15.1441E+06
           39591     80.7548E+06     22.1696E+06              0.     15.5003E+06
           39592     81.0646E+06     22.0345E+06              0.     15.8638E+06
           39593     81.3816E+06     21.8978E+06              0.     16.2348E+06
           39594     81.7059E+06     21.7596E+06              0.     16.6135E+06
           39595     82.0375E+06     21.6198E+06              0.     16.9999E+06
           39596     82.3767E+06     21.4786E+06              0.     17.3943E+06
           39597     82.7235E+06     21.3360E+06              0.     17.7966E+06
           39598     83.0782E+06     21.1919E+06              0.     18.2072E+06
           39599     83.4408E+06     21.0465E+06              0.     18.6261E+06
           39600     83.8114E+06     20.8997E+06              0.     19.0535E+06
           39601     84.1903E+06     20.7517E+06              0.     19.4896E+06
           39602     84.5776E+06     20.6025E+06              0.     19.9344E+06
           39603     84.9734E+06     20.4521E+06              0.     20.3882E+06
           39604     85.3779E+06     20.3007E+06              0.     20.8510E+06
           39605     85.7912E+06     20.1483E+06              0.     21.3232E+06
           39606     86.2135E+06     19.9949E+06              0.     21.8047E+06
           39607     86.6448E+06     19.8407E+06              0.     22.2957E+06
           39608     87.0854E+06     19.6858E+06              0.     22.7965E+06
           39609     87.5354E+06     19.5302E+06              0.     23.3072E+06
           39610     87.9949E+06     19.3741E+06              0.     23.8280E+06
           39611     88.4642E+06     19.2175E+06              0.     24.3589E+06
           39612     88.9432E+06     19.0606E+06              0.     24.9002E+06
           39613     89.4323E+06     18.9035E+06              0.     25.4521E+06
           39614     89.9314E+06     18.7464E+06              0.     26.0147E+06
           39615     90.4408E+06     18.5894E+06              0.     26.5881E+06
           39616     90.9606E+06     18.4326E+06              0.     27.1726E+06
           39617     91.4909E+06     18.2762E+06              0.     27.7684E+06
           39618     92.0319E+06     18.1204E+06              0.     28.3755E+06
           39619     92.5837E+06     17.9654E+06              0.     28.9941E+06
           39620     93.1464E+06     17.8113E+06              0.     29.6245E+06
           39621     93.7201E+06     17.6584E+06              0.     30.2668E+06
           39622     94.3050E+06     17.5068E+06              0.     30.9212E+06
           39623     94.9011E+06     17.3569E+06              0.     31.5878E+06
           39624     95.5087E+06     17.2088E+06              0.     32.2668E+06
           39625     96.1277E+06     17.0628E+06              0.     32.9584E+06
           39626     96.7582E+06     16.9192E+06              0.     33.6627E+06
           39627     97.4004E+06     16.7783E+06              0.     34.3800E+06
           39628     98.0543E+06     16.6403E+06              0.     35.1103E+06
           39629     98.7200E+06     16.5056E+06              0.     35.8538E+06
           39630     99.3976E+06     16.3745E+06              0.     36.6107E+06
           39631     100.087E+06     16.2474E+06              0.     37.3812E+06
           39632     100.788E+06     16.1245E+06              0.     38.1654E+06
           39633     101.502E+06     16.0064E+06              0.     38.9634E+06
           39634     102.227E+06     15.8934E+06              0.     39.7754E+06
           39635     102.964E+06     15.7860E+06              0.     40.6015E+06
           39636     103.713E+06     15.6845E+06              0.     41.4419E+06
           39637     104.474E+06     15.5895E+06              0.     42.2966E+06
           39638     105.246E+06     15.5014E+06              0.     43.1658E+06
           39639     106.030E+06     15.4208E+06              0.     44.0496E+06
           39640     106.826E+06     15.3483E+06              0.     44.9481E+06
           39641     107.633E+06     15.2843E+06              0.     45.8614E+06
           39642     108.452E+06     15.2294E+06              0.     46.7895E+06
           39643     109.281E+06     15.1843E+06              0.     47.7326E+06
           39644     110.121E+06     15.1497E+06              0.     48.6906E+06
           39645     110.972E+06     15.1261E+06              0.     49.6635E+06
           39646     111.832E+06     15.1144E+06              0.     50.6514E+06
           39647     112.703E+06     15.1152E+06              0.     51.6544E+06
           39648     113.583E+06     15.1293E+06              0.     52.6722E+06
           39649     114.472E+06     15.1576E+06              0.     53.7049E+06
           39650     115.369E+06     15.2007E+06              0.     54.7524E+06
           39651     116.274E+06     15.2597E+06              0.     55.8146E+06
           39652     117.187E+06     15.3353E+06              0.     56.8913E+06
           39653     118.106E+06     15.4286E+06              0.     57.9823E+06
           39654     119.031E+06     15.5405E+06              0.     59.0873E+06
           39655     119.961E+06     15.6720E+06              0.     60.2063E+06
           39656     120.895E+06     15.8241E+06              0.     61.3387E+06
           39657     121.832E+06     15.9979E+06              0.     62.4842E+06
           39658     122.771E+06     16.1945E+06              0.     63.6424E+06
           39659     123.711E+06     16.4151E+06              0.     64.8127E+06
           39660     124.650E+06     16.6607E+06              0.     65.9947E+06
           39661     125.588E+06     16.9326E+06              0.     67.1876E+06
           39662     126.522E+06     17.2321E+06              0.     68.3907E+06
           39663     127.452E+06     17.5603E+06              0.     69.6032E+06
           39664     128.375E+06     17.9185E+06              0.     70.8240E+06
           39665     129.289E+06     18.3080E+06              0.     72.0523E+06
           39666     130.193E+06     18.7302E+06              0.     73.2868E+06
           39667     131.084E+06     19.1862E+06              0.     74.5263E+06
           39668     131.960E+06     19.6774E+06              0.     75.7692E+06
           39669     132.818E+06     20.2052E+06              0.     77.0139E+06
           39670     133.657E+06     20.7707E+06              0.     78.2587E+06
           39671     134.472E+06     21.3752E+06              0.     79.5017E+06
           39672     135.262E+06     22.0199E+06              0.     80.7406E+06
           39673     136.022E+06     22.7060E+06              0.     81.9731E+06
           39674     136.749E+06     23.4345E+06              0.     83.1965E+06
           39675     137.441E+06     24.2064E+06              0.      84.408E+06
           39676     138.092E+06     25.0225E+06              0.     85.6045E+06
           39677     138.700E+06     25.8835E+06              0.     86.7825E+06
           39678     139.260E+06     26.7901E+06              0.     87.9383E+06
           39679     139.767E+06     27.7425E+06              0.     89.0678E+06
           39680     140.218E+06     28.7409E+06              0.     90.1666E+06
           39681     140.607E+06     29.7851E+06              0.     91.2300E+06
           39682     140.929E+06     30.8746E+06              0.     92.2527E+06
           39683     141.181E+06     32.0087E+06              0.     93.2293E+06
           39684     141.356E+06     33.1860E+06              0.     94.1539E+06
           39685     141.450E+06     34.4048E+06              0.     95.0199E+06
           39686     141.458E+06     35.6631E+06              0.     95.8207E+06
           39687     141.373E+06     36.9579E+06              0.      96.549E+06
           39688     141.192E+06     38.2858E+06              0.     97.1973E+06
           39689     140.910E+06     39.6427E+06              0.     97.7575E+06
           39690     140.521E+06     41.0238E+06              0.     98.2213E+06
           39691     140.021E+06     42.4232E+06              0.     98.5799E+06
           39692     139.405E+06     43.8345E+06              0.     98.8244E+06
           39693     138.671E+06     45.2500E+06              0.     98.9455E+06
           39694     137.814E+06     46.6614E+06              0.     98.9339E+06
           39695     136.832E+06     48.0590E+06              0.     98.7801E+06
           39696     135.722E+06     49.4323E+06              0.     98.4747E+06
           39697     134.483E+06     50.7698E+06              0.     98.0085E+06
           39698     133.114E+06     52.0588E+06              0.     97.3724E+06
           39699     131.616E+06     53.2858E+06              0.     96.5578E+06
           39700     129.989E+06     54.4363E+06              0.     95.5568E+06
           39701     128.234E+06     55.4950E+06              0.     94.3620E+06
           39702     126.356E+06     56.4458E+06              0.     92.9670E+06
           39703     124.357E+06     57.2724E+06              0.     91.3664E+06
           39704     122.242E+06     57.9577E+06              0.     89.5559E+06
           39705     120.017E+06     58.4847E+06              0.     87.5327E+06
           39706     117.688E+06     58.8365E+06              0.     85.2951E+06
           39707     115.262E+06     58.9966E+06              0.     82.8430E+06
           39708     112.745E+06     58.9489E+06              0.     80.1778E+06
           39709     110.148E+06     58.6786E+06              0.     77.3025E+06
           39710     107.481E+06     58.1720E+06              0.     74.2215E+06
           39711     106.179E+06     56.8908E+06              0.     73.3739E+06
           39712     69.4555E+06     30.4419E+06              0.     2.26933E+06
           39713     69.4436E+06     30.3064E+06              0.     2.26534E+06
           39714     69.4898E+06     30.1988E+06              0.     2.23509E+06
           39715     69.5355E+06     30.0942E+06              0.     2.20935E+06
           39716     69.5807E+06     29.9924E+06              0.     2.18801E+06
           39717     69.6256E+06     29.8933E+06              0.     2.17095E+06
           39718     69.6702E+06     29.7967E+06              0.     2.15806E+06
           39719     69.7146E+06     29.7026E+06              0.     2.14923E+06
           39720     69.7588E+06     29.6107E+06              0.     2.14438E+06
           39721     69.8031E+06     29.5210E+06              0.     2.14339E+06
           39722     69.8474E+06     29.4333E+06              0.     2.14620E+06
           39723     69.8918E+06     29.3476E+06              0.     2.15270E+06
           39724     69.9365E+06     29.2637E+06              0.     2.16283E+06
           39725     69.9814E+06     29.1815E+06              0.     2.17650E+06
           39726     70.0267E+06     29.1009E+06              0.     2.19366E+06
           39727     70.0724E+06     29.0218E+06              0.     2.21423E+06
           39728     70.1186E+06     28.9441E+06              0.     2.23815E+06
           39729     70.1654E+06     28.8678E+06              0.     2.26537E+06
           39730     70.2128E+06     28.7927E+06              0.     2.29583E+06
           39731     70.2609E+06     28.7187E+06              0.     2.32949E+06
           39732     70.3097E+06     28.6457E+06              0.     2.36629E+06
           39733     70.3594E+06     28.5737E+06              0.     2.40621E+06
           39734     70.4100E+06     28.5026E+06              0.     2.44920E+06
           39735     70.4616E+06     28.4323E+06              0.     2.49523E+06
           39736     70.5142E+06     28.3627E+06              0.     2.54426E+06
           39737     70.5679E+06     28.2937E+06              0.     2.59627E+06
           39738     70.6227E+06     28.2254E+06              0.     2.65125E+06
           39739     70.6787E+06     28.1575E+06              0.     2.70915E+06
           39740     70.7361E+06     28.0900E+06              0.     2.76998E+06
           39741     70.7947E+06     28.0229E+06              0.     2.83371E+06
           39742     70.8548E+06     27.9561E+06              0.     2.90033E+06
           39743     70.9163E+06     27.8895E+06              0.     2.96984E+06
           39744     70.9793E+06     27.8231E+06              0.     3.04222E+06
           39745     71.0439E+06     27.7568E+06              0.     3.11748E+06
           39746     71.1101E+06     27.6905E+06              0.     3.19562E+06
           39747     71.1780E+06     27.6242E+06              0.     3.27664E+06
           39748     71.2478E+06     27.5578E+06              0.     3.36054E+06
           39749     71.3193E+06     27.4913E+06              0.     3.44733E+06
           39750     71.3927E+06     27.4246E+06              0.     3.53702E+06
           39751     71.4680E+06     27.3576E+06              0.     3.62963E+06
           39752     71.5454E+06     27.2904E+06              0.     3.72517E+06
           39753     71.6248E+06     27.2228E+06              0.     3.82366E+06
           39754     71.7063E+06     27.1548E+06              0.     3.92511E+06
           39755     71.7900E+06     27.0863E+06              0.     4.02956E+06
           39756     71.8760E+06     27.0174E+06              0.     4.13702E+06
           39757     71.9643E+06     26.9479E+06              0.     4.24753E+06
           39758     72.0550E+06     26.8778E+06              0.     4.36111E+06
           39759     72.1482E+06     26.8070E+06              0.     4.47779E+06
           39760     72.2438E+06     26.7356E+06              0.     4.59761E+06
           39761     72.3421E+06     26.6635E+06              0.     4.72060E+06
           39762     72.4430E+06     26.5906E+06              0.     4.84680E+06
           39763     72.5466E+06     26.5168E+06              0.     4.97626E+06
           39764     72.6530E+06     26.4422E+06              0.     5.10901E+06
           39765     72.7622E+06     26.3668E+06              0.     5.24510E+06
           39766     72.8744E+06     26.2903E+06              0.     5.38457E+06
           39767     72.9896E+06     26.2129E+06              0.     5.52748E+06
           39768     73.1078E+06     26.1345E+06              0.     5.67388E+06
           39769     73.2292E+06     26.0550E+06              0.     5.82381E+06
           39770     73.3538E+06     25.9745E+06              0.     5.97733E+06
           39771     73.4817E+06     25.8928E+06              0.     6.13450E+06
           39772     73.6130E+06     25.8099E+06              0.     6.29538E+06
           39773     73.7478E+06     25.7259E+06              0.     6.46002E+06
           39774     73.8860E+06     25.6406E+06              0.     6.62850E+06
           39775     74.0279E+06     25.5541E+06              0.     6.80087E+06
           39776     74.1735E+06     25.4662E+06              0.     6.97720E+06
           39777     74.3229E+06     25.3770E+06              0.     7.15756E+06
           39778     74.4762E+06     25.2865E+06              0.     7.34203E+06
           39779     74.6333E+06     25.1946E+06              0.     7.53066E+06
           39780     74.7946E+06     25.1013E+06              0.     7.72355E+06
           39781     74.9600E+06     25.0065E+06              0.     7.92075E+06
           39782     75.1296E+06     24.9102E+06              0.     8.12236E+06
           39783     75.3035E+06     24.8124E+06              0.     8.32845E+06
           39784     75.4818E+06     24.7131E+06              0.     8.53911E+06
           39785     75.6647E+06     24.6123E+06              0.     8.75442E+06
           39786     75.8521E+06     24.5099E+06              0.     8.97446E+06
           39787     76.0442E+06     24.4058E+06              0.     9.19932E+06
           39788     76.2412E+06     24.3002E+06              0.     9.42909E+06
           39789     76.4431E+06     24.1929E+06              0.     9.66388E+06
           39790     76.6499E+06     24.0840E+06              0.     9.90376E+06
           39791     76.8619E+06     23.9733E+06              0.     10.1488E+06
           39792     77.0792E+06     23.8610E+06              0.     10.3992E+06
           39793     77.3017E+06     23.7470E+06              0.     10.6550E+06
           39794     77.5297E+06     23.6312E+06              0.     10.9162E+06
           39795     77.7633E+06     23.5137E+06              0.     11.1831E+06
           39796     78.0026E+06     23.3944E+06              0.     11.4556E+06
           39797     78.2476E+06     23.2734E+06              0.     11.7340E+06
           39798     78.4986E+06     23.1507E+06              0.     12.0183E+06
           39799     78.7556E+06     23.0261E+06              0.     12.3086E+06
           39800     79.0188E+06     22.8998E+06              0.     12.6051E+06
           39801     79.2882E+06     22.7717E+06              0.     12.9078E+06
           39802     79.5641E+06     22.6418E+06              0.     13.2169E+06
           39803     79.8465E+06     22.5101E+06              0.     13.5325E+06
           39804     80.1356E+06     22.3766E+06              0.     13.8548E+06
           39805     80.4315E+06     22.2414E+06              0.     14.1837E+06
           39806     80.7343E+06     22.1044E+06              0.     14.5196E+06
           39807     81.0442E+06     21.9657E+06              0.     14.8624E+06
           39808     81.3614E+06     21.8253E+06              0.     15.2124E+06
           39809     81.6858E+06     21.6831E+06              0.     15.5696E+06
           39810     82.0178E+06     21.5392E+06              0.     15.9343E+06
           39811     82.3574E+06     21.3937E+06              0.     16.3064E+06
           39812     82.7048E+06     21.2465E+06              0.     16.6863E+06
           39813     83.0602E+06     21.0977E+06              0.     17.0739E+06
           39814     83.4236E+06     20.9474E+06              0.     17.4695E+06
           39815     83.7952E+06     20.7954E+06              0.     17.8732E+06
           39816     84.1753E+06     20.6420E+06              0.     18.2851E+06
           39817     84.5638E+06     20.4872E+06              0.     18.7054E+06
           39818     84.9611E+06     20.3309E+06              0.     19.1342E+06
           39819     85.3672E+06     20.1733E+06              0.     19.5717E+06
           39820     85.7823E+06     20.0144E+06              0.     20.0181E+06
           39821     86.2066E+06     19.8543E+06              0.     20.4734E+06
           39822     86.6402E+06     19.6931E+06              0.     20.9379E+06
           39823     87.0832E+06     19.5308E+06              0.     21.4117E+06
           39824     87.5360E+06     19.3675E+06              0.     21.8950E+06
           39825     87.9985E+06     19.2033E+06              0.     22.3879E+06
           39826     88.4709E+06     19.0383E+06              0.     22.8906E+06
           39827     88.9535E+06     18.8727E+06              0.     23.4032E+06
           39828     89.4464E+06     18.7064E+06              0.     23.9260E+06
           39829     89.9497E+06     18.5397E+06              0.     24.4591E+06
           39830     90.4636E+06     18.3727E+06              0.     25.0026E+06
           39831     90.9883E+06     18.2054E+06              0.     25.5568E+06
           39832     91.5239E+06     18.0381E+06              0.     26.1218E+06
           39833     92.0706E+06     17.8709E+06              0.     26.6978E+06
           39834     92.6285E+06     17.7040E+06              0.     27.2849E+06
           39835     93.1978E+06     17.5375E+06              0.     27.8833E+06
           39836     93.7786E+06     17.3716E+06              0.     28.4933E+06
           39837     94.3711E+06     17.2065E+06              0.     29.1149E+06
           39838     94.9754E+06     17.0425E+06              0.     29.7484E+06
           39839     95.5916E+06     16.8796E+06              0.     30.3939E+06
           39840     96.2200E+06     16.7183E+06              0.     31.0517E+06
           39841     96.8606E+06     16.5587E+06              0.     31.7218E+06
           39842     97.5135E+06     16.4010E+06              0.     32.4045E+06
           39843     98.1789E+06     16.2456E+06              0.     33.0999E+06
           39844     98.8568E+06     16.0927E+06              0.     33.8083E+06
           39845     99.5474E+06     15.9427E+06              0.     34.5297E+06
           39846     100.251E+06     15.7958E+06              0.     35.2645E+06
           39847     100.967E+06     15.6524E+06              0.     36.0126E+06
           39848     101.696E+06     15.5129E+06              0.     36.7744E+06
           39849     102.438E+06     15.3775E+06              0.     37.5499E+06
           39850     103.193E+06     15.2468E+06              0.     38.3394E+06
           39851     103.962E+06     15.1212E+06              0.      39.143E+06
           39852     104.743E+06     15.0009E+06              0.     39.9608E+06
           39853     105.537E+06     14.8867E+06              0.     40.7930E+06
           39854     106.345E+06     14.7788E+06              0.     41.6398E+06
           39855     107.165E+06     14.6778E+06              0.     42.5013E+06
           39856     107.999E+06     14.5842E+06              0.     43.3775E+06
           39857     108.845E+06     14.4987E+06              0.     44.2687E+06
           39858     109.704E+06     14.4217E+06              0.     45.1749E+06
           39859     110.576E+06     14.3539E+06              0.     46.0963E+06
           39860     111.460E+06     14.2959E+06              0.     47.0329E+06
           39861     112.356E+06     14.2483E+06              0.     47.9849E+06
           39862     113.264E+06     14.2120E+06              0.     48.9522E+06
           39863     114.185E+06     14.1875E+06              0.     49.9349E+06
           39864     115.116E+06     14.1758E+06              0.     50.9331E+06
           39865     116.059E+06     14.1774E+06              0.     51.9467E+06
           39866     117.012E+06     14.1934E+06              0.     52.9757E+06
           39867     117.976E+06     14.2245E+06              0.     54.0202E+06
           39868     118.949E+06     14.2717E+06              0.     55.0800E+06
           39869     119.931E+06     14.3359E+06              0.     56.1550E+06
           39870     120.922E+06     14.4180E+06              0.     57.2451E+06
           39871     121.921E+06     14.5192E+06              0.     58.3501E+06
           39872     122.926E+06     14.6403E+06              0.     59.4699E+06
           39873     123.938E+06     14.7826E+06              0.     60.6040E+06
           39874     124.955E+06     14.9472E+06              0.     61.7524E+06
           39875     125.976E+06     15.1352E+06              0.     62.9145E+06
           39876     127.000E+06     15.3478E+06              0.     64.0899E+06
           39877     128.026E+06     15.5863E+06              0.     65.2782E+06
           39878     129.052E+06     15.8520E+06              0.     66.4789E+06
           39879     130.077E+06     16.1461E+06              0.     67.6911E+06
           39880     131.100E+06     16.4701E+06              0.     68.9142E+06
           39881     132.118E+06     16.8252E+06              0.     70.1474E+06
           39882     133.130E+06     17.2130E+06              0.     71.3897E+06
           39883     134.134E+06     17.6348E+06              0.     72.6400E+06
           39884     135.127E+06     18.0921E+06              0.     73.8972E+06
           39885     136.108E+06     18.5863E+06              0.     75.1598E+06
           39886     137.073E+06     19.1188E+06              0.     76.4265E+06
           39887     138.021E+06     19.6912E+06              0.     77.6955E+06
           39888     138.948E+06     20.3049E+06              0.     78.9649E+06
           39889     139.850E+06     20.9612E+06              0.     80.2328E+06
           39890     140.726E+06     21.6615E+06              0.     81.4968E+06
           39891     141.571E+06     22.4071E+06              0.     82.7544E+06
           39892     142.382E+06     23.1992E+06              0.     84.0028E+06
           39893     143.155E+06     24.0390E+06              0.     85.2391E+06
           39894     143.885E+06     24.9274E+06              0.     86.4598E+06
           39895     144.569E+06     25.8652E+06              0.     87.6613E+06
           39896     145.201E+06     26.8532E+06              0.     88.8395E+06
           39897     145.777E+06     27.8917E+06              0.     89.9901E+06
           39898     146.292E+06     28.9808E+06              0.     91.1084E+06
           39899     146.742E+06     30.1206E+06              0.     92.1890E+06
           39900     147.119E+06     31.3103E+06              0.     93.2265E+06
           39901     147.420E+06     32.5493E+06              0.     94.2149E+06
           39902     147.638E+06     33.8360E+06              0.     95.1475E+06
           39903     147.769E+06     35.1686E+06              0.     96.0175E+06
           39904     147.805E+06     36.5446E+06              0.     96.8174E+06
           39905     147.743E+06     37.9608E+06              0.     97.5394E+06
           39906     147.575E+06     39.4134E+06              0.     98.1751E+06
           39907     147.297E+06     40.8977E+06              0.     98.7157E+06
           39908     146.903E+06     42.4081E+06              0.      99.152E+06
           39909     146.389E+06     43.9382E+06              0.     99.4745E+06
           39910     145.749E+06     45.4803E+06              0.     99.6734E+06
           39911     144.981E+06     47.0259E+06              0.     99.7387E+06
           39912     144.080E+06     48.5653E+06              0.     99.6600E+06
           39913     143.044E+06     50.0876E+06              0.     99.4273E+06
           39914     141.870E+06     51.5808E+06              0.     99.0304E+06
           39915     140.557E+06     53.0318E+06              0.     98.4594E+06
           39916     139.106E+06     54.4261E+06              0.     97.7049E+06
           39917     137.515E+06     55.7485E+06              0.     96.7579E+06
           39918     135.788E+06     56.9826E+06              0.     95.6103E+06
           39919     133.927E+06     58.1113E+06              0.     94.2548E+06
           39920     131.934E+06     59.1167E+06              0.     92.6854E+06
           39921     129.817E+06     59.9805E+06              0.     90.8970E+06
           39922     127.578E+06     60.6842E+06              0.     88.8863E+06
           39923     125.227E+06     61.2093E+06              0.     86.6514E+06
           39924     122.769E+06     61.5376E+06              0.     84.1919E+06
           39925     120.212E+06     61.6517E+06              0.     81.5092E+06
           39926     117.564E+06     61.5347E+06              0.     78.6064E+06
           39927     114.834E+06     61.1712E+06              0.     75.4885E+06
           39928     113.545E+06     60.0087E+06              0.     74.6588E+06
           39929     69.5443E+06     30.4795E+06              0.     2.22235E+06
           39930     69.5318E+06     30.3383E+06              0.     2.21845E+06
           39931     69.5799E+06     30.2263E+06              0.     2.18882E+06
           39932     69.6275E+06     30.1174E+06              0.     2.16362E+06
           39933     69.6746E+06     30.0115E+06              0.     2.14272E+06
           39934     69.7213E+06     29.9083E+06              0.     2.12602E+06
           39935     69.7677E+06     29.8077E+06              0.     2.11340E+06
           39936     69.8139E+06     29.7097E+06              0.     2.10476E+06
           39937     69.8600E+06      29.614E+06              0.     2.10001E+06
           39938     69.9061E+06     29.5206E+06              0.     2.09905E+06
           39939     69.9522E+06     29.4293E+06              0.     2.10180E+06
           39940     69.9985E+06     29.3400E+06              0.     2.10818E+06
           39941     70.0450E+06     29.2527E+06              0.     2.11810E+06
           39942     70.0917E+06     29.1671E+06              0.     2.13150E+06
           39943     70.1389E+06     29.0832E+06              0.     2.14831E+06
           39944     70.1865E+06     29.0008E+06              0.     2.16846E+06
           39945     70.2346E+06     28.9200E+06              0.     2.19189E+06
           39946     70.2833E+06     28.8405E+06              0.     2.21855E+06
           39947     70.3326E+06     28.7622E+06              0.     2.24839E+06
           39948     70.3827E+06     28.6852E+06              0.     2.28136E+06
           39949     70.4336E+06     28.6092E+06              0.     2.31741E+06
           39950     70.4854E+06     28.5342E+06              0.     2.35651E+06
           39951     70.5380E+06     28.4602E+06              0.     2.39862E+06
           39952     70.5917E+06     28.3870E+06              0.     2.44371E+06
           39953     70.6465E+06     28.3145E+06              0.     2.49174E+06
           39954     70.7024E+06     28.2427E+06              0.     2.54269E+06
           39955     70.7595E+06     28.1715E+06              0.     2.59653E+06
           39956     70.8179E+06     28.1008E+06              0.     2.65325E+06
           39957     70.8776E+06     28.0305E+06              0.     2.71284E+06
           39958     70.9386E+06     27.9606E+06              0.     2.77526E+06
           39959     71.0012E+06     27.8910E+06              0.     2.84052E+06
           39960     71.0652E+06     27.8217E+06              0.     2.90861E+06
           39961     71.1309E+06     27.7525E+06              0.     2.97951E+06
           39962     71.1981E+06     27.6834E+06              0.     3.05323E+06
           39963     71.2671E+06     27.6143E+06              0.     3.12977E+06
           39964     71.3379E+06     27.5453E+06              0.     3.20914E+06
           39965     71.4105E+06     27.4761E+06              0.     3.29132E+06
           39966     71.4850E+06     27.4068E+06              0.     3.37634E+06
           39967     71.5614E+06     27.3373E+06              0.     3.46421E+06
           39968     71.6399E+06     27.2675E+06              0.     3.55493E+06
           39969     71.7204E+06     27.1975E+06              0.     3.64852E+06
           39970     71.8032E+06     27.1270E+06              0.     3.74500E+06
           39971     71.8881E+06     27.0562E+06              0.     3.84439E+06
           39972     71.9753E+06     26.9848E+06              0.     3.94671E+06
           39973     72.0649E+06     26.9130E+06              0.     4.05198E+06
           39974     72.1569E+06     26.8405E+06              0.     4.16024E+06
           39975     72.2514E+06     26.7675E+06              0.     4.27151E+06
           39976     72.3484E+06     26.6938E+06              0.     4.38582E+06
           39977     72.4480E+06     26.6193E+06              0.     4.50321E+06
           39978     72.5504E+06     26.5441E+06              0.     4.62371E+06
           39979     72.6555E+06     26.4681E+06              0.     4.74735E+06
           39980     72.7634E+06     26.3912E+06              0.     4.87419E+06
           39981     72.8743E+06     26.3135E+06              0.     5.00425E+06
           39982     72.9881E+06     26.2347E+06              0.     5.13759E+06
           39983     73.1050E+06     26.1551E+06              0.     5.27425E+06
           39984     73.2249E+06     26.0743E+06              0.     5.41427E+06
           39985     73.3482E+06     25.9926E+06              0.     5.55771E+06
           39986     73.4746E+06     25.9097E+06              0.     5.70462E+06
           39987     73.6045E+06     25.8256E+06              0.     5.85505E+06
           39988     73.7378E+06     25.7404E+06              0.     6.00906E+06
           39989     73.8746E+06      25.654E+06              0.     6.16670E+06
           39990     74.0150E+06     25.5663E+06              0.     6.32805E+06
           39991     74.1591E+06     25.4773E+06              0.     6.49314E+06
           39992     74.3070E+06     25.3870E+06              0.     6.66206E+06
           39993     74.4587E+06     25.2954E+06              0.     6.83487E+06
           39994     74.6144E+06     25.2023E+06              0.     7.01163E+06
           39995     74.7741E+06     25.1078E+06              0.     7.19241E+06
           39996     74.9380E+06     25.0119E+06              0.     7.37728E+06
           39997     75.1060E+06     24.9144E+06              0.     7.56633E+06
           39998     75.2784E+06     24.8155E+06              0.     7.75962E+06
           39999     75.4552E+06     24.7150E+06              0.     7.95723E+06
           40000     75.6365E+06     24.6129E+06              0.     8.15923E+06
           40001     75.8224E+06     24.5092E+06              0.     8.36572E+06
           40002     76.0130E+06     24.4038E+06              0.     8.57677E+06
           40003     76.2084E+06     24.2968E+06              0.     8.79248E+06
           40004     76.4088E+06     24.1882E+06              0.     9.01291E+06
           40005     76.6141E+06     24.0778E+06              0.     9.23817E+06
           40006     76.8246E+06     23.9657E+06              0.     9.46835E+06
           40007     77.0403E+06     23.8518E+06              0.     9.70353E+06
           40008     77.2614E+06     23.7362E+06              0.     9.94382E+06
           40009     77.4880E+06     23.6187E+06              0.     10.1893E+06
           40010     77.7201E+06     23.4995E+06              0.     10.4401E+06
           40011     77.9579E+06     23.3784E+06              0.     10.6963E+06
           40012     78.2016E+06     23.2555E+06              0.     10.9579E+06
           40013     78.4512E+06     23.1308E+06              0.     11.2252E+06
           40014     78.7068E+06     23.0042E+06              0.     11.4982E+06
           40015     78.9686E+06     22.8757E+06              0.     11.7771E+06
           40016     79.2368E+06     22.7454E+06              0.     12.0618E+06
           40017     79.5114E+06     22.6131E+06              0.     12.3526E+06
           40018     79.7926E+06     22.4790E+06              0.     12.6496E+06
           40019     80.0805E+06     22.3429E+06              0.     12.9528E+06
           40020     80.3753E+06     22.2050E+06              0.     13.2624E+06
           40021     80.6770E+06     22.0652E+06              0.     13.5786E+06
           40022     80.9859E+06     21.9235E+06              0.     13.9013E+06
           40023     81.3021E+06     21.7799E+06              0.     14.2309E+06
           40024     81.6257E+06     21.6345E+06              0.     14.5673E+06
           40025     81.9568E+06     21.4872E+06              0.     14.9108E+06
           40026     82.2957E+06     21.3381E+06              0.     15.2614E+06
           40027     82.6424E+06     21.1871E+06              0.     15.6192E+06
           40028     82.9971E+06     21.0344E+06              0.     15.9845E+06
           40029     83.3600E+06     20.8798E+06              0.     16.3574E+06
           40030     83.7313E+06     20.7236E+06              0.     16.7379E+06
           40031     84.1110E+06     20.5656E+06              0.     17.1263E+06
           40032     84.4994E+06     20.4060E+06              0.     17.5227E+06
           40033     84.8966E+06     20.2447E+06              0.     17.9272E+06
           40034     85.3028E+06     20.0818E+06              0.     18.3399E+06
           40035     85.7182E+06     19.9174E+06              0.     18.7611E+06
           40036     86.1428E+06     19.7515E+06              0.     19.1909E+06
           40037     86.5769E+06     19.5842E+06              0.     19.6294E+06
           40038     87.0207E+06     19.4155E+06              0.     20.0767E+06
           40039     87.4743E+06     19.2456E+06              0.     20.5331E+06
           40040     87.9379E+06     19.0744E+06              0.     20.9987E+06
           40041     88.4117E+06     18.9021E+06              0.     21.4737E+06
           40042     88.8958E+06     18.7288E+06              0.     21.9582E+06
           40043     89.3905E+06     18.5545E+06              0.     22.4524E+06
           40044     89.8958E+06     18.3794E+06              0.     22.9564E+06
           40045     90.4120E+06     18.2036E+06              0.     23.4704E+06
           40046     90.9393E+06     18.0271E+06              0.     23.9947E+06
           40047     91.4778E+06     17.8502E+06              0.     24.5293E+06
           40048     92.0277E+06     17.6729E+06              0.     25.0745E+06
           40049     92.5892E+06     17.4954E+06              0.     25.6304E+06
           40050     93.1624E+06     17.3179E+06              0.     26.1971E+06
           40051     93.7475E+06     17.1405E+06              0.      26.775E+06
           40052     94.3448E+06     16.9633E+06              0.     27.3641E+06
           40053     94.9543E+06     16.7867E+06              0.     27.9646E+06
           40054     95.5763E+06     16.6107E+06              0.     28.5768E+06
           40055     96.2109E+06     16.4355E+06              0.     29.2008E+06
           40056     96.8582E+06     16.2615E+06              0.     29.8367E+06
           40057     97.5184E+06     16.0888E+06              0.     30.4848E+06
           40058     98.1918E+06     15.9176E+06              0.     31.1453E+06
           40059     98.8783E+06     15.7483E+06              0.     31.8183E+06
           40060     99.5782E+06     15.5811E+06              0.     32.5040E+06
           40061     100.292E+06     15.4163E+06              0.     33.2026E+06
           40062     101.019E+06     15.2542E+06              0.     33.9143E+06
           40063     101.759E+06     15.0951E+06              0.     34.6394E+06
           40064     102.514E+06     14.9394E+06              0.     35.3778E+06
           40065     103.283E+06     14.7874E+06              0.     36.1300E+06
           40066     104.065E+06     14.6395E+06              0.     36.8959E+06
           40067     104.862E+06     14.4962E+06              0.     37.6758E+06
           40068     105.673E+06     14.3577E+06              0.     38.4700E+06
           40069     106.499E+06     14.2247E+06              0.     39.2785E+06
           40070     107.338E+06     14.0974E+06              0.     40.1015E+06
           40071     108.192E+06     13.9765E+06              0.     40.9391E+06
           40072     109.060E+06     13.8625E+06              0.     41.7917E+06
           40073     109.943E+06     13.7558E+06              0.     42.6592E+06
           40074     110.839E+06     13.6570E+06              0.     43.5419E+06
           40075     111.750E+06     13.5668E+06              0.     44.4398E+06
           40076     112.675E+06     13.4858E+06              0.     45.3532E+06
           40077     113.614E+06     13.4146E+06              0.     46.2821E+06
           40078     114.567E+06     13.3539E+06              0.     47.2267E+06
           40079     115.533E+06     13.3044E+06              0.     48.1870E+06
           40080     116.513E+06     13.2668E+06              0.     49.1631E+06
           40081     117.505E+06     13.2420E+06              0.     50.1551E+06
           40082     118.511E+06     13.2308E+06              0.     51.1630E+06
           40083     119.529E+06     13.2341E+06              0.     52.1870E+06
           40084     120.559E+06     13.2526E+06              0.     53.2268E+06
           40085     121.601E+06     13.2875E+06              0.     54.2827E+06
           40086     122.653E+06     13.3396E+06              0.     55.3545E+06
           40087     123.717E+06     13.4099E+06              0.     56.4420E+06
           40088     124.790E+06     13.4996E+06              0.     57.5454E+06
           40089     125.872E+06     13.6097E+06              0.     58.6643E+06
           40090     126.962E+06     13.7413E+06              0.     59.7985E+06
           40091     128.060E+06     13.8957E+06              0.     60.9480E+06
           40092     129.164E+06     14.0742E+06              0.     62.1123E+06
           40093     130.273E+06     14.2779E+06              0.     63.2911E+06
           40094     131.387E+06     14.5082E+06              0.     64.4840E+06
           40095     132.503E+06     14.7664E+06              0.     65.6905E+06
           40096     133.621E+06     15.0541E+06              0.     66.9101E+06
           40097     134.738E+06     15.3725E+06              0.     68.1421E+06
           40098     135.854E+06     15.7233E+06              0.     69.3858E+06
           40099     136.966E+06     16.1078E+06              0.     70.6403E+06
           40100     138.072E+06     16.5278E+06              0.     71.9047E+06
           40101     139.171E+06     16.9847E+06              0.     73.1778E+06
           40102     140.259E+06     17.4802E+06              0.     74.4586E+06
           40103     141.334E+06     18.0159E+06              0.     75.7455E+06
           40104     142.395E+06     18.5934E+06              0.     77.0371E+06
           40105     143.436E+06     19.2143E+06              0.     78.3315E+06
           40106     144.457E+06     19.8803E+06              0.     79.6269E+06
           40107     145.453E+06     20.5928E+06              0.     80.9211E+06
           40108     146.420E+06     21.3535E+06              0.     82.2118E+06
           40109     147.355E+06     22.1638E+06              0.     83.4962E+06
           40110     148.255E+06     23.0252E+06              0.     84.7713E+06
           40111     149.113E+06     23.9387E+06              0.     86.0341E+06
           40112     149.927E+06     24.9057E+06              0.     87.2808E+06
           40113     150.691E+06     25.9271E+06              0.     88.5075E+06
           40114     151.400E+06     27.0036E+06              0.     89.7100E+06
           40115     152.049E+06     28.1358E+06              0.     90.8834E+06
           40116     152.632E+06     29.3238E+06              0.     92.0227E+06
           40117     153.144E+06     30.5675E+06              0.     93.1221E+06
           40118     153.579E+06     31.8665E+06              0.     94.1756E+06
           40119     153.931E+06     33.2196E+06              0.     95.1766E+06
           40120     154.194E+06     34.6254E+06              0.     96.1181E+06
           40121     154.361E+06     36.0818E+06              0.     96.9922E+06
           40122     154.426E+06     37.5859E+06              0.     97.7910E+06
           40123     154.383E+06     39.1342E+06              0.     98.5057E+06
           40124     154.226E+06     40.7222E+06              0.     99.1272E+06
           40125     153.949E+06     42.3445E+06              0.     99.6457E+06
           40126     153.547E+06     43.9949E+06              0.     100.051E+06
           40127     153.013E+06     45.6658E+06              0.     100.333E+06
           40128     152.344E+06     47.3486E+06              0.     100.481E+06
           40129     151.534E+06     49.0334E+06              0.     100.484E+06
           40130     150.581E+06     50.7092E+06              0.     100.330E+06
           40131     149.482E+06     52.3634E+06              0.     100.009E+06
           40132     148.234E+06     53.9822E+06              0.     99.5096E+06
           40133     146.837E+06     55.5507E+06              0.     98.8217E+06
           40134     145.291E+06     57.0524E+06              0.     97.9353E+06
           40135     143.598E+06     58.4701E+06              0.     96.8411E+06
           40136     141.759E+06     59.7852E+06              0.     95.5310E+06
           40137     139.778E+06     60.9785E+06              0.     93.9981E+06
           40138     137.661E+06     62.0301E+06              0.     92.2366E+06
           40139     135.413E+06     62.9199E+06              0.     90.2425E+06
           40140     133.041E+06     63.6276E+06              0.     88.0135E+06
           40141     130.553E+06     64.1333E+06              0.     85.5491E+06
           40142     127.957E+06     64.4176E+06              0.     82.8507E+06
           40143     125.261E+06     64.4621E+06              0.     79.9220E+06
           40144     122.475E+06     64.2501E+06              0.     76.7679E+06
           40145     121.213E+06     63.2197E+06              0.     75.9656E+06
           40146     69.6311E+06     30.5162E+06              0.     2.17347E+06
           40147     69.6182E+06     30.3696E+06              0.     2.16966E+06
           40148     69.6682E+06     30.2533E+06              0.     2.14068E+06
           40149     69.7176E+06     30.1402E+06              0.     2.11604E+06
           40150     69.7665E+06     30.0301E+06              0.     2.09561E+06
           40151     69.8150E+06     29.9229E+06              0.     2.07927E+06
           40152     69.8632E+06     29.8184E+06              0.     2.06694E+06
           40153     69.9112E+06     29.7166E+06              0.     2.05850E+06
           40154     69.9591E+06     29.6172E+06              0.     2.05385E+06
           40155     70.0069E+06     29.5202E+06              0.     2.05292E+06
           40156     70.0548E+06     29.4254E+06              0.     2.05562E+06
           40157     70.1029E+06     29.3327E+06              0.     2.06186E+06
           40158     70.1511E+06     29.2419E+06              0.     2.07157E+06
           40159     70.1997E+06     29.1530E+06              0.     2.08468E+06
           40160     70.2487E+06     29.0658E+06              0.     2.10112E+06
           40161     70.2981E+06     28.9803E+06              0.     2.12083E+06
           40162     70.3481E+06     28.8963E+06              0.     2.14376E+06
           40163     70.3987E+06     28.8137E+06              0.     2.16984E+06
           40164     70.4500E+06     28.7324E+06              0.     2.19903E+06
           40165     70.5020E+06     28.6524E+06              0.     2.23128E+06
           40166     70.5548E+06     28.5735E+06              0.     2.26655E+06
           40167     70.6086E+06     28.4956E+06              0.     2.30480E+06
           40168     70.6634E+06     28.4186E+06              0.     2.34599E+06
           40169     70.7191E+06     28.3426E+06              0.     2.39010E+06
           40170     70.7760E+06     28.2673E+06              0.     2.43708E+06
           40171     70.8341E+06     28.1927E+06              0.     2.48692E+06
           40172     70.8934E+06     28.1187E+06              0.     2.53960E+06
           40173     70.9540E+06     28.0452E+06              0.     2.59508E+06
           40174     71.0161E+06     27.9722E+06              0.     2.65337E+06
           40175     71.0795E+06     27.8996E+06              0.     2.71444E+06
           40176     71.1445E+06     27.8273E+06              0.     2.77828E+06
           40177     71.2110E+06     27.7552E+06              0.     2.84488E+06
           40178     71.2792E+06     27.6833E+06              0.     2.91424E+06
           40179     71.3491E+06     27.6115E+06              0.     2.98637E+06
           40180     71.4208E+06     27.5398E+06              0.     3.06124E+06
           40181     71.4943E+06     27.4680E+06              0.     3.13888E+06
           40182     71.5698E+06     27.3961E+06              0.     3.21928E+06
           40183     71.6472E+06     27.3241E+06              0.     3.30246E+06
           40184     71.7266E+06     27.2519E+06              0.     3.38841E+06
           40185     71.8081E+06     27.1794E+06              0.     3.47716E+06
           40186     71.8918E+06     27.1065E+06              0.     3.56872E+06
           40187     71.9778E+06     27.0333E+06              0.     3.66311E+06
           40188     72.0661E+06     26.9596E+06              0.     3.76035E+06
           40189     72.1567E+06     26.8855E+06              0.     3.86046E+06
           40190     72.2498E+06     26.8108E+06              0.     3.96345E+06
           40191     72.3454E+06     26.7355E+06              0.     4.06937E+06
           40192     72.4435E+06     26.6595E+06              0.     4.17823E+06
           40193     72.5444E+06     26.5829E+06              0.     4.29007E+06
           40194     72.6479E+06     26.5055E+06              0.     4.40493E+06
           40195     72.7543E+06     26.4272E+06              0.     4.52283E+06
           40196     72.8635E+06     26.3482E+06              0.     4.64380E+06
           40197     72.9757E+06     26.2682E+06              0.     4.76791E+06
           40198     73.0909E+06     26.1874E+06              0.     4.89517E+06
           40199     73.2092E+06     26.1055E+06              0.     5.02564E+06
           40200     73.3307E+06     26.0226E+06              0.     5.15935E+06
           40201     73.4554E+06     25.9386E+06              0.     5.29637E+06
           40202     73.5835E+06     25.8536E+06              0.     5.43673E+06
           40203     73.7150E+06     25.7673E+06              0.     5.58049E+06
           40204     73.8499E+06     25.6799E+06              0.     5.72769E+06
           40205     73.9885E+06     25.5912E+06              0.     5.87840E+06
           40206     74.1307E+06     25.5013E+06              0.     6.03268E+06
           40207     74.2767E+06     25.4101E+06              0.     6.19057E+06
           40208     74.4265E+06     25.3175E+06              0.     6.35214E+06
           40209     74.5802E+06     25.2235E+06              0.     6.51746E+06
           40210     74.7380E+06     25.1280E+06              0.     6.68658E+06
           40211     74.8998E+06     25.0312E+06              0.     6.85957E+06
           40212     75.0659E+06     24.9328E+06              0.     7.03651E+06
           40213     75.2362E+06     24.8329E+06              0.     7.21746E+06
           40214     75.4110E+06     24.7314E+06              0.     7.40250E+06
           40215     75.5902E+06     24.6284E+06              0.     7.59169E+06
           40216     75.7741E+06     24.5237E+06              0.     7.78512E+06
           40217     75.9626E+06     24.4174E+06              0.     7.98286E+06
           40218     76.1560E+06     24.3094E+06              0.     8.18500E+06
           40219     76.3542E+06     24.1996E+06              0.     8.39160E+06
           40220     76.5574E+06     24.0882E+06              0.     8.60277E+06
           40221     76.7658E+06     23.9749E+06              0.     8.81858E+06
           40222     76.9794E+06     23.8599E+06              0.     9.03911E+06
           40223     77.1984E+06     23.7430E+06              0.     9.26447E+06
           40224     77.4228E+06     23.6243E+06              0.     9.49474E+06
           40225     77.6528E+06     23.5038E+06              0.     9.73002E+06
           40226     77.8885E+06     23.3814E+06              0.     9.97039E+06
           40227     78.1300E+06     23.2570E+06              0.     10.2160E+06
           40228     78.3774E+06     23.1308E+06              0.     10.4668E+06
           40229     78.6309E+06     23.0026E+06              0.     10.7231E+06
           40230     78.8907E+06     22.8724E+06              0.     10.9849E+06
           40231     79.1567E+06     22.7403E+06              0.     11.2522E+06
           40232     79.4292E+06     22.6063E+06              0.     11.5253E+06
           40233     79.7083E+06     22.4702E+06              0.     11.8043E+06
           40234     79.9942E+06     22.3321E+06              0.     12.0891E+06
           40235     80.2869E+06     22.1921E+06              0.       12.38E+06
           40236     80.5866E+06     22.0500E+06              0.     12.6771E+06
           40237     80.8935E+06     21.9060E+06              0.     12.9804E+06
           40238     81.2077E+06     21.7599E+06              0.     13.2901E+06
           40239     81.5293E+06     21.6118E+06              0.     13.6064E+06
           40240     81.8586E+06     21.4618E+06              0.     13.9293E+06
           40241     82.1956E+06     21.3097E+06              0.     14.2590E+06
           40242     82.5405E+06     21.1557E+06              0.     14.5956E+06
           40243     82.8935E+06     20.9997E+06              0.     14.9392E+06
           40244     83.2547E+06     20.8418E+06              0.     15.2900E+06
           40245     83.6243E+06     20.6819E+06              0.     15.6481E+06
           40246     84.0025E+06     20.5202E+06              0.     16.0136E+06
           40247     84.3894E+06     20.3566E+06              0.     16.3867E+06
           40248     84.7852E+06     20.1911E+06              0.     16.7675E+06
           40249     85.1900E+06     20.0238E+06              0.     17.1561E+06
           40250     85.6042E+06     19.8548E+06              0.     17.5528E+06
           40251     86.0277E+06     19.6840E+06              0.     17.9576E+06
           40252     86.4608E+06     19.5116E+06              0.     18.3707E+06
           40253     86.9037E+06     19.3375E+06              0.     18.7922E+06
           40254     87.3565E+06     19.1619E+06              0.     19.2224E+06
           40255     87.8195E+06     18.9848E+06              0.     19.6613E+06
           40256     88.2928E+06     18.8062E+06              0.     20.1091E+06
           40257     88.7766E+06     18.6263E+06              0.     20.5660E+06
           40258     89.2712E+06     18.4451E+06              0.     21.0322E+06
           40259     89.7766E+06     18.2628E+06              0.     21.5077E+06
           40260     90.2930E+06     18.0793E+06              0.     21.9929E+06
           40261     90.8208E+06     17.8949E+06              0.     22.4877E+06
           40262     91.3600E+06     17.7096E+06              0.     22.9925E+06
           40263     91.9109E+06     17.5235E+06              0.     23.5074E+06
           40264     92.4736E+06     17.3368E+06              0.     24.0325E+06
           40265     93.0484E+06     17.1495E+06              0.     24.5680E+06
           40266     93.6354E+06     16.9620E+06              0.     25.1142E+06
           40267     94.2349E+06     16.7742E+06              0.     25.6711E+06
           40268     94.8469E+06     16.5864E+06              0.     26.2391E+06
           40269     95.4718E+06     16.3987E+06              0.     26.8182E+06
           40270     96.1097E+06     16.2113E+06              0.     27.4086E+06
           40271     96.7608E+06     16.0244E+06              0.     28.0106E+06
           40272     97.4253E+06     15.8383E+06              0.     28.6243E+06
           40273     98.1033E+06     15.6531E+06              0.     29.2499E+06
           40274     98.7951E+06     15.4690E+06              0.     29.8876E+06
           40275     99.5008E+06     15.2864E+06              0.     30.5376E+06
           40276     100.221E+06     15.1055E+06              0.     31.2001E+06
           40277     100.955E+06     14.9265E+06              0.     31.8752E+06
           40278     101.703E+06     14.7498E+06              0.     32.5633E+06
           40279     102.466E+06     14.5756E+06              0.     33.2644E+06
           40280     103.244E+06     14.4043E+06              0.     33.9788E+06
           40281     104.037E+06     14.2363E+06              0.     34.7066E+06
           40282     104.845E+06     14.0719E+06              0.     35.4482E+06
           40283     105.668E+06     13.9114E+06              0.     36.2035E+06
           40284     106.506E+06     13.7553E+06              0.     36.9729E+06
           40285     107.359E+06     13.6041E+06              0.     37.7566E+06
           40286     108.228E+06     13.4581E+06              0.     38.5546E+06
           40287     109.113E+06     13.3178E+06              0.     39.3673E+06
           40288     110.013E+06     13.1838E+06              0.     40.1948E+06
           40289     110.929E+06     13.0565E+06              0.     41.0373E+06
           40290     111.860E+06     12.9365E+06              0.     41.8949E+06
           40291     112.807E+06     12.8244E+06              0.     42.7678E+06
           40292     113.769E+06     12.7208E+06              0.     43.6562E+06
           40293     114.747E+06     12.6263E+06              0.     44.5603E+06
           40294     115.741E+06     12.5417E+06              0.     45.4802E+06
           40295     116.750E+06     12.4675E+06              0.     46.4160E+06
           40296     117.774E+06     12.4045E+06              0.     47.3679E+06
           40297     118.813E+06     12.3535E+06              0.     48.3360E+06
           40298     119.868E+06     12.3154E+06              0.     49.3204E+06
           40299     120.936E+06     12.2909E+06              0.     50.3211E+06
           40300     122.019E+06     12.2809E+06              0.     51.3384E+06
           40301     123.116E+06     12.2864E+06              0.     52.3721E+06
           40302     124.227E+06     12.3084E+06              0.     53.4224E+06
           40303     125.350E+06     12.3478E+06              0.     54.4893E+06
           40304     126.486E+06     12.4057E+06              0.     55.5727E+06
           40305     127.634E+06     12.4832E+06              0.     56.6726E+06
           40306     128.793E+06     12.5815E+06              0.     57.7889E+06
           40307     129.963E+06     12.7017E+06              0.     58.9215E+06
           40308     131.142E+06     12.8451E+06              0.     60.0702E+06
           40309     132.330E+06     13.0131E+06              0.     61.2348E+06
           40310     133.526E+06     13.2069E+06              0.     62.4151E+06
           40311     134.728E+06     13.4279E+06              0.     63.6107E+06
           40312     135.936E+06     13.6776E+06              0.     64.8212E+06
           40313     137.148E+06     13.9575E+06              0.     66.0462E+06
           40314     138.362E+06     14.2692E+06              0.     67.2851E+06
           40315     139.577E+06     14.6142E+06              0.     68.5374E+06
           40316     140.791E+06     14.9941E+06              0.     69.8022E+06
           40317     142.003E+06     15.4108E+06              0.     71.0787E+06
           40318     143.209E+06     15.8657E+06              0.     72.3660E+06
           40319     144.407E+06     16.3608E+06              0.     73.6629E+06
           40320     145.596E+06     16.8978E+06              0.     74.9683E+06
           40321     146.773E+06     17.4786E+06              0.     76.2806E+06
           40322     147.933E+06     18.1048E+06              0.     77.5983E+06
           40323     149.076E+06     18.7784E+06              0.     78.9196E+06
           40324     150.196E+06     19.5011E+06              0.     80.2425E+06
           40325     151.290E+06     20.2747E+06              0.     81.5647E+06
           40326     152.355E+06      21.101E+06              0.     82.8837E+06
           40327     153.386E+06     21.9816E+06              0.     84.1967E+06
           40328     154.379E+06     22.9181E+06              0.     85.5005E+06
           40329     155.329E+06     23.9119E+06              0.     86.7917E+06
           40330     156.231E+06     24.9643E+06              0.     88.0665E+06
           40331     157.080E+06     26.0765E+06              0.     89.3205E+06
           40332     157.871E+06     27.2494E+06              0.     90.5492E+06
           40333     158.597E+06     28.4835E+06              0.     91.7474E+06
           40334     159.252E+06     29.7791E+06              0.     92.9095E+06
           40335     159.830E+06     31.1362E+06              0.     94.0294E+06
           40336     160.325E+06     32.5541E+06              0.     95.1004E+06
           40337     160.730E+06     34.0317E+06              0.     96.1152E+06
           40338     161.038E+06     35.5672E+06              0.     97.0662E+06
           40339     161.242E+06     37.1584E+06              0.     97.9447E+06
           40340     161.335E+06     38.8019E+06              0.     98.7420E+06
           40341     161.311E+06     40.4937E+06              0.     99.4483E+06
           40342     161.162E+06     42.2287E+06              0.     100.054E+06
           40343     160.882E+06     44.0007E+06              0.     100.547E+06
           40344     160.466E+06     45.8024E+06              0.     100.918E+06
           40345     159.907E+06     47.6252E+06              0.     101.154E+06
           40346     159.200E+06     49.4590E+06              0.     101.245E+06
           40347     158.341E+06     51.2926E+06              0.     101.177E+06
           40348     157.326E+06     53.1130E+06              0.     100.938E+06
           40349     156.153E+06     54.9059E+06              0.     100.518E+06
           40350     154.820E+06     56.6555E+06              0.     99.9041E+06
           40351     153.328E+06     58.3445E+06              0.     99.0852E+06
           40352     151.675E+06     59.9543E+06              0.     98.0513E+06
           40353     149.866E+06     61.4650E+06              0.     96.7932E+06
           40354     147.903E+06     62.8560E+06              0.     95.3027E+06
           40355     145.791E+06     64.1056E+06              0.     93.5734E+06
           40356     143.537E+06     65.1917E+06              0.     91.6005E+06
           40357     141.147E+06     66.0921E+06              0.     89.3811E+06
           40358     138.631E+06     66.7850E+06              0.     86.9144E+06
           40359     135.997E+06     67.2490E+06              0.     84.2019E+06
           40360     133.255E+06     67.4640E+06              0.     81.2472E+06
           40361     130.417E+06     67.4112E+06              0.     78.0557E+06
           40362     129.189E+06     66.5227E+06              0.     77.2807E+06
           40363     69.7160E+06     30.5521E+06              0.     2.12274E+06
           40364     69.7026E+06     30.4001E+06              0.     2.11902E+06
           40365     69.7544E+06     30.2796E+06              0.     2.09073E+06
           40366     69.8056E+06     30.1623E+06              0.     2.06666E+06
           40367     69.8563E+06     30.0483E+06              0.     2.04671E+06
           40368     69.9065E+06     29.9372E+06              0.     2.03076E+06
           40369     69.9565E+06     29.8289E+06              0.     2.01872E+06
           40370     70.0062E+06     29.7234E+06              0.     2.01047E+06
           40371     70.0559E+06     29.6204E+06              0.     2.00595E+06
           40372     70.1054E+06     29.5198E+06              0.     2.00504E+06
           40373     70.1551E+06     29.4215E+06              0.     2.00768E+06
           40374     70.2049E+06     29.3254E+06              0.     2.01378E+06
           40375     70.2549E+06     29.2314E+06              0.     2.02327E+06
           40376     70.3053E+06     29.1392E+06              0.     2.03607E+06
           40377     70.3560E+06     29.0489E+06              0.     2.05214E+06
           40378     70.4073E+06     28.9602E+06              0.     2.07140E+06
           40379     70.4591E+06     28.8731E+06              0.     2.09380E+06
           40380     70.5115E+06     28.7875E+06              0.     2.11928E+06
           40381     70.5646E+06     28.7033E+06              0.     2.14779E+06
           40382     70.6186E+06     28.6203E+06              0.     2.17930E+06
           40383     70.6733E+06     28.5385E+06              0.     2.21375E+06
           40384     70.7291E+06     28.4578E+06              0.     2.25112E+06
           40385     70.7858E+06     28.3780E+06              0.     2.29136E+06
           40386     70.8436E+06     28.2992E+06              0.     2.33444E+06
           40387     70.9026E+06     28.2211E+06              0.     2.38034E+06
           40388     70.9628E+06     28.1438E+06              0.     2.42903E+06
           40389     71.0243E+06     28.0671E+06              0.     2.48049E+06
           40390     71.0872E+06     27.9909E+06              0.     2.53469E+06
           40391     71.1514E+06     27.9152E+06              0.     2.59163E+06
           40392     71.2172E+06     27.8400E+06              0.     2.65128E+06
           40393     71.2846E+06     27.7650E+06              0.     2.71365E+06
           40394     71.3536E+06     27.6903E+06              0.     2.77872E+06
           40395     71.4243E+06     27.6157E+06              0.     2.84648E+06
           40396     71.4967E+06     27.5413E+06              0.     2.91693E+06
           40397     71.5710E+06     27.4669E+06              0.     2.99008E+06
           40398     71.6472E+06     27.3925E+06              0.     3.06593E+06
           40399     71.7255E+06     27.3179E+06              0.     3.14447E+06
           40400     71.8057E+06     27.2432E+06              0.     3.22573E+06
           40401     71.8881E+06     27.1683E+06              0.     3.30970E+06
           40402     71.9726E+06     27.0931E+06              0.     3.39641E+06
           40403     72.0594E+06     27.0176E+06              0.     3.48586E+06
           40404     72.1485E+06     26.9417E+06              0.     3.57808E+06
           40405     72.2400E+06     26.8653E+06              0.     3.67308E+06
           40406     72.3340E+06     26.7883E+06              0.     3.77088E+06
           40407     72.4305E+06     26.7109E+06              0.     3.87151E+06
           40408     72.5296E+06     26.6327E+06              0.     3.97499E+06
           40409     72.6314E+06     26.5539E+06              0.     4.08135E+06
           40410     72.7360E+06     26.4744E+06              0.     4.19062E+06
           40411     72.8434E+06     26.3941E+06              0.     4.30284E+06
           40412     72.9537E+06     26.3130E+06              0.     4.41803E+06
           40413     73.0669E+06     26.2310E+06              0.     4.53624E+06
           40414     73.1833E+06     26.1480E+06              0.     4.65750E+06
           40415     73.3027E+06     26.0641E+06              0.     4.78185E+06
           40416     73.4254E+06     25.9791E+06              0.     4.90933E+06
           40417     73.5514E+06     25.8931E+06              0.     5.03999E+06
           40418     73.6808E+06     25.8060E+06              0.     5.17387E+06
           40419     73.8136E+06     25.7177E+06              0.     5.31103E+06
           40420     73.9499E+06     25.6282E+06              0.     5.45151E+06
           40421     74.0899E+06     25.5374E+06              0.     5.59536E+06
           40422     74.2336E+06     25.4454E+06              0.     5.74264E+06
           40423     74.3811E+06     25.3520E+06              0.      5.8934E+06
           40424     74.5326E+06     25.2572E+06              0.     6.04770E+06
           40425     74.6879E+06     25.1611E+06              0.     6.20560E+06
           40426     74.8474E+06     25.0635E+06              0.     6.36717E+06
           40427     75.0110E+06     24.9644E+06              0.     6.53246E+06
           40428     75.1790E+06     24.8638E+06              0.     6.70154E+06
           40429     75.3512E+06     24.7616E+06              0.     6.87447E+06
           40430     75.5280E+06     24.6579E+06              0.     7.05133E+06
           40431     75.7093E+06     24.5525E+06              0.     7.23219E+06
           40432     75.8952E+06     24.4454E+06              0.     7.41712E+06
           40433     76.0860E+06     24.3367E+06              0.     7.60619E+06
           40434     76.2816E+06     24.2262E+06              0.     7.79949E+06
           40435     76.4822E+06     24.1139E+06              0.     7.99708E+06
           40436     76.6879E+06     23.9999E+06              0.     8.19905E+06
           40437     76.8988E+06     23.8840E+06              0.     8.40549E+06
           40438     77.1151E+06     23.7663E+06              0.     8.61646E+06
           40439     77.3367E+06     23.6467E+06              0.     8.83208E+06
           40440     77.5640E+06     23.5252E+06              0.     9.05241E+06
           40441     77.7969E+06     23.4018E+06              0.     9.27755E+06
           40442     78.0356E+06     23.2764E+06              0.     9.50760E+06
           40443     78.2803E+06     23.1491E+06              0.     9.74264E+06
           40444     78.5310E+06     23.0198E+06              0.     9.98277E+06
           40445     78.7878E+06     22.8884E+06              0.     10.2281E+06
           40446     79.0510E+06     22.7550E+06              0.     10.4787E+06
           40447     79.3207E+06     22.6196E+06              0.     10.7347E+06
           40448     79.5969E+06     22.4821E+06              0.     10.9962E+06
           40449     79.8799E+06     22.3425E+06              0.     11.2633E+06
           40450     80.1697E+06     22.2009E+06              0.     11.5361E+06
           40451     80.4666E+06     22.0571E+06              0.     11.8148E+06
           40452     80.7706E+06     21.9113E+06              0.     12.0993E+06
           40453     81.0819E+06     21.7633E+06              0.     12.3899E+06
           40454     81.4007E+06     21.6132E+06              0.     12.6867E+06
           40455     81.7271E+06     21.4610E+06              0.     12.9897E+06
           40456     82.0612E+06     21.3067E+06              0.     13.2992E+06
           40457     82.4033E+06     21.1502E+06              0.     13.6152E+06
           40458     82.7535E+06     20.9917E+06              0.     13.9378E+06
           40459     83.1119E+06     20.8311E+06              0.     14.2672E+06
           40460     83.4788E+06     20.6684E+06              0.     14.6035E+06
           40461     83.8542E+06     20.5036E+06              0.     14.9468E+06
           40462     84.2384E+06     20.3367E+06              0.     15.2973E+06
           40463     84.6316E+06     20.1679E+06              0.     15.6551E+06
           40464     85.0338E+06     19.9970E+06              0.     16.0203E+06
           40465     85.4454E+06     19.8242E+06              0.     16.3931E+06
           40466     85.8664E+06     19.6494E+06              0.     16.7737E+06
           40467     86.2971E+06     19.4727E+06              0.     17.1621E+06
           40468     86.7376E+06     19.2942E+06              0.     17.5585E+06
           40469     87.1882E+06     19.1139E+06              0.     17.9631E+06
           40470     87.6491E+06     18.9318E+06              0.     18.3760E+06
           40471     88.1203E+06     18.7480E+06              0.     18.7974E+06
           40472     88.6021E+06     18.5625E+06              0.     19.2274E+06
           40473     89.0948E+06     18.3755E+06              0.     19.6662E+06
           40474     89.5985E+06     18.1870E+06              0.     20.1139E+06
           40475     90.1134E+06     17.9970E+06              0.     20.5708E+06
           40476     90.6398E+06     17.8058E+06              0.     21.0369E+06
           40477     91.1778E+06     17.6132E+06              0.     21.5124E+06
           40478     91.7276E+06     17.4196E+06              0.     21.9976E+06
           40479     92.2894E+06     17.2249E+06              0.     22.4925E+06
           40480     92.8636E+06     17.0293E+06              0.     22.9974E+06
           40481     93.4502E+06     16.8329E+06              0.     23.5124E+06
           40482     94.0494E+06     16.6359E+06              0.     24.0378E+06
           40483     94.6616E+06     16.4383E+06              0.     24.5736E+06
           40484     95.2868E+06     16.2404E+06              0.     25.1201E+06
           40485     95.9254E+06     16.0423E+06              0.     25.6775E+06
           40486     96.5776E+06     15.8441E+06              0.     26.2459E+06
           40487     97.2434E+06     15.6461E+06              0.     26.8255E+06
           40488     97.9233E+06     15.4485E+06              0.     27.4166E+06
           40489     98.6172E+06     15.2514E+06              0.     28.0193E+06
           40490     99.3256E+06     15.0551E+06              0.     28.6338E+06
           40491     100.049E+06     14.8598E+06              0.     29.2603E+06
           40492     100.786E+06     14.6658E+06              0.     29.8991E+06
           40493     101.539E+06     14.4733E+06              0.     30.5503E+06
           40494     102.307E+06     14.2826E+06              0.     31.2140E+06
           40495     103.090E+06     14.0940E+06              0.     31.8906E+06
           40496     103.889E+06     13.9079E+06              0.     32.5803E+06
           40497     104.703E+06     13.7244E+06              0.     33.2831E+06
           40498     105.534E+06     13.5441E+06              0.     33.9994E+06
           40499     106.380E+06     13.3672E+06              0.     34.7294E+06
           40500     107.243E+06     13.1941E+06              0.     35.4731E+06
           40501     108.122E+06     13.0253E+06              0.     36.2310E+06
           40502     109.018E+06     12.8612E+06              0.     37.0031E+06
           40503     109.930E+06     12.7022E+06              0.     37.7897E+06
           40504     110.860E+06     12.5489E+06              0.     38.5909E+06
           40505     111.805E+06     12.4016E+06              0.     39.4071E+06
           40506     112.768E+06     12.2610E+06              0.     40.2383E+06
           40507     113.748E+06     12.1276E+06              0.     41.0848E+06
           40508     114.745E+06     12.0020E+06              0.     41.9467E+06
           40509     115.759E+06     11.8849E+06              0.     42.8243E+06
           40510     116.790E+06     11.7767E+06              0.     43.7178E+06
           40511     117.838E+06     11.6783E+06              0.     44.6273E+06
           40512     118.903E+06     11.5904E+06              0.     45.5530E+06
           40513     119.985E+06     11.5137E+06              0.     46.4950E+06
           40514     121.084E+06     11.4490E+06              0.     47.4536E+06
           40515     122.200E+06     11.3971E+06              0.     48.4289E+06
           40516     123.331E+06     11.3589E+06              0.     49.4209E+06
           40517     124.479E+06     11.3354E+06              0.     50.4299E+06
           40518     125.643E+06     11.3274E+06              0.     51.4559E+06
           40519     126.822E+06     11.3359E+06              0.     52.4989E+06
           40520     128.017E+06     11.3621E+06              0.     53.5592E+06
           40521     129.226E+06     11.4069E+06              0.     54.6366E+06
           40522     130.449E+06     11.4716E+06              0.     55.7313E+06
           40523     131.686E+06     11.5574E+06              0.     56.8432E+06
           40524     132.936E+06     11.6654E+06              0.     57.9722E+06
           40525     134.198E+06     11.7970E+06              0.     59.1183E+06
           40526     135.471E+06     11.9535E+06              0.     60.2813E+06
           40527     136.754E+06     12.1365E+06              0.     61.4611E+06
           40528     138.047E+06     12.3472E+06              0.     62.6573E+06
           40529     139.347E+06     12.5873E+06              0.     63.8698E+06
           40530     140.654E+06     12.8583E+06              0.     65.0982E+06
           40531     141.967E+06     13.1619E+06              0.     66.3420E+06
           40532     143.283E+06     13.4997E+06              0.     67.6007E+06
           40533     144.601E+06     13.8736E+06              0.     68.8736E+06
           40534     145.920E+06     14.2853E+06              0.     70.1602E+06
           40535     147.236E+06     14.7367E+06              0.     71.4595E+06
           40536     148.548E+06     15.2297E+06              0.     72.7705E+06
           40537     149.853E+06     15.7662E+06              0.     74.0922E+06
           40538     151.149E+06     16.3483E+06              0.     75.4233E+06
           40539     152.432E+06     16.9778E+06              0.     76.7623E+06
           40540     153.700E+06     17.6569E+06              0.     78.1076E+06
           40541     154.949E+06     18.3876E+06              0.     79.4573E+06
           40542     156.175E+06     19.1719E+06              0.     80.8094E+06
           40543     157.374E+06     20.0117E+06              0.     82.1614E+06
           40544     158.543E+06     20.9092E+06              0.     83.5107E+06
           40545     159.677E+06     21.8660E+06              0.     84.8543E+06
           40546     160.770E+06     22.8841E+06              0.     86.1890E+06
           40547     161.817E+06     23.9651E+06              0.     87.5109E+06
           40548     162.814E+06     25.1105E+06              0.     88.8160E+06
           40549     163.753E+06     26.3215E+06              0.     90.0996E+06
           40550     164.630E+06     27.5993E+06              0.     91.3569E+06
           40551     165.438E+06     28.9444E+06              0.     92.5821E+06
           40552     166.169E+06     30.3573E+06              0.     93.7691E+06
           40553     166.817E+06     31.8378E+06              0.     94.9114E+06
           40554     167.374E+06     33.3853E+06              0.     96.0014E+06
           40555     167.834E+06     34.9985E+06              0.     97.0314E+06
           40556     168.188E+06     36.6756E+06              0.     97.9926E+06
           40557     168.429E+06     38.4136E+06              0.     98.8758E+06
           40558     168.549E+06     40.2089E+06              0.     99.6710E+06
           40559     168.541E+06     42.0568E+06              0.     100.368E+06
           40560     168.398E+06     43.9514E+06              0.     100.955E+06
           40561     168.111E+06     45.8856E+06              0.     101.420E+06
           40562     167.675E+06     47.8508E+06              0.     101.751E+06
           40563     167.083E+06     49.8371E+06              0.     101.936E+06
           40564     166.330E+06     51.8328E+06              0.     101.961E+06
           40565     165.412E+06     53.8247E+06              0.     101.813E+06
           40566     164.325E+06     55.7980E+06              0.     101.479E+06
           40567     163.067E+06     57.7360E+06              0.     100.947E+06
           40568     161.637E+06     59.6204E+06              0.     100.203E+06
           40569     160.035E+06     61.4315E+06              0.     99.2373E+06
           40570     158.263E+06     63.1478E+06              0.     98.0382E+06
           40571     156.324E+06     64.7470E+06              0.     96.5968E+06
           40572     154.223E+06     66.2054E+06              0.     94.9057E+06
           40573     151.967E+06     67.4990E+06              0.     92.9591E+06
           40574     149.563E+06     68.6034E+06              0.     90.7535E+06
           40575     147.020E+06     69.4943E+06              0.     88.2876E+06
           40576     144.349E+06     70.1483E+06              0.     85.5627E+06
           40577     141.559E+06     70.5430E+06              0.     82.5823E+06
           40578     138.663E+06     70.6571E+06              0.     79.3527E+06
           40579     137.465E+06     69.9118E+06              0.     78.6061E+06
           40580     69.7989E+06     30.5872E+06              0.     2.07020E+06
           40581     69.7850E+06     30.4300E+06              0.     2.06658E+06
           40582     69.8386E+06     30.3053E+06              0.     2.03899E+06
           40583     69.8915E+06     30.1840E+06              0.     2.01552E+06
           40584     69.9439E+06     30.0660E+06              0.     1.99606E+06
           40585     69.9959E+06     29.9511E+06              0.     1.98052E+06
           40586     70.0476E+06     29.8391E+06              0.     1.96877E+06
           40587     70.0990E+06     29.7299E+06              0.     1.96074E+06
           40588     70.1503E+06     29.6234E+06              0.     1.95633E+06
           40589     70.2016E+06     29.5194E+06              0.     1.95545E+06
           40590     70.2530E+06     29.4178E+06              0.     1.95802E+06
           40591     70.3045E+06     29.3183E+06              0.     1.96398E+06
           40592     70.3562E+06     29.2211E+06              0.     1.97324E+06
           40593     70.4083E+06     29.1257E+06              0.     1.98573E+06
           40594     70.4608E+06     29.0323E+06              0.     2.00141E+06
           40595     70.5138E+06     28.9406E+06              0.     2.02019E+06
           40596     70.5674E+06     28.8505E+06              0.     2.04204E+06
           40597     70.6216E+06     28.7620E+06              0.     2.06690E+06
           40598     70.6766E+06     28.6748E+06              0.     2.09472E+06
           40599     70.7323E+06     28.5890E+06              0.     2.12545E+06
           40600     70.7890E+06     28.5044E+06              0.     2.15906E+06
           40601     70.8467E+06     28.4209E+06              0.     2.19551E+06
           40602     70.9054E+06     28.3384E+06              0.     2.23476E+06
           40603     70.9652E+06     28.2568E+06              0.     2.27679E+06
           40604     71.0262E+06     28.1761E+06              0.     2.32156E+06
           40605     71.0884E+06     28.0961E+06              0.     2.36906E+06
           40606     71.1521E+06     28.0167E+06              0.     2.41925E+06
           40607     71.2171E+06     27.9379E+06              0.     2.47213E+06
           40608     71.2836E+06     27.8596E+06              0.     2.52767E+06
           40609     71.3516E+06     27.7817E+06              0.     2.58586E+06
           40610     71.4213E+06     27.7042E+06              0.     2.64670E+06
           40611     71.4927E+06     27.6269E+06              0.     2.71017E+06
           40612     71.5658E+06     27.5497E+06              0.     2.77627E+06
           40613     71.6408E+06     27.4727E+06              0.     2.84500E+06
           40614     71.7177E+06     27.3957E+06              0.     2.91635E+06
           40615     71.7965E+06     27.3187E+06              0.     2.99034E+06
           40616     71.8774E+06     27.2416E+06              0.     3.06696E+06
           40617     71.9605E+06     27.1643E+06              0.     3.14623E+06
           40618     72.0457E+06     27.0868E+06              0.     3.22815E+06
           40619     72.1332E+06     27.0090E+06              0.     3.31274E+06
           40620     72.2229E+06     26.9308E+06              0.         3.4E+06
           40621     72.3152E+06     26.8522E+06              0.     3.48996E+06
           40622     72.4098E+06     26.7731E+06              0.     3.58264E+06
           40623     72.5071E+06     26.6935E+06              0.     3.67805E+06
           40624     72.6070E+06     26.6133E+06              0.     3.77622E+06
           40625     72.7095E+06     26.5324E+06              0.     3.87718E+06
           40626     72.8149E+06     26.4509E+06              0.     3.98095E+06
           40627     72.9231E+06     26.3686E+06              0.     4.08756E+06
           40628     73.0342E+06     26.2854E+06              0.     4.19704E+06
           40629     73.1483E+06     26.2014E+06              0.     4.30942E+06
           40630     73.2655E+06     26.1165E+06              0.     4.42475E+06
           40631     73.3859E+06     26.0306E+06              0.     4.54306E+06
           40632     73.5096E+06     25.9437E+06              0.     4.66439E+06
           40633     73.6365E+06     25.8557E+06              0.     4.78877E+06
           40634     73.7669E+06     25.7666E+06              0.     4.91626E+06
           40635     73.9008E+06     25.6764E+06              0.     5.04689E+06
           40636     74.0382E+06     25.5849E+06              0.     5.18072E+06
           40637     74.1794E+06     25.4922E+06              0.     5.31780E+06
           40638     74.3243E+06     25.3982E+06              0.     5.45816E+06
           40639     74.4730E+06     25.3029E+06              0.     5.60188E+06
           40640     74.6257E+06     25.2062E+06              0.     5.74899E+06
           40641     74.7824E+06     25.1080E+06              0.     5.89957E+06
           40642     74.9432E+06     25.0084E+06              0.     6.05366E+06
           40643     75.1083E+06     24.9073E+06              0.     6.21133E+06
           40644     75.2777E+06     24.8046E+06              0.     6.37263E+06
           40645     75.4515E+06     24.7004E+06              0.     6.53764E+06
           40646     75.6299E+06     24.5945E+06              0.     6.70642E+06
           40647     75.8128E+06     24.4869E+06              0.     6.87903E+06
           40648     76.0005E+06     24.3777E+06              0.     7.05555E+06
           40649     76.1931E+06     24.2667E+06              0.     7.23604E+06
           40650     76.3906E+06     24.1540E+06              0.     7.42059E+06
           40651     76.5931E+06     24.0394E+06              0.     7.60925E+06
           40652     76.8008E+06     23.9230E+06              0.     7.80213E+06
           40653     77.0139E+06     23.8048E+06              0.     7.99928E+06
           40654     77.2323E+06     23.6846E+06              0.     8.20079E+06
           40655     77.4562E+06     23.5625E+06              0.     8.40675E+06
           40656     77.6858E+06     23.4385E+06              0.     8.61724E+06
           40657     77.9211E+06     23.3124E+06              0.     8.83234E+06
           40658     78.1624E+06     23.1844E+06              0.     9.05215E+06
           40659     78.4096E+06     23.0543E+06              0.     9.27675E+06
           40660     78.6630E+06     22.9222E+06              0.     9.50624E+06
           40661     78.9227E+06     22.7879E+06              0.     9.74071E+06
           40662     79.1888E+06     22.6516E+06              0.     9.98025E+06
           40663     79.4615E+06     22.5131E+06              0.     10.2250E+06
           40664     79.7409E+06     22.3725E+06              0.     10.4750E+06
           40665     80.0271E+06     22.2298E+06              0.     10.7303E+06
           40666     80.3203E+06     22.0848E+06              0.     10.9912E+06
           40667     80.6206E+06     21.9377E+06              0.     11.2576E+06
           40668     80.9282E+06     21.7883E+06              0.     11.5298E+06
           40669     81.2433E+06     21.6368E+06              0.     11.8077E+06
           40670     81.5659E+06     21.4830E+06              0.     12.0916E+06
           40671     81.8964E+06     21.3270E+06              0.     12.3815E+06
           40672     82.2347E+06     21.1688E+06              0.     12.6776E+06
           40673     82.5811E+06     21.0083E+06              0.     12.9799E+06
           40674     82.9358E+06     20.8457E+06              0.     13.2886E+06
           40675     83.2988E+06     20.6808E+06              0.     13.6038E+06
           40676     83.6705E+06     20.5136E+06              0.     13.9257E+06
           40677     84.0509E+06     20.3443E+06              0.     14.2544E+06
           40678     84.4403E+06     20.1728E+06              0.     14.5899E+06
           40679     84.8388E+06     19.9991E+06              0.     14.9325E+06
           40680     85.2466E+06     19.8233E+06              0.     15.2822E+06
           40681     85.6639E+06     19.6453E+06              0.     15.6392E+06
           40682     86.0910E+06     19.4653E+06              0.     16.0037E+06
           40683     86.5278E+06     19.2831E+06              0.     16.3757E+06
           40684     86.9748E+06     19.0990E+06              0.     16.7555E+06
           40685     87.4320E+06     18.9128E+06              0.     17.1432E+06
           40686     87.8998E+06     18.7247E+06              0.     17.5388E+06
           40687     88.3782E+06     18.5347E+06              0.     17.9427E+06
           40688     88.8674E+06     18.3428E+06              0.     18.3548E+06
           40689     89.3678E+06     18.1492E+06              0.     18.7754E+06
           40690     89.8795E+06     17.9538E+06              0.     19.2047E+06
           40691     90.4027E+06     17.7568E+06              0.     19.6428E+06
           40692     90.9377E+06     17.5582E+06              0.     20.0898E+06
           40693     91.4846E+06     17.3582E+06              0.     20.5460E+06
           40694     92.0437E+06     17.1568E+06              0.     21.0114E+06
           40695     92.6151E+06     16.9540E+06              0.     21.4863E+06
           40696     93.1993E+06     16.7501E+06              0.     21.9709E+06
           40697     93.7962E+06     16.5451E+06              0.     22.4652E+06
           40698     94.4063E+06     16.3392E+06              0.     22.9696E+06
           40699     95.0296E+06     16.1324E+06              0.     23.4841E+06
           40700     95.6666E+06     15.9250E+06              0.     24.0090E+06
           40701     96.3172E+06     15.7171E+06              0.     24.5444E+06
           40702     96.9819E+06     15.5088E+06              0.     25.0905E+06
           40703     97.6609E+06     15.3003E+06              0.     25.6476E+06
           40704     98.3543E+06     15.0918E+06              0.     26.2158E+06
           40705     99.0624E+06     14.8835E+06              0.     26.7952E+06
           40706     99.7855E+06     14.6756E+06              0.     27.3862E+06
           40707     100.524E+06     14.4683E+06              0.     27.9889E+06
           40708     101.277E+06     14.2619E+06              0.     28.6035E+06
           40709     102.047E+06     14.0566E+06              0.     29.2302E+06
           40710     102.832E+06     13.8526E+06              0.     29.8692E+06
           40711     103.633E+06     13.6503E+06              0.     30.5208E+06
           40712     104.450E+06     13.4499E+06              0.     31.1851E+06
           40713     105.285E+06     13.2518E+06              0.     31.8623E+06
           40714     106.135E+06     13.0562E+06              0.     32.5528E+06
           40715     107.003E+06     12.8636E+06              0.     33.2565E+06
           40716     107.888E+06     12.6743E+06              0.     33.9739E+06
           40717     108.790E+06     12.4886E+06              0.     34.7052E+06
           40718     109.710E+06     12.3071E+06              0.     35.4504E+06
           40719     110.647E+06     12.1301E+06              0.     36.2099E+06
           40720     111.603E+06     11.9581E+06              0.     36.9839E+06
           40721     112.576E+06     11.7916E+06              0.     37.7726E+06
           40722     113.567E+06     11.6311E+06              0.     38.5763E+06
           40723     114.577E+06     11.4771E+06              0.     39.3950E+06
           40724     115.605E+06     11.3302E+06              0.     40.2292E+06
           40725     116.652E+06     11.1910E+06              0.     41.0789E+06
           40726     117.717E+06     11.0601E+06              0.     41.9444E+06
           40727     118.801E+06     10.9382E+06              0.     42.8259E+06
           40728     119.903E+06     10.8259E+06              0.     43.7236E+06
           40729     121.024E+06     10.7240E+06              0.     44.6378E+06
           40730     122.163E+06     10.6333E+06              0.     45.5686E+06
           40731     123.322E+06     10.5546E+06              0.     46.5161E+06
           40732     124.498E+06     10.4887E+06              0.     47.4807E+06
           40733     125.693E+06     10.4365E+06              0.     48.4624E+06
           40734     126.906E+06     10.3989E+06              0.     49.4615E+06
           40735     128.137E+06     10.3769E+06              0.     50.4780E+06
           40736     129.385E+06     10.3716E+06              0.     51.5122E+06
           40737     130.651E+06     10.3840E+06              0.     52.5640E+06
           40738     131.933E+06     10.4152E+06              0.     53.6337E+06
           40739     133.232E+06     10.4665E+06              0.     54.7213E+06
           40740     134.547E+06     10.5390E+06              0.     55.8268E+06
           40741     135.877E+06     10.6341E+06              0.     56.9503E+06
           40742     137.222E+06     10.7531E+06              0.     58.0917E+06
           40743     138.581E+06     10.8974E+06              0.     59.2511E+06
           40744     139.952E+06     11.0684E+06              0.     60.4282E+06
           40745     141.336E+06     11.2679E+06              0.     61.6231E+06
           40746     142.730E+06     11.4972E+06              0.     62.8354E+06
           40747     144.134E+06     11.7581E+06              0.     64.0649E+06
           40748     145.546E+06     12.0524E+06              0.     65.3112E+06
           40749     146.966E+06     12.3817E+06              0.     66.5741E+06
           40750     148.390E+06     12.7481E+06              0.     67.8530E+06
           40751     149.817E+06     13.1534E+06              0.     69.1472E+06
           40752     151.246E+06     13.5995E+06              0.     70.4562E+06
           40753     152.674E+06     14.0887E+06              0.     71.7790E+06
           40754     154.098E+06     14.6228E+06              0.     73.1147E+06
           40755     155.517E+06     15.2042E+06              0.     74.4623E+06
           40756     156.926E+06     15.8350E+06              0.     75.8204E+06
           40757     158.323E+06     16.5175E+06              0.     77.1875E+06
           40758     159.705E+06     17.2538E+06              0.     78.5619E+06
           40759     161.068E+06     18.0463E+06              0.     79.9418E+06
           40760     162.407E+06     18.8973E+06              0.     81.3249E+06
           40761     163.719E+06     19.8090E+06              0.     82.7088E+06
           40762     164.999E+06     20.7836E+06              0.     84.0906E+06
           40763     166.241E+06     21.8233E+06              0.     85.4672E+06
           40764     167.441E+06     22.9300E+06              0.     86.8351E+06
           40765     168.593E+06     24.1057E+06              0.     88.1902E+06
           40766     169.690E+06     25.3522E+06              0.     89.5283E+06
           40767     170.727E+06     26.6707E+06              0.     90.8442E+06
           40768     171.696E+06     28.0626E+06              0.     92.1326E+06
           40769     172.590E+06     29.5288E+06              0.     93.3873E+06
           40770     173.401E+06     31.0694E+06              0.     94.6017E+06
           40771     174.123E+06     32.6846E+06              0.     95.7685E+06
           40772     174.746E+06     34.3735E+06              0.     96.8795E+06
           40773     175.263E+06     36.1348E+06              0.     97.9259E+06
           40774     175.664E+06     37.9661E+06              0.     98.8983E+06
           40775     175.942E+06     39.8642E+06              0.     99.7863E+06
           40776     176.088E+06     41.8249E+06              0.     100.579E+06
           40777     176.094E+06     43.8427E+06              0.     101.264E+06
           40778     175.951E+06     45.9107E+06              0.     101.830E+06
           40779     175.652E+06     48.0206E+06              0.     102.262E+06
           40780     175.189E+06     50.1624E+06              0.     102.549E+06
           40781     174.557E+06     52.3244E+06              0.     102.674E+06
           40782     173.748E+06     54.4932E+06              0.     102.625E+06
           40783     172.760E+06     56.6532E+06              0.     102.386E+06
           40784     171.589E+06     58.7872E+06              0.     101.944E+06
           40785     170.232E+06     60.8756E+06              0.     101.284E+06
           40786     168.691E+06     62.8976E+06              0.     100.395E+06
           40787     166.965E+06     64.8301E+06              0.     99.2626E+06
           40788     165.058E+06     66.6487E+06              0.     97.8779E+06
           40789     162.974E+06     68.3279E+06              0.     96.2316E+06
           40790     160.721E+06     69.8412E+06              0.     94.3171E+06
           40791     158.307E+06     71.1617E+06              0.     92.1300E+06
           40792     155.740E+06     72.2627E+06              0.     89.6685E+06
           40793     153.032E+06     73.1180E+06              0.     86.9336E+06
           40794     150.194E+06     73.7028E+06              0.     83.9289E+06
           40795     147.240E+06     73.9947E+06              0.     80.6615E+06
           40796     146.073E+06     73.3967E+06              0.     79.9463E+06
           40797     69.8797E+06     30.6213E+06              0.     2.01590E+06
           40798     69.8653E+06     30.4590E+06              0.     2.01237E+06
           40799     69.9206E+06     30.3303E+06              0.     1.98551E+06
           40800     69.9753E+06     30.2051E+06              0.     1.96266E+06
           40801     70.0293E+06     30.0833E+06              0.     1.94372E+06
           40802      70.083E+06     29.9646E+06              0.     1.92858E+06
           40803     70.1363E+06     29.8491E+06              0.     1.91715E+06
           40804     70.1894E+06     29.7364E+06              0.     1.90933E+06
           40805     70.2424E+06     29.6264E+06              0.     1.90504E+06
           40806     70.2954E+06     29.5190E+06              0.     1.90419E+06
           40807     70.3484E+06     29.4141E+06              0.     1.90670E+06
           40808     70.4015E+06     29.3115E+06              0.     1.91250E+06
           40809     70.4550E+06     29.2110E+06              0.     1.92152E+06
           40810     70.5087E+06     29.1126E+06              0.     1.93370E+06
           40811     70.5629E+06     29.0161E+06              0.     1.94896E+06
           40812     70.6176E+06     28.9215E+06              0.     1.96726E+06
           40813     70.6729E+06     28.8285E+06              0.     1.98855E+06
           40814     70.7289E+06     28.7371E+06              0.     2.01276E+06
           40815     70.7856E+06     28.6471E+06              0.     2.03985E+06
           40816     70.8432E+06     28.5585E+06              0.     2.06979E+06
           40817     70.9018E+06     28.4711E+06              0.     2.10252E+06
           40818     70.9613E+06     28.3849E+06              0.     2.13802E+06
           40819     71.0219E+06     28.2997E+06              0.     2.17626E+06
           40820     71.0836E+06     28.2155E+06              0.     2.21719E+06
           40821     71.1466E+06     28.1321E+06              0.     2.26080E+06
           40822     71.2109E+06     28.0495E+06              0.     2.30705E+06
           40823     71.2766E+06     27.9676E+06              0.     2.35594E+06
           40824     71.3437E+06     27.8863E+06              0.     2.40744E+06
           40825     71.4124E+06     27.8054E+06              0.     2.46154E+06
           40826     71.4826E+06     27.7250E+06              0.     2.51822E+06
           40827     71.5546E+06     27.6449E+06              0.     2.57747E+06
           40828     71.6283E+06     27.5651E+06              0.     2.63929E+06
           40829     71.7038E+06     27.4854E+06              0.     2.70367E+06
           40830     71.7812E+06     27.4059E+06              0.     2.77062E+06
           40831     71.8606E+06     27.3264E+06              0.     2.84012E+06
           40832     71.9420E+06     27.2468E+06              0.     2.91218E+06
           40833     72.0256E+06     27.1672E+06              0.     2.98682E+06
           40834     72.1113E+06     27.0874E+06              0.     3.06402E+06
           40835     72.1993E+06     27.0073E+06              0.     3.14382E+06
           40836     72.2896E+06     26.9269E+06              0.     3.22621E+06
           40837     72.3824E+06     26.8462E+06              0.     3.31121E+06
           40838     72.4776E+06     26.7650E+06              0.     3.39884E+06
           40839     72.5754E+06     26.6833E+06              0.     3.48911E+06
           40840     72.6758E+06     26.6011E+06              0.     3.58205E+06
           40841     72.7790E+06     26.5182E+06              0.     3.67768E+06
           40842     72.8849E+06     26.4347E+06              0.     3.77602E+06
           40843     72.9937E+06     26.3504E+06              0.     3.87710E+06
           40844     73.1054E+06     26.2654E+06              0.     3.98095E+06
           40845     73.2202E+06     26.1795E+06              0.     4.08760E+06
           40846     73.3381E+06     26.0927E+06              0.     4.19709E+06
           40847     73.4591E+06     26.0049E+06              0.     4.30944E+06
           40848     73.5835E+06     25.9162E+06              0.     4.42469E+06
           40849     73.7112E+06     25.8263E+06              0.     4.54288E+06
           40850     73.8423E+06     25.7354E+06              0.     4.66406E+06
           40851     73.9770E+06     25.6434E+06              0.     4.78826E+06
           40852     74.1153E+06     25.5501E+06              0.     4.91553E+06
           40853     74.2572E+06     25.4556E+06              0.     5.04591E+06
           40854     74.4030E+06     25.3597E+06              0.     5.17946E+06
           40855     74.5527E+06     25.2626E+06              0.     5.31622E+06
           40856     74.7064E+06     25.1640E+06              0.     5.45624E+06
           40857     74.8641E+06     25.0640E+06              0.     5.59958E+06
           40858     75.0260E+06     24.9625E+06              0.     5.74629E+06
           40859     75.1922E+06     24.8595E+06              0.     5.89643E+06
           40860     75.3627E+06     24.7550E+06              0.     6.05006E+06
           40861     75.5377E+06     24.6488E+06              0.     6.20723E+06
           40862     75.7173E+06     24.5410E+06              0.     6.36802E+06
           40863     75.9016E+06     24.4315E+06              0.     6.53249E+06
           40864     76.0906E+06     24.3202E+06              0.     6.70069E+06
           40865     76.2846E+06     24.2072E+06              0.     6.87271E+06
           40866     76.4835E+06     24.0924E+06              0.     7.04860E+06
           40867     76.6876E+06     23.9758E+06              0.     7.22845E+06
           40868     76.8969E+06     23.8573E+06              0.     7.41233E+06
           40869     77.1116E+06     23.7368E+06              0.     7.60030E+06
           40870     77.3317E+06     23.6144E+06              0.     7.79245E+06
           40871     77.5575E+06     23.4901E+06              0.     7.98886E+06
           40872     77.7889E+06     23.3637E+06              0.     8.18960E+06
           40873     78.0262E+06     23.2353E+06              0.     8.39477E+06
           40874     78.2694E+06     23.1049E+06              0.     8.60445E+06
           40875     78.5188E+06     22.9723E+06              0.     8.81871E+06
           40876     78.7744E+06     22.8376E+06              0.     9.03766E+06
           40877     79.0364E+06     22.7008E+06              0.     9.26138E+06
           40878     79.3048E+06     22.5618E+06              0.     9.48996E+06
           40879     79.5800E+06     22.4206E+06              0.     9.72350E+06
           40880     79.8619E+06     22.2771E+06              0.     9.96210E+06
           40881     80.1507E+06     22.1315E+06              0.     10.2059E+06
           40882     80.4467E+06     21.9835E+06              0.     10.4549E+06
           40883     80.7499E+06     21.8333E+06              0.     10.7092E+06
           40884     81.0605E+06     21.6808E+06              0.     10.9690E+06
           40885     81.3786E+06     21.5260E+06              0.     11.2344E+06
           40886     81.7045E+06     21.3689E+06              0.     11.5055E+06
           40887     82.0383E+06     21.2094E+06              0.     11.7824E+06
           40888     82.3800E+06     21.0477E+06              0.     12.0651E+06
           40889     82.7300E+06     20.8836E+06              0.     12.3539E+06
           40890     83.0884E+06     20.7171E+06              0.     12.6488E+06
           40891     83.4554E+06     20.5483E+06              0.     12.9500E+06
           40892     83.8311E+06     20.3772E+06              0.     13.2575E+06
           40893     84.2157E+06     20.2037E+06              0.     13.5715E+06
           40894     84.6094E+06     20.0279E+06              0.     13.8922E+06
           40895     85.0124E+06     19.8498E+06              0.     14.2196E+06
           40896     85.4249E+06     19.6694E+06              0.     14.5539E+06
           40897     85.8471E+06     19.4868E+06              0.     14.8952E+06
           40898     86.2791E+06     19.3019E+06              0.     15.2436E+06
           40899     86.7213E+06     19.1147E+06              0.     15.5994E+06
           40900     87.1737E+06     18.9253E+06              0.     15.9625E+06
           40901     87.6366E+06     18.7338E+06              0.     16.3333E+06
           40902     88.1102E+06     18.5402E+06              0.     16.7117E+06
           40903     88.5947E+06     18.3444E+06              0.     17.0981E+06
           40904     89.0903E+06     18.1466E+06              0.     17.4924E+06
           40905     89.5972E+06     17.9469E+06              0.     17.8949E+06
           40906     90.1158E+06     17.7452E+06              0.     18.3057E+06
           40907     90.6461E+06     17.5417E+06              0.     18.7250E+06
           40908     91.1884E+06     17.3363E+06              0.     19.1529E+06
           40909     91.7430E+06     17.1293E+06              0.     19.5897E+06
           40910     92.3101E+06     16.9206E+06              0.     20.0354E+06
           40911     92.8899E+06     16.7104E+06              0.     20.4902E+06
           40912     93.4826E+06     16.4987E+06              0.     20.9543E+06
           40913     94.0886E+06     16.2857E+06              0.     21.4280E+06
           40914     94.7079E+06     16.0715E+06              0.     21.9112E+06
           40915     95.3410E+06     15.8562E+06              0.     22.4043E+06
           40916     95.9880E+06     15.6398E+06              0.     22.9075E+06
           40917     96.6492E+06     15.4227E+06              0.     23.4208E+06
           40918     97.3249E+06     15.2049E+06              0.     23.9445E+06
           40919     98.0152E+06     14.9866E+06              0.     24.4788E+06
           40920     98.7205E+06     14.7679E+06              0.     25.0238E+06
           40921     99.4410E+06     14.5490E+06              0.     25.5798E+06
           40922     100.177E+06     14.3302E+06              0.     26.1470E+06
           40923     100.929E+06     14.1116E+06              0.     26.7255E+06
           40924     101.696E+06     13.8934E+06              0.     27.3156E+06
           40925     102.480E+06     13.6760E+06              0.     27.9175E+06
           40926     103.280E+06     13.4594E+06              0.     28.5314E+06
           40927     104.097E+06     13.2441E+06              0.     29.1575E+06
           40928     104.932E+06     13.0302E+06              0.     29.7960E+06
           40929     105.783E+06     12.8181E+06              0.     30.4471E+06
           40930     106.652E+06     12.6081E+06              0.     31.1111E+06
           40931     107.538E+06     12.4005E+06              0.     31.7881E+06
           40932     108.443E+06     12.1957E+06              0.     32.4785E+06
           40933     109.365E+06     11.9940E+06              0.     33.1824E+06
           40934     110.307E+06     11.7959E+06              0.     33.9000E+06
           40935     111.266E+06     11.6017E+06              0.     34.6317E+06
           40936     112.245E+06     11.4118E+06              0.     35.3775E+06
           40937     113.243E+06     11.2268E+06              0.     36.1379E+06
           40938     114.260E+06     11.0472E+06              0.     36.9129E+06
           40939     115.296E+06     10.8733E+06              0.     37.7028E+06
           40940     116.352E+06     10.7059E+06              0.     38.5080E+06
           40941     117.428E+06     10.5454E+06              0.     39.3285E+06
           40942     118.524E+06     10.3925E+06              0.     40.1647E+06
           40943     119.640E+06     10.2478E+06              0.     41.0168E+06
           40944     120.776E+06     10.1119E+06              0.      41.885E+06
           40945     121.932E+06     9.98563E+06              0.     42.7696E+06
           40946     123.109E+06     9.86964E+06              0.     43.6707E+06
           40947     124.305E+06     9.76474E+06              0.     44.5887E+06
           40948     125.523E+06     9.67173E+06              0.     45.5238E+06
           40949     126.760E+06      9.5915E+06              0.     46.4761E+06
           40950     128.018E+06     9.52494E+06              0.     47.4459E+06
           40951     129.295E+06     9.47300E+06              0.     48.4333E+06
           40952     130.593E+06     9.43669E+06              0.     49.4387E+06
           40953     131.910E+06     9.41706E+06              0.     50.4621E+06
           40954     133.247E+06     9.41520E+06              0.     51.5037E+06
           40955     134.603E+06     9.43229E+06              0.     52.5638E+06
           40956     135.978E+06     9.46952E+06              0.     53.6423E+06
           40957     137.371E+06     9.52818E+06              0.     54.7395E+06
           40958     138.782E+06     9.60960E+06              0.     55.8554E+06
           40959     140.210E+06     9.71518E+06              0.     56.9901E+06
           40960     141.655E+06     9.84637E+06              0.     58.1437E+06
           40961     143.116E+06     10.0047E+06              0.     59.3160E+06
           40962     144.591E+06     10.1918E+06              0.     60.5071E+06
           40963     146.080E+06     10.4093E+06              0.     61.7169E+06
           40964     147.582E+06     10.6590E+06              0.     62.9452E+06
           40965     149.096E+06     10.9427E+06              0.     64.1918E+06
           40966     150.619E+06     11.2622E+06              0.     65.4564E+06
           40967     152.151E+06     11.6196E+06              0.     66.7386E+06
           40968     153.690E+06     12.0169E+06              0.     68.0381E+06
           40969     155.233E+06     12.4562E+06              0.     69.3542E+06
           40970     156.779E+06     12.9397E+06              0.     70.6863E+06
           40971     158.325E+06     13.4696E+06              0.     72.0335E+06
           40972     159.869E+06     14.0484E+06              0.     73.3950E+06
           40973     161.408E+06     14.6783E+06              0.     74.7696E+06
           40974     162.939E+06     15.3618E+06              0.     76.1560E+06
           40975     164.458E+06     16.1015E+06              0.     77.5528E+06
           40976     165.961E+06     16.8998E+06              0.     78.9581E+06
           40977     167.446E+06     17.7593E+06              0.     80.3701E+06
           40978     168.906E+06     18.6825E+06              0.     81.7864E+06
           40979     170.338E+06     19.6721E+06              0.     83.2044E+06
           40980     171.737E+06     20.7304E+06              0.     84.6211E+06
           40981     173.097E+06     21.8599E+06              0.     86.0334E+06
           40982     174.411E+06     23.0629E+06              0.     87.4372E+06
           40983     175.674E+06     24.3416E+06              0.     88.8285E+06
           40984     176.880E+06     25.6979E+06              0.     90.2025E+06
           40985     178.020E+06     27.1335E+06              0.     91.5536E+06
           40986     179.087E+06     28.6499E+06              0.     92.8762E+06
           40987     180.073E+06     30.2479E+06              0.     94.1633E+06
           40988     180.970E+06     31.9280E+06              0.     95.4079E+06
           40989     181.770E+06     33.6901E+06              0.     96.6016E+06
           40990     182.462E+06     35.5335E+06              0.     97.7356E+06
           40991     183.038E+06     37.4563E+06              0.     98.8001E+06
           40992     183.488E+06     39.4560E+06              0.     99.7846E+06
           40993     183.803E+06     41.5289E+06              0.     100.677E+06
           40994     183.973E+06     43.6699E+06              0.     101.466E+06
           40995     183.989E+06     45.8727E+06              0.     102.138E+06
           40996     183.842E+06     48.1291E+06              0.     102.679E+06
           40997     183.524E+06     50.4293E+06              0.     103.074E+06
           40998     183.027E+06     52.7617E+06              0.     103.308E+06
           40999     182.344E+06     55.1124E+06              0.     103.366E+06
           41000     181.469E+06     57.4656E+06              0.     103.231E+06
           41001     180.398E+06     59.8032E+06              0.     102.889E+06
           41002     179.128E+06     62.1048E+06              0.     102.323E+06
           41003     177.658E+06     64.3478E+06              0.     101.518E+06
           41004     175.989E+06     66.5077E+06              0.     100.462E+06
           41005     174.123E+06     68.5581E+06              0.     99.1427E+06
           41006     172.065E+06     70.4710E+06              0.     97.5489E+06
           41007     169.821E+06     72.2173E+06              0.     95.6731E+06
           41008     167.400E+06     73.7674E+06              0.     93.5100E+06
           41009     164.813E+06     75.0916E+06              0.      91.057E+06
           41010     162.070E+06     76.1607E+06              0.     88.3150E+06
           41011     159.183E+06     76.9469E+06              0.     85.2880E+06
           41012     156.166E+06     77.4243E+06              0.     81.9835E+06
           41013     155.032E+06     76.9809E+06              0.     81.3057E+06
           41014     69.9583E+06     30.6545E+06              0.     1.95988E+06
           41015     69.9435E+06     30.4872E+06              0.     1.95645E+06
           41016     70.0004E+06     30.3546E+06              0.     1.93034E+06
           41017     70.0567E+06     30.2256E+06              0.     1.90813E+06
           41018     70.1125E+06     30.1001E+06              0.     1.88971E+06
           41019     70.1678E+06     29.9778E+06              0.     1.87500E+06
           41020     70.2227E+06     29.8587E+06              0.     1.86389E+06
           41021     70.2774E+06     29.7426E+06              0.     1.85629E+06
           41022     70.3320E+06     29.6293E+06              0.     1.85212E+06
           41023     70.3866E+06     29.5186E+06              0.     1.85130E+06
           41024     70.4412E+06     29.4105E+06              0.     1.85375E+06
           41025     70.4960E+06     29.3047E+06              0.     1.85939E+06
           41026     70.5510E+06     29.2012E+06              0.     1.86816E+06
           41027     70.6064E+06     29.0998E+06              0.     1.88001E+06
           41028     70.6623E+06     29.0004E+06              0.     1.89485E+06
           41029     70.7186E+06     28.9028E+06              0.     1.91265E+06
           41030     70.7756E+06     28.8070E+06              0.     1.93335E+06
           41031     70.8333E+06     28.7128E+06              0.     1.95689E+06
           41032     70.8918E+06     28.6201E+06              0.     1.98324E+06
           41033     70.9511E+06     28.5288E+06              0.     2.01235E+06
           41034     71.0115E+06     28.4388E+06              0.     2.04418E+06
           41035     71.0728E+06     28.3499E+06              0.     2.07871E+06
           41036     71.1352E+06     28.2621E+06              0.     2.11588E+06
           41037     71.1989E+06     28.1753E+06              0.     2.15569E+06
           41038     71.2638E+06     28.0894E+06              0.     2.19809E+06
           41039     71.3301E+06     28.0043E+06              0.     2.24307E+06
           41040     71.3978E+06     27.9198E+06              0.     2.29061E+06
           41041     71.4669E+06     27.8360E+06              0.     2.34069E+06
           41042     71.5377E+06     27.7526E+06              0.     2.39330E+06
           41043     71.6101E+06     27.6697E+06              0.     2.44841E+06
           41044     71.6843E+06     27.5872E+06              0.     2.50603E+06
           41045     71.7602E+06     27.5049E+06              0.     2.56615E+06
           41046     71.8381E+06     27.4228E+06              0.     2.62876E+06
           41047     71.9179E+06     27.3408E+06              0.     2.69385E+06
           41048     71.9997E+06     27.2589E+06              0.     2.76144E+06
           41049     72.0836E+06     27.1769E+06              0.     2.83152E+06
           41050     72.1698E+06     27.0948E+06              0.     2.90410E+06
           41051     72.2581E+06     27.0125E+06              0.     2.97918E+06
           41052     72.3488E+06     26.9299E+06              0.     3.05678E+06
           41053     72.4419E+06     26.8471E+06              0.     3.13690E+06
           41054     72.5375E+06     26.7638E+06              0.     3.21956E+06
           41055     72.6357E+06     26.6801E+06              0.     3.30478E+06
           41056     72.7365E+06     26.5959E+06              0.     3.39257E+06
           41057     72.8400E+06     26.5111E+06              0.     3.48296E+06
           41058     72.9463E+06     26.4257E+06              0.     3.57596E+06
           41059     73.0555E+06     26.3395E+06              0.     3.67160E+06
           41060     73.1677E+06     26.2526E+06              0.     3.76991E+06
           41061     73.2829E+06     26.1649E+06              0.     3.87091E+06
           41062     73.4012E+06     26.0763E+06              0.     3.97463E+06
           41063     73.5227E+06     25.9868E+06              0.     4.08111E+06
           41064     73.6476E+06     25.8963E+06              0.     4.19038E+06
           41065     73.7757E+06     25.8048E+06              0.     4.30248E+06
           41066     73.9074E+06     25.7121E+06              0.     4.41744E+06
           41067     74.0426E+06     25.6183E+06              0.     4.53530E+06
           41068     74.1815E+06     25.5234E+06              0.     4.65610E+06
           41069     74.3240E+06     25.4271E+06              0.     4.77989E+06
           41070     74.4704E+06     25.3296E+06              0.     4.90672E+06
           41071     74.6208E+06     25.2308E+06              0.     5.03662E+06
           41072     74.7751E+06     25.1305E+06              0.     5.16964E+06
           41073     74.9335E+06     25.0288E+06              0.     5.30585E+06
           41074     75.0962E+06     24.9256E+06              0.     5.44528E+06
           41075     75.2631E+06     24.8209E+06              0.     5.58799E+06
           41076     75.4345E+06     24.7146E+06              0.     5.73405E+06
           41077     75.6104E+06     24.6067E+06              0.     5.88350E+06
           41078     75.7909E+06     24.4971E+06              0.     6.03640E+06
           41079     75.9761E+06     24.3858E+06              0.     6.19283E+06
           41080     76.1661E+06     24.2727E+06              0.     6.35283E+06
           41081     76.3611E+06     24.1579E+06              0.     6.51648E+06
           41082     76.5611E+06     24.0412E+06              0.     6.68384E+06
           41083     76.7663E+06     23.9227E+06              0.     6.85497E+06
           41084     76.9768E+06     23.8023E+06              0.     7.02996E+06
           41085     77.1927E+06     23.6799E+06              0.     7.20886E+06
           41086     77.4142E+06     23.5555E+06              0.     7.39177E+06
           41087     77.6412E+06     23.4291E+06              0.     7.57874E+06
           41088     77.8741E+06     23.3007E+06              0.     7.76986E+06
           41089     78.1129E+06     23.1702E+06              0.     7.96521E+06
           41090     78.3577E+06     23.0375E+06              0.     8.16486E+06
           41091     78.6086E+06     22.9027E+06              0.     8.36891E+06
           41092     78.8659E+06     22.7657E+06              0.     8.57744E+06
           41093     79.1296E+06     22.6266E+06              0.     8.79052E+06
           41094     79.4000E+06     22.4851E+06              0.     9.00826E+06
           41095     79.6770E+06     22.3415E+06              0.     9.23075E+06
           41096     79.9609E+06     22.1955E+06              0.     9.45807E+06
           41097     80.2519E+06     22.0472E+06              0.     9.69031E+06
           41098     80.5500E+06     21.8966E+06              0.     9.92759E+06
           41099     80.8554E+06     21.7436E+06              0.     10.1700E+06
           41100     81.1684E+06     21.5883E+06              0.     10.4176E+06
           41101      81.489E+06     21.4306E+06              0.     10.6706E+06
           41102     81.8174E+06     21.2704E+06              0.     10.9290E+06
           41103     82.1538E+06     21.1079E+06              0.     11.1929E+06
           41104     82.4984E+06     20.9429E+06              0.     11.4625E+06
           41105     82.8513E+06     20.7755E+06              0.     11.7378E+06
           41106     83.2127E+06     20.6056E+06              0.     12.0190E+06
           41107     83.5828E+06     20.4333E+06              0.     12.3062E+06
           41108     83.9617E+06     20.2585E+06              0.     12.5995E+06
           41109     84.3497E+06     20.0813E+06              0.     12.8990E+06
           41110      84.747E+06     19.9016E+06              0.     13.2049E+06
           41111     85.1537E+06     19.7195E+06              0.     13.5172E+06
           41112     85.5700E+06     19.5350E+06              0.     13.8362E+06
           41113     85.9962E+06     19.3480E+06              0.     14.1619E+06
           41114     86.4324E+06     19.1587E+06              0.     14.4944E+06
           41115     86.8788E+06     18.9669E+06              0.     14.8339E+06
           41116     87.3357E+06     18.7728E+06              0.     15.1806E+06
           41117     87.8033E+06     18.5764E+06              0.     15.5345E+06
           41118     88.2818E+06     18.3777E+06              0.     15.8958E+06
           41119     88.7713E+06     18.1767E+06              0.     16.2647E+06
           41120     89.2722E+06     17.9735E+06              0.     16.6412E+06
           41121     89.7847E+06     17.7681E+06              0.     17.0256E+06
           41122     90.3089E+06     17.5606E+06              0.     17.4180E+06
           41123     90.8452E+06     17.3510E+06              0.     17.8186E+06
           41124     91.3938E+06     17.1395E+06              0.     18.2275E+06
           41125     91.9548E+06     16.9260E+06              0.     18.6448E+06
           41126     92.5286E+06     16.7106E+06              0.     19.0708E+06
           41127     93.1154E+06     16.4934E+06              0.     19.5055E+06
           41128     93.7155E+06     16.2746E+06              0.     19.9492E+06
           41129     94.3290E+06     16.0542E+06              0.     20.4021E+06
           41130     94.9564E+06     15.8322E+06              0.     20.8642E+06
           41131     95.5977E+06     15.6089E+06              0.     21.3358E+06
           41132     96.2533E+06     15.3844E+06              0.     21.8171E+06
           41133     96.9235E+06     15.1587E+06              0.     22.3082E+06
           41134     97.6086E+06     14.9320E+06              0.     22.8094E+06
           41135     98.3087E+06     14.7044E+06              0.     23.3208E+06
           41136     99.0242E+06     14.4762E+06              0.     23.8425E+06
           41137     99.7553E+06     14.2475E+06              0.     24.3749E+06
           41138     100.502E+06     14.0184E+06              0.     24.9181E+06
           41139     101.266E+06     13.7892E+06              0.     25.4723E+06
           41140     102.045E+06     13.5600E+06              0.     26.0377E+06
           41141     102.842E+06     13.3311E+06              0.     26.6145E+06
           41142     103.655E+06     13.1028E+06              0.     27.2029E+06
           41143     104.486E+06     12.8751E+06              0.     27.8032E+06
           41144     105.335E+06     12.6486E+06              0.     28.4155E+06
           41145     106.201E+06     12.4233E+06              0.     29.0401E+06
           41146     107.086E+06     12.1996E+06              0.     29.6772E+06
           41147     107.989E+06     11.9778E+06              0.     30.3270E+06
           41148     108.910E+06     11.7583E+06              0.     30.9898E+06
           41149     109.851E+06     11.5414E+06              0.     31.6658E+06
           41150     110.811E+06     11.3274E+06              0.     32.3552E+06
           41151     111.790E+06     11.1168E+06              0.     33.0582E+06
           41152     112.790E+06     10.9099E+06              0.     33.7752E+06
           41153     113.809E+06     10.7073E+06              0.     34.5064E+06
           41154     114.849E+06     10.5093E+06              0.     35.2519E+06
           41155     115.909E+06     10.3165E+06              0.     36.0121E+06
           41156     116.990E+06     10.1294E+06              0.     36.7872E+06
           41157     118.092E+06     9.94851E+06              0.     37.5775E+06
           41158     119.215E+06     9.77443E+06              0.     38.3832E+06
           41159     120.360E+06     9.60776E+06              0.     39.2046E+06
           41160     121.526E+06     9.44915E+06              0.     40.0420E+06
           41161     122.713E+06     9.29926E+06              0.     40.8955E+06
           41162     123.923E+06     9.15881E+06              0.     41.7655E+06
           41163     125.155E+06     9.02856E+06              0.     42.6522E+06
           41164     126.408E+06     8.90927E+06              0.     43.5559E+06
           41165     127.684E+06     8.80180E+06              0.     44.4768E+06
           41166     128.982E+06     8.70702E+06              0.     45.4153E+06
           41167     130.302E+06     8.62584E+06              0.     46.3714E+06
           41168     131.644E+06     8.55924E+06              0.     47.3456E+06
           41169     133.008E+06     8.50824E+06              0.     48.3380E+06
           41170     134.395E+06     8.47390E+06              0.     49.3489E+06
           41171     135.802E+06     8.45736E+06              0.     50.3784E+06
           41172     137.232E+06      8.4598E+06              0.     51.4268E+06
           41173     138.683E+06     8.48246E+06              0.     52.4943E+06
           41174     140.154E+06     8.52666E+06              0.     53.5811E+06
           41175     141.646E+06     8.59377E+06              0.     54.6873E+06
           41176     143.158E+06     8.68521E+06              0.     55.8131E+06
           41177     144.689E+06     8.80252E+06              0.     56.9586E+06
           41178     146.239E+06     8.94726E+06              0.     58.1238E+06
           41179     147.807E+06      9.1211E+06              0.     59.3088E+06
           41180     149.392E+06     9.32577E+06              0.     60.5137E+06
           41181     150.993E+06     9.56310E+06              0.     61.7382E+06
           41182     152.608E+06     9.83497E+06              0.     62.9825E+06
           41183     154.237E+06     10.1434E+06              0.     64.2462E+06
           41184     155.878E+06     10.4904E+06              0.     65.5293E+06
           41185     157.530E+06     10.8781E+06              0.     66.8313E+06
           41186     159.190E+06     11.3089E+06              0.     68.1518E+06
           41187     160.856E+06     11.7850E+06              0.     69.4904E+06
           41188     162.527E+06     12.3088E+06              0.     70.8463E+06
           41189     164.200E+06     12.8829E+06              0.     72.2190E+06
           41190     165.871E+06     13.5097E+06              0.     73.6073E+06
           41191     167.539E+06     14.1921E+06              0.     75.0103E+06
           41192     169.199E+06     14.9326E+06              0.     76.4265E+06
           41193     170.848E+06     15.7342E+06              0.     77.8546E+06
           41194     172.482E+06     16.5995E+06              0.     79.2928E+06
           41195     174.097E+06     17.5314E+06              0.     80.7389E+06
           41196     175.687E+06     18.5329E+06              0.     82.1907E+06
           41197     177.248E+06     19.6068E+06              0.     83.6454E+06
           41198     178.775E+06     20.7559E+06              0.     85.0999E+06
           41199     180.260E+06     21.9829E+06              0.     86.5507E+06
           41200     181.698E+06     23.2905E+06              0.     87.9937E+06
           41201     183.081E+06     24.6811E+06              0.     89.4244E+06
           41202     184.402E+06     26.1571E+06              0.     90.8376E+06
           41203     185.653E+06     27.7203E+06              0.     92.2274E+06
           41204     186.826E+06     29.3722E+06              0.     93.5874E+06
           41205     187.911E+06     31.1142E+06              0.     94.9104E+06
           41206     188.900E+06     32.9466E+06              0.     96.1880E+06
           41207     189.781E+06     34.8694E+06              0.     97.4115E+06
           41208     190.546E+06     36.8815E+06              0.     98.5709E+06
           41209     191.184E+06     38.9810E+06              0.     99.6552E+06
           41210     191.683E+06     41.1649E+06              0.     100.653E+06
           41211     192.035E+06     43.4287E+06              0.     101.551E+06
           41212     192.227E+06     45.7665E+06              0.     102.335E+06
           41213     192.250E+06     48.1707E+06              0.     102.991E+06
           41214     192.093E+06     50.6318E+06              0.     103.502E+06
           41215     191.748E+06     53.1382E+06              0.     103.854E+06
           41216     191.207E+06     55.6759E+06              0.     104.027E+06
           41217     190.462E+06     58.2288E+06              0.     104.007E+06
           41218     189.507E+06     60.7778E+06              0.     103.773E+06
           41219     188.338E+06     63.3018E+06              0.     103.311E+06
           41220     186.954E+06     65.7766E+06              0.     102.603E+06
           41221     185.354E+06     68.1760E+06              0.     101.633E+06
           41222     183.539E+06     70.4712E+06              0.     100.387E+06
           41223     181.515E+06     72.6319E+06              0.     98.8548E+06
           41224     179.288E+06     74.6259E+06              0.     97.0252E+06
           41225     176.867E+06     76.4205E+06              0.     94.8923E+06
           41226     174.263E+06     77.9825E+06              0.     92.4526E+06
           41227     171.488E+06     79.2794E+06              0.     89.7066E+06
           41228     168.556E+06       80.28E+06              0.     86.6586E+06
           41229     165.482E+06     80.9553E+06              0.     83.3162E+06
           41230     164.392E+06     80.6800E+06              0.     82.6813E+06
           41231     70.0346E+06     30.6867E+06              0.     1.90218E+06
           41232     70.0194E+06     30.5147E+06              0.     1.89886E+06
           41233      70.078E+06     30.3782E+06              0.     1.87352E+06
           41234     70.1359E+06     30.2455E+06              0.     1.85197E+06
           41235     70.1932E+06     30.1164E+06              0.     1.83410E+06
           41236     70.2501E+06     29.9906E+06              0.     1.81982E+06
           41237     70.3066E+06     29.8681E+06              0.     1.80904E+06
           41238     70.3629E+06     29.7486E+06              0.     1.80167E+06
           41239     70.4190E+06     29.6320E+06              0.     1.79763E+06
           41240     70.4752E+06     29.5182E+06              0.     1.79683E+06
           41241     70.5314E+06     29.4070E+06              0.     1.79921E+06
           41242     70.5877E+06     29.2982E+06              0.     1.80469E+06
           41243     70.6443E+06     29.1917E+06              0.     1.81321E+06
           41244     70.7013E+06     29.0874E+06              0.     1.82471E+06
           41245     70.7588E+06     28.9851E+06              0.     1.83913E+06
           41246     70.8168E+06     28.8847E+06              0.     1.85640E+06
           41247     70.8754E+06     28.7862E+06              0.     1.87650E+06
           41248     70.9348E+06     28.6892E+06              0.     1.89935E+06
           41249     70.9949E+06     28.5939E+06              0.     1.92493E+06
           41250     71.0560E+06     28.4999E+06              0.     1.95319E+06
           41251     71.1180E+06     28.4073E+06              0.     1.98409E+06
           41252     71.1811E+06     28.3159E+06              0.     2.01761E+06
           41253     71.2454E+06     28.2256E+06              0.     2.05370E+06
           41254     71.3109E+06     28.1363E+06              0.     2.09234E+06
           41255     71.3776E+06     28.0479E+06              0.     2.13350E+06
           41256     71.4458E+06     27.9603E+06              0.     2.17717E+06
           41257     71.5155E+06     27.8734E+06              0.     2.22332E+06
           41258     71.5867E+06     27.7871E+06              0.     2.27193E+06
           41259     71.6595E+06     27.7014E+06              0.     2.32300E+06
           41260     71.7340E+06     27.6161E+06              0.     2.37650E+06
           41261     71.8103E+06     27.5311E+06              0.     2.43244E+06
           41262     71.8885E+06     27.4465E+06              0.      2.4908E+06
           41263     71.9686E+06     27.3620E+06              0.     2.55158E+06
           41264     72.0507E+06     27.2776E+06              0.     2.61477E+06
           41265     72.1349E+06     27.1933E+06              0.     2.68039E+06
           41266     72.2212E+06     27.1089E+06              0.     2.74842E+06
           41267     72.3098E+06     27.0244E+06              0.     2.81888E+06
           41268     72.4008E+06     26.9397E+06              0.     2.89177E+06
           41269     72.4941E+06     26.8548E+06              0.     2.96710E+06
           41270     72.5899E+06     26.7695E+06              0.     3.04489E+06
           41271     72.6883E+06     26.6838E+06              0.     3.12514E+06
           41272     72.7893E+06     26.5976E+06              0.     3.20787E+06
           41273     72.8930E+06     26.5109E+06              0.     3.29311E+06
           41274     72.9996E+06     26.4237E+06              0.     3.38086E+06
           41275     73.1090E+06     26.3357E+06              0.     3.47115E+06
           41276     73.2214E+06     26.2470E+06              0.     3.56401E+06
           41277     73.3368E+06     26.1576E+06              0.     3.65945E+06
           41278     73.4553E+06     26.0673E+06              0.     3.75751E+06
           41279     73.5771E+06     25.9761E+06              0.     3.85822E+06
           41280     73.7022E+06     25.8839E+06              0.     3.96161E+06
           41281     73.8306E+06     25.7907E+06              0.     4.06770E+06
           41282     73.9626E+06     25.6965E+06              0.     4.17654E+06
           41283     74.0981E+06     25.6011E+06              0.     4.28816E+06
           41284     74.2373E+06     25.5045E+06              0.     4.40260E+06
           41285     74.3802E+06     25.4067E+06              0.     4.51990E+06
           41286     74.5269E+06     25.3076E+06              0.      4.6401E+06
           41287     74.6776E+06     25.2072E+06              0.     4.76325E+06
           41288     74.8324E+06     25.1054E+06              0.     4.88938E+06
           41289     74.9912E+06     25.0021E+06              0.     5.01856E+06
           41290     75.1543E+06     24.8974E+06              0.     5.15082E+06
           41291     75.3217E+06     24.7911E+06              0.     5.28622E+06
           41292     75.4936E+06     24.6832E+06              0.     5.42482E+06
           41293     75.6700E+06     24.5737E+06              0.     5.56665E+06
           41294     75.8511E+06     24.4625E+06              0.     5.71179E+06
           41295     76.0369E+06     24.3496E+06              0.     5.86029E+06
           41296     76.2275E+06     24.2350E+06              0.     6.01220E+06
           41297     76.4232E+06     24.1185E+06              0.     6.16760E+06
           41298     76.6240E+06     24.0001E+06              0.     6.32654E+06
           41299     76.8299E+06     23.8799E+06              0.     6.48908E+06
           41300     77.0412E+06     23.7577E+06              0.     6.65530E+06
           41301     77.2580E+06     23.6336E+06              0.     6.82527E+06
           41302     77.4803E+06     23.5075E+06              0.     6.99904E+06
           41303     77.7083E+06     23.3792E+06              0.     7.17671E+06
           41304     77.9421E+06     23.2490E+06              0.     7.35833E+06
           41305     78.1819E+06     23.1165E+06              0.     7.54398E+06
           41306     78.4278E+06     22.9820E+06              0.     7.73375E+06
           41307     78.6799E+06     22.8452E+06              0.     7.92771E+06
           41308     78.9384E+06     22.7062E+06              0.     8.12594E+06
           41309     79.2034E+06     22.5649E+06              0.     8.32853E+06
           41310     79.4750E+06     22.4213E+06              0.     8.53556E+06
           41311     79.7535E+06     22.2755E+06              0.     8.74711E+06
           41312     80.0388E+06     22.1272E+06              0.     8.96328E+06
           41313     80.3313E+06     21.9766E+06              0.     9.18416E+06
           41314     80.6311E+06     21.8236E+06              0.     9.40984E+06
           41315     80.9382E+06     21.6682E+06              0.     9.64041E+06
           41316     81.2529E+06     21.5103E+06              0.     9.87597E+06
           41317     81.5754E+06     21.3500E+06              0.     10.1166E+06
           41318     81.9057E+06     21.1871E+06              0.     10.3625E+06
           41319     82.2441E+06     21.0218E+06              0.     10.6136E+06
           41320     82.5908E+06     20.8540E+06              0.     10.8701E+06
           41321     82.9459E+06     20.6836E+06              0.     11.1321E+06
           41322     83.3096E+06     20.5106E+06              0.     11.3998E+06
           41323     83.6821E+06     20.3352E+06              0.     11.6731E+06
           41324     84.0636E+06     20.1571E+06              0.     11.9523E+06
           41325     84.4543E+06     19.9765E+06              0.     12.2375E+06
           41326     84.8543E+06     19.7934E+06              0.     12.5287E+06
           41327     85.2639E+06     19.6076E+06              0.     12.8261E+06
           41328     85.6832E+06     19.4194E+06              0.     13.1298E+06
           41329     86.1125E+06     19.2285E+06              0.     13.4400E+06
           41330     86.5520E+06     19.0352E+06              0.     13.7567E+06
           41331     87.0019E+06     18.8393E+06              0.     14.0801E+06
           41332     87.4624E+06     18.6409E+06              0.     14.4104E+06
           41333     87.9337E+06     18.4400E+06              0.     14.7476E+06
           41334     88.4160E+06     18.2367E+06              0.     15.0918E+06
           41335     88.9097E+06     18.0309E+06              0.     15.4434E+06
           41336     89.4149E+06     17.8228E+06              0.     15.8023E+06
           41337     89.9318E+06     17.6123E+06              0.     16.1687E+06
           41338     90.4607E+06     17.3994E+06              0.     16.5428E+06
           41339     91.0018E+06     17.1844E+06              0.     16.9247E+06
           41340     91.5554E+06     16.9671E+06              0.     17.3145E+06
           41341     92.1218E+06     16.7477E+06              0.     17.7125E+06
           41342     92.7011E+06     16.5261E+06              0.     18.1188E+06
           41343     93.2937E+06     16.3026E+06              0.     18.5335E+06
           41344     93.8997E+06     16.0772E+06              0.     18.9568E+06
           41345     94.5196E+06     15.8499E+06              0.     19.3889E+06
           41346     95.1535E+06     15.6209E+06              0.     19.8299E+06
           41347     95.8017E+06     15.3902E+06              0.     20.2801E+06
           41348     96.4646E+06     15.1580E+06              0.     20.7395E+06
           41349     97.1423E+06     14.9243E+06              0.     21.2084E+06
           41350     97.8351E+06     14.6894E+06              0.     21.6870E+06
           41351     98.5434E+06     14.4533E+06              0.     22.1754E+06
           41352     99.2675E+06     14.2162E+06              0.     22.6738E+06
           41353     100.008E+06     13.9783E+06              0.     23.1824E+06
           41354     100.764E+06     13.7397E+06              0.     23.7015E+06
           41355     101.537E+06     13.5005E+06              0.     24.2312E+06
           41356     102.327E+06     13.2611E+06              0.     24.7717E+06
           41357     103.134E+06     13.0215E+06              0.     25.3232E+06
           41358     103.959E+06     12.7821E+06              0.     25.8860E+06
           41359     104.802E+06     12.5430E+06              0.     26.4602E+06
           41360     105.663E+06     12.3045E+06              0.     27.0460E+06
           41361     106.542E+06     12.0668E+06              0.     27.6438E+06
           41362     107.440E+06     11.8302E+06              0.     28.2537E+06
           41363     108.357E+06     11.5951E+06              0.     28.8759E+06
           41364     109.294E+06     11.3617E+06              0.     29.5107E+06
           41365     110.250E+06     11.1303E+06              0.     30.1583E+06
           41366     111.226E+06     10.9014E+06              0.     30.8189E+06
           41367     112.223E+06     10.6752E+06              0.     31.4929E+06
           41368     113.240E+06     10.4522E+06              0.     32.1804E+06
           41369     114.278E+06     10.2328E+06              0.     32.8817E+06
           41370     115.338E+06     10.0175E+06              0.     33.5970E+06
           41371     116.419E+06     9.80661E+06              0.     34.3267E+06
           41372     117.521E+06     9.60073E+06              0.     35.0710E+06
           41373     118.646E+06     9.40036E+06              0.     35.8301E+06
           41374     119.793E+06     9.20605E+06              0.     36.6043E+06
           41375     120.963E+06     9.01837E+06              0.     37.3939E+06
           41376     122.156E+06     8.83794E+06              0.     38.1992E+06
           41377     123.371E+06     8.66540E+06              0.     39.0204E+06
           41378     124.610E+06     8.50143E+06              0.     39.8579E+06
           41379     125.873E+06     8.34676E+06              0.     40.7119E+06
           41380     127.159E+06     8.20213E+06              0.     41.5826E+06
           41381     128.469E+06     8.06834E+06              0.     42.4705E+06
           41382     129.803E+06     7.94624E+06              0.     43.3758E+06
           41383     131.161E+06     7.83672E+06              0.     44.2987E+06
           41384     132.543E+06      7.7407E+06              0.     45.2396E+06
           41385     133.949E+06     7.65917E+06              0.     46.1987E+06
           41386     135.380E+06     7.59317E+06              0.     47.1763E+06
           41387     136.834E+06     7.54379E+06              0.     48.1727E+06
           41388     138.313E+06     7.51217E+06              0.     49.1882E+06
           41389     139.815E+06     7.49953E+06              0.     50.2231E+06
           41390     141.342E+06     7.50713E+06              0.     51.2775E+06
           41391     142.891E+06     7.53632E+06              0.     52.3517E+06
           41392     144.464E+06     7.58849E+06              0.     53.4461E+06
           41393     146.060E+06     7.66514E+06              0.     54.5606E+06
           41394     147.678E+06     7.76780E+06              0.     55.6957E+06
           41395     149.318E+06     7.89812E+06              0.     56.8514E+06
           41396     150.978E+06     8.05779E+06              0.     58.0278E+06
           41397     152.659E+06     8.24863E+06              0.     59.2251E+06
           41398     154.360E+06     8.47251E+06              0.     60.4434E+06
           41399     156.078E+06     8.73141E+06              0.     61.6826E+06
           41400     157.814E+06     9.02739E+06              0.     62.9428E+06
           41401     159.565E+06     9.36262E+06              0.     64.2237E+06
           41402     161.331E+06     9.73936E+06              0.     65.5253E+06
           41403     163.110E+06     10.1600E+06              0.     66.8473E+06
           41404     164.899E+06     10.6269E+06              0.     68.1894E+06
           41405     166.696E+06     11.1427E+06              0.     69.5511E+06
           41406     168.500E+06     11.7101E+06              0.     70.9318E+06
           41407     170.307E+06     12.3318E+06              0.     72.3307E+06
           41408     172.115E+06     13.0106E+06              0.     73.7472E+06
           41409     173.920E+06     13.7496E+06              0.     75.1799E+06
           41410     175.719E+06     14.5516E+06              0.     76.6277E+06
           41411     177.507E+06     15.4200E+06              0.     78.0890E+06
           41412     179.281E+06     16.3577E+06              0.     79.5621E+06
           41413     181.036E+06     17.3680E+06              0.     81.0448E+06
           41414     182.766E+06     18.4542E+06              0.     82.5347E+06
           41415     184.467E+06     19.6194E+06              0.     84.0289E+06
           41416     186.130E+06     20.8669E+06              0.     85.5243E+06
           41417     187.751E+06     22.1998E+06              0.     87.0170E+06
           41418     189.322E+06     23.6211E+06              0.     88.5026E+06
           41419     190.835E+06     25.1335E+06              0.     89.9764E+06
           41420     192.281E+06     26.7398E+06              0.     91.4326E+06
           41421     193.652E+06     28.4420E+06              0.     92.8650E+06
           41422     194.938E+06     30.2421E+06              0.     94.2664E+06
           41423     196.129E+06     32.1413E+06              0.     95.6288E+06
           41424     197.215E+06     34.1403E+06              0.     96.9432E+06
           41425     198.184E+06     36.2388E+06              0.     98.1996E+06
           41426     199.026E+06     38.4357E+06              0.     99.3869E+06
           41427     199.728E+06     40.7287E+06              0.     100.493E+06
           41428     200.278E+06     43.1142E+06              0.     101.505E+06
           41429     200.665E+06     45.5868E+06              0.     102.407E+06
           41430     200.876E+06     48.1397E+06              0.     103.185E+06
           41431     200.900E+06     50.7635E+06              0.     103.821E+06
           41432     200.727E+06     53.4471E+06              0.     104.298E+06
           41433     200.347E+06     56.1766E+06              0.     104.598E+06
           41434     199.750E+06     58.9353E+06              0.     104.701E+06
           41435     198.929E+06     61.7038E+06              0.     104.589E+06
           41436     197.879E+06     64.4597E+06              0.     104.241E+06
           41437     196.596E+06     67.1777E+06              0.     103.640E+06
           41438     195.079E+06     69.8293E+06              0.     102.768E+06
           41439     193.329E+06     72.3837E+06              0.     101.607E+06
           41440     191.350E+06     74.8074E+06              0.     100.146E+06
           41441     189.148E+06     77.0652E+06              0.     98.3712E+06
           41442     186.733E+06     79.1206E+06              0.     96.2757E+06
           41443     184.117E+06     80.9367E+06              0.     93.8548E+06
           41444     181.312E+06     82.4771E+06              0.     91.1084E+06
           41445     178.335E+06     83.7064E+06              0.     88.0403E+06
           41446     175.202E+06     84.5917E+06              0.     84.6594E+06
           41447     174.157E+06     84.4907E+06              0.     84.0689E+06
           41448     70.1087E+06     30.7180E+06              0.     1.84287E+06
           41449     70.0930E+06     30.5413E+06              0.     1.83965E+06
           41450     70.1532E+06     30.4011E+06              0.     1.81511E+06
           41451     70.2127E+06     30.2648E+06              0.     1.79423E+06
           41452     70.2715E+06     30.1322E+06              0.     1.77692E+06
           41453     70.3299E+06     30.0030E+06              0.     1.76309E+06
           41454     70.3880E+06     29.8772E+06              0.     1.75265E+06
           41455     70.4458E+06     29.7545E+06              0.     1.74551E+06
           41456     70.5035E+06     29.6347E+06              0.     1.74160E+06
           41457     70.5611E+06     29.5178E+06              0.     1.74083E+06
           41458     70.6188E+06     29.4036E+06              0.     1.74314E+06
           41459     70.6767E+06     29.2918E+06              0.     1.74845E+06
           41460     70.7349E+06     29.1825E+06              0.     1.75671E+06
           41461     70.7934E+06     29.0753E+06              0.     1.76785E+06
           41462     70.8524E+06     28.9703E+06              0.     1.78182E+06
           41463     70.9120E+06     28.8672E+06              0.     1.79857E+06
           41464     70.9722E+06     28.7659E+06              0.     1.81804E+06
           41465     71.0331E+06     28.6664E+06              0.     1.84019E+06
           41466     71.0949E+06     28.5684E+06              0.     1.86498E+06
           41467     71.1576E+06     28.4719E+06              0.     1.89236E+06
           41468     71.2214E+06     28.3768E+06              0.     1.92230E+06
           41469     71.2862E+06     28.2829E+06              0.     1.95478E+06
           41470     71.3522E+06     28.1901E+06              0.     1.98975E+06
           41471     71.4195E+06     28.0984E+06              0.     2.02719E+06
           41472     71.4881E+06     28.0076E+06              0.     2.06708E+06
           41473     71.5581E+06     27.9176E+06              0.     2.10940E+06
           41474     71.6296E+06     27.8283E+06              0.     2.15412E+06
           41475     71.7028E+06     27.7397E+06              0.     2.20122E+06
           41476     71.7776E+06     27.6516E+06              0.     2.25071E+06
           41477     71.8541E+06     27.5640E+06              0.     2.30256E+06
           41478     71.9325E+06     27.4768E+06              0.     2.35676E+06
           41479     72.0128E+06     27.3898E+06              0.     2.41331E+06
           41480     72.0951E+06     27.3030E+06              0.     2.47221E+06
           41481     72.1794E+06     27.2163E+06              0.     2.53345E+06
           41482     72.2659E+06     27.1297E+06              0.     2.59703E+06
           41483     72.3546E+06     27.0430E+06              0.     2.66295E+06
           41484     72.4457E+06     26.9561E+06              0.     2.73123E+06
           41485     72.5391E+06     26.8691E+06              0.     2.80187E+06
           41486      72.635E+06     26.7818E+06              0.     2.87487E+06
           41487     72.7334E+06     26.6942E+06              0.     2.95025E+06
           41488     72.8345E+06     26.6062E+06              0.     3.02802E+06
           41489     72.9383E+06     26.5176E+06              0.     3.10820E+06
           41490     73.0449E+06     26.4286E+06              0.     3.19080E+06
           41491     73.1543E+06     26.3389E+06              0.     3.27584E+06
           41492     73.2667E+06     26.2485E+06              0.     3.36334E+06
           41493     73.3822E+06     26.1573E+06              0.     3.45333E+06
           41494     73.5008E+06     26.0654E+06              0.     3.54583E+06
           41495     73.6226E+06     25.9726E+06              0.     3.64086E+06
           41496     73.7477E+06     25.8789E+06              0.     3.73847E+06
           41497     73.8762E+06     25.7841E+06              0.     3.83866E+06
           41498     74.0082E+06     25.6884E+06              0.     3.94149E+06
           41499     74.1438E+06     25.5915E+06              0.     4.04697E+06
           41500     74.2831E+06     25.4934E+06              0.     4.15516E+06
           41501     74.4261E+06     25.3941E+06              0.     4.26607E+06
           41502     74.5729E+06     25.2936E+06              0.     4.37976E+06
           41503     74.7237E+06     25.1917E+06              0.     4.49627E+06
           41504     74.8786E+06     25.0885E+06              0.     4.61563E+06
           41505     75.0376E+06     24.9838E+06              0.     4.73789E+06
           41506     75.2009E+06     24.8776E+06              0.     4.86310E+06
           41507     75.3685E+06     24.7699E+06              0.     4.99130E+06
           41508     75.5406E+06     24.6606E+06              0.     5.12255E+06
           41509     75.7172E+06     24.5497E+06              0.     5.25689E+06
           41510     75.8985E+06     24.4370E+06              0.     5.39439E+06
           41511     76.0846E+06     24.3227E+06              0.     5.53508E+06
           41512     76.2756E+06     24.2066E+06              0.     5.67903E+06
           41513     76.4715E+06     24.0886E+06              0.     5.82630E+06
           41514     76.6727E+06     23.9688E+06              0.     5.97695E+06
           41515      76.879E+06     23.8470E+06              0.     6.13103E+06
           41516     77.0907E+06     23.7234E+06              0.     6.28862E+06
           41517     77.3079E+06     23.5977E+06              0.     6.44977E+06
           41518     77.5307E+06     23.4699E+06              0.     6.61455E+06
           41519     77.7593E+06     23.3401E+06              0.     6.78304E+06
           41520     77.9937E+06     23.2082E+06              0.     6.95530E+06
           41521     78.2341E+06     23.0741E+06              0.     7.13140E+06
           41522     78.4806E+06     22.9378E+06              0.     7.31142E+06
           41523     78.7334E+06     22.7993E+06              0.     7.49543E+06
           41524     78.9927E+06     22.6585E+06              0.     7.68351E+06
           41525     79.2584E+06     22.5154E+06              0.     7.87574E+06
           41526     79.5309E+06     22.3700E+06              0.     8.07220E+06
           41527     79.8102E+06     22.2221E+06              0.     8.27297E+06
           41528     80.0966E+06     22.0719E+06              0.     8.47814E+06
           41529     80.3900E+06     21.9193E+06              0.     8.68779E+06
           41530     80.6908E+06     21.7642E+06              0.     8.90202E+06
           41531     80.9991E+06     21.6066E+06              0.     9.12091E+06
           41532     81.3150E+06     21.4465E+06              0.     9.34455E+06
           41533     81.6387E+06     21.2838E+06              0.     9.57305E+06
           41534     81.9704E+06     21.1186E+06              0.     9.80648E+06
           41535     82.3102E+06     20.9508E+06              0.     10.0450E+06
           41536     82.6584E+06     20.7804E+06              0.     10.2886E+06
           41537     83.0151E+06     20.6074E+06              0.     10.5375E+06
           41538     83.3804E+06     20.4318E+06              0.     10.7917E+06
           41539     83.7547E+06     20.2535E+06              0.     11.0514E+06
           41540     84.1380E+06     20.0725E+06              0.     11.3166E+06
           41541     84.5305E+06     19.8889E+06              0.     11.5876E+06
           41542     84.9325E+06     19.7027E+06              0.     11.8643E+06
           41543     85.3442E+06     19.5137E+06              0.     12.1469E+06
           41544     85.7658E+06     19.3221E+06              0.     12.4355E+06
           41545     86.1975E+06     19.1278E+06              0.     12.7303E+06
           41546     86.6394E+06     18.9308E+06              0.     13.0314E+06
           41547     87.0918E+06     18.7312E+06              0.     13.3388E+06
           41548     87.5550E+06     18.5290E+06              0.     13.6528E+06
           41549     88.0292E+06     18.3241E+06              0.     13.9734E+06
           41550     88.5145E+06     18.1166E+06              0.     14.3008E+06
           41551     89.0113E+06     17.9065E+06              0.     14.6351E+06
           41552     89.5198E+06     17.6939E+06              0.     14.9764E+06
           41553     90.0401E+06     17.4788E+06              0.     15.3249E+06
           41554     90.5726E+06     17.2611E+06              0.     15.6808E+06
           41555     91.1175E+06     17.0411E+06              0.     16.0441E+06
           41556     91.6751E+06     16.8186E+06              0.     16.4151E+06
           41557     92.2456E+06     16.5938E+06              0.     16.7939E+06
           41558     92.8293E+06     16.3667E+06              0.     17.1805E+06
           41559     93.4265E+06     16.1373E+06              0.     17.5753E+06
           41560     94.0373E+06     15.9059E+06              0.     17.9783E+06
           41561     94.6622E+06     15.6723E+06              0.     18.3897E+06
           41562     95.3014E+06     15.4368E+06              0.     18.8096E+06
           41563     95.9551E+06     15.1993E+06              0.     19.2384E+06
           41564     96.6238E+06     14.9601E+06              0.     19.6760E+06
           41565     97.3075E+06     14.7191E+06              0.     20.1227E+06
           41566     98.0068E+06     14.4766E+06              0.     20.5787E+06
           41567     98.7218E+06     14.2327E+06              0.     21.0441E+06
           41568     99.4529E+06     13.9874E+06              0.     21.5192E+06
           41569     100.200E+06     13.7409E+06              0.     22.0040E+06
           41570     100.964E+06     13.4935E+06              0.     22.4989E+06
           41571     101.746E+06     13.2452E+06              0.     23.0040E+06
           41572     102.544E+06     12.9962E+06              0.     23.5196E+06
           41573     103.360E+06     12.7467E+06              0.     24.0457E+06
           41574     104.194E+06     12.4969E+06              0.     24.5826E+06
           41575     105.047E+06     12.2471E+06              0.     25.1306E+06
           41576     105.918E+06     11.9974E+06              0.     25.6899E+06
           41577     106.808E+06     11.7481E+06              0.     26.2606E+06
           41578     107.718E+06     11.4995E+06              0.     26.8430E+06
           41579     108.647E+06     11.2518E+06              0.     27.4373E+06
           41580     109.596E+06     11.0054E+06              0.     28.0438E+06
           41581     110.565E+06     10.7605E+06              0.     28.6627E+06
           41582     111.555E+06     10.5175E+06              0.     29.2942E+06
           41583     112.567E+06     10.2767E+06              0.     29.9386E+06
           41584     113.599E+06     10.0385E+06              0.     30.5962E+06
           41585     114.654E+06     9.80325E+06              0.     31.2671E+06
           41586     115.730E+06     9.57143E+06              0.     31.9517E+06
           41587     116.829E+06     9.34345E+06              0.     32.6502E+06
           41588     117.950E+06     9.11978E+06              0.     33.3629E+06
           41589     119.095E+06     8.90091E+06              0.     34.0901E+06
           41590     120.263E+06     8.68736E+06              0.     34.8320E+06
           41591     121.454E+06     8.47967E+06              0.     35.5889E+06
           41592     122.670E+06     8.27844E+06              0.     36.3612E+06
           41593     123.910E+06     8.08427E+06              0.     37.1490E+06
           41594     125.175E+06     7.89782E+06              0.     37.9528E+06
           41595     126.464E+06     7.71975E+06              0.     38.7728E+06
           41596     127.779E+06     7.55081E+06              0.     39.6093E+06
           41597     129.119E+06     7.39175E+06              0.     40.4627E+06
           41598     130.484E+06     7.24338E+06              0.     41.3332E+06
           41599     131.876E+06     7.10654E+06              0.     42.2211E+06
           41600     133.293E+06     6.98213E+06              0.     43.1269E+06
           41601     134.737E+06     6.87109E+06              0.     44.0507E+06
           41602     136.206E+06     6.77443E+06              0.     44.9930E+06
           41603     137.702E+06     6.69318E+06              0.     45.9540E+06
           41604     139.225E+06     6.62846E+06              0.     46.9341E+06
           41605     140.774E+06     6.58143E+06              0.     47.9336E+06
           41606     142.349E+06     6.55332E+06              0.     48.9528E+06
           41607     143.951E+06     6.54542E+06              0.     49.9920E+06
           41608     145.579E+06     6.55910E+06              0.     51.0515E+06
           41609     147.232E+06     6.59580E+06              0.     52.1316E+06
           41610     148.912E+06     6.65702E+06              0.     53.2327E+06
           41611     150.616E+06     6.74435E+06              0.     54.3549E+06
           41612     152.346E+06     6.85947E+06              0.     55.4985E+06
           41613     154.100E+06     7.00415E+06              0.     56.6638E+06
           41614     155.877E+06     7.18022E+06              0.     57.8510E+06
           41615     157.677E+06     7.38963E+06              0.     59.0602E+06
           41616     159.500E+06     7.63443E+06              0.     60.2915E+06
           41617     161.343E+06     7.91677E+06              0.     61.5451E+06
           41618     163.206E+06     8.23889E+06              0.     62.8210E+06
           41619     165.087E+06     8.60314E+06              0.     64.1192E+06
           41620     166.985E+06     9.01201E+06              0.     65.4395E+06
           41621     168.898E+06     9.46807E+06              0.     66.7818E+06
           41622     170.825E+06     9.97402E+06              0.     68.1459E+06
           41623     172.762E+06     10.5327E+06              0.     69.5313E+06
           41624     174.707E+06     11.1470E+06              0.     70.9376E+06
           41625     176.659E+06     11.8200E+06              0.     72.3640E+06
           41626     178.612E+06     12.5548E+06              0.     73.8097E+06
           41627     180.565E+06     13.3548E+06              0.     75.2737E+06
           41628     182.512E+06     14.2233E+06              0.     76.7548E+06
           41629     184.451E+06     15.1637E+06              0.     78.2514E+06
           41630     186.375E+06     16.1797E+06              0.     79.7617E+06
           41631     188.281E+06     17.2747E+06              0.     81.2836E+06
           41632     190.162E+06     18.4526E+06              0.     82.8146E+06
           41633     192.012E+06     19.7168E+06              0.     84.3516E+06
           41634     193.825E+06     21.0711E+06              0.     85.8912E+06
           41635     195.593E+06     22.5189E+06              0.     87.4295E+06
           41636     197.307E+06     24.0638E+06              0.     88.9618E+06
           41637     198.960E+06     25.7089E+06              0.     90.4829E+06
           41638     200.541E+06     27.4572E+06              0.     91.9865E+06
           41639     202.042E+06     29.3113E+06              0.     93.4659E+06
           41640     203.450E+06     31.2732E+06              0.     94.9131E+06
           41641     204.756E+06     33.3445E+06              0.     96.3192E+06
           41642     205.947E+06     35.5258E+06              0.     97.6743E+06
           41643     207.009E+06     37.8170E+06              0.     98.9672E+06
           41644     207.932E+06     40.2166E+06              0.     100.186E+06
           41645     208.701E+06     42.7218E+06              0.     101.315E+06
           41646     209.302E+06     45.3283E+06              0.     102.342E+06
           41647     209.723E+06     48.0298E+06              0.     103.248E+06
           41648     209.950E+06     50.8177E+06              0.     104.017E+06
           41649     209.970E+06     53.6813E+06              0.     104.630E+06
           41650     209.772E+06     56.6067E+06              0.     105.066E+06
           41651     209.344E+06     59.5773E+06              0.     105.305E+06
           41652     208.678E+06     62.5732E+06              0.     105.325E+06
           41653     207.766E+06     65.5710E+06              0.     105.104E+06
           41654     206.603E+06     68.5438E+06              0.     104.623E+06
           41655     205.185E+06     71.4614E+06              0.     103.860E+06
           41656     203.515E+06     74.2901E+06              0.     102.797E+06
           41657     201.593E+06     76.9936E+06              0.     101.418E+06
           41658     199.428E+06     79.5328E+06              0.     99.7080E+06
           41659     197.028E+06     81.8672E+06              0.     97.6584E+06
           41660     194.405E+06     83.9555E+06              0.     95.2629E+06
           41661     191.574E+06     85.7565E+06              0.     92.5205E+06
           41662     188.551E+06     87.2306E+06              0.     89.4350E+06
           41663     185.356E+06     88.3406E+06              0.     86.0156E+06
           41664     184.356E+06     88.4197E+06              0.     85.4741E+06
           41665     70.1803E+06     30.7482E+06              0.     1.78198E+06
           41666     70.1643E+06     30.5670E+06              0.     1.77888E+06
           41667      70.226E+06     30.4233E+06              0.     1.75514E+06
           41668     70.2870E+06     30.2835E+06              0.     1.73496E+06
           41669     70.3473E+06     30.1475E+06              0.     1.71822E+06
           41670     70.4072E+06     30.0150E+06              0.     1.70485E+06
           41671     70.4668E+06     29.8860E+06              0.     1.69476E+06
           41672     70.5260E+06     29.7601E+06              0.     1.68786E+06
           41673     70.5852E+06     29.6373E+06              0.     1.68408E+06
           41674     70.6443E+06     29.5174E+06              0.     1.68334E+06
           41675     70.7034E+06     29.4003E+06              0.     1.68557E+06
           41676     70.7628E+06     29.2857E+06              0.     1.69072E+06
           41677     70.8225E+06     29.1735E+06              0.     1.69871E+06
           41678     70.8825E+06     29.0636E+06              0.     1.70949E+06
           41679     70.9430E+06     28.9559E+06              0.     1.72300E+06
           41680     71.0041E+06     28.8502E+06              0.     1.73919E+06
           41681     71.0658E+06     28.7463E+06              0.     1.75803E+06
           41682     71.1284E+06     28.6442E+06              0.     1.77945E+06
           41683     71.1917E+06     28.5438E+06              0.     1.80342E+06
           41684     71.2561E+06     28.4448E+06              0.     1.82991E+06
           41685     71.3214E+06     28.3472E+06              0.     1.85887E+06
           41686     71.3879E+06     28.2509E+06              0.     1.89028E+06
           41687     71.4556E+06     28.1558E+06              0.     1.92410E+06
           41688     71.5246E+06     28.0617E+06              0.     1.96031E+06
           41689     71.5949E+06     27.9686E+06              0.     1.99889E+06
           41690     71.6668E+06     27.8763E+06              0.     2.03981E+06
           41691     71.7401E+06     27.7847E+06              0.     2.08306E+06
           41692     71.8152E+06     27.6938E+06              0.     2.12862E+06
           41693     71.8919E+06     27.6035E+06              0.     2.17648E+06
           41694     71.9704E+06     27.5136E+06              0.     2.22663E+06
           41695     72.0508E+06     27.4241E+06              0.     2.27905E+06
           41696     72.1332E+06     27.3349E+06              0.     2.33375E+06
           41697     72.2176E+06     27.2459E+06              0.     2.39071E+06
           41698     72.3041E+06     27.1569E+06              0.     2.44994E+06
           41699     72.3928E+06     27.0681E+06              0.     2.51143E+06
           41700     72.4838E+06     26.9791E+06              0.     2.57520E+06
           41701     72.5772E+06     26.8901E+06              0.     2.64123E+06
           41702     72.6730E+06     26.8008E+06              0.     2.70955E+06
           41703     72.7714E+06     26.7112E+06              0.     2.78016E+06
           41704     72.8724E+06     26.6213E+06              0.     2.85307E+06
           41705     72.9761E+06     26.5310E+06              0.     2.92829E+06
           41706     73.0825E+06     26.4402E+06              0.     3.00584E+06
           41707     73.1919E+06     26.3488E+06              0.     3.08573E+06
           41708     73.3041E+06     26.2567E+06              0.     3.16798E+06
           41709     73.4195E+06     26.1640E+06              0.     3.25262E+06
           41710     73.5379E+06     26.0705E+06              0.     3.33966E+06
           41711     73.6596E+06     25.9762E+06              0.     3.42913E+06
           41712     73.7846E+06     25.8809E+06              0.     3.52106E+06
           41713     73.9129E+06     25.7847E+06              0.     3.61547E+06
           41714     74.0448E+06     25.6875E+06              0.     3.71239E+06
           41715     74.1802E+06     25.5892E+06              0.     3.81185E+06
           41716     74.3193E+06     25.4898E+06              0.     3.91389E+06
           41717     74.4622E+06     25.3892E+06              0.     4.01854E+06
           41718     74.6089E+06     25.2873E+06              0.     4.12584E+06
           41719     74.7596E+06     25.1841E+06              0.     4.23581E+06
           41720     74.9143E+06     25.0795E+06              0.     4.34852E+06
           41721     75.0732E+06     24.9735E+06              0.     4.46399E+06
           41722     75.2364E+06     24.8660E+06              0.     4.58226E+06
           41723     75.4039E+06     24.7570E+06              0.     4.70339E+06
           41724     75.5759E+06     24.6464E+06              0.     4.82742E+06
           41725     75.7524E+06     24.5342E+06              0.     4.95440E+06
           41726     75.9337E+06     24.4203E+06              0.     5.08437E+06
           41727     76.1197E+06     24.3047E+06              0.     5.21739E+06
           41728     76.3107E+06     24.1872E+06              0.     5.35351E+06
           41729     76.5067E+06     24.0680E+06              0.     5.49279E+06
           41730     76.7078E+06     23.9469E+06              0.     5.63528E+06
           41731     76.9142E+06     23.8238E+06              0.     5.78104E+06
           41732      77.126E+06     23.6988E+06              0.     5.93013E+06
           41733     77.3433E+06     23.5717E+06              0.     6.08261E+06
           41734     77.5662E+06     23.4426E+06              0.     6.23854E+06
           41735     77.7949E+06     23.3114E+06              0.     6.39800E+06
           41736     78.0295E+06     23.1781E+06              0.     6.56104E+06
           41737     78.2701E+06     23.0425E+06              0.     6.72773E+06
           41738     78.5168E+06     22.9047E+06              0.     6.89815E+06
           41739     78.7699E+06     22.7647E+06              0.     7.07236E+06
           41740     79.0294E+06     22.6224E+06              0.     7.25044E+06
           41741     79.2956E+06     22.4777E+06              0.     7.43247E+06
           41742     79.5684E+06     22.3306E+06              0.     7.61851E+06
           41743     79.8482E+06     22.1811E+06              0.     7.80866E+06
           41744     80.1350E+06     22.0292E+06              0.     8.00299E+06
           41745     80.4289E+06     21.8747E+06              0.     8.20158E+06
           41746     80.7303E+06     21.7178E+06              0.     8.40451E+06
           41747     81.0391E+06     21.5583E+06              0.     8.61188E+06
           41748     81.3557E+06     21.3963E+06              0.     8.82377E+06
           41749     81.6801E+06     21.2316E+06              0.     9.04028E+06
           41750     82.0125E+06     21.0643E+06              0.     9.26148E+06
           41751     82.3532E+06     20.8944E+06              0.     9.48748E+06
           41752     82.7022E+06     20.7218E+06              0.     9.71838E+06
           41753     83.0598E+06     20.5465E+06              0.     9.95426E+06
           41754     83.4262E+06     20.3685E+06              0.     10.1952E+06
           41755     83.8015E+06     20.1877E+06              0.     10.4414E+06
           41756     84.1859E+06     20.0042E+06              0.     10.6929E+06
           41757     84.5797E+06     19.8180E+06              0.     10.9497E+06
           41758     84.9830E+06     19.6289E+06              0.     11.2121E+06
           41759     85.3961E+06     19.4372E+06              0.     11.4801E+06
           41760     85.8191E+06     19.2426E+06              0.     11.7539E+06
           41761     86.2523E+06     19.0452E+06              0.     12.0335E+06
           41762     86.6959E+06     18.8451E+06              0.     12.3190E+06
           41763     87.1501E+06     18.6422E+06              0.     12.6106E+06
           41764     87.6152E+06     18.4365E+06              0.     12.9085E+06
           41765     88.0913E+06     18.2281E+06              0.     13.2127E+06
           41766     88.5787E+06     18.0169E+06              0.     13.5233E+06
           41767     89.0777E+06     17.8029E+06              0.     13.8405E+06
           41768     89.5885E+06     17.5863E+06              0.     14.1645E+06
           41769     90.1113E+06     17.3670E+06              0.     14.4953E+06
           41770     90.6464E+06     17.1451E+06              0.     14.8331E+06
           41771     91.1941E+06     16.9205E+06              0.     15.1780E+06
           41772     91.7546E+06     16.6933E+06              0.     15.5302E+06
           41773     92.3281E+06     16.4637E+06              0.     15.8899E+06
           41774     92.9151E+06     16.2315E+06              0.     16.2571E+06
           41775     93.5156E+06     15.9969E+06              0.     16.6320E+06
           41776     94.1301E+06     15.7600E+06              0.     17.0148E+06
           41777     94.7588E+06     15.5207E+06              0.     17.4056E+06
           41778      95.402E+06     15.2792E+06              0.     17.8046E+06
           41779     96.0600E+06     15.0356E+06              0.     18.2120E+06
           41780     96.7331E+06     14.7900E+06              0.     18.6279E+06
           41781     97.4215E+06     14.5424E+06              0.     19.0525E+06
           41782     98.1257E+06     14.2929E+06              0.     19.4860E+06
           41783     98.8459E+06     14.0418E+06              0.     19.9285E+06
           41784     99.5825E+06     13.7890E+06              0.     20.3802E+06
           41785     100.336E+06     13.5347E+06              0.     20.8413E+06
           41786     101.106E+06     13.2791E+06              0.     21.3121E+06
           41787     101.894E+06     13.0223E+06              0.     21.7926E+06
           41788     102.699E+06     12.7645E+06              0.     22.2831E+06
           41789     103.522E+06     12.5058E+06              0.     22.7838E+06
           41790     104.364E+06     12.2465E+06              0.     23.2949E+06
           41791     105.224E+06     11.9867E+06              0.     23.8166E+06
           41792     106.104E+06     11.7267E+06              0.     24.3491E+06
           41793     107.003E+06     11.4666E+06              0.     24.8927E+06
           41794     107.921E+06     11.2068E+06              0.     25.4475E+06
           41795     108.860E+06     10.9475E+06              0.     26.0137E+06
           41796     109.820E+06     10.6889E+06              0.     26.5917E+06
           41797     110.800E+06     10.4313E+06              0.     27.1816E+06
           41798     111.802E+06     10.1751E+06              0.     27.7837E+06
           41799     112.825E+06     9.92061E+06              0.     28.3983E+06
           41800     113.870E+06     9.66812E+06              0.     29.0255E+06
           41801     114.938E+06     9.41803E+06              0.     29.6657E+06
           41802     116.029E+06     9.17073E+06              0.     30.3191E+06
           41803     117.143E+06     8.92663E+06              0.     30.9859E+06
           41804     118.280E+06     8.68618E+06              0.     31.6665E+06
           41805     119.441E+06     8.44983E+06              0.     32.3611E+06
           41806     120.627E+06     8.21808E+06              0.     33.0701E+06
           41807     121.837E+06     7.99145E+06              0.     33.7936E+06
           41808     123.073E+06     7.77050E+06              0.     34.5321E+06
           41809     124.334E+06     7.55579E+06              0.     35.2857E+06
           41810     125.620E+06     7.34794E+06              0.     36.0548E+06
           41811     126.933E+06     7.14762E+06              0.     36.8398E+06
           41812     128.272E+06     6.95549E+06              0.     37.6410E+06
           41813     129.638E+06     6.77229E+06              0.     38.4586E+06
           41814     131.031E+06     6.59879E+06              0.     39.2930E+06
           41815     132.451E+06     6.43579E+06              0.     40.1445E+06
           41816     133.899E+06     6.28414E+06              0.     41.0136E+06
           41817     135.376E+06     6.14475E+06              0.     41.9005E+06
           41818     136.880E+06     6.01857E+06              0.     42.8056E+06
           41819     138.412E+06     5.90661E+06              0.     43.7292E+06
           41820     139.973E+06     5.80992E+06              0.     44.6717E+06
           41821     141.563E+06     5.72962E+06              0.     45.6335E+06
           41822     143.182E+06      5.6669E+06              0.     46.6150E+06
           41823     144.829E+06     5.62300E+06              0.     47.6164E+06
           41824     146.506E+06     5.59922E+06              0.     48.6382E+06
           41825     148.211E+06     5.59697E+06              0.     49.6808E+06
           41826     149.945E+06     5.61769E+06              0.     50.7444E+06
           41827     151.708E+06     5.66293E+06              0.     51.8295E+06
           41828     153.499E+06     5.73431E+06              0.     52.9363E+06
           41829     155.318E+06     5.83354E+06              0.     54.0653E+06
           41830     157.165E+06     5.96243E+06              0.     55.2168E+06
           41831     159.039E+06     6.12287E+06              0.     56.3910E+06
           41832     160.939E+06     6.31686E+06              0.     57.5882E+06
           41833     162.866E+06     6.54651E+06              0.     58.8087E+06
           41834     164.817E+06     6.81403E+06              0.     60.0527E+06
           41835     166.792E+06     7.12175E+06              0.     61.3203E+06
           41836     168.790E+06     7.47212E+06              0.     62.6118E+06
           41837     170.809E+06     7.86771E+06              0.     63.9271E+06
           41838     172.848E+06     8.31122E+06              0.     65.2663E+06
           41839     174.904E+06     8.80547E+06              0.     66.6292E+06
           41840     176.977E+06     9.35344E+06              0.     68.0157E+06
           41841     179.063E+06     9.95822E+06              0.     69.4255E+06
           41842     181.161E+06     10.6230E+06              0.     70.8582E+06
           41843     183.266E+06     11.3513E+06              0.     72.3132E+06
           41844     185.376E+06     12.1464E+06              0.     73.7896E+06
           41845     187.487E+06     13.0122E+06              0.     75.2866E+06
           41846     189.594E+06     13.9522E+06              0.     76.8029E+06
           41847     191.694E+06     14.9705E+06              0.      78.337E+06
           41848     193.782E+06     16.0709E+06              0.     79.8871E+06
           41849     195.851E+06     17.2576E+06              0.     81.4511E+06
           41850     197.895E+06     18.5346E+06              0.     83.0263E+06
           41851     199.908E+06     19.9061E+06              0.     84.6097E+06
           41852     201.881E+06     21.3762E+06              0.     86.1975E+06
           41853     203.808E+06     22.9490E+06              0.     87.7857E+06
           41854     205.679E+06     24.6284E+06              0.     89.3691E+06
           41855     207.484E+06     26.4181E+06              0.     90.9422E+06
           41856     209.212E+06     28.3214E+06              0.     92.4982E+06
           41857     210.854E+06     30.3414E+06              0.     94.0296E+06
           41858     212.395E+06     32.4806E+06              0.     95.5276E+06
           41859     213.824E+06     34.7405E+06              0.     96.9824E+06
           41860     215.128E+06     37.1219E+06              0.     98.3828E+06
           41861     216.291E+06     39.6247E+06              0.     99.7163E+06
           41862     217.299E+06     42.2469E+06              0.     100.969E+06
           41863     218.138E+06     44.9854E+06              0.     102.125E+06
           41864     218.791E+06     47.8347E+06              0.     103.167E+06
           41865     219.244E+06     50.7872E+06              0.     104.077E+06
           41866     219.482E+06     53.8327E+06              0.     104.834E+06
           41867     219.490E+06     56.9578E+06              0.     105.417E+06
           41868     219.256E+06     60.1460E+06              0.     105.802E+06
           41869     218.768E+06     63.3770E+06              0.     105.968E+06
           41870     218.017E+06     66.6266E+06              0.     105.889E+06
           41871     216.994E+06     69.8665E+06              0.     105.541E+06
           41872     215.697E+06     73.0644E+06              0.     104.902E+06
           41873     214.123E+06     76.1841E+06              0.     103.950E+06
           41874     212.275E+06     79.1855E+06              0.     102.666E+06
           41875     210.158E+06     82.0256E+06              0.     101.032E+06
           41876     207.782E+06     84.6592E+06              0.     99.0382E+06
           41877     205.160E+06     87.0399E+06              0.     96.6758E+06
           41878     202.307E+06     89.1210E+06              0.     93.9429E+06
           41879     199.242E+06     90.8575E+06              0.     90.8435E+06
           41880     195.983E+06     92.2076E+06              0.     87.3870E+06
           41881     195.033E+06     92.4782E+06              0.     86.9024E+06
           41882     70.2496E+06     30.7774E+06              0.     1.71958E+06
           41883     70.2332E+06     30.5918E+06              0.     1.71658E+06
           41884     70.2963E+06     30.4447E+06              0.     1.69368E+06
           41885     70.3588E+06     30.3015E+06              0.     1.67420E+06
           41886     70.4206E+06     30.1622E+06              0.     1.65806E+06
           41887     70.4819E+06     30.0266E+06              0.     1.64516E+06
           41888     70.5428E+06     29.8944E+06              0.     1.63542E+06
           41889     70.6035E+06     29.7656E+06              0.     1.62877E+06
           41890     70.6641E+06     29.6398E+06              0.     1.62512E+06
           41891     70.7246E+06     29.5171E+06              0.     1.62441E+06
           41892     70.7852E+06     29.3971E+06              0.     1.62657E+06
           41893     70.8460E+06     29.2797E+06              0.     1.63154E+06
           41894     70.9071E+06     29.1649E+06              0.     1.63925E+06
           41895     70.9686E+06     29.0523E+06              0.     1.64965E+06
           41896     71.0305E+06     28.9420E+06              0.     1.66270E+06
           41897     71.0931E+06     28.8338E+06              0.     1.67833E+06
           41898     71.1563E+06     28.7274E+06              0.     1.69651E+06
           41899     71.2204E+06     28.6229E+06              0.     1.71718E+06
           41900     71.2853E+06     28.5200E+06              0.     1.74032E+06
           41901     71.3511E+06     28.4186E+06              0.     1.76589E+06
           41902     71.4181E+06     28.3187E+06              0.     1.79384E+06
           41903     71.4862E+06     28.2201E+06              0.     1.82415E+06
           41904     71.5555E+06     28.1226E+06              0.     1.85680E+06
           41905     71.6261E+06     28.0263E+06              0.     1.89175E+06
           41906     71.6982E+06     27.9309E+06              0.     1.92898E+06
           41907     71.7718E+06     27.8364E+06              0.     1.96848E+06
           41908     71.8469E+06     27.7426E+06              0.     2.01022E+06
           41909     71.9237E+06     27.6495E+06              0.     2.05420E+06
           41910     72.0023E+06     27.5570E+06              0.     2.10039E+06
           41911     72.0827E+06     27.4649E+06              0.     2.14879E+06
           41912     72.1651E+06     27.3732E+06              0.     2.19938E+06
           41913     72.2494E+06     27.2819E+06              0.     2.25217E+06
           41914     72.3359E+06     27.1907E+06              0.     2.30715E+06
           41915     72.4245E+06     27.0996E+06              0.     2.36432E+06
           41916     72.5154E+06     27.0086E+06              0.     2.42367E+06
           41917     72.6086E+06     26.9175E+06              0.     2.48522E+06
           41918     72.7043E+06     26.8262E+06              0.     2.54896E+06
           41919     72.8024E+06     26.7348E+06              0.     2.61490E+06
           41920     72.9032E+06     26.6430E+06              0.     2.68305E+06
           41921     73.0066E+06     26.5509E+06              0.     2.75342E+06
           41922     73.1128E+06     26.4584E+06              0.     2.82602E+06
           41923     73.2219E+06     26.3653E+06              0.     2.90088E+06
           41924     73.3339E+06     26.2717E+06              0.     2.97799E+06
           41925     73.4489E+06     26.1774E+06              0.     3.05739E+06
           41926     73.5670E+06     26.0824E+06              0.     3.13908E+06
           41927     73.6884E+06     25.9866E+06              0.     3.22310E+06
           41928     73.8130E+06     25.8899E+06              0.     3.30947E+06
           41929     73.9410E+06     25.7923E+06              0.     3.39820E+06
           41930     74.0725E+06     25.6938E+06              0.     3.48933E+06
           41931     74.2076E+06     25.5942E+06              0.     3.58289E+06
           41932     74.3464E+06     25.4934E+06              0.     3.67891E+06
           41933     74.4888E+06     25.3915E+06              0.     3.77741E+06
           41934     74.6352E+06     25.2884E+06              0.     3.87843E+06
           41935     74.7855E+06     25.1840E+06              0.     3.98201E+06
           41936     74.9399E+06     25.0782E+06              0.     4.08818E+06
           41937     75.0984E+06     24.9710E+06              0.     4.19698E+06
           41938     75.2612E+06     24.8624E+06              0.     4.30845E+06
           41939     75.4284E+06     24.7522E+06              0.     4.42263E+06
           41940     75.6000E+06     24.6405E+06              0.     4.53958E+06
           41941     75.7763E+06     24.5271E+06              0.     4.65932E+06
           41942     75.9572E+06     24.4121E+06              0.     4.78191E+06
           41943     76.1429E+06     24.2953E+06              0.     4.90739E+06
           41944     76.3336E+06     24.1767E+06              0.     5.03582E+06
           41945     76.5292E+06     24.0564E+06              0.     5.16725E+06
           41946     76.7301E+06     23.9341E+06              0.     5.30172E+06
           41947     76.9362E+06     23.8099E+06              0.     5.43930E+06
           41948     77.1477E+06     23.6837E+06              0.     5.58004E+06
           41949     77.3647E+06     23.5555E+06              0.     5.72400E+06
           41950     77.5874E+06     23.4252E+06              0.     5.87123E+06
           41951     77.8158E+06     23.2928E+06              0.     6.02181E+06
           41952     78.0502E+06     23.1582E+06              0.     6.17578E+06
           41953     78.2906E+06     23.0214E+06              0.     6.33322E+06
           41954     78.5372E+06     22.8824E+06              0.     6.49420E+06
           41955     78.7902E+06     22.7410E+06              0.     6.65877E+06
           41956     79.0496E+06     22.5974E+06              0.     6.82702E+06
           41957     79.3156E+06     22.4513E+06              0.     6.99900E+06
           41958     79.5884E+06     22.3028E+06              0.      7.1748E+06
           41959     79.8681E+06     22.1519E+06              0.     7.35449E+06
           41960     80.1549E+06     21.9985E+06              0.     7.53814E+06
           41961     80.4489E+06     21.8426E+06              0.     7.72584E+06
           41962     80.7503E+06     21.6841E+06              0.     7.91766E+06
           41963     81.0592E+06     21.5230E+06              0.     8.11368E+06
           41964     81.3759E+06     21.3593E+06              0.     8.31400E+06
           41965     81.7004E+06     21.1929E+06              0.     8.51868E+06
           41966     82.0331E+06     21.0238E+06              0.     8.72783E+06
           41967     82.3740E+06     20.8521E+06              0.     8.94154E+06
           41968     82.7233E+06     20.6775E+06              0.     9.15989E+06
           41969     83.0812E+06     20.5003E+06              0.     9.38297E+06
           41970     83.4480E+06     20.3202E+06              0.     9.61088E+06
           41971     83.8237E+06     20.1373E+06              0.     9.84372E+06
           41972     84.2086E+06     19.9516E+06              0.     10.0816E+06
           41973     84.6030E+06     19.7631E+06              0.     10.3246E+06
           41974     85.0069E+06     19.5717E+06              0.     10.5728E+06
           41975     85.4207E+06     19.3774E+06              0.     10.8264E+06
           41976     85.8444E+06     19.1803E+06              0.     11.0854E+06
           41977     86.2785E+06     18.9803E+06              0.     11.3500E+06
           41978     86.7229E+06     18.7773E+06              0.     11.6202E+06
           41979     87.1781E+06     18.5715E+06              0.     11.8962E+06
           41980     87.6442E+06     18.3628E+06              0.     12.1782E+06
           41981     88.1215E+06     18.1513E+06              0.     12.4661E+06
           41982     88.6101E+06     17.9368E+06              0.     12.7602E+06
           41983     89.1104E+06     17.7195E+06              0.     13.0605E+06
           41984     89.6226E+06     17.4993E+06              0.     13.3673E+06
           41985     90.1470E+06     17.2763E+06              0.     13.6806E+06
           41986     90.6838E+06     17.0506E+06              0.     14.0005E+06
           41987     91.2332E+06     16.8220E+06              0.     14.3272E+06
           41988     91.7956E+06     16.5907E+06              0.     14.6608E+06
           41989     92.3712E+06     16.3566E+06              0.     15.0015E+06
           41990     92.9602E+06     16.1200E+06              0.     15.3494E+06
           41991     93.5631E+06     15.8807E+06              0.     15.7046E+06
           41992     94.1801E+06     15.6388E+06              0.     16.0674E+06
           41993     94.8114E+06     15.3944E+06              0.     16.4378E+06
           41994     95.4574E+06     15.1476E+06              0.     16.8160E+06
           41995     96.1183E+06     14.8985E+06              0.     17.2022E+06
           41996     96.7946E+06     14.6470E+06              0.     17.5965E+06
           41997     97.4864E+06     14.3934E+06              0.     17.9991E+06
           41998     98.1942E+06     14.1376E+06              0.     18.4101E+06
           41999     98.9182E+06     13.8799E+06              0.     18.8298E+06
           42000     99.6588E+06     13.6202E+06              0.     19.2583E+06
           42001     100.416E+06     13.3588E+06              0.     19.6958E+06
           42002     101.191E+06     13.0958E+06              0.     20.1425E+06
           42003     101.984E+06     12.8313E+06              0.     20.5985E+06
           42004     102.794E+06     12.5654E+06              0.     21.0641E+06
           42005     103.623E+06     12.2983E+06              0.     21.5394E+06
           42006     104.470E+06     12.0302E+06              0.     22.0246E+06
           42007     105.337E+06     11.7612E+06              0.     22.5200E+06
           42008     106.223E+06     11.4917E+06              0.     23.0258E+06
           42009     107.128E+06     11.2217E+06              0.     23.5421E+06
           42010     108.055E+06     10.9515E+06              0.     24.0692E+06
           42011     109.001E+06     10.6813E+06              0.     24.6073E+06
           42012     109.969E+06     10.4114E+06              0.     25.1567E+06
           42013     110.958E+06     10.1421E+06              0.     25.7175E+06
           42014     111.969E+06     9.87366E+06              0.     26.2900E+06
           42015     113.002E+06     9.60637E+06              0.     26.8745E+06
           42016     114.057E+06     9.34056E+06              0.     27.4712E+06
           42017     115.136E+06     9.07658E+06              0.     28.0803E+06
           42018     116.238E+06     8.81480E+06              0.     28.7022E+06
           42019     117.364E+06     8.55561E+06              0.     29.3370E+06
           42020     118.515E+06     8.29941E+06              0.     29.9851E+06
           42021     119.690E+06     8.04665E+06              0.     30.6468E+06
           42022     120.890E+06     7.79779E+06              0.     31.3222E+06
           42023     122.116E+06     7.55333E+06              0.     32.0118E+06
           42024     123.368E+06     7.31376E+06              0.     32.7158E+06
           42025     124.646E+06     7.07966E+06              0.     33.4346E+06
           42026     125.951E+06     6.85160E+06              0.     34.1683E+06
           42027     127.283E+06     6.63018E+06              0.     34.9175E+06
           42028     128.643E+06     6.41608E+06              0.     35.6823E+06
           42029     130.031E+06     6.20996E+06              0.     36.4632E+06
           42030     131.447E+06     6.01255E+06              0.     37.2604E+06
           42031     132.893E+06     5.82464E+06              0.     38.0744E+06
           42032     134.367E+06     5.64702E+06              0.     38.9054E+06
           42033     135.871E+06     5.48055E+06              0.     39.7539E+06
           42034     137.405E+06     5.32614E+06              0.     40.6203E+06
           42035     138.969E+06     5.18475E+06              0.     41.5048E+06
           42036     140.563E+06     5.05739E+06              0.     42.4080E+06
           42037     142.189E+06     4.94512E+06              0.     43.3301E+06
           42038     143.845E+06     4.84907E+06              0.     44.2717E+06
           42039     145.533E+06     4.77044E+06              0.     45.2330E+06
           42040     147.252E+06     4.71048E+06              0.     46.2146E+06
           42041     149.002E+06     4.67052E+06              0.     47.2168E+06
           42042     150.784E+06     4.65197E+06              0.     48.2401E+06
           42043     152.598E+06     4.65630E+06              0.     49.2848E+06
           42044     154.443E+06     4.68507E+06              0.     50.3514E+06
           42045     156.320E+06     4.73995E+06              0.     51.4404E+06
           42046     158.229E+06     4.82267E+06              0.     52.5521E+06
           42047     160.168E+06     4.93507E+06              0.     53.6869E+06
           42048     162.139E+06     5.07908E+06              0.     54.8452E+06
           42049     164.139E+06     5.25677E+06              0.     56.0275E+06
           42050     166.170E+06     5.47028E+06              0.     57.2340E+06
           42051     168.229E+06     5.72189E+06              0.     58.4652E+06
           42052     170.317E+06     6.01401E+06              0.     59.7213E+06
           42053     172.431E+06     6.34916E+06              0.     61.0026E+06
           42054     174.572E+06     6.73001E+06              0.     62.3093E+06
           42055     176.738E+06     7.15936E+06              0.     63.6416E+06
           42056     178.927E+06     7.64015E+06              0.     64.9996E+06
           42057     181.137E+06     8.17549E+06              0.     66.3834E+06
           42058     183.366E+06     8.76864E+06              0.     67.7928E+06
           42059     185.611E+06     9.42299E+06              0.     69.2276E+06
           42060     187.871E+06     10.1421E+06              0.     70.6876E+06
           42061     190.142E+06     10.9298E+06              0.     72.1722E+06
           42062     192.420E+06     11.7898E+06              0.     73.6808E+06
           42063     194.701E+06     12.7263E+06              0.     75.2125E+06
           42064     196.982E+06     13.7435E+06              0.     76.7661E+06
           42065     199.256E+06     14.8457E+06              0.     78.3402E+06
           42066     201.519E+06     16.0373E+06              0.     79.9330E+06
           42067     203.765E+06     17.3230E+06              0.     81.5422E+06
           42068     205.987E+06     18.7074E+06              0.     83.1653E+06
           42069     208.176E+06     20.1952E+06              0.     84.7989E+06
           42070     210.326E+06     21.7911E+06              0.     86.4394E+06
           42071     212.426E+06     23.4998E+06              0.     88.0822E+06
           42072     214.467E+06     25.3257E+06              0.     89.7219E+06
           42073     216.438E+06     27.2731E+06              0.     91.3525E+06
           42074     218.327E+06     29.3459E+06              0.     92.9665E+06
           42075     220.122E+06     31.5477E+06              0.     94.5557E+06
           42076     221.809E+06     33.8811E+06              0.     96.1103E+06
           42077     223.372E+06     36.3481E+06              0.     97.6194E+06
           42078     224.797E+06     38.9497E+06              0.     99.0704E+06
           42079     226.068E+06     41.6853E+06              0.     100.449E+06
           42080     227.168E+06     44.5528E+06              0.     101.739E+06
           42081     228.079E+06     47.5482E+06              0.     102.924E+06
           42082     228.784E+06     50.6647E+06              0.     103.982E+06
           42083     229.267E+06     53.8932E+06              0.     104.893E+06
           42084     229.509E+06     57.2210E+06              0.     105.634E+06
           42085     229.496E+06     60.6319E+06              0.     106.180E+06
           42086     229.214E+06     64.1054E+06              0.     106.504E+06
           42087     228.649E+06     67.6167E+06              0.     106.581E+06
           42088     227.793E+06     71.1364E+06              0.     106.383E+06
           42089     226.638E+06     74.6299E+06              0.     105.884E+06
           42090     225.181E+06     78.0580E+06              0.     105.058E+06
           42091     223.425E+06     81.3772E+06              0.     103.883E+06
           42092     221.372E+06     84.5397E+06              0.     102.339E+06
           42093     219.033E+06     87.4951E+06              0.     100.412E+06
           42094     216.421E+06     90.1908E+06              0.     98.0919E+06
           42095     213.554E+06     92.5742E+06              0.     95.3748E+06
           42096     210.451E+06     94.5935E+06              0.     92.2647E+06
           42097     207.132E+06     96.1998E+06              0.     88.7714E+06
           42098     206.243E+06     96.6801E+06              0.     88.3544E+06
           42099     70.3163E+06     30.8056E+06              0.     1.65570E+06
           42100     70.2995E+06     30.6158E+06              0.     1.65282E+06
           42101     70.3641E+06     30.4653E+06              0.     1.63077E+06
           42102     70.4280E+06     30.3189E+06              0.     1.61202E+06
           42103     70.4912E+06     30.1765E+06              0.     1.59648E+06
           42104     70.5539E+06     30.0378E+06              0.     1.58406E+06
           42105     70.6162E+06     29.9026E+06              0.     1.57469E+06
           42106     70.6783E+06     29.7708E+06              0.     1.56828E+06
           42107     70.7402E+06     29.6422E+06              0.     1.56477E+06
           42108     70.8021E+06     29.5167E+06              0.     1.56409E+06
           42109     70.8640E+06     29.3940E+06              0.     1.56617E+06
           42110     70.9262E+06     29.2740E+06              0.     1.57096E+06
           42111     70.9887E+06     29.1565E+06              0.     1.57839E+06
           42112     71.0515E+06     29.0415E+06              0.     1.58841E+06
           42113     71.1149E+06     28.9286E+06              0.     1.60097E+06
           42114     71.1789E+06     28.8179E+06              0.     1.61603E+06
           42115     71.2436E+06     28.7092E+06              0.     1.63354E+06
           42116     71.3090E+06     28.6022E+06              0.     1.65345E+06
           42117     71.3754E+06     28.4970E+06              0.     1.67573E+06
           42118     71.4428E+06     28.3934E+06              0.     1.70035E+06
           42119     71.5112E+06     28.2912E+06              0.     1.72727E+06
           42120     71.5809E+06     28.1903E+06              0.     1.75646E+06
           42121     71.6518E+06     28.0906E+06              0.     1.78790E+06
           42122     71.7240E+06     27.9921E+06              0.     1.82156E+06
           42123     71.7977E+06     27.8945E+06              0.     1.85742E+06
           42124     71.8730E+06     27.7979E+06              0.     1.89545E+06
           42125     71.9498E+06     27.7020E+06              0.     1.93565E+06
           42126     72.0284E+06     27.6068E+06              0.     1.97800E+06
           42127     72.1088E+06     27.5121E+06              0.     2.02249E+06
           42128     72.1910E+06     27.4180E+06              0.     2.06909E+06
           42129     72.2753E+06     27.3242E+06              0.     2.11782E+06
           42130     72.3615E+06     27.2307E+06              0.     2.16866E+06
           42131     72.4500E+06     27.1375E+06              0.     2.22161E+06
           42132     72.5406E+06     27.0443E+06              0.     2.27666E+06
           42133     72.6336E+06     26.9512E+06              0.     2.33382E+06
           42134     72.7289E+06     26.8580E+06              0.     2.39309E+06
           42135     72.8268E+06     26.7647E+06              0.     2.45448E+06
           42136     72.9272E+06     26.6711E+06              0.     2.51798E+06
           42137     73.0302E+06     26.5773E+06              0.     2.58362E+06
           42138     73.1360E+06     26.4831E+06              0.     2.65139E+06
           42139     73.2447E+06     26.3884E+06              0.     2.72132E+06
           42140     73.3562E+06     26.2932E+06              0.     2.79341E+06
           42141     73.4708E+06     26.1974E+06              0.     2.86768E+06
           42142     73.5885E+06     26.1009E+06              0.     2.94414E+06
           42143     73.7093E+06     26.0037E+06              0.     3.02283E+06
           42144     73.8334E+06     25.9057E+06              0.     3.10375E+06
           42145     73.9609E+06     25.8068E+06              0.     3.18693E+06
           42146     74.0919E+06     25.7069E+06              0.     3.27239E+06
           42147     74.2264E+06     25.6061E+06              0.     3.36017E+06
           42148     74.3646E+06     25.5041E+06              0.     3.45028E+06
           42149     74.5065E+06     25.4011E+06              0.     3.54276E+06
           42150     74.6523E+06     25.2968E+06              0.     3.63763E+06
           42151     74.8021E+06     25.1912E+06              0.     3.73494E+06
           42152     74.9559E+06     25.0844E+06              0.     3.83471E+06
           42153     75.1138E+06     24.9761E+06              0.     3.93697E+06
           42154      75.276E+06     24.8664E+06              0.     4.04177E+06
           42155     75.4426E+06     24.7552E+06              0.     4.14915E+06
           42156     75.6136E+06     24.6425E+06              0.     4.25914E+06
           42157     75.7892E+06     24.5281E+06              0.     4.37179E+06
           42158     75.9695E+06     24.4121E+06              0.     4.48713E+06
           42159     76.1546E+06     24.2943E+06              0.     4.60522E+06
           42160     76.3447E+06     24.1747E+06              0.     4.72611E+06
           42161     76.5397E+06     24.0534E+06              0.     4.84983E+06
           42162     76.7400E+06     23.9301E+06              0.     4.97644E+06
           42163     76.9455E+06     23.8049E+06              0.     5.10599E+06
           42164     77.1564E+06     23.6778E+06              0.     5.23853E+06
           42165     77.3728E+06     23.5485E+06              0.     5.37412E+06
           42166     77.5949E+06     23.4172E+06              0.     5.51281E+06
           42167     77.8228E+06     23.2838E+06              0.     5.65467E+06
           42168     78.0566E+06     23.1482E+06              0.     5.79974E+06
           42169     78.2965E+06     23.0104E+06              0.     5.94810E+06
           42170     78.5426E+06     22.8703E+06              0.     6.09980E+06
           42171     78.7949E+06     22.7279E+06              0.     6.25490E+06
           42172     79.0538E+06     22.5831E+06              0.     6.41348E+06
           42173     79.3193E+06     22.4359E+06              0.     6.57560E+06
           42174     79.5916E+06     22.2863E+06              0.     6.74132E+06
           42175     79.8708E+06     22.1342E+06              0.     6.91073E+06
           42176     80.1572E+06     21.9796E+06              0.     7.08389E+06
           42177     80.4507E+06     21.8224E+06              0.     7.26087E+06
           42178     80.7517E+06     21.6626E+06              0.     7.44176E+06
           42179     81.0602E+06     21.5001E+06              0.     7.62663E+06
           42180     81.3765E+06     21.3350E+06              0.     7.81555E+06
           42181     81.7007E+06     21.1672E+06              0.     8.00862E+06
           42182     82.0330E+06     20.9967E+06              0.     8.20591E+06
           42183     82.3736E+06     20.8233E+06              0.     8.40750E+06
           42184     82.7227E+06     20.6472E+06              0.     8.61350E+06
           42185     83.0804E+06     20.4683E+06              0.     8.82397E+06
           42186     83.4469E+06     20.2865E+06              0.     9.03902E+06
           42187     83.8225E+06     20.1018E+06              0.     9.25873E+06
           42188     84.2073E+06     19.9143E+06              0.     9.48321E+06
           42189     84.6016E+06     19.7238E+06              0.     9.71254E+06
           42190     85.0054E+06     19.5304E+06              0.     9.94683E+06
           42191     85.4192E+06     19.3340E+06              0.     10.1862E+06
           42192     85.8430E+06     19.1347E+06              0.     10.4307E+06
           42193     86.2771E+06     18.9323E+06              0.     10.6805E+06
           42194     86.7218E+06     18.7270E+06              0.     10.9356E+06
           42195     87.1772E+06     18.5187E+06              0.     11.1962E+06
           42196     87.6436E+06     18.3074E+06              0.     11.4624E+06
           42197     88.1212E+06     18.0931E+06              0.     11.7343E+06
           42198     88.6102E+06     17.8759E+06              0.     12.0121E+06
           42199     89.1110E+06     17.6556E+06              0.     12.2957E+06
           42200     89.6238E+06     17.4323E+06              0.     12.5855E+06
           42201     90.1488E+06     17.2061E+06              0.     12.8814E+06
           42202     90.6862E+06     16.9770E+06              0.     13.1836E+06
           42203     91.2365E+06     16.7449E+06              0.     13.4923E+06
           42204     91.7998E+06     16.5099E+06              0.     13.8076E+06
           42205     92.3764E+06     16.2720E+06              0.     14.1295E+06
           42206     92.9666E+06     16.0314E+06              0.     14.4583E+06
           42207     93.5707E+06     15.7879E+06              0.     14.7941E+06
           42208     94.1890E+06     15.5417E+06              0.     15.1370E+06
           42209     94.8219E+06     15.2927E+06              0.     15.4872E+06
           42210     95.4695E+06     15.0412E+06              0.     15.8448E+06
           42211     96.1322E+06     14.7870E+06              0.     16.2099E+06
           42212     96.8104E+06     14.5304E+06              0.     16.5828E+06
           42213     97.5043E+06     14.2713E+06              0.     16.9636E+06
           42214     98.2144E+06     14.0099E+06              0.     17.3524E+06
           42215     98.9408E+06     13.7463E+06              0.     17.7495E+06
           42216     99.6841E+06     13.4804E+06              0.     18.1549E+06
           42217     100.444E+06     13.2126E+06              0.     18.5689E+06
           42218     101.222E+06     12.9428E+06              0.     18.9916E+06
           42219     102.018E+06     12.6712E+06              0.     19.4232E+06
           42220     102.832E+06     12.3980E+06              0.     19.8639E+06
           42221     103.665E+06     12.1232E+06              0.     20.3139E+06
           42222     104.516E+06     11.8471E+06              0.     20.7734E+06
           42223     105.387E+06     11.5698E+06              0.     21.2426E+06
           42224     106.278E+06     11.2915E+06              0.     21.7217E+06
           42225     107.188E+06     11.0124E+06              0.     22.2108E+06
           42226     108.120E+06     10.7326E+06              0.     22.7103E+06
           42227     109.072E+06     10.4525E+06              0.     23.2202E+06
           42228     110.046E+06     10.1722E+06              0.     23.7409E+06
           42229     111.042E+06     9.89209E+06              0.     24.2726E+06
           42230     112.059E+06     9.61231E+06              0.     24.8155E+06
           42231     113.100E+06     9.33319E+06              0.     25.3698E+06
           42232     114.164E+06     9.05503E+06              0.     25.9358E+06
           42233     115.251E+06     8.77816E+06              0.     26.5138E+06
           42234     116.362E+06     8.50292E+06              0.     27.1039E+06
           42235     117.498E+06     8.22967E+06              0.     27.7065E+06
           42236     118.658E+06     7.95879E+06              0.     28.3219E+06
           42237     119.844E+06     7.69071E+06              0.     28.9502E+06
           42238     121.056E+06     7.42585E+06              0.     29.5918E+06
           42239     122.294E+06     7.16468E+06              0.     30.2471E+06
           42240     123.560E+06     6.90768E+06              0.     30.9162E+06
           42241     124.852E+06     6.65536E+06              0.     31.5995E+06
           42242     126.172E+06     6.40829E+06              0.     32.2973E+06
           42243     127.520E+06     6.16702E+06              0.     33.0099E+06
           42244     128.897E+06     5.93219E+06              0.     33.7378E+06
           42245     130.303E+06     5.70443E+06              0.     34.4811E+06
           42246     131.739E+06     5.48444E+06              0.     35.2403E+06
           42247     133.205E+06     5.27293E+06              0.     36.0157E+06
           42248     134.701E+06     5.07069E+06              0.     36.8077E+06
           42249     136.228E+06     4.87851E+06              0.     37.6167E+06
           42250     137.787E+06     4.69726E+06              0.     38.4430E+06
           42251     139.378E+06     4.52784E+06              0.     39.2871E+06
           42252     141.001E+06     4.37123E+06              0.     40.1494E+06
           42253     142.656E+06     4.22842E+06              0.     41.0302E+06
           42254     144.344E+06     4.10049E+06              0.     41.9301E+06
           42255     146.066E+06     3.98859E+06              0.     42.8494E+06
           42256     147.822E+06     3.89390E+06              0.     43.7886E+06
           42257     149.611E+06     3.81769E+06              0.     44.7481E+06
           42258     151.435E+06     3.76130E+06              0.     45.7285E+06
           42259     153.293E+06     3.72616E+06              0.     46.7301E+06
           42260     155.186E+06     3.71375E+06              0.     47.7535E+06
           42261     157.113E+06     3.72566E+06              0.     48.7992E+06
           42262     159.075E+06     3.76356E+06              0.     49.8675E+06
           42263     161.072E+06     3.82922E+06              0.     50.9591E+06
           42264     163.104E+06     3.92451E+06              0.     52.0745E+06
           42265     165.170E+06     4.05140E+06              0.     53.2140E+06
           42266     167.270E+06     4.21199E+06              0.     54.3782E+06
           42267     169.405E+06     4.40847E+06              0.     55.5676E+06
           42268     171.572E+06     4.64317E+06              0.     56.7825E+06
           42269     173.773E+06     4.91857E+06              0.     58.0236E+06
           42270     176.005E+06     5.23726E+06              0.     59.2911E+06
           42271     178.268E+06     5.60198E+06              0.     60.5855E+06
           42272     180.561E+06     6.01563E+06              0.     61.9071E+06
           42273     182.882E+06     6.48128E+06              0.     63.2562E+06
           42274     185.231E+06     7.00214E+06              0.     64.6330E+06
           42275     187.604E+06     7.58160E+06              0.     66.0377E+06
           42276     190.000E+06     8.22325E+06              0.     67.4703E+06
           42277     192.417E+06     8.93082E+06              0.     68.9308E+06
           42278     194.851E+06     9.70828E+06              0.     70.4190E+06
           42279     197.300E+06     10.5598E+06              0.     71.9345E+06
           42280     199.759E+06     11.4896E+06              0.     73.4767E+06
           42281     202.225E+06     12.5022E+06              0.     75.0450E+06
           42282     204.692E+06     13.6024E+06              0.     76.6381E+06
           42283     207.156E+06     14.7951E+06              0.     78.2548E+06
           42284     209.610E+06     16.0852E+06              0.     79.8933E+06
           42285     212.048E+06     17.4780E+06              0.     81.5513E+06
           42286     214.463E+06     18.9786E+06              0.     83.2262E+06
           42287     216.845E+06     20.5926E+06              0.     84.9147E+06
           42288     219.187E+06     22.3252E+06              0.     86.6127E+06
           42289     221.477E+06     24.1817E+06              0.     88.3155E+06
           42290     223.705E+06     26.1674E+06              0.     90.0174E+06
           42291     225.858E+06     28.2872E+06              0.     91.7116E+06
           42292     227.923E+06     30.5456E+06              0.     93.3901E+06
           42293     229.886E+06     32.9467E+06              0.     95.0437E+06
           42294     231.731E+06     35.4936E+06              0.     96.6617E+06
           42295     233.442E+06     38.1887E+06              0.     98.2315E+06
           42296     234.999E+06     41.0328E+06              0.     99.7390E+06
           42297     236.386E+06     44.0254E+06              0.     101.168E+06
           42298     237.583E+06     47.1638E+06              0.     102.500E+06
           42299     238.570E+06     50.4427E+06              0.     103.715E+06
           42300     239.327E+06     53.8542E+06              0.     104.790E+06
           42301     239.835E+06     57.3866E+06              0.     105.700E+06
           42302     240.074E+06     61.0244E+06              0.     106.419E+06
           42303     240.028E+06     64.7473E+06              0.     106.917E+06
           42304     239.681E+06     68.5302E+06              0.     107.166E+06
           42305     239.019E+06     72.3423E+06              0.     107.135E+06
           42306     238.035E+06     76.1473E+06              0.     106.793E+06
           42307     236.721E+06     79.9029E+06              0.     106.111E+06
           42308     235.077E+06     83.5614E+06              0.     105.062E+06
           42309     233.108E+06     87.0700E+06              0.     103.624E+06
           42310     230.821E+06     90.3723E+06              0.     101.777E+06
           42311     228.231E+06     93.4088E+06              0.     99.5093E+06
           42312     225.356E+06     96.1194E+06              0.     96.8151E+06
           42313     222.220E+06     98.4455E+06              0.     93.6971E+06
           42314     218.850E+06     100.332E+06              0.     90.1661E+06
           42315     218.033E+06     101.037E+06              0.     89.8196E+06
           42316     70.3805E+06     30.8326E+06              0.     1.59042E+06
           42317     70.3633E+06     30.6388E+06              0.     1.58765E+06
           42318     70.4293E+06     30.4851E+06              0.     1.56647E+06
           42319     70.4945E+06     30.3356E+06              0.     1.54846E+06
           42320     70.5591E+06     30.1901E+06              0.     1.53353E+06
           42321     70.6231E+06     30.0485E+06              0.     1.52161E+06
           42322     70.6868E+06     29.9105E+06              0.     1.51261E+06
           42323     70.7501E+06     29.7759E+06              0.     1.50646E+06
           42324     70.8134E+06     29.6446E+06              0.     1.50309E+06
           42325     70.8766E+06     29.5163E+06              0.     1.50244E+06
           42326     70.9399E+06     29.3910E+06              0.     1.50444E+06
           42327     71.0034E+06     29.2685E+06              0.     1.50904E+06
           42328     71.0671E+06     29.1485E+06              0.     1.51618E+06
           42329     71.1313E+06     29.0310E+06              0.     1.52581E+06
           42330     71.1961E+06     28.9157E+06              0.     1.53788E+06
           42331     71.2614E+06     28.8027E+06              0.     1.55235E+06
           42332     71.3275E+06     28.6916E+06              0.     1.56917E+06
           42333     71.3943E+06     28.5824E+06              0.     1.58830E+06
           42334     71.4621E+06     28.4749E+06              0.     1.60971E+06
           42335     71.5309E+06     28.3691E+06              0.     1.63336E+06
           42336     71.6009E+06     28.2647E+06              0.     1.65922E+06
           42337     71.6720E+06     28.1617E+06              0.     1.68727E+06
           42338     71.7444E+06     28.0599E+06              0.     1.71747E+06
           42339     71.8182E+06     27.9592E+06              0.     1.74981E+06
           42340     71.8935E+06     27.8596E+06              0.     1.78426E+06
           42341     71.9703E+06     27.7609E+06              0.     1.82080E+06
           42342     72.0488E+06     27.6629E+06              0.     1.85942E+06
           42343     72.1291E+06     27.5657E+06              0.     1.90011E+06
           42344     72.2112E+06     27.4690E+06              0.     1.94284E+06
           42345     72.2952E+06     27.3728E+06              0.     1.98762E+06
           42346     72.3812E+06     27.2770E+06              0.     2.03444E+06
           42347     72.4694E+06     27.1815E+06              0.     2.08328E+06
           42348     72.5597E+06     27.0863E+06              0.     2.13415E+06
           42349     72.6523E+06     26.9911E+06              0.     2.18704E+06
           42350     72.7472E+06     26.8960E+06              0.     2.24196E+06
           42351     72.8446E+06     26.8008E+06              0.     2.29891E+06
           42352     72.9446E+06     26.7054E+06              0.     2.35788E+06
           42353     73.0472E+06     26.6099E+06              0.     2.41890E+06
           42354     73.1524E+06     26.5140E+06              0.     2.48196E+06
           42355     73.2605E+06     26.4178E+06              0.     2.54708E+06
           42356     73.3715E+06     26.3210E+06              0.     2.61426E+06
           42357     73.4855E+06     26.2238E+06              0.     2.68352E+06
           42358     73.6025E+06     26.1259E+06              0.     2.75488E+06
           42359     73.7227E+06     26.0273E+06              0.     2.82835E+06
           42360     73.8462E+06     25.9280E+06              0.     2.90395E+06
           42361     73.9730E+06     25.8278E+06              0.     2.98171E+06
           42362     74.1032E+06     25.7268E+06              0.     3.06163E+06
           42363     74.2370E+06     25.6248E+06              0.     3.14375E+06
           42364     74.3745E+06     25.5217E+06              0.     3.22809E+06
           42365     74.5156E+06     25.4175E+06              0.     3.31467E+06
           42366     74.6607E+06     25.3122E+06              0.     3.40353E+06
           42367     74.8096E+06     25.2056E+06              0.     3.49470E+06
           42368     74.9626E+06     25.0978E+06              0.     3.58820E+06
           42369     75.1197E+06     24.9885E+06              0.     3.68406E+06
           42370     75.2811E+06     24.8779E+06              0.     3.78234E+06
           42371     75.4468E+06     24.7658E+06              0.     3.88304E+06
           42372     75.6170E+06     24.6521E+06              0.     3.98623E+06
           42373     75.7918E+06     24.5369E+06              0.     4.09192E+06
           42374     75.9712E+06     24.4200E+06              0.     4.20017E+06
           42375     76.1554E+06     24.3013E+06              0.     4.31102E+06
           42376     76.3446E+06     24.1810E+06              0.     4.42450E+06
           42377     76.5388E+06     24.0588E+06              0.     4.54068E+06
           42378     76.7381E+06     23.9347E+06              0.     4.65958E+06
           42379     76.9428E+06     23.8087E+06              0.     4.78125E+06
           42380     77.1528E+06     23.6807E+06              0.     4.90576E+06
           42381     77.3683E+06     23.5506E+06              0.     5.03315E+06
           42382     77.5895E+06     23.4185E+06              0.     5.16346E+06
           42383     77.8164E+06     23.2842E+06              0.     5.29676E+06
           42384     78.0493E+06     23.1478E+06              0.     5.43311E+06
           42385     78.2883E+06     23.0091E+06              0.     5.57255E+06
           42386     78.5335E+06     22.8682E+06              0.     5.71514E+06
           42387     78.7849E+06     22.7249E+06              0.     5.86095E+06
           42388     79.0429E+06     22.5792E+06              0.     6.01005E+06
           42389     79.3075E+06     22.4311E+06              0.     6.16248E+06
           42390     79.5789E+06     22.2805E+06              0.     6.31832E+06
           42391     79.8572E+06     22.1275E+06              0.     6.47763E+06
           42392     80.1427E+06     21.9719E+06              0.     6.64048E+06
           42393     80.4353E+06     21.8136E+06              0.     6.80695E+06
           42394     80.7354E+06     21.6528E+06              0.     6.97710E+06
           42395     81.0431E+06     21.4893E+06              0.     7.15100E+06
           42396     81.3586E+06     21.3231E+06              0.     7.32874E+06
           42397     81.6819E+06     21.1541E+06              0.     7.51038E+06
           42398     82.0134E+06     20.9823E+06              0.     7.69601E+06
           42399     82.3532E+06     20.8078E+06              0.     7.88571E+06
           42400     82.7014E+06     20.6303E+06              0.     8.07956E+06
           42401     83.0584E+06     20.4500E+06              0.     8.27764E+06
           42402     83.4241E+06     20.2668E+06              0.     8.48004E+06
           42403     83.7990E+06     20.0807E+06              0.     8.68684E+06
           42404     84.1831E+06     19.8916E+06              0.     8.89814E+06
           42405     84.5766E+06     19.6995E+06              0.     9.11403E+06
           42406     84.9798E+06     19.5044E+06              0.     9.33459E+06
           42407     85.3929E+06     19.3063E+06              0.     9.55993E+06
           42408     85.8161E+06     19.1051E+06              0.     9.79015E+06
           42409     86.2497E+06     18.9008E+06              0.     10.0253E+06
           42410     86.6938E+06     18.6935E+06              0.     10.2656E+06
           42411     87.1487E+06     18.4831E+06              0.     10.5110E+06
           42412     87.6146E+06     18.2696E+06              0.     10.7618E+06
           42413     88.0918E+06     18.0530E+06              0.     11.0179E+06
           42414     88.5805E+06     17.8333E+06              0.     11.2795E+06
           42415     89.0809E+06     17.6105E+06              0.     11.5468E+06
           42416     89.5934E+06     17.3847E+06              0.     11.8197E+06
           42417     90.1182E+06     17.1557E+06              0.     12.0986E+06
           42418     90.6555E+06     16.9236E+06              0.     12.3833E+06
           42419     91.2057E+06     16.6885E+06              0.     12.6742E+06
           42420     91.7690E+06     16.4503E+06              0.     12.9713E+06
           42421     92.3456E+06     16.2091E+06              0.     13.2748E+06
           42422     92.9360E+06     15.9650E+06              0.     13.5847E+06
           42423     93.5403E+06     15.7178E+06              0.     13.9012E+06
           42424     94.1590E+06     15.4678E+06              0.     14.2245E+06
           42425     94.7922E+06     15.2149E+06              0.     14.5547E+06
           42426     95.4403E+06     14.9591E+06              0.     14.8919E+06
           42427     96.1037E+06     14.7006E+06              0.     15.2362E+06
           42428     96.7826E+06     14.4393E+06              0.     15.5879E+06
           42429     97.4774E+06     14.1755E+06              0.     15.9471E+06
           42430     98.1885E+06     13.9090E+06              0.     16.3139E+06
           42431     98.9161E+06     13.6401E+06              0.     16.6885E+06
           42432     99.6606E+06     13.3687E+06              0.     17.0710E+06
           42433     100.423E+06     13.0951E+06              0.     17.4617E+06
           42434     101.202E+06     12.8193E+06              0.     17.8607E+06
           42435     102.000E+06     12.5414E+06              0.     18.2681E+06
           42436     102.816E+06     12.2615E+06              0.     18.6841E+06
           42437     103.650E+06     11.9798E+06              0.     19.1090E+06
           42438     104.504E+06     11.6964E+06              0.     19.5429E+06
           42439     105.378E+06     11.4115E+06              0.     19.9860E+06
           42440     106.271E+06     11.1253E+06              0.     20.4385E+06
           42441     107.186E+06     10.8378E+06              0.     20.9005E+06
           42442     108.120E+06     10.5494E+06              0.     21.3724E+06
           42443     109.077E+06     10.2602E+06              0.     21.8543E+06
           42444     110.054E+06     9.97047E+06              0.     22.3465E+06
           42445     111.055E+06     9.68037E+06              0.     22.8490E+06
           42446     112.077E+06     9.39019E+06              0.     23.3623E+06
           42447     113.123E+06     9.10020E+06              0.     23.8865E+06
           42448     114.192E+06     8.81067E+06              0.     24.4218E+06
           42449     115.286E+06     8.52190E+06              0.     24.9685E+06
           42450     116.403E+06     8.23422E+06              0.     25.5268E+06
           42451     117.546E+06     7.94796E+06              0.     26.0971E+06
           42452     118.714E+06     7.66349E+06              0.     26.6795E+06
           42453     119.909E+06     7.38119E+06              0.     27.2744E+06
           42454     121.129E+06     7.10146E+06              0.     27.8820E+06
           42455     122.377E+06     6.82474E+06              0.     28.5026E+06
           42456     123.652E+06     6.55148E+06              0.     29.1365E+06
           42457     124.956E+06     6.28217E+06              0.     29.7841E+06
           42458     126.287E+06     6.01732E+06              0.     30.4455E+06
           42459     127.648E+06     5.75748E+06              0.     31.1212E+06
           42460     129.039E+06     5.50322E+06              0.     31.8115E+06
           42461     130.459E+06     5.25515E+06              0.     32.5167E+06
           42462     131.910E+06     5.01392E+06              0.     33.2372E+06
           42463     133.393E+06     4.78022E+06              0.     33.9734E+06
           42464     134.907E+06     4.55476E+06              0.     34.7255E+06
           42465     136.453E+06     4.33831E+06              0.     35.4941E+06
           42466     138.032E+06     4.13169E+06              0.     36.2794E+06
           42467     139.645E+06     3.93575E+06              0.     37.0819E+06
           42468     141.291E+06     3.75140E+06              0.     37.9021E+06
           42469     142.971E+06     3.57960E+06              0.     38.7403E+06
           42470     144.686E+06     3.42137E+06              0.     39.5970E+06
           42471     146.437E+06     3.27778E+06              0.     40.4726E+06
           42472     148.223E+06     3.14996E+06              0.     41.3676E+06
           42473     150.045E+06     3.03913E+06              0.     42.2826E+06
           42474     151.904E+06     2.94656E+06              0.     43.2179E+06
           42475     153.800E+06     2.87358E+06              0.     44.1742E+06
           42476     155.733E+06     2.82164E+06              0.     45.1518E+06
           42477     157.704E+06     2.79223E+06              0.     46.1514E+06
           42478     159.712E+06     2.78695E+06              0.     47.1735E+06
           42479     161.758E+06     2.80749E+06              0.     48.2186E+06
           42480     163.843E+06     2.85564E+06              0.     49.2873E+06
           42481     165.966E+06     2.93330E+06              0.     50.3802E+06
           42482     168.127E+06     3.04245E+06              0.     51.4979E+06
           42483     170.327E+06     3.18523E+06              0.     52.6408E+06
           42484     172.564E+06     3.36389E+06              0.     53.8097E+06
           42485     174.839E+06     3.58078E+06              0.     55.0050E+06
           42486     177.152E+06     3.83844E+06              0.     56.2274E+06
           42487     179.501E+06     4.13952E+06              0.     57.4773E+06
           42488     181.887E+06     4.48684E+06              0.     58.7555E+06
           42489     184.307E+06     4.88338E+06              0.     60.0622E+06
           42490     186.762E+06     5.33228E+06              0.     61.3982E+06
           42491     189.250E+06     5.83689E+06              0.     62.7636E+06
           42492     191.769E+06     6.40073E+06              0.     64.1591E+06
           42493     194.317E+06     7.02751E+06              0.     65.5847E+06
           42494     196.893E+06     7.72116E+06              0.     67.0409E+06
           42495     199.493E+06     8.48582E+06              0.     68.5276E+06
           42496     202.115E+06     9.32585E+06              0.     70.0448E+06
           42497     204.755E+06     10.2458E+06              0.     71.5923E+06
           42498     207.410E+06     11.2506E+06              0.     73.1698E+06
           42499     210.075E+06     12.3451E+06              0.     74.7765E+06
           42500     212.745E+06     13.5347E+06              0.     76.4116E+06
           42501     215.415E+06     14.8249E+06              0.     78.0737E+06
           42502     218.077E+06     16.2213E+06              0.     79.7612E+06
           42503     220.725E+06     17.7298E+06              0.     81.4720E+06
           42504     223.351E+06     19.3564E+06              0.     83.2032E+06
           42505     225.945E+06     21.1072E+06              0.     84.9515E+06
           42506     228.497E+06     22.9884E+06              0.     86.7126E+06
           42507     230.996E+06     25.0062E+06              0.     88.4816E+06
           42508     233.430E+06     27.1664E+06              0.     90.2522E+06
           42509     235.784E+06     29.4749E+06              0.     92.0171E+06
           42510     238.043E+06     31.9369E+06              0.     93.7676E+06
           42511     240.192E+06     34.5571E+06              0.     95.4933E+06
           42512     242.211E+06     37.3392E+06              0.     97.1822E+06
           42513     244.082E+06     40.2860E+06              0.     98.8203E+06
           42514     245.785E+06     43.3983E+06              0.     100.391E+06
           42515     247.297E+06     46.6754E+06              0.     101.876E+06
           42516     248.598E+06     50.1137E+06              0.     103.255E+06
           42517     249.663E+06     53.7067E+06              0.     104.503E+06
           42518     250.471E+06     57.4444E+06              0.     105.594E+06
           42519     250.998E+06     61.3122E+06              0.     106.499E+06
           42520     251.224E+06     65.2906E+06              0.     107.187E+06
           42521     251.129E+06     69.3543E+06              0.     107.625E+06
           42522     250.698E+06     73.4717E+06              0.     107.779E+06
           42523     249.915E+06     77.6046E+06              0.     107.614E+06
           42524     248.774E+06     81.7078E+06              0.     107.096E+06
           42525     247.271E+06     85.7291E+06              0.     106.194E+06
           42526     245.406E+06     89.6102E+06              0.     104.879E+06
           42527     243.190E+06     93.2875E+06              0.     103.128E+06
           42528     240.636E+06     96.6938E+06              0.     100.925E+06
           42529     237.763E+06     99.7603E+06              0.     98.2632E+06
           42530     234.596E+06     102.419E+06              0.     95.1427E+06
           42531     231.161E+06     104.605E+06              0.     91.5756E+06
           42532     230.411E+06     105.542E+06              0.     91.3082E+06
           42533     70.4421E+06     30.8586E+06              0.     1.52377E+06
           42534     70.4246E+06     30.6609E+06              0.     1.52112E+06
           42535     70.4919E+06     30.5041E+06              0.     1.50084E+06
           42536     70.5584E+06     30.3516E+06              0.     1.48358E+06
           42537     70.6242E+06     30.2032E+06              0.     1.46928E+06
           42538     70.6895E+06     30.0588E+06              0.     1.45786E+06
           42539     70.7544E+06     29.9180E+06              0.     1.44923E+06
           42540     70.8191E+06     29.7807E+06              0.     1.44334E+06
           42541     70.8836E+06     29.6468E+06              0.     1.44012E+06
           42542     70.9480E+06     29.5160E+06              0.     1.43950E+06
           42543     71.0126E+06     29.3882E+06              0.     1.44142E+06
           42544     71.0774E+06     29.2631E+06              0.     1.44583E+06
           42545     71.1424E+06     29.1408E+06              0.     1.45267E+06
           42546     71.2079E+06     29.0209E+06              0.     1.46190E+06
           42547     71.2739E+06     28.9034E+06              0.     1.47347E+06
           42548     71.3406E+06     28.7880E+06              0.     1.48733E+06
           42549     71.4080E+06     28.6747E+06              0.     1.50345E+06
           42550     71.4762E+06     28.5633E+06              0.     1.52178E+06
           42551     71.5453E+06     28.4537E+06              0.     1.54230E+06
           42552     71.6155E+06     28.3457E+06              0.     1.56496E+06
           42553     71.6868E+06     28.2393E+06              0.     1.58975E+06
           42554     71.7594E+06     28.1342E+06              0.     1.61662E+06
           42555     71.8333E+06     28.0304E+06              0.     1.64557E+06
           42556     71.9085E+06     27.9277E+06              0.     1.67655E+06
           42557     71.9853E+06     27.8261E+06              0.     1.70956E+06
           42558     72.0637E+06     27.7253E+06              0.     1.74458E+06
           42559     72.1438E+06     27.6254E+06              0.     1.78159E+06
           42560     72.2257E+06     27.5262E+06              0.     1.82058E+06
           42561     72.3095E+06     27.4276E+06              0.     1.86153E+06
           42562     72.3952E+06     27.3295E+06              0.     1.90444E+06
           42563     72.4829E+06     27.2318E+06              0.     1.94930E+06
           42564     72.5728E+06     27.1344E+06              0.     1.99611E+06
           42565     72.6650E+06     27.0372E+06              0.     2.04485E+06
           42566     72.7594E+06     26.9401E+06              0.     2.09554E+06
           42567     72.8563E+06     26.8430E+06              0.     2.14817E+06
           42568     72.9557E+06     26.7459E+06              0.     2.20274E+06
           42569     73.0576E+06     26.6486E+06              0.     2.25925E+06
           42570     73.1623E+06     26.5511E+06              0.     2.31772E+06
           42571     73.2697E+06     26.4533E+06              0.     2.37815E+06
           42572     73.3800E+06     26.3551E+06              0.     2.44056E+06
           42573     73.4932E+06     26.2564E+06              0.     2.50494E+06
           42574     73.6095E+06     26.1572E+06              0.     2.57132E+06
           42575     73.7289E+06     26.0573E+06              0.      2.6397E+06
           42576     73.8515E+06     25.9567E+06              0.     2.71011E+06
           42577     73.9775E+06     25.8554E+06              0.     2.78256E+06
           42578     74.1069E+06     25.7532E+06              0.     2.85707E+06
           42579     74.2398E+06     25.6500E+06              0.     2.93367E+06
           42580     74.3763E+06     25.5459E+06              0.     3.01237E+06
           42581     74.5165E+06     25.4407E+06              0.     3.09320E+06
           42582     74.6606E+06     25.3344E+06              0.     3.17618E+06
           42583     74.8085E+06     25.2269E+06              0.     3.26134E+06
           42584     74.9605E+06     25.1182E+06              0.     3.34872E+06
           42585     75.1166E+06     25.0081E+06              0.     3.43833E+06
           42586     75.2770E+06     24.8966E+06              0.     3.53021E+06
           42587     75.4416E+06     24.7837E+06              0.     3.62439E+06
           42588     75.6107E+06     24.6692E+06              0.     3.72092E+06
           42589     75.7844E+06     24.5532E+06              0.     3.81982E+06
           42590     75.9628E+06     24.4355E+06              0.     3.92112E+06
           42591     76.1459E+06     24.3162E+06              0.     4.02488E+06
           42592     76.3339E+06     24.1951E+06              0.     4.13113E+06
           42593     76.5269E+06     24.0722E+06              0.     4.23990E+06
           42594     76.7251E+06     23.9474E+06              0.     4.35126E+06
           42595     76.9285E+06     23.8207E+06              0.     4.46523E+06
           42596     77.1373E+06     23.6921E+06              0.     4.58186E+06
           42597     77.3517E+06     23.5614E+06              0.     4.70121E+06
           42598     77.5717E+06     23.4286E+06              0.     4.82332E+06
           42599     77.7974E+06     23.2937E+06              0.     4.94825E+06
           42600     78.0291E+06     23.1566E+06              0.     5.07603E+06
           42601     78.2668E+06     23.0172E+06              0.     5.20674E+06
           42602     78.5107E+06     22.8756E+06              0.     5.34041E+06
           42603     78.7609E+06     22.7316E+06              0.     5.47712E+06
           42604     79.0176E+06     22.5853E+06              0.     5.61691E+06
           42605     79.2809E+06     22.4365E+06              0.     5.75984E+06
           42606     79.5511E+06     22.2852E+06              0.     5.90599E+06
           42607     79.8281E+06     22.1314E+06              0.     6.05540E+06
           42608     80.1122E+06     21.9750E+06              0.     6.20815E+06
           42609     80.4036E+06     21.8160E+06              0.     6.36430E+06
           42610     80.7024E+06     21.6544E+06              0.     6.52391E+06
           42611     81.0088E+06     21.4900E+06              0.     6.68706E+06
           42612     81.3229E+06     21.3229E+06              0.     6.85382E+06
           42613     81.6450E+06     21.1530E+06              0.     7.02425E+06
           42614     81.9752E+06     20.9804E+06              0.     7.19844E+06
           42615     82.3136E+06     20.8048E+06              0.     7.37646E+06
           42616     82.6606E+06     20.6264E+06              0.     7.55838E+06
           42617     83.0162E+06     20.4450E+06              0.     7.74428E+06
           42618     83.3807E+06     20.2607E+06              0.     7.93426E+06
           42619     83.7542E+06     20.0734E+06              0.     8.12838E+06
           42620     84.1370E+06     19.8830E+06              0.     8.32673E+06
           42621     84.5293E+06     19.6897E+06              0.     8.52941E+06
           42622     84.9312E+06     19.4932E+06              0.     8.73649E+06
           42623     85.3431E+06     19.2937E+06              0.     8.94807E+06
           42624     85.7651E+06     19.0910E+06              0.     9.16424E+06
           42625     86.1974E+06     18.8852E+06              0.     9.38509E+06
           42626     86.6403E+06     18.6763E+06              0.     9.61072E+06
           42627     87.0940E+06     18.4641E+06              0.     9.84124E+06
           42628     87.5587E+06     18.2488E+06              0.     10.0767E+06
           42629     88.0347E+06     18.0303E+06              0.     10.3173E+06
           42630     88.5223E+06     17.8086E+06              0.     10.5631E+06
           42631     89.0217E+06     17.5837E+06              0.     10.8141E+06
           42632     89.5331E+06     17.3556E+06              0.     11.0706E+06
           42633     90.0569E+06     17.1243E+06              0.     11.3326E+06
           42634     90.5932E+06     16.8898E+06              0.     11.6002E+06
           42635     91.1424E+06     16.6521E+06              0.     11.8735E+06
           42636     91.7048E+06     16.4112E+06              0.     12.1527E+06
           42637     92.2806E+06     16.1672E+06              0.     12.4379E+06
           42638     92.8702E+06     15.9200E+06              0.     12.7292E+06
           42639     93.4738E+06     15.6698E+06              0.     13.0268E+06
           42640     94.0917E+06     15.4164E+06              0.     13.3307E+06
           42641     94.7243E+06     15.1600E+06              0.     13.6411E+06
           42642     95.3719E+06     14.9006E+06              0.     13.9582E+06
           42643     96.0348E+06     14.6383E+06              0.     14.2820E+06
           42644     96.7133E+06     14.3730E+06              0.     14.6128E+06
           42645     97.4079E+06     14.1049E+06              0.     14.9506E+06
           42646     98.1187E+06     13.8341E+06              0.     15.2956E+06
           42647     98.8462E+06     13.5605E+06              0.     15.6480E+06
           42648     99.5908E+06     13.2843E+06              0.     16.0079E+06
           42649     100.353E+06     13.0055E+06              0.     16.3755E+06
           42650     101.133E+06     12.7243E+06              0.     16.7509E+06
           42651     101.931E+06     12.4408E+06              0.     17.1343E+06
           42652     102.747E+06     12.1550E+06              0.     17.5260E+06
           42653     103.583E+06     11.8671E+06              0.     17.9259E+06
           42654     104.438E+06     11.5772E+06              0.     18.3344E+06
           42655     105.312E+06     11.2855E+06              0.     18.7516E+06
           42656     106.207E+06     10.9921E+06              0.     19.1777E+06
           42657     107.123E+06     10.6972E+06              0.     19.6129E+06
           42658     108.059E+06     10.4009E+06              0.     20.0574E+06
           42659     109.017E+06     10.1035E+06              0.     20.5114E+06
           42660     109.998E+06     9.80513E+06              0.     20.9751E+06
           42661     111.000E+06     9.50600E+06              0.     21.4487E+06
           42662     112.026E+06     9.20635E+06              0.     21.9324E+06
           42663     113.074E+06     8.90643E+06              0.     22.4265E+06
           42664     114.147E+06     8.60650E+06              0.     22.9312E+06
           42665     115.244E+06     8.30684E+06              0.     23.4468E+06
           42666     116.366E+06     8.00775E+06              0.     23.9734E+06
           42667     117.514E+06     7.70955E+06              0.     24.5113E+06
           42668     118.687E+06     7.41256E+06              0.     25.0608E+06
           42669     119.887E+06     7.11715E+06              0.     25.6221E+06
           42670     121.114E+06     6.82369E+06              0.     26.1956E+06
           42671     122.368E+06     6.53260E+06              0.     26.7815E+06
           42672     123.651E+06     6.24428E+06              0.     27.3801E+06
           42673     124.962E+06     5.95920E+06              0.     27.9916E+06
           42674     126.302E+06     5.67785E+06              0.     28.6165E+06
           42675     127.672E+06     5.40072E+06              0.     29.2550E+06
           42676     129.073E+06     5.12836E+06              0.     29.9074E+06
           42677     130.504E+06     4.86134E+06              0.     30.5741E+06
           42678     131.967E+06     4.60027E+06              0.     31.2555E+06
           42679     133.462E+06     4.34579E+06              0.     31.9518E+06
           42680     134.990E+06     4.09858E+06              0.     32.6635E+06
           42681     136.551E+06     3.85937E+06              0.     33.3909E+06
           42682     138.146E+06     3.62891E+06              0.     34.1345E+06
           42683     139.776E+06     3.40801E+06              0.     34.8947E+06
           42684     141.441E+06     3.19753E+06              0.     35.6718E+06
           42685     143.141E+06     2.99838E+06              0.     36.4663E+06
           42686     144.878E+06     2.81151E+06              0.     37.2787E+06
           42687     146.651E+06     2.63793E+06              0.     38.1093E+06
           42688     148.462E+06     2.47873E+06              0.     38.9588E+06
           42689     150.312E+06     2.33504E+06              0.     39.8276E+06
           42690     152.199E+06     2.20806E+06              0.     40.7162E+06
           42691     154.126E+06     2.09907E+06              0.     41.6252E+06
           42692     156.093E+06     2.00943E+06              0.      42.555E+06
           42693     158.099E+06     1.94055E+06              0.     43.5063E+06
           42694     160.146E+06     1.89396E+06              0.     44.4796E+06
           42695     162.234E+06     1.87126E+06              0.     45.4755E+06
           42696     164.364E+06     1.87416E+06              0.     46.4946E+06
           42697     166.535E+06     1.90445E+06              0.     47.5376E+06
           42698     168.748E+06     1.96404E+06              0.     48.6050E+06
           42699     171.003E+06     2.05496E+06              0.     49.6976E+06
           42700     173.301E+06     2.17935E+06              0.     50.8161E+06
           42701     175.641E+06     2.33949E+06              0.     51.9610E+06
           42702     178.023E+06     2.53780E+06              0.     53.1331E+06
           42703     180.447E+06     2.77682E+06              0.     54.3330E+06
           42704     182.913E+06     3.05926E+06              0.     55.5616E+06
           42705     185.420E+06     3.38802E+06              0.     56.8193E+06
           42706     187.969E+06     3.76613E+06              0.      58.107E+06
           42707     190.557E+06     4.19683E+06              0.     59.4253E+06
           42708     193.184E+06     4.68355E+06              0.     60.7748E+06
           42709     195.849E+06     5.22992E+06              0.     62.1561E+06
           42710     198.550E+06     5.83980E+06              0.     63.5698E+06
           42711     201.286E+06     6.51725E+06              0.     65.0163E+06
           42712     204.054E+06     7.26660E+06              0.     66.4961E+06
           42713     206.852E+06     8.09241E+06              0.     68.0095E+06
           42714     209.676E+06     8.99951E+06              0.     69.5565E+06
           42715     212.524E+06     9.99297E+06              0.     71.1372E+06
           42716     215.391E+06     11.0782E+06              0.     72.7515E+06
           42717     218.272E+06     12.2607E+06              0.     74.3987E+06
           42718     221.163E+06     13.5465E+06              0.     76.0782E+06
           42719     224.057E+06     14.9418E+06              0.     77.7889E+06
           42720     226.947E+06     16.4530E+06              0.     79.5291E+06
           42721     229.825E+06     18.0867E+06              0.     81.2968E+06
           42722     232.683E+06     19.8497E+06              0.     83.0892E+06
           42723     235.510E+06     21.7492E+06              0.     84.9028E+06
           42724     238.295E+06     23.7922E+06              0.     86.7334E+06
           42725     241.025E+06     25.9858E+06              0.     88.5754E+06
           42726     243.686E+06     28.3370E+06              0.     90.4224E+06
           42727     246.262E+06     30.8524E+06              0.     92.2662E+06
           42728     248.737E+06     33.5382E+06              0.     94.0972E+06
           42729     251.090E+06     36.4000E+06              0.     95.9040E+06
           42730     253.302E+06     39.4420E+06              0.     97.6728E+06
           42731     255.351E+06     42.6675E+06              0.     99.3876E+06
           42732     257.212E+06     46.0773E+06              0.     101.030E+06
           42733     258.861E+06     49.6702E+06              0.     102.578E+06
           42734     260.273E+06     53.4418E+06              0.     104.007E+06
           42735     261.419E+06     57.3838E+06              0.     105.290E+06
           42736     262.275E+06     61.4833E+06              0.     106.396E+06
           42737     262.815E+06     65.7220E+06              0.     107.290E+06
           42738     263.014E+06     70.0750E+06              0.     107.936E+06
           42739     262.852E+06     74.5103E+06              0.     108.297E+06
           42740     262.310E+06     78.9880E+06              0.     108.331E+06
           42741     261.378E+06       83.46E+06              0.     108.000E+06
           42742     260.046E+06     87.8696E+06              0.     107.266E+06
           42743     258.315E+06     92.1521E+06              0.     106.095E+06
           42744     256.192E+06     96.2363E+06              0.     104.459E+06
           42745     253.691E+06     100.045E+06              0.     102.337E+06
           42746     250.832E+06     103.500E+06              0.     99.7180E+06
           42747     247.643E+06     106.522E+06              0.     96.6019E+06
           42748     244.156E+06     109.038E+06              0.     93.0005E+06
           42749     243.492E+06     110.230E+06              0.     92.8257E+06
           42750     70.5010E+06     30.8834E+06              0.     1.45583E+06
           42751     70.4832E+06     30.6820E+06              0.     1.45330E+06
           42752     70.5517E+06     30.5223E+06              0.     1.43392E+06
           42753     70.6195E+06     30.3669E+06              0.     1.41743E+06
           42754     70.6865E+06     30.2158E+06              0.     1.40377E+06
           42755     70.7531E+06     30.0686E+06              0.     1.39286E+06
           42756     70.8192E+06     29.9252E+06              0.     1.38462E+06
           42757     70.8851E+06     29.7853E+06              0.     1.37900E+06
           42758     70.9508E+06     29.6489E+06              0.     1.37592E+06
           42759     71.0164E+06     29.5156E+06              0.     1.37533E+06
           42760     71.0822E+06     29.3854E+06              0.     1.37716E+06
           42761     71.1482E+06     29.2581E+06              0.     1.38138E+06
           42762     71.2145E+06     29.1334E+06              0.     1.38792E+06
           42763     71.2812E+06     29.0113E+06              0.     1.39674E+06
           42764     71.3484E+06     28.8915E+06              0.     1.40780E+06
           42765     71.4163E+06     28.7740E+06              0.     1.42104E+06
           42766     71.4850E+06     28.6586E+06              0.     1.43645E+06
           42767     71.5545E+06     28.5451E+06              0.     1.45397E+06
           42768     71.6249E+06     28.4334E+06              0.     1.47357E+06
           42769     71.6964E+06     28.3234E+06              0.     1.49523E+06
           42770     71.7691E+06     28.2150E+06              0.     1.51891E+06
           42771     71.8430E+06     28.1079E+06              0.     1.54459E+06
           42772     71.9183E+06     28.0021E+06              0.     1.57225E+06
           42773     71.9950E+06     27.8975E+06              0.     1.60186E+06
           42774     72.0732E+06     27.7940E+06              0.     1.63340E+06
           42775     72.1531E+06     27.6913E+06              0.     1.66686E+06
           42776     72.2347E+06     27.5895E+06              0.     1.70223E+06
           42777     72.3181E+06     27.4885E+06              0.     1.73948E+06
           42778     72.4035E+06     27.3880E+06              0.     1.77862E+06
           42779     72.4908E+06     27.2880E+06              0.     1.81962E+06
           42780     72.5802E+06     27.1885E+06              0.     1.86249E+06
           42781     72.6718E+06     27.0892E+06              0.     1.90721E+06
           42782     72.7657E+06     26.9902E+06              0.     1.95379E+06
           42783     72.8620E+06     26.8912E+06              0.     2.00223E+06
           42784     72.9607E+06     26.7923E+06              0.     2.05252E+06
           42785     73.0619E+06     26.6934E+06              0.     2.10466E+06
           42786     73.1658E+06     26.5942E+06              0.     2.15867E+06
           42787     73.2725E+06     26.4949E+06              0.     2.21455E+06
           42788     73.3819E+06     26.3952E+06              0.     2.27229E+06
           42789     73.4943E+06     26.2951E+06              0.     2.33193E+06
           42790     73.6096E+06     26.1946E+06              0.     2.39345E+06
           42791     73.7281E+06     26.0934E+06              0.     2.45688E+06
           42792     73.8498E+06     25.9916E+06              0.     2.52223E+06
           42793     73.9748E+06     25.8891E+06              0.     2.58952E+06
           42794     74.1032E+06     25.7858E+06              0.     2.65876E+06
           42795      74.235E+06     25.6817E+06              0.     2.72996E+06
           42796     74.3704E+06     25.5766E+06              0.     2.80316E+06
           42797     74.5096E+06     25.4705E+06              0.     2.87838E+06
           42798     74.6525E+06     25.3632E+06              0.     2.95562E+06
           42799     74.7993E+06     25.2549E+06              0.     3.03493E+06
           42800     74.9501E+06     25.1453E+06              0.     3.11632E+06
           42801     75.1050E+06     25.0344E+06              0.     3.19982E+06
           42802     75.2640E+06     24.9222E+06              0.     3.28546E+06
           42803     75.4275E+06     24.8086E+06              0.     3.37327E+06
           42804     75.5953E+06     24.6934E+06              0.     3.46329E+06
           42805     75.7676E+06     24.5768E+06              0.     3.55554E+06
           42806     75.9446E+06     24.4585E+06              0.     3.65006E+06
           42807     76.1264E+06     24.3386E+06              0.     3.74689E+06
           42808     76.3130E+06     24.2169E+06              0.     3.84606E+06
           42809     76.5047E+06     24.0934E+06              0.     3.94761E+06
           42810     76.7014E+06     23.9681E+06              0.     4.05158E+06
           42811     76.9034E+06     23.8409E+06              0.     4.15801E+06
           42812     77.1108E+06     23.7117E+06              0.     4.26695E+06
           42813     77.3236E+06     23.5805E+06              0.     4.37844E+06
           42814     77.5421E+06     23.4472E+06              0.     4.49252E+06
           42815     77.7663E+06     23.3118E+06              0.     4.60924E+06
           42816     77.9964E+06     23.1742E+06              0.     4.72866E+06
           42817     78.2326E+06     23.0344E+06              0.     4.85081E+06
           42818     78.4749E+06     22.8922E+06              0.     4.97575E+06
           42819     78.7235E+06     22.7478E+06              0.     5.10354E+06
           42820     78.9786E+06     22.6009E+06              0.     5.23423E+06
           42821     79.2403E+06     22.4516E+06              0.     5.36786E+06
           42822     79.5088E+06     22.2998E+06              0.     5.50451E+06
           42823     79.7842E+06     22.1455E+06              0.     5.64423E+06
           42824     80.0666E+06     21.9886E+06              0.     5.78708E+06
           42825     80.3563E+06     21.8290E+06              0.     5.93312E+06
           42826     80.6534E+06     21.6668E+06              0.     6.08241E+06
           42827     80.9581E+06     21.5019E+06              0.     6.23502E+06
           42828     81.2705E+06     21.3341E+06              0.     6.39101E+06
           42829     81.5908E+06     21.1636E+06              0.     6.55046E+06
           42830     81.9192E+06     20.9903E+06              0.     6.71343E+06
           42831     82.2559E+06     20.8140E+06              0.     6.87999E+06
           42832     82.6011E+06     20.6348E+06              0.     7.05022E+06
           42833     82.9549E+06     20.4527E+06              0.     7.22419E+06
           42834     83.3176E+06     20.2675E+06              0.     7.40198E+06
           42835     83.6893E+06     20.0793E+06              0.     7.58365E+06
           42836     84.0703E+06     19.8881E+06              0.     7.76931E+06
           42837     84.4607E+06     19.6937E+06              0.     7.95901E+06
           42838     84.8609E+06     19.4963E+06              0.     8.15286E+06
           42839     85.2709E+06     19.2956E+06              0.     8.35093E+06
           42840     85.6910E+06     19.0918E+06              0.     8.55331E+06
           42841     86.1215E+06     18.8848E+06              0.     8.76008E+06
           42842     86.5625E+06     18.6746E+06              0.     8.97135E+06
           42843     87.0144E+06     18.4611E+06              0.     9.18720E+06
           42844     87.4773E+06     18.2443E+06              0.     9.40773E+06
           42845     87.9515E+06     18.0243E+06              0.     9.63303E+06
           42846     88.4372E+06     17.8010E+06              0.     9.86320E+06
           42847     88.9347E+06     17.5744E+06              0.     10.0983E+06
           42848     89.4443E+06     17.3445E+06              0.     10.3386E+06
           42849     89.9663E+06     17.1113E+06              0.     10.5840E+06
           42850     90.5009E+06     16.8748E+06              0.     10.8347E+06
           42851     91.0483E+06     16.6350E+06              0.     11.0908E+06
           42852     91.6089E+06     16.3919E+06              0.     11.3524E+06
           42853     92.1830E+06     16.1455E+06              0.     11.6196E+06
           42854     92.7709E+06     15.8958E+06              0.     11.8926E+06
           42855     93.3728E+06     15.6429E+06              0.     12.1715E+06
           42856     93.9891E+06     15.3868E+06              0.     12.4563E+06
           42857     94.6201E+06     15.1275E+06              0.     12.7473E+06
           42858     95.2661E+06     14.8650E+06              0.     13.0445E+06
           42859     95.9275E+06     14.5993E+06              0.     13.3481E+06
           42860     96.6046E+06     14.3306E+06              0.     13.6582E+06
           42861     97.2977E+06     14.0589E+06              0.     13.9749E+06
           42862     98.0072E+06     13.7842E+06              0.     14.2985E+06
           42863     98.7335E+06     13.5066E+06              0.     14.6289E+06
           42864     99.4769E+06     13.2262E+06              0.     14.9665E+06
           42865     100.238E+06     12.9429E+06              0.     15.3113E+06
           42866     101.017E+06     12.6570E+06              0.     15.6635E+06
           42867     101.814E+06     12.3685E+06              0.     16.0232E+06
           42868     102.629E+06     12.0776E+06              0.     16.3906E+06
           42869     103.464E+06     11.7842E+06              0.     16.7659E+06
           42870     104.318E+06     11.4886E+06              0.     17.1493E+06
           42871     105.193E+06     11.1908E+06              0.     17.5408E+06
           42872     106.087E+06     10.8911E+06              0.     17.9408E+06
           42873     107.003E+06     10.5894E+06              0.     18.3494E+06
           42874     107.939E+06     10.2862E+06              0.     18.7667E+06
           42875     108.898E+06     9.98134E+06              0.     19.1930E+06
           42876     109.878E+06      9.6752E+06              0.     19.6285E+06
           42877     110.881E+06     9.36792E+06              0.     20.0733E+06
           42878     111.908E+06     9.05972E+06              0.     20.5278E+06
           42879     112.958E+06     8.75082E+06              0.     20.9920E+06
           42880     114.032E+06     8.44147E+06              0.     21.4662E+06
           42881     115.131E+06     8.13192E+06              0.     21.9507E+06
           42882     116.255E+06     7.82244E+06              0.     22.4457E+06
           42883     117.405E+06     7.51334E+06              0.     22.9514E+06
           42884     118.581E+06     7.20492E+06              0.     23.4680E+06
           42885     119.784E+06     6.89750E+06              0.     23.9959E+06
           42886     121.014E+06     6.59146E+06              0.     24.5353E+06
           42887     122.272E+06     6.28716E+06              0.     25.0865E+06
           42888     123.559E+06     5.98499E+06              0.     25.6497E+06
           42889     124.875E+06     5.68539E+06              0.     26.2253E+06
           42890     126.221E+06     5.38880E+06              0.     26.8134E+06
           42891     127.597E+06     5.09569E+06              0.     27.4146E+06
           42892     129.004E+06     4.80657E+06              0.     28.0290E+06
           42893     130.443E+06     4.52199E+06              0.     28.6570E+06
           42894     131.914E+06     4.24249E+06              0.     29.2989E+06
           42895     133.419E+06     3.96870E+06              0.     29.9551E+06
           42896     134.956E+06     3.70124E+06              0.      30.626E+06
           42897     136.528E+06     3.44078E+06              0.     31.3119E+06
           42898     138.135E+06     3.18806E+06              0.     32.0132E+06
           42899     139.777E+06     2.94382E+06              0.     32.7304E+06
           42900     141.456E+06     2.70887E+06              0.     33.4638E+06
           42901     143.172E+06     2.48406E+06              0.     34.2138E+06
           42902     144.925E+06     2.27029E+06              0.     34.9810E+06
           42903     146.716E+06     2.06852E+06              0.     35.7658E+06
           42904     148.547E+06     1.87975E+06              0.     36.5687E+06
           42905     150.417E+06     1.70507E+06              0.     37.3901E+06
           42906     152.328E+06     1.54559E+06              0.     38.2307E+06
           42907     154.279E+06     1.40254E+06              0.     39.0908E+06
           42908     156.273E+06     1.27718E+06              0.     39.9712E+06
           42909     158.308E+06     1.17086E+06              0.     40.8723E+06
           42910     160.387E+06     1.08501E+06              0.     41.7948E+06
           42911     162.509E+06     1.02116E+06              0.     42.7392E+06
           42912     164.675E+06     980.909E+03              0.     43.7063E+06
           42913     166.886E+06     965.967E+03              0.     44.6967E+06
           42914     169.142E+06     978.143E+03              0.     45.7110E+06
           42915     171.444E+06     1.01936E+06              0.     46.7500E+06
           42916     173.792E+06     1.09165E+06              0.     47.8144E+06
           42917     176.186E+06     1.19718E+06              0.     48.9050E+06
           42918     178.627E+06     1.33825E+06              0.     50.0225E+06
           42919     181.115E+06     1.51730E+06              0.     51.1677E+06
           42920     183.650E+06     1.73691E+06              0.     52.3413E+06
           42921     186.231E+06     1.99984E+06              0.     53.5444E+06
           42922     188.860E+06     2.30902E+06              0.     54.7775E+06
           42923     191.535E+06     2.66754E+06              0.     56.0417E+06
           42924     194.256E+06     3.07871E+06              0.     57.3377E+06
           42925     197.023E+06     3.54604E+06              0.     58.6663E+06
           42926     199.834E+06     4.07325E+06              0.     60.0284E+06
           42927     202.689E+06     4.66432E+06              0.     61.4248E+06
           42928     205.585E+06     5.32345E+06              0.     62.8562E+06
           42929     208.522E+06     6.05511E+06              0.     64.3233E+06
           42930     211.497E+06     6.86404E+06              0.     65.8267E+06
           42931     214.508E+06     7.75530E+06              0.     67.3670E+06
           42932     217.551E+06     8.73420E+06              0.     68.9446E+06
           42933     220.623E+06     9.80642E+06              0.     70.5596E+06
           42934     223.721E+06     10.9779E+06              0.     72.2121E+06
           42935     226.838E+06     12.2550E+06              0.     73.9019E+06
           42936     229.970E+06     13.6444E+06              0.     75.6285E+06
           42937     233.109E+06     15.1529E+06              0.     77.3909E+06
           42938     236.249E+06     16.7879E+06              0.     79.1878E+06
           42939     239.381E+06     18.5571E+06              0.     81.0170E+06
           42940     242.494E+06     20.4682E+06              0.     82.8761E+06
           42941     245.579E+06     22.5293E+06              0.     84.7614E+06
           42942     248.621E+06     24.7487E+06              0.     86.6684E+06
           42943     251.607E+06     27.1345E+06              0.     88.5915E+06
           42944     254.522E+06     29.6949E+06              0.     90.5235E+06
           42945     257.346E+06     32.4378E+06              0.     92.4556E+06
           42946     260.060E+06     35.3704E+06              0.     94.3772E+06
           42947     262.643E+06     38.4991E+06              0.     96.2753E+06
           42948     265.070E+06     41.8293E+06              0.     98.1344E+06
           42949     267.315E+06     45.3643E+06              0.     99.9361E+06
           42950     269.351E+06     49.1053E+06              0.     101.659E+06
           42951     271.150E+06     53.0505E+06              0.     103.277E+06
           42952     272.679E+06     57.1939E+06              0.     104.763E+06
           42953     273.909E+06     61.5250E+06              0.     106.082E+06
           42954     274.809E+06     66.0271E+06              0.     107.199E+06
           42955     275.350E+06     70.6765E+06              0.     108.074E+06
           42956     275.505E+06     75.4415E+06              0.     108.663E+06
           42957     275.251E+06     80.2810E+06              0.     108.921E+06
           42958     274.569E+06     85.1441E+06              0.     108.803E+06
           42959     273.449E+06     89.9693E+06              0.     108.263E+06
           42960     271.885E+06     94.6853E+06              0.     107.262E+06
           42961     269.884E+06     99.2120E+06              0.     105.763E+06
           42962     267.458E+06     103.462E+06              0.     103.740E+06
           42963     264.630E+06     107.343E+06              0.     101.178E+06
           42964     261.429E+06     110.764E+06              0.     98.0736E+06
           42965     257.888E+06     113.636E+06              0.     94.4399E+06
           42966     257.317E+06     115.104E+06              0.     94.3711E+06
           42967     70.5572E+06     30.9071E+06              0.     1.38664E+06
           42968     70.5391E+06     30.7021E+06              0.     1.38423E+06
           42969     70.6088E+06     30.5396E+06              0.     1.36577E+06
           42970     70.6778E+06     30.3816E+06              0.     1.35007E+06
           42971      70.746E+06     30.2277E+06              0.     1.33706E+06
           42972     70.8137E+06     30.0780E+06              0.     1.32667E+06
           42973     70.8810E+06     29.9320E+06              0.     1.31883E+06
           42974      70.948E+06     29.7897E+06              0.     1.31347E+06
           42975     71.0149E+06     29.6509E+06              0.     1.31054E+06
           42976     71.0817E+06     29.5153E+06              0.     1.30998E+06
           42977     71.1486E+06     29.3828E+06              0.     1.31173E+06
           42978     71.2157E+06     29.2532E+06              0.     1.31575E+06
           42979     71.2832E+06     29.1263E+06              0.     1.32198E+06
           42980     71.3511E+06     29.0021E+06              0.     1.33039E+06
           42981     71.4195E+06     28.8802E+06              0.     1.34092E+06
           42982     71.4886E+06     28.7607E+06              0.     1.35354E+06
           42983     71.5585E+06     28.6432E+06              0.     1.36821E+06
           42984     71.6292E+06     28.5277E+06              0.     1.38490E+06
           42985     71.7009E+06     28.4141E+06              0.     1.40358E+06
           42986     71.7736E+06     28.3021E+06              0.     1.42421E+06
           42987     71.8476E+06     28.1917E+06              0.     1.44677E+06
           42988     71.9228E+06     28.0828E+06              0.     1.47123E+06
           42989     71.9994E+06     27.9752E+06              0.     1.49758E+06
           42990     72.0775E+06     27.8687E+06              0.     1.52579E+06
           42991     72.1571E+06     27.7633E+06              0.     1.55584E+06
           42992     72.2384E+06     27.6589E+06              0.     1.58771E+06
           42993     72.3214E+06     27.5553E+06              0.     1.62140E+06
           42994     72.4063E+06     27.4524E+06              0.     1.65689E+06
           42995     72.4932E+06     27.3502E+06              0.     1.69417E+06
           42996     72.5820E+06     27.2484E+06              0.     1.73323E+06
           42997     72.6731E+06     27.1471E+06              0.     1.77407E+06
           42998     72.7663E+06     27.0461E+06              0.     1.81668E+06
           42999     72.8618E+06     26.9453E+06              0.     1.86105E+06
           43000     72.9598E+06     26.8446E+06              0.     1.90719E+06
           43001     73.0603E+06     26.7440E+06              0.     1.95510E+06
           43002     73.1633E+06     26.6432E+06              0.     2.00477E+06
           43003     73.2691E+06     26.5424E+06              0.     2.05623E+06
           43004     73.3776E+06     26.4412E+06              0.     2.10945E+06
           43005     73.4890E+06     26.3398E+06              0.     2.16447E+06
           43006     73.6033E+06     26.2379E+06              0.     2.22128E+06
           43007     73.7208E+06     26.1355E+06              0.     2.27989E+06
           43008     73.8414E+06     26.0326E+06              0.     2.34032E+06
           43009     73.9652E+06     25.9290E+06              0.     2.40258E+06
           43010     74.0924E+06     25.8247E+06              0.     2.46668E+06
           43011     74.2231E+06     25.7195E+06              0.     2.53264E+06
           43012     74.3573E+06     25.6135E+06              0.     2.60048E+06
           43013     74.4951E+06     25.5065E+06              0.     2.67022E+06
           43014     74.6367E+06     25.3984E+06              0.     2.74188E+06
           43015     74.7822E+06     25.2893E+06              0.     2.81547E+06
           43016     74.9316E+06     25.1790E+06              0.     2.89103E+06
           43017     75.0851E+06     25.0674E+06              0.     2.96857E+06
           43018     75.2428E+06     24.9545E+06              0.     3.04813E+06
           43019     75.4047E+06     24.8403E+06              0.     3.12972E+06
           43020     75.5710E+06     24.7246E+06              0.     3.21339E+06
           43021     75.7419E+06     24.6074E+06              0.     3.29916E+06
           43022     75.9173E+06     24.4886E+06              0.     3.38705E+06
           43023     76.0975E+06     24.3681E+06              0.     3.47711E+06
           43024     76.2826E+06     24.2460E+06              0.     3.56937E+06
           43025     76.4725E+06     24.1221E+06              0.     3.66386E+06
           43026     76.6676E+06     23.9964E+06              0.     3.76062E+06
           43027     76.8679E+06     23.8687E+06              0.     3.85969E+06
           43028     77.0736E+06     23.7392E+06              0.     3.96111E+06
           43029     77.2847E+06     23.6076E+06              0.     4.06491E+06
           43030     77.5014E+06     23.4740E+06              0.     4.17115E+06
           43031     77.7238E+06     23.3382E+06              0.     4.27986E+06
           43032     77.9521E+06     23.2003E+06              0.     4.39109E+06
           43033     78.1864E+06     23.0602E+06              0.     4.50488E+06
           43034     78.4268E+06     22.9177E+06              0.     4.62129E+06
           43035     78.6736E+06     22.7729E+06              0.     4.74036E+06
           43036     78.9267E+06     22.6258E+06              0.     4.86214E+06
           43037     79.1864E+06     22.4762E+06              0.     4.98668E+06
           43038     79.4529E+06     22.3241E+06              0.     5.11404E+06
           43039     79.7263E+06     22.1694E+06              0.     5.24428E+06
           43040     80.0067E+06     22.0122E+06              0.     5.37744E+06
           43041     80.2943E+06     21.8523E+06              0.     5.51358E+06
           43042     80.5893E+06     21.6897E+06              0.     5.65277E+06
           43043     80.8919E+06     21.5244E+06              0.     5.79507E+06
           43044     81.2021E+06     21.3563E+06              0.     5.94053E+06
           43045     81.5203E+06     21.1853E+06              0.     6.08922E+06
           43046     81.8465E+06     21.0115E+06              0.     6.24120E+06
           43047     82.1810E+06     20.8348E+06              0.     6.39655E+06
           43048     82.5239E+06     20.6552E+06              0.     6.55532E+06
           43049     82.8755E+06     20.4725E+06              0.     6.71760E+06
           43050     83.2359E+06     20.2868E+06              0.     6.88344E+06
           43051     83.6053E+06     20.0980E+06              0.     7.05293E+06
           43052     83.9840E+06     19.9062E+06              0.     7.22614E+06
           43053     84.3720E+06     19.7111E+06              0.     7.40314E+06
           43054     84.7698E+06     19.5130E+06              0.     7.58401E+06
           43055     85.1774E+06     19.3116E+06              0.     7.76883E+06
           43056     85.5952E+06     19.1069E+06              0.     7.95769E+06
           43057     86.0232E+06     18.8991E+06              0.     8.15066E+06
           43058     86.4618E+06     18.6879E+06              0.     8.34783E+06
           43059     86.9112E+06     18.4734E+06              0.      8.5493E+06
           43060     87.3716E+06     18.2556E+06              0.     8.75514E+06
           43061     87.8433E+06     18.0344E+06              0.     8.96545E+06
           43062     88.3265E+06     17.8099E+06              0.     9.18032E+06
           43063     88.8216E+06     17.5820E+06              0.     9.39985E+06
           43064     89.3286E+06     17.3507E+06              0.     9.62414E+06
           43065     89.8480E+06     17.1160E+06              0.     9.85328E+06
           43066     90.3801E+06     16.8779E+06              0.     10.0874E+06
           43067     90.9250E+06     16.6364E+06              0.     10.3265E+06
           43068     91.4830E+06     16.3915E+06              0.     10.5708E+06
           43069     92.0546E+06     16.1432E+06              0.     10.8204E+06
           43070     92.6399E+06     15.8915E+06              0.     11.0754E+06
           43071     93.2392E+06     15.6365E+06              0.     11.3359E+06
           43072     93.8530E+06     15.3781E+06              0.     11.6020E+06
           43073     94.4815E+06     15.1163E+06              0.     11.8738E+06
           43074     95.1250E+06     14.8512E+06              0.     12.1515E+06
           43075     95.7839E+06     14.5829E+06              0.     12.4352E+06
           43076     96.4585E+06     14.3113E+06              0.     12.7249E+06
           43077     97.1492E+06     14.0365E+06              0.     13.0209E+06
           43078     97.8563E+06     13.7586E+06              0.     13.3233E+06
           43079     98.5802E+06     13.4776E+06              0.     13.6322E+06
           43080     99.3212E+06     13.1935E+06              0.     13.9477E+06
           43081     100.080E+06     12.9064E+06              0.     14.2700E+06
           43082     100.856E+06     12.6165E+06              0.     14.5993E+06
           43083     101.651E+06     12.3237E+06              0.     14.9356E+06
           43084     102.465E+06     12.0282E+06              0.     15.2792E+06
           43085     103.297E+06     11.7301E+06              0.     15.6301E+06
           43086     104.150E+06     11.4294E+06              0.     15.9887E+06
           43087     105.022E+06     11.1264E+06              0.     16.3549E+06
           43088     105.915E+06     10.8210E+06              0.     16.7291E+06
           43089     106.829E+06     10.5135E+06              0.     17.1113E+06
           43090     107.764E+06     10.2040E+06              0.     17.5018E+06
           43091     108.721E+06     9.89264E+06              0.     17.9007E+06
           43092     109.700E+06      9.5796E+06              0.     18.3082E+06
           43093     110.702E+06     9.26506E+06              0.     18.7246E+06
           43094     111.727E+06     8.94921E+06              0.     19.1499E+06
           43095     112.777E+06     8.63227E+06              0.     19.5845E+06
           43096     113.850E+06     8.31445E+06              0.     20.0286E+06
           43097     114.949E+06     7.99598E+06              0.     20.4823E+06
           43098     116.073E+06     7.67714E+06              0.     20.9458E+06
           43099     117.222E+06     7.35818E+06              0.     21.4195E+06
           43100     118.399E+06     7.03940E+06              0.     21.9035E+06
           43101     119.602E+06     6.72109E+06              0.     22.3981E+06
           43102     120.834E+06     6.40359E+06              0.     22.9036E+06
           43103     122.094E+06     6.08726E+06              0.     23.4202E+06
           43104     123.382E+06     5.77244E+06              0.     23.9481E+06
           43105     124.700E+06     5.45955E+06              0.     24.4877E+06
           43106     126.049E+06     5.14900E+06              0.     25.0393E+06
           43107     127.428E+06     4.84122E+06              0.     25.6031E+06
           43108     128.839E+06     4.53670E+06              0.     26.1795E+06
           43109     130.282E+06     4.23593E+06              0.     26.7687E+06
           43110     131.758E+06     3.93944E+06              0.     27.3711E+06
           43111     133.267E+06     3.64780E+06              0.     27.9871E+06
           43112     134.811E+06     3.36159E+06              0.     28.6170E+06
           43113     136.390E+06     3.08147E+06              0.     29.2611E+06
           43114     138.004E+06     2.80808E+06              0.     29.9199E+06
           43115     139.655E+06     2.54214E+06              0.     30.5937E+06
           43116     141.344E+06     2.28441E+06              0.     31.2829E+06
           43117     143.070E+06     2.03569E+06              0.     31.9881E+06
           43118     144.835E+06     1.79681E+06              0.     32.7095E+06
           43119     146.639E+06     1.56868E+06              0.     33.4478E+06
           43120     148.484E+06     1.35224E+06              0.     34.2032E+06
           43121     150.370E+06     1.14850E+06              0.     34.9764E+06
           43122     152.298E+06     958.529E+03              0.     35.7679E+06
           43123     154.268E+06     783.449E+03              0.     36.5782E+06
           43124     156.282E+06     624.469E+03              0.     37.4079E+06
           43125     158.340E+06     482.853E+03              0.     38.2574E+06
           43126     160.443E+06      359.95E+03              0.     39.1276E+06
           43127     162.592E+06     257.190E+03              0.     40.0189E+06
           43128     164.787E+06     176.084E+03              0.     40.9320E+06
           43129     167.030E+06     118.249E+03              0.     41.8676E+06
           43130     169.320E+06     85.3870E+03              0.     42.8264E+06
           43131     171.659E+06     79.3131E+03              0.     43.8092E+06
           43132     174.048E+06     101.953E+03              0.     44.8167E+06
           43133     176.487E+06     155.349E+03              0.     45.8497E+06
           43134     178.976E+06     241.680E+03              0.     46.9090E+06
           43135     181.516E+06     363.252E+03              0.     47.9954E+06
           43136     184.108E+06     522.523E+03              0.     49.1100E+06
           43137     186.752E+06     722.108E+03              0.     50.2534E+06
           43138     189.448E+06     964.781E+03              0.     51.4268E+06
           43139     192.196E+06     1.25351E+06              0.     52.6310E+06
           43140     194.997E+06     1.59144E+06              0.     53.8671E+06
           43141     197.850E+06     1.98192E+06              0.     55.1360E+06
           43142     200.755E+06     2.42853E+06              0.     56.4387E+06
           43143     203.712E+06     2.93507E+06              0.     57.7763E+06
           43144     206.720E+06     3.50561E+06              0.     59.1497E+06
           43145     209.777E+06     4.14445E+06              0.     60.5601E+06
           43146     212.883E+06     4.85621E+06              0.     62.0083E+06
           43147     216.036E+06     5.64579E+06              0.     63.4954E+06
           43148     219.235E+06     6.51841E+06              0.     65.0222E+06
           43149     222.476E+06     7.47964E+06              0.     66.5895E+06
           43150     225.756E+06     8.53539E+06              0.     68.1981E+06
           43151     229.073E+06     9.69195E+06              0.     69.8483E+06
           43152     232.421E+06     10.9560E+06              0.     71.5406E+06
           43153     235.796E+06     12.3346E+06              0.     73.2751E+06
           43154     239.191E+06     13.8353E+06              0.     75.0514E+06
           43155     242.601E+06     15.4659E+06              0.     76.8690E+06
           43156     246.016E+06     17.2348E+06              0.     78.7267E+06
           43157     249.428E+06     19.1506E+06              0.     80.6227E+06
           43158     252.825E+06     21.2223E+06              0.     82.5544E+06
           43159     256.195E+06     23.4593E+06              0.     84.5183E+06
           43160     259.525E+06     25.8712E+06              0.     86.5098E+06
           43161     262.798E+06     28.4675E+06              0.     88.5230E+06
           43162     265.995E+06     31.2577E+06              0.     90.5500E+06
           43163     269.097E+06     34.2513E+06              0.     92.5814E+06
           43164     272.081E+06     37.4567E+06              0.     94.6052E+06
           43165     274.920E+06     40.8817E+06              0.     96.6067E+06
           43166     277.588E+06     44.5324E+06              0.     98.5683E+06
           43167     280.053E+06     48.4129E+06              0.     100.469E+06
           43168     282.284E+06     52.5243E+06              0.     102.282E+06
           43169     284.245E+06     56.8638E+06              0.     103.979E+06
           43170     285.901E+06     61.4238E+06              0.     105.526E+06
           43171     287.216E+06     66.1904E+06              0.     106.883E+06
           43172     288.154E+06     71.1417E+06              0.     108.007E+06
           43173     288.682E+06     76.2470E+06              0.     108.849E+06
           43174     288.769E+06     81.4648E+06              0.     109.358E+06
           43175     288.391E+06     86.7418E+06              0.     109.482E+06
           43176     287.529E+06     92.0120E+06              0.     109.167E+06
           43177     286.176E+06     97.1969E+06              0.     108.364E+06
           43178     284.332E+06     102.206E+06              0.     107.029E+06
           43179     282.010E+06     106.940E+06              0.     105.128E+06
           43180     279.232E+06     111.291E+06              0.     102.640E+06
           43181     276.031E+06     115.153E+06              0.     99.5572E+06
           43182     272.451E+06     118.422E+06              0.     95.8927E+06
           43183     271.994E+06     120.191E+06              0.     95.9408E+06
           43184     70.6107E+06     30.9296E+06              0.     1.31627E+06
           43185     70.5923E+06     30.7213E+06              0.     1.31398E+06
           43186     70.6631E+06     30.5561E+06              0.     1.29646E+06
           43187     70.7332E+06     30.3955E+06              0.     1.28156E+06
           43188     70.8025E+06     30.2391E+06              0.     1.26921E+06
           43189     70.8714E+06     30.0869E+06              0.     1.25935E+06
           43190     70.9397E+06     29.9385E+06              0.     1.25190E+06
           43191     71.0079E+06     29.7939E+06              0.     1.24682E+06
           43192     71.0758E+06     29.6528E+06              0.     1.24404E+06
           43193     71.1437E+06     29.5150E+06              0.     1.24351E+06
           43194     71.2118E+06     29.3803E+06              0.     1.24518E+06
           43195     71.2800E+06     29.2486E+06              0.     1.24899E+06
           43196     71.3485E+06     29.1196E+06              0.     1.25491E+06
           43197     71.4175E+06     28.9933E+06              0.     1.26289E+06
           43198     71.4871E+06     28.8695E+06              0.     1.27289E+06
           43199     71.5573E+06     28.7479E+06              0.     1.28487E+06
           43200     71.6283E+06     28.6286E+06              0.     1.29880E+06
           43201     71.7002E+06     28.5112E+06              0.     1.31465E+06
           43202     71.7731E+06     28.3957E+06              0.     1.33238E+06
           43203     71.8471E+06     28.2819E+06              0.     1.35197E+06
           43204     71.9222E+06     28.1697E+06              0.     1.37338E+06
           43205     71.9987E+06     28.0589E+06              0.     1.39661E+06
           43206     72.0765E+06     27.9495E+06              0.     1.42162E+06
           43207     72.1559E+06     27.8413E+06              0.     1.44840E+06
           43208     72.2368E+06     27.7342E+06              0.     1.47693E+06
           43209     72.3195E+06     27.6280E+06              0.     1.50720E+06
           43210     72.4039E+06     27.5227E+06              0.     1.53918E+06
           43211     72.4902E+06     27.4182E+06              0.     1.57287E+06
           43212     72.5785E+06     27.3142E+06              0.     1.60827E+06
           43213     72.6688E+06     27.2108E+06              0.     1.64535E+06
           43214     72.7613E+06     27.1078E+06              0.     1.68412E+06
           43215     72.8561E+06     27.0051E+06              0.     1.72457E+06
           43216     72.9532E+06     26.9027E+06              0.     1.76670E+06
           43217     73.0528E+06     26.8003E+06              0.     1.81051E+06
           43218     73.1550E+06     26.6980E+06              0.     1.85599E+06
           43219     73.2597E+06     26.5956E+06              0.     1.90315E+06
           43220     73.3672E+06     26.4930E+06              0.     1.95200E+06
           43221     73.4775E+06     26.3902E+06              0.     2.00254E+06
           43222     73.5908E+06     26.2871E+06              0.     2.05477E+06
           43223     73.7071E+06     26.1835E+06              0.     2.10870E+06
           43224     73.8264E+06     26.0794E+06              0.     2.16435E+06
           43225     73.9490E+06     25.9748E+06              0.     2.22173E+06
           43226     74.0750E+06     25.8694E+06              0.     2.28084E+06
           43227     74.2043E+06     25.7633E+06              0.     2.34170E+06
           43228     74.3371E+06     25.6564E+06              0.     2.40433E+06
           43229     74.4736E+06     25.5486E+06              0.     2.46874E+06
           43230     74.6137E+06     25.4398E+06              0.     2.53496E+06
           43231     74.7577E+06     25.3300E+06              0.     2.60299E+06
           43232     74.9056E+06     25.2190E+06              0.     2.67287E+06
           43233     75.0575E+06     25.1068E+06              0.     2.74461E+06
           43234     75.2136E+06     24.9933E+06              0.     2.81824E+06
           43235     75.3739E+06     24.8786E+06              0.     2.89378E+06
           43236     75.5385E+06     24.7624E+06              0.     2.97126E+06
           43237     75.7076E+06     24.6447E+06              0.     3.05070E+06
           43238     75.8813E+06     24.5255E+06              0.     3.13214E+06
           43239     76.0597E+06     24.4047E+06              0.     3.21560E+06
           43240     76.2429E+06     24.2822E+06              0.     3.30112E+06
           43241     76.4311E+06     24.1580E+06              0.     3.38873E+06
           43242     76.6243E+06     24.0319E+06              0.     3.47845E+06
           43243     76.8227E+06     23.9040E+06              0.     3.57034E+06
           43244     77.0263E+06     23.7742E+06              0.     3.66441E+06
           43245     77.2354E+06     23.6424E+06              0.     3.76072E+06
           43246     77.4501E+06     23.5086E+06              0.     3.85930E+06
           43247     77.6705E+06     23.3727E+06              0.     3.96018E+06
           43248     77.8967E+06     23.2346E+06              0.     4.06342E+06
           43249     78.1288E+06     23.0943E+06              0.     4.16905E+06
           43250     78.3671E+06     22.9517E+06              0.     4.27712E+06
           43251     78.6116E+06     22.8068E+06              0.     4.38767E+06
           43252     78.8625E+06     22.6595E+06              0.     4.50075E+06
           43253     79.1200E+06     22.5097E+06              0.     4.61641E+06
           43254     79.3842E+06     22.3575E+06              0.     4.73470E+06
           43255     79.6552E+06     22.2027E+06              0.     4.85566E+06
           43256     79.9332E+06     22.0453E+06              0.     4.97936E+06
           43257     80.2184E+06     21.8853E+06              0.     5.10584E+06
           43258     80.5110E+06     21.7226E+06              0.     5.23515E+06
           43259     80.8110E+06     21.5571E+06              0.     5.36736E+06
           43260     81.1188E+06     21.3888E+06              0.     5.50252E+06
           43261     81.4344E+06     21.2177E+06              0.     5.64069E+06
           43262     81.7580E+06     21.0438E+06              0.     5.78194E+06
           43263     82.0898E+06     20.8668E+06              0.     5.92631E+06
           43264     82.4301E+06     20.6869E+06              0.     6.07389E+06
           43265     82.7790E+06     20.5040E+06              0.     6.22472E+06
           43266     83.1366E+06     20.3180E+06              0.     6.37888E+06
           43267     83.5032E+06     20.1290E+06              0.     6.53644E+06
           43268     83.8791E+06     19.9367E+06              0.     6.69746E+06
           43269     84.2644E+06     19.7414E+06              0.     6.86203E+06
           43270     84.6592E+06     19.5428E+06              0.     7.03020E+06
           43271     85.0640E+06     19.3409E+06              0.     7.20205E+06
           43272     85.4787E+06     19.1358E+06              0.     7.37767E+06
           43273     85.9038E+06     18.9273E+06              0.     7.55712E+06
           43274     86.3394E+06     18.7156E+06              0.     7.74049E+06
           43275     86.7857E+06     18.5004E+06              0.     7.92786E+06
           43276     87.2430E+06     18.2819E+06              0.     8.11932E+06
           43277     87.7116E+06     18.0600E+06              0.     8.31494E+06
           43278     88.1917E+06     17.8346E+06              0.     8.51482E+06
           43279     88.6836E+06     17.6057E+06              0.     8.71904E+06
           43280     89.1874E+06     17.3735E+06              0.     8.92769E+06
           43281     89.7036E+06     17.1377E+06              0.     9.14088E+06
           43282     90.2324E+06     16.8984E+06              0.     9.35869E+06
           43283     90.7740E+06     16.6557E+06              0.     9.58122E+06
           43284     91.3287E+06     16.4094E+06              0.     9.80857E+06
           43285     91.8969E+06     16.1597E+06              0.     10.0408E+06
           43286     92.4789E+06     15.9064E+06              0.     10.2781E+06
           43287     93.0749E+06     15.6497E+06              0.     10.5206E+06
           43288     93.6853E+06     15.3895E+06              0.     10.7682E+06
           43289     94.3103E+06     15.1258E+06              0.     11.0213E+06
           43290     94.9504E+06     14.8587E+06              0.     11.2798E+06
           43291     95.6059E+06     14.5881E+06              0.     11.5439E+06
           43292     96.2770E+06     14.3142E+06              0.     11.8136E+06
           43293     96.9642E+06     14.0369E+06              0.     12.0892E+06
           43294     97.6679E+06     13.7563E+06              0.     12.3708E+06
           43295     98.3883E+06     13.4724E+06              0.     12.6584E+06
           43296     99.1259E+06     13.1853E+06              0.     12.9523E+06
           43297     99.8810E+06     12.8951E+06              0.     13.2525E+06
           43298     100.654E+06     12.6017E+06              0.     13.5592E+06
           43299     101.446E+06     12.3053E+06              0.     13.8725E+06
           43300     102.256E+06     12.0060E+06              0.     14.1926E+06
           43301     103.085E+06     11.7038E+06              0.     14.5196E+06
           43302     103.934E+06     11.3988E+06              0.     14.8536E+06
           43303     104.803E+06     11.0911E+06              0.     15.1949E+06
           43304     105.693E+06     10.7809E+06              0.     15.5436E+06
           43305     106.603E+06     10.4683E+06              0.     15.8999E+06
           43306     107.535E+06     10.1534E+06              0.     16.2638E+06
           43307     108.489E+06     9.83630E+06              0.     16.6357E+06
           43308     109.466E+06      9.5172E+06              0.     17.0156E+06
           43309     110.465E+06     9.19626E+06              0.     17.4038E+06
           43310     111.487E+06     8.87366E+06              0.     17.8005E+06
           43311     112.534E+06     8.54958E+06              0.     18.2058E+06
           43312     113.605E+06     8.22424E+06              0.     18.6199E+06
           43313     114.701E+06     7.89784E+06              0.     19.0431E+06
           43314     115.823E+06     7.57062E+06              0.     19.4756E+06
           43315     116.971E+06     7.24283E+06              0.     19.9176E+06
           43316     118.146E+06     6.91474E+06              0.     20.3692E+06
           43317     119.348E+06     6.58664E+06              0.     20.8308E+06
           43318     120.578E+06     6.25881E+06              0.     21.3026E+06
           43319     121.836E+06     5.93160E+06              0.     21.7849E+06
           43320     123.124E+06     5.60533E+06              0.     22.2778E+06
           43321     124.442E+06     5.28037E+06              0.     22.7817E+06
           43322     125.790E+06     4.95712E+06              0.     23.2968E+06
           43323     127.170E+06     4.63598E+06              0.     23.8234E+06
           43324     128.581E+06     4.31740E+06              0.     24.3618E+06
           43325     130.025E+06     4.00183E+06              0.     24.9124E+06
           43326     131.503E+06     3.68977E+06              0.     25.4754E+06
           43327     133.014E+06     3.38176E+06              0.     26.0512E+06
           43328     134.561E+06     3.07833E+06              0.     26.6400E+06
           43329     136.143E+06     2.78008E+06              0.     27.2423E+06
           43330     137.761E+06     2.48764E+06              0.     27.8585E+06
           43331     139.417E+06     2.20167E+06              0.     28.4888E+06
           43332     141.110E+06     1.92288E+06              0.     29.1338E+06
           43333     142.843E+06     1.65200E+06              0.     29.7937E+06
           43334     144.615E+06     1.38984E+06              0.     30.4691E+06
           43335     146.427E+06     1.13722E+06              0.     31.1604E+06
           43336     148.281E+06     895.038E+03              0.     31.8680E+06
           43337     150.177E+06     664.235E+03              0.     32.5924E+06
           43338     152.117E+06     445.811E+03              0.     33.3342E+06
           43339     154.100E+06     240.823E+03              0.     34.0939E+06
           43340     156.128E+06     50.3908E+03              0.     34.8720E+06
           43341     158.202E+06    -124.287E+03              0.     35.6690E+06
           43342     160.323E+06    -281.951E+03              0.     36.4857E+06
           43343     162.491E+06    -421.260E+03              0.     37.3225E+06
           43344     164.708E+06    -540.789E+03              0.     38.1802E+06
           43345     166.975E+06    -639.034E+03              0.     39.0595E+06
           43346     169.292E+06    -714.381E+03              0.     39.9610E+06
           43347     171.660E+06    -765.133E+03              0.     40.8855E+06
           43348     174.080E+06    -789.477E+03              0.     41.8338E+06
           43349     176.554E+06    -785.488E+03              0.     42.8067E+06
           43350     179.081E+06    -751.124E+03              0.     43.8050E+06
           43351     181.664E+06    -684.202E+03              0.     44.8297E+06
           43352     184.301E+06    -582.411E+03              0.     45.8815E+06
           43353     186.995E+06    -443.284E+03              0.     46.9616E+06
           43354     189.746E+06    -264.195E+03              0.     48.0709E+06
           43355     192.554E+06    -42.3493E+03              0.     49.2104E+06
           43356     195.420E+06     225.240E+03              0.     50.3812E+06
           43357     198.345E+06     541.749E+03              0.     51.5844E+06
           43358     201.329E+06     910.570E+03              0.     52.8212E+06
           43359     204.371E+06     1.33533E+06              0.     54.0927E+06
           43360     207.472E+06     1.81988E+06              0.     55.4003E+06
           43361     210.631E+06     2.36835E+06              0.     56.7450E+06
           43362     213.849E+06     2.98517E+06              0.     58.1282E+06
           43363     217.124E+06     3.67502E+06              0.     59.5511E+06
           43364     220.455E+06     4.44297E+06              0.     61.0151E+06
           43365     223.842E+06     5.29437E+06              0.     62.5212E+06
           43366     227.281E+06     6.23500E+06              0.     64.0708E+06
           43367     230.771E+06     7.27099E+06              0.     65.6649E+06
           43368     234.309E+06     8.40890E+06              0.     67.3047E+06
           43369     237.892E+06     9.65575E+06              0.     68.9909E+06
           43370     241.514E+06     11.0190E+06              0.     70.7243E+06
           43371     245.172E+06     12.5066E+06              0.     72.5054E+06
           43372     248.857E+06     14.1270E+06              0.     74.3342E+06
           43373     252.565E+06     15.8892E+06              0.     76.2106E+06
           43374     256.285E+06     17.8027E+06              0.     78.1336E+06
           43375     260.007E+06     19.8773E+06              0.     80.1017E+06
           43376     263.720E+06     22.1235E+06              0.     82.1127E+06
           43377     267.411E+06     24.5522E+06              0.     84.1631E+06
           43378     271.062E+06     27.1746E+06              0.     86.2482E+06
           43379     274.657E+06     30.0018E+06              0.     88.3617E+06
           43380     278.174E+06     33.0452E+06              0.     90.4954E+06
           43381     281.589E+06     36.3158E+06              0.     92.6387E+06
           43382     284.877E+06     39.8239E+06              0.     94.7783E+06
           43383     288.007E+06     43.5788E+06              0.     96.8976E+06
           43384     290.946E+06     47.5877E+06              0.     98.9760E+06
           43385     293.659E+06     51.8555E+06              0.     100.989E+06
           43386     296.106E+06     56.3830E+06              0.     102.906E+06
           43387     298.247E+06     61.1666E+06              0.     104.691E+06
           43388     300.038E+06     66.1957E+06              0.     106.305E+06
           43389     301.438E+06     71.4517E+06              0.     107.698E+06
           43390     302.404E+06     76.9060E+06              0.     108.819E+06
           43391     302.898E+06     82.5175E+06              0.     109.610E+06
           43392     302.886E+06     88.2315E+06              0.     110.009E+06
           43393     302.342E+06     93.9778E+06              0.     109.954E+06
           43394     301.252E+06     99.6701E+06              0.     109.384E+06
           43395     299.611E+06     105.207E+06              0.     108.246E+06
           43396     297.428E+06     110.474E+06              0.     106.494E+06
           43397     294.726E+06     115.347E+06              0.     104.101E+06
           43398     291.540E+06     119.698E+06              0.     101.054E+06
           43399     287.912E+06     123.403E+06              0.     97.3643E+06
           43400     287.569E+06     125.492E+06              0.     97.5470E+06
           43401     70.6614E+06     30.9510E+06              0.     1.24477E+06
           43402     70.6426E+06     30.7394E+06              0.     1.24261E+06
           43403     70.7146E+06     30.5717E+06              0.     1.22604E+06
           43404     70.7857E+06     30.4086E+06              0.     1.21195E+06
           43405     70.8561E+06     30.2499E+06              0.     1.20028E+06
           43406     70.9260E+06     30.0953E+06              0.     1.19095E+06
           43407     70.9954E+06     29.9447E+06              0.     1.18391E+06
           43408     71.0646E+06     29.7979E+06              0.     1.17911E+06
           43409     71.1336E+06     29.6546E+06              0.     1.17648E+06
           43410     71.2025E+06     29.5147E+06              0.     1.17598E+06
           43411     71.2716E+06     29.3779E+06              0.     1.17755E+06
           43412     71.3409E+06     29.2442E+06              0.     1.18116E+06
           43413     71.4105E+06     29.1133E+06              0.     1.18676E+06
           43414     71.4805E+06     28.9850E+06              0.     1.19431E+06
           43415     71.5512E+06     28.8593E+06              0.     1.20377E+06
           43416     71.6225E+06     28.7359E+06              0.     1.21510E+06
           43417     71.6945E+06     28.6147E+06              0.     1.22828E+06
           43418     71.7675E+06     28.4955E+06              0.     1.24327E+06
           43419     71.8415E+06     28.3782E+06              0.     1.26004E+06
           43420     71.9166E+06     28.2627E+06              0.     1.27856E+06
           43421     71.9930E+06     28.1488E+06              0.     1.29882E+06
           43422     72.0706E+06     28.0363E+06              0.     1.32079E+06
           43423     72.1496E+06     27.9252E+06              0.     1.34445E+06
           43424     72.2302E+06     27.8154E+06              0.     1.36978E+06
           43425     72.3124E+06     27.7066E+06              0.     1.39676E+06
           43426     72.3963E+06     27.5988E+06              0.     1.42538E+06
           43427     72.4820E+06     27.4919E+06              0.     1.45563E+06
           43428     72.5697E+06     27.3857E+06              0.      1.4875E+06
           43429     72.6593E+06     27.2802E+06              0.     1.52098E+06
           43430     72.7510E+06     27.1751E+06              0.     1.55605E+06
           43431     72.8450E+06     27.0706E+06              0.     1.59272E+06
           43432     72.9412E+06     26.9663E+06              0.     1.63098E+06
           43433     73.0399E+06     26.8622E+06              0.     1.67082E+06
           43434     73.1410E+06     26.7583E+06              0.     1.71226E+06
           43435     73.2447E+06     26.6544E+06              0.     1.75528E+06
           43436     73.3511E+06     26.5504E+06              0.     1.79989E+06
           43437     73.4602E+06     26.4463E+06              0.     1.84609E+06
           43438     73.5723E+06     26.3419E+06              0.     1.89389E+06
           43439     73.6873E+06     26.2371E+06              0.     1.94329E+06
           43440     73.8053E+06     26.1319E+06              0.     1.99431E+06
           43441     73.9266E+06     26.0262E+06              0.     2.04694E+06
           43442     74.0511E+06     25.9199E+06              0.     2.10121E+06
           43443     74.1789E+06     25.8130E+06              0.     2.15712E+06
           43444     74.3103E+06     25.7052E+06              0.     2.21469E+06
           43445     74.4452E+06     25.5966E+06              0.     2.27393E+06
           43446     74.5837E+06     25.4871E+06              0.     2.33486E+06
           43447     74.7261E+06     25.3766E+06              0.     2.39749E+06
           43448     74.8723E+06     25.2650E+06              0.     2.46184E+06
           43449     75.0225E+06     25.1523E+06              0.     2.52794E+06
           43450     75.1768E+06     25.0384E+06              0.      2.5958E+06
           43451     75.3353E+06     24.9231E+06              0.     2.66545E+06
           43452     75.4981E+06     24.8065E+06              0.     2.73690E+06
           43453     75.6653E+06     24.6885E+06              0.     2.81019E+06
           43454     75.8371E+06     24.5690E+06              0.     2.88534E+06
           43455     76.0135E+06     24.4479E+06              0.     2.96238E+06
           43456     76.1947E+06     24.3251E+06              0.     3.04133E+06
           43457     76.3808E+06     24.2007E+06              0.     3.12223E+06
           43458     76.5719E+06     24.0745E+06              0.     3.20511E+06
           43459     76.7681E+06     23.9465E+06              0.     3.28999E+06
           43460     76.9696E+06     23.8165E+06              0.     3.37691E+06
           43461     77.1764E+06     23.6847E+06              0.     3.46591E+06
           43462     77.3888E+06     23.5507E+06              0.     3.55702E+06
           43463     77.6069E+06     23.4148E+06              0.     3.65028E+06
           43464     77.8307E+06     23.2766E+06              0.     3.74572E+06
           43465     78.0605E+06     23.1363E+06              0.     3.84339E+06
           43466     78.2963E+06     22.9937E+06              0.     3.94333E+06
           43467     78.5384E+06     22.8488E+06              0.     4.04557E+06
           43468     78.7867E+06     22.7016E+06              0.     4.15016E+06
           43469     79.0416E+06     22.5519E+06              0.     4.25715E+06
           43470     79.3032E+06     22.3997E+06              0.     4.36658E+06
           43471     79.5716E+06     22.2450E+06              0.     4.47850E+06
           43472     79.8469E+06     22.0876E+06              0.     4.59296E+06
           43473     80.1293E+06     21.9277E+06              0.     4.71000E+06
           43474     80.4191E+06     21.7650E+06              0.     4.82967E+06
           43475     80.7163E+06     21.5996E+06              0.     4.95203E+06
           43476     81.0212E+06     21.4314E+06              0.     5.07713E+06
           43477     81.3338E+06     21.2604E+06              0.     5.20503E+06
           43478     81.6545E+06     21.0864E+06              0.     5.33578E+06
           43479     81.9833E+06     20.9095E+06              0.     5.46944E+06
           43480     82.3205E+06     20.7296E+06              0.     5.60607E+06
           43481     82.6663E+06     20.5467E+06              0.     5.74573E+06
           43482     83.0208E+06     20.3607E+06              0.     5.88847E+06
           43483     83.3842E+06     20.1716E+06              0.     6.03437E+06
           43484     83.7568E+06     19.9793E+06              0.     6.18349E+06
           43485     84.1387E+06     19.7838E+06              0.     6.33589E+06
           43486     84.5302E+06     19.5851E+06              0.     6.49164E+06
           43487     84.9315E+06     19.3831E+06              0.     6.65082E+06
           43488     85.3428E+06     19.1777E+06              0.     6.81348E+06
           43489     85.7644E+06     18.9691E+06              0.     6.97972E+06
           43490     86.1964E+06     18.7570E+06              0.     7.14958E+06
           43491     86.6392E+06     18.5415E+06              0.     7.32317E+06
           43492     87.0929E+06     18.3226E+06              0.     7.50054E+06
           43493     87.5578E+06     18.1002E+06              0.     7.68179E+06
           43494     88.0341E+06     17.8744E+06              0.     7.86699E+06
           43495     88.5222E+06     17.6450E+06              0.     8.05623E+06
           43496     89.0222E+06     17.4121E+06              0.     8.24958E+06
           43497     89.5345E+06     17.1756E+06              0.     8.44715E+06
           43498     90.0593E+06     16.9356E+06              0.     8.64901E+06
           43499     90.5969E+06     16.6920E+06              0.     8.85525E+06
           43500     91.1476E+06     16.4448E+06              0.     9.06598E+06
           43501     91.7118E+06     16.1940E+06              0.     9.28128E+06
           43502     92.2896E+06     15.9397E+06              0.     9.50125E+06
           43503     92.8814E+06     15.6817E+06              0.     9.72600E+06
           43504     93.4876E+06     15.4202E+06              0.     9.95562E+06
           43505     94.1084E+06     15.1550E+06              0.     10.1902E+06
           43506     94.7442E+06     14.8864E+06              0.     10.4299E+06
           43507     95.3953E+06     14.6141E+06              0.     10.6748E+06
           43508     96.0621E+06     14.3384E+06              0.     10.9249E+06
           43509     96.7449E+06     14.0591E+06              0.     11.1805E+06
           43510     97.4442E+06     13.7764E+06              0.     11.4417E+06
           43511     98.1601E+06     13.4902E+06              0.     11.7085E+06
           43512     98.8932E+06     13.2007E+06              0.     11.9810E+06
           43513     99.6439E+06     12.9078E+06              0.     12.2595E+06
           43514     100.412E+06     12.6117E+06              0.     12.5440E+06
           43515     101.199E+06     12.3123E+06              0.     12.8347E+06
           43516     102.005E+06     12.0098E+06              0.     13.1317E+06
           43517     102.830E+06     11.7042E+06              0.     13.4351E+06
           43518     103.674E+06     11.3956E+06              0.     13.7451E+06
           43519     104.539E+06     11.0841E+06              0.     14.0619E+06
           43520     105.424E+06     10.7698E+06              0.     14.3855E+06
           43521     106.330E+06     10.4528E+06              0.     14.7161E+06
           43522     107.257E+06     10.1332E+06              0.     15.0540E+06
           43523     108.207E+06     9.81115E+06              0.     15.3992E+06
           43524     109.178E+06     9.48682E+06              0.     15.7520E+06
           43525     110.173E+06     9.16033E+06              0.     16.1124E+06
           43526     111.191E+06     8.83185E+06              0.     16.4808E+06
           43527     112.234E+06     8.50153E+06              0.     16.8572E+06
           43528     113.301E+06     8.16959E+06              0.     17.2418E+06
           43529     114.393E+06     7.83620E+06              0.     17.6349E+06
           43530     115.510E+06     7.50159E+06              0.     18.0367E+06
           43531     116.654E+06     7.16599E+06              0.     18.4473E+06
           43532     117.825E+06     6.82964E+06              0.     18.8669E+06
           43533     119.023E+06     6.49280E+06              0.     19.2959E+06
           43534     120.250E+06     6.15575E+06              0.     19.7344E+06
           43535     121.505E+06     5.81879E+06              0.     20.1826E+06
           43536     122.790E+06     5.48224E+06              0.     20.6408E+06
           43537     124.104E+06     5.14644E+06              0.     21.1093E+06
           43538     125.450E+06     4.81174E+06              0.     21.5883E+06
           43539     126.827E+06     4.47853E+06              0.     22.0780E+06
           43540     128.236E+06     4.14721E+06              0.     22.5788E+06
           43541     129.678E+06     3.81822E+06              0.     23.0909E+06
           43542     131.154E+06     3.49201E+06              0.     23.6147E+06
           43543     132.665E+06     3.16908E+06              0.     24.1505E+06
           43544     134.210E+06     2.84993E+06              0.     24.6985E+06
           43545     135.792E+06     2.53513E+06              0.     25.2591E+06
           43546     137.411E+06     2.22524E+06              0.     25.8327E+06
           43547     139.067E+06     1.92090E+06              0.     26.4196E+06
           43548     140.762E+06     1.62275E+06              0.     27.0203E+06
           43549     142.497E+06      1.3315E+06              0.     27.6350E+06
           43550     144.272E+06     1.04787E+06              0.     28.2642E+06
           43551     146.088E+06     772.662E+03              0.     28.9084E+06
           43552     147.946E+06     506.686E+03              0.     29.5680E+06
           43553     149.847E+06     250.836E+03              0.     30.2434E+06
           43554     151.793E+06     6.03866E+03              0.     30.9352E+06
           43555     153.784E+06    -226.715E+03              0.     31.6438E+06
           43556     155.821E+06    -446.373E+03              0.     32.3698E+06
           43557     157.905E+06    -651.828E+03              0.     33.1137E+06
           43558     160.037E+06    -841.890E+03              0.     33.8761E+06
           43559     162.218E+06    -1.01531E+06              0.     34.6577E+06
           43560     164.450E+06    -1.17075E+06              0.     35.4591E+06
           43561     166.733E+06    -1.30681E+06              0.     36.2808E+06
           43562     169.068E+06    -1.42198E+06              0.     37.1238E+06
           43563     171.457E+06    -1.51465E+06              0.     37.9886E+06
           43564     173.901E+06    -1.58315E+06              0.     38.8760E+06
           43565     176.400E+06    -1.62566E+06              0.     39.7869E+06
           43566     178.956E+06    -1.64027E+06              0.     40.7221E+06
           43567     181.569E+06    -1.62494E+06              0.     41.6825E+06
           43568     184.242E+06    -1.57749E+06              0.     42.6691E+06
           43569     186.974E+06    -1.49561E+06              0.     43.6827E+06
           43570     189.768E+06    -1.37684E+06              0.     44.7245E+06
           43571     192.623E+06    -1.21854E+06              0.     45.7955E+06
           43572     195.541E+06    -1.01791E+06              0.     46.8969E+06
           43573     198.523E+06    -771.965E+03              0.     48.0297E+06
           43574     201.569E+06    -477.501E+03              0.     49.1954E+06
           43575     204.681E+06    -131.106E+03              0.     50.3950E+06
           43576     207.858E+06     270.873E+03              0.     51.6300E+06
           43577     211.101E+06     732.337E+03              0.     52.9018E+06
           43578     214.411E+06     1.25747E+06              0.     54.2118E+06
           43579     217.787E+06     1.85074E+06              0.     55.5614E+06
           43580     221.230E+06     2.51695E+06              0.     56.9523E+06
           43581     224.739E+06     3.26123E+06              0.     58.3859E+06
           43582     228.312E+06     4.08910E+06              0.     59.8639E+06
           43583     231.950E+06     5.00645E+06              0.     61.3877E+06
           43584     235.651E+06     6.01963E+06              0.     62.9591E+06
           43585     239.412E+06     7.13544E+06              0.     64.5794E+06
           43586     243.230E+06     8.36115E+06              0.     66.2502E+06
           43587     247.103E+06     9.70459E+06              0.     67.9728E+06
           43588     251.026E+06     11.1741E+06              0.     69.7484E+06
           43589     254.994E+06     12.7787E+06              0.     71.5778E+06
           43590     259.000E+06     14.5279E+06              0.     73.4618E+06
           43591     263.037E+06     16.4319E+06              0.     75.4005E+06
           43592     267.096E+06     18.5016E+06              0.     77.3936E+06
           43593     271.165E+06     20.7484E+06              0.     79.4399E+06
           43594     275.233E+06     23.1845E+06              0.     81.5375E+06
           43595     279.282E+06     25.8223E+06              0.     83.6831E+06
           43596     283.297E+06     28.6752E+06              0.     85.8719E+06
           43597     287.256E+06     31.7563E+06              0.     88.0977E+06
           43598     291.135E+06     35.0793E+06              0.     90.3514E+06
           43599     294.907E+06     38.6572E+06              0.     92.6216E+06
           43600     298.541E+06     42.5026E+06              0.     94.8932E+06
           43601     302.002E+06     46.6265E+06              0.     97.1471E+06
           43602     305.251E+06     51.0377E+06              0.     99.3595E+06
           43603     308.243E+06     55.7420E+06              0.     101.501E+06
           43604     310.934E+06     60.7400E+06              0.     103.535E+06
           43605     313.273E+06     66.0262E+06              0.     105.420E+06
           43606     315.209E+06     71.5863E+06              0.     107.105E+06
           43607     316.690E+06     77.3952E+06              0.     108.532E+06
           43608     317.669E+06     83.4139E+06              0.     109.636E+06
           43609       318.1E+06     89.5875E+06              0.     110.347E+06
           43610     317.948E+06     95.8420E+06              0.     110.592E+06
           43611     317.186E+06     102.084E+06              0.     110.297E+06
           43612     315.805E+06     108.199E+06              0.     109.394E+06
           43613     313.809E+06     114.057E+06              0.     107.827E+06
           43614     311.218E+06     119.510E+06              0.     105.555E+06
           43615     308.071E+06     124.409E+06              0.     102.562E+06
           43616     304.418E+06     128.604E+06              0.     98.8537E+06
           43617     304.222E+06     131.054E+06              0.     99.1990E+06
           43618     70.7092E+06     30.9711E+06              0.     1.17221E+06
           43619     70.6902E+06     30.7566E+06              0.     1.17018E+06
           43620     70.7632E+06     30.5865E+06              0.     1.15458E+06
           43621     70.8353E+06     30.4210E+06              0.     1.14131E+06
           43622     70.9067E+06     30.2600E+06              0.     1.13031E+06
           43623     70.9775E+06     30.1033E+06              0.     1.12153E+06
           43624     71.0480E+06     29.9505E+06              0.     1.11491E+06
           43625     71.1181E+06     29.8016E+06              0.     1.11038E+06
           43626     71.1881E+06     29.6563E+06              0.     1.10791E+06
           43627     71.2580E+06     29.5144E+06              0.     1.10744E+06
           43628     71.3280E+06     29.3757E+06              0.     1.10892E+06
           43629     71.3983E+06     29.2400E+06              0.     1.11233E+06
           43630     71.4689E+06     29.1073E+06              0.     1.11760E+06
           43631     71.5400E+06     28.9772E+06              0.     1.12471E+06
           43632     71.6116E+06     28.8497E+06              0.     1.13362E+06
           43633     71.6839E+06     28.7245E+06              0.     1.14429E+06
           43634     71.7570E+06     28.6016E+06              0.     1.15670E+06
           43635     71.8311E+06     28.4807E+06              0.     1.17082E+06
           43636     71.9061E+06     28.3617E+06              0.     1.18661E+06
           43637     71.9823E+06     28.2446E+06              0.     1.20406E+06
           43638     72.0597E+06     28.1290E+06              0.     1.22314E+06
           43639     72.1385E+06     28.0150E+06              0.     1.24383E+06
           43640     72.2186E+06     27.9023E+06              0.     1.26611E+06
           43641     72.3004E+06     27.7909E+06              0.     1.28997E+06
           43642     72.3837E+06     27.6805E+06              0.     1.31538E+06
           43643     72.4688E+06     27.5712E+06              0.     1.34234E+06
           43644     72.5558E+06     27.4628E+06              0.     1.37083E+06
           43645     72.6447E+06     27.3551E+06              0.     1.40085E+06
           43646     72.7356E+06      27.248E+06              0.     1.43237E+06
           43647     72.8287E+06     27.1415E+06              0.     1.46541E+06
           43648     72.9240E+06     27.0354E+06              0.     1.49994E+06
           43649     73.0216E+06     26.9296E+06              0.     1.53598E+06
           43650     73.1216E+06     26.8241E+06              0.     1.57351E+06
           43651     73.2242E+06     26.7187E+06              0.     1.61253E+06
           43652     73.3294E+06     26.6133E+06              0.     1.65305E+06
           43653     73.4373E+06     26.5078E+06              0.     1.69506E+06
           43654     73.5480E+06     26.4021E+06              0.     1.73858E+06
           43655     73.6617E+06     26.2962E+06              0.     1.78360E+06
           43656     73.7784E+06     26.1900E+06              0.     1.83013E+06
           43657     73.8981E+06     26.0833E+06              0.     1.87818E+06
           43658     74.0211E+06     25.9760E+06              0.     1.92776E+06
           43659     74.1474E+06     25.8682E+06              0.     1.97887E+06
           43660     74.2771E+06     25.7597E+06              0.     2.03153E+06
           43661     74.4103E+06     25.6504E+06              0.     2.08576E+06
           43662     74.5472E+06     25.5402E+06              0.     2.14155E+06
           43663     74.6878E+06     25.4291E+06              0.     2.19894E+06
           43664     74.8322E+06     25.3170E+06              0.     2.25793E+06
           43665     74.9805E+06     25.2038E+06              0.     2.31855E+06
           43666     75.1329E+06     25.0894E+06              0.     2.38081E+06
           43667     75.2894E+06     24.9738E+06              0.     2.44473E+06
           43668     75.4502E+06     24.8569E+06              0.     2.51033E+06
           43669     75.6154E+06     24.7386E+06              0.     2.57764E+06
           43670     75.7850E+06     24.6188E+06              0.     2.64667E+06
           43671     75.9593E+06     24.4975E+06              0.     2.71746E+06
           43672     76.1383E+06     24.3746E+06              0.     2.79003E+06
           43673     76.3221E+06     24.2501E+06              0.     2.86440E+06
           43674     76.5109E+06     24.1238E+06              0.     2.94060E+06
           43675     76.7048E+06     23.9957E+06              0.     3.01867E+06
           43676     76.9038E+06     23.8658E+06              0.     3.09863E+06
           43677     77.1083E+06     23.7339E+06              0.     3.18051E+06
           43678     77.3182E+06     23.6001E+06              0.     3.26435E+06
           43679     77.5337E+06     23.4642E+06              0.     3.35018E+06
           43680     77.7549E+06     23.3262E+06              0.     3.43803E+06
           43681     77.9820E+06     23.1860E+06              0.     3.52795E+06
           43682     78.2152E+06     23.0435E+06              0.     3.61996E+06
           43683     78.4545E+06     22.8988E+06              0.     3.71411E+06
           43684     78.7000E+06     22.7517E+06              0.     3.81043E+06
           43685     78.9521E+06     22.6022E+06              0.     3.90897E+06
           43686     79.2107E+06     22.4503E+06              0.     4.00977E+06
           43687     79.4762E+06     22.2958E+06              0.     4.11287E+06
           43688     79.7485E+06     22.1387E+06              0.     4.21831E+06
           43689     80.0279E+06     21.9790E+06              0.     4.32615E+06
           43690     80.3145E+06     21.8166E+06              0.     4.43642E+06
           43691     80.6086E+06     21.6515E+06              0.     4.54918E+06
           43692     80.9102E+06     21.4835E+06              0.     4.66447E+06
           43693     81.2196E+06     21.3127E+06              0.     4.78235E+06
           43694     81.5369E+06     21.1390E+06              0.     4.90286E+06
           43695     81.8624E+06     20.9624E+06              0.     5.02607E+06
           43696     82.1961E+06     20.7827E+06              0.     5.15201E+06
           43697     82.5383E+06     20.6000E+06              0.     5.28076E+06
           43698     82.8893E+06     20.4143E+06              0.     5.41236E+06
           43699     83.2491E+06     20.2254E+06              0.     5.54688E+06
           43700     83.6180E+06     20.0333E+06              0.     5.68437E+06
           43701     83.9962E+06     19.8379E+06              0.     5.82490E+06
           43702     84.3839E+06     19.6394E+06              0.     5.96853E+06
           43703     84.7813E+06     19.4375E+06              0.     6.11532E+06
           43704     85.1887E+06     19.2322E+06              0.     6.26534E+06
           43705     85.6063E+06     19.0236E+06              0.     6.41865E+06
           43706     86.0342E+06     18.8116E+06              0.     6.57533E+06
           43707     86.4729E+06     18.5961E+06              0.     6.73544E+06
           43708     86.9224E+06     18.3771E+06              0.     6.89906E+06
           43709     87.3830E+06     18.1547E+06              0.     7.06626E+06
           43710     87.8550E+06     17.9286E+06              0.     7.23712E+06
           43711     88.3387E+06     17.6991E+06              0.     7.41170E+06
           43712     88.8343E+06     17.4659E+06              0.     7.59010E+06
           43713     89.3421E+06     17.2291E+06              0.     7.77238E+06
           43714     89.8623E+06     16.9887E+06              0.     7.95865E+06
           43715     90.3953E+06     16.7447E+06              0.     8.14897E+06
           43716     90.9413E+06     16.4969E+06              0.     8.34343E+06
           43717     91.5007E+06     16.2456E+06              0.     8.54212E+06
           43718     92.0736E+06     15.9905E+06              0.     8.74514E+06
           43719     92.6606E+06     15.7318E+06              0.     8.95258E+06
           43720     93.2618E+06     15.4693E+06              0.     9.16452E+06
           43721     93.8775E+06     15.2032E+06              0.     9.38107E+06
           43722     94.5082E+06     14.9335E+06              0.     9.60232E+06
           43723     95.1542E+06     14.6600E+06              0.     9.82838E+06
           43724     95.8158E+06     14.3830E+06              0.     10.0594E+06
           43725     96.4933E+06     14.1023E+06              0.     10.2953E+06
           43726     97.1872E+06     13.8180E+06              0.     10.5365E+06
           43727     97.8978E+06     13.5301E+06              0.     10.7828E+06
           43728     98.6254E+06     13.2387E+06              0.     11.0345E+06
           43729     99.3705E+06     12.9438E+06              0.     11.2917E+06
           43730     100.134E+06     12.6454E+06              0.     11.5545E+06
           43731     100.915E+06     12.3437E+06              0.     11.8229E+06
           43732     101.715E+06     12.0386E+06              0.     12.0972E+06
           43733     102.534E+06     11.7303E+06              0.     12.3775E+06
           43734     103.373E+06     11.4187E+06              0.     12.6639E+06
           43735     104.231E+06     11.1040E+06              0.     12.9566E+06
           43736     105.110E+06     10.7863E+06              0.     13.2556E+06
           43737     106.011E+06     10.4657E+06              0.     13.5611E+06
           43738     106.932E+06     10.1422E+06              0.     13.8733E+06
           43739     107.876E+06     9.81603E+06              0.     14.1923E+06
           43740     108.841E+06     9.48727E+06              0.     14.5184E+06
           43741     109.830E+06     9.15605E+06              0.     14.8515E+06
           43742     110.843E+06     8.82253E+06              0.     15.1920E+06
           43743     111.879E+06     8.48686E+06              0.     15.5399E+06
           43744     112.940E+06     8.14921E+06              0.     15.8956E+06
           43745     114.026E+06     7.80977E+06              0.     16.2590E+06
           43746     115.138E+06     7.46872E+06              0.     16.6305E+06
           43747     116.276E+06     7.12629E+06              0.     17.0102E+06
           43748     117.441E+06     6.78269E+06              0.     17.3983E+06
           43749     118.633E+06     6.43817E+06              0.     17.7951E+06
           43750     119.854E+06     6.09299E+06              0.     18.2006E+06
           43751     121.104E+06     5.74741E+06              0.     18.6153E+06
           43752     122.383E+06     5.40173E+06              0.     19.0392E+06
           43753     123.693E+06     5.05627E+06              0.     19.4727E+06
           43754     125.033E+06     4.71135E+06              0.     19.9159E+06
           43755     126.405E+06     4.36733E+06              0.     20.3692E+06
           43756     127.809E+06     4.02459E+06              0.     20.8327E+06
           43757     129.247E+06     3.68352E+06              0.     21.3068E+06
           43758     130.718E+06     3.34456E+06              0.     21.7917E+06
           43759     132.225E+06     3.00816E+06              0.     22.2878E+06
           43760     133.767E+06     2.67479E+06              0.     22.7953E+06
           43761     135.345E+06     2.34496E+06              0.     23.3145E+06
           43762     136.960E+06     2.01923E+06              0.     23.8458E+06
           43763     138.614E+06     1.69816E+06              0.     24.3896E+06
           43764     140.306E+06     1.38237E+06              0.     24.9461E+06
           43765     142.039E+06     1.07249E+06              0.     25.5158E+06
           43766     143.813E+06     769.229E+03              0.     26.0991E+06
           43767     145.628E+06     473.304E+03              0.     26.6962E+06
           43768     147.486E+06     185.491E+03              0.     27.3078E+06
           43769     149.388E+06    -93.3952E+03              0.     27.9342E+06
           43770     151.335E+06    -362.475E+03              0.     28.5759E+06
           43771     153.328E+06    -620.832E+03              0.     29.2333E+06
           43772     155.368E+06    -867.486E+03              0.     29.9070E+06
           43773     157.457E+06    -1.10140E+06              0.     30.5975E+06
           43774     159.594E+06    -1.32146E+06              0.     31.3054E+06
           43775     161.782E+06    -1.52651E+06              0.     32.0313E+06
           43776     164.022E+06    -1.71531E+06              0.     32.7757E+06
           43777     166.314E+06    -1.88652E+06              0.     33.5393E+06
           43778     168.660E+06    -2.03875E+06              0.     34.3228E+06
           43779     171.062E+06    -2.17052E+06              0.     35.1270E+06
           43780     173.520E+06    -2.28024E+06              0.     35.9525E+06
           43781     176.036E+06    -2.36621E+06              0.     36.8001E+06
           43782     178.611E+06    -2.42667E+06              0.     37.6708E+06
           43783     181.247E+06    -2.45968E+06              0.     38.5653E+06
           43784     183.944E+06    -2.46324E+06              0.     39.4846E+06
           43785     186.704E+06    -2.43517E+06              0.     40.4296E+06
           43786     189.529E+06    -2.37318E+06              0.     41.4014E+06
           43787     192.419E+06    -2.27480E+06              0.     42.4011E+06
           43788     195.376E+06    -2.13740E+06              0.     43.4298E+06
           43789     198.401E+06    -1.95820E+06              0.     44.4887E+06
           43790     201.495E+06    -1.73419E+06              0.     45.5791E+06
           43791      204.66E+06    -1.46219E+06              0.     46.7022E+06
           43792     207.897E+06    -1.13876E+06              0.     47.8596E+06
           43793     211.206E+06    -760.236E+03              0.     49.0526E+06
           43794     214.589E+06    -322.702E+03              0.     50.2828E+06
           43795     218.046E+06     178.061E+03              0.     51.5518E+06
           43796     221.578E+06     746.564E+03              0.     52.8614E+06
           43797     225.186E+06     1.38766E+06              0.     54.2132E+06
           43798     228.870E+06     2.10656E+06              0.     55.6090E+06
           43799     232.630E+06     2.90886E+06              0.     57.0509E+06
           43800     236.465E+06     3.80059E+06              0.     58.5406E+06
           43801     240.375E+06     4.78824E+06              0.     60.0803E+06
           43802     244.359E+06     5.87879E+06              0.     61.6718E+06
           43803     248.414E+06     7.07976E+06              0.     63.3171E+06
           43804     252.539E+06     8.39924E+06              0.     65.0183E+06
           43805     256.730E+06     9.84597E+06              0.     66.7773E+06
           43806     260.984E+06     11.4293E+06              0.     68.5956E+06
           43807     265.295E+06     13.1595E+06              0.     70.4750E+06
           43808     269.656E+06     15.0472E+06              0.     72.4166E+06
           43809     274.060E+06     17.1041E+06              0.     74.4213E+06
           43810     278.497E+06     19.3427E+06              0.     76.4893E+06
           43811     282.956E+06     21.7763E+06              0.     78.6201E+06
           43812     287.422E+06     24.4190E+06              0.     80.8121E+06
           43813     291.878E+06     27.2855E+06              0.     83.0626E+06
           43814     296.305E+06     30.3914E+06              0.     85.3670E+06
           43815     300.679E+06     33.7526E+06              0.     87.7186E+06
           43816     304.973E+06     37.3852E+06              0.     90.1081E+06
           43817     309.154E+06     41.3054E+06              0.     92.5227E+06
           43818     313.186E+06     45.5280E+06              0.     94.9454E+06
           43819     317.028E+06     50.0669E+06              0.     97.3544E+06
           43820     320.631E+06     54.9327E+06              0.     99.7213E+06
           43821     323.943E+06     60.1321E+06              0.     102.011E+06
           43822     326.909E+06     65.6655E+06              0.     104.180E+06
           43823     329.467E+06     71.5246E+06              0.     106.175E+06
           43824     331.555E+06     77.6897E+06              0.     107.935E+06
           43825     333.112E+06     84.1258E+06              0.     109.388E+06
           43826     334.080E+06     90.7796E+06              0.     110.452E+06
           43827     334.409E+06     97.5751E+06              0.     111.043E+06
           43828     334.060E+06     104.412E+06              0.     111.071E+06
           43829     333.013E+06     111.163E+06              0.     110.452E+06
           43830     331.263E+06     117.677E+06              0.     109.112E+06
           43831     328.831E+06     123.782E+06              0.     106.996E+06
           43832     325.755E+06     129.298E+06              0.     104.076E+06
           43833     322.094E+06     134.042E+06              0.     100.358E+06
           43834     322.071E+06     136.897E+06              0.     100.890E+06
           43835     70.7541E+06     30.9900E+06              0.     1.09865E+06
           43836     70.7349E+06     30.7726E+06              0.     1.09675E+06
           43837     70.8088E+06     30.6003E+06              0.     1.08212E+06
           43838     70.8819E+06     30.4327E+06              0.     1.06969E+06
           43839     70.9542E+06     30.2696E+06              0.     1.05938E+06
           43840     71.0260E+06     30.1108E+06              0.     1.05115E+06
           43841     71.0973E+06     29.9560E+06              0.     1.04495E+06
           43842     71.1684E+06     29.8051E+06              0.     1.04071E+06
           43843     71.2393E+06     29.6579E+06              0.     1.03839E+06
           43844     71.3102E+06     29.5141E+06              0.     1.03795E+06
           43845     71.3811E+06     29.3736E+06              0.     1.03934E+06
           43846     71.4523E+06     29.2361E+06              0.     1.04253E+06
           43847     71.5238E+06     29.1016E+06              0.     1.04748E+06
           43848     71.5958E+06     28.9698E+06              0.     1.05414E+06
           43849     71.6684E+06     28.8406E+06              0.     1.06249E+06
           43850     71.7417E+06     28.7138E+06              0.     1.07250E+06
           43851     71.8158E+06     28.5893E+06              0.     1.08414E+06
           43852     71.8908E+06     28.4668E+06              0.     1.09737E+06
           43853     71.9668E+06     28.3463E+06              0.     1.11217E+06
           43854      72.044E+06     28.2275E+06              0.     1.12853E+06
           43855     72.1224E+06     28.1105E+06              0.     1.14641E+06
           43856     72.2022E+06     27.9949E+06              0.     1.16581E+06
           43857     72.2835E+06     27.8807E+06              0.     1.18669E+06
           43858     72.3663E+06     27.7678E+06              0.     1.20905E+06
           43859     72.4507E+06     27.6560E+06              0.     1.23288E+06
           43860     72.5370E+06     27.5453E+06              0.     1.25814E+06
           43861     72.6251E+06     27.4354E+06              0.     1.28485E+06
           43862     72.7152E+06     27.3263E+06              0.     1.31298E+06
           43863     72.8073E+06     27.2178E+06              0.     1.34254E+06
           43864     72.9016E+06     27.1099E+06              0.     1.37350E+06
           43865     72.9981E+06     27.0024E+06              0.     1.40588E+06
           43866     73.0971E+06     26.8952E+06              0.     1.43965E+06
           43867     73.1984E+06     26.7882E+06              0.     1.47483E+06
           43868     73.3024E+06     26.6814E+06              0.     1.51141E+06
           43869     73.4090E+06     26.5746E+06              0.     1.54939E+06
           43870     73.5183E+06     26.4677E+06              0.     1.58878E+06
           43871     73.6305E+06     26.3606E+06              0.     1.62957E+06
           43872     73.7457E+06     26.2533E+06              0.     1.67177E+06
           43873     73.8639E+06     26.1456E+06              0.     1.71539E+06
           43874     73.9853E+06     26.0375E+06              0.     1.76043E+06
           43875     74.1099E+06     25.9288E+06              0.     1.80690E+06
           43876     74.2379E+06     25.8196E+06              0.     1.85481E+06
           43877     74.3694E+06     25.7096E+06              0.     1.90418E+06
           43878     74.5044E+06     25.5988E+06              0.     1.95501E+06
           43879     74.6431E+06     25.4872E+06              0.     2.00732E+06
           43880     74.7855E+06     25.3746E+06              0.     2.06111E+06
           43881     74.9318E+06     25.2609E+06              0.     2.11641E+06
           43882     75.0822E+06     25.1462E+06              0.     2.17324E+06
           43883     75.2366E+06     25.0303E+06              0.     2.23160E+06
           43884     75.3952E+06     24.9131E+06              0.     2.29152E+06
           43885     75.5582E+06     24.7946E+06              0.     2.35302E+06
           43886     75.7256E+06     24.6747E+06              0.     2.41612E+06
           43887     75.8975E+06     24.5533E+06              0.     2.48084E+06
           43888     76.0741E+06     24.4303E+06              0.     2.54720E+06
           43889     76.2555E+06     24.3058E+06              0.     2.61523E+06
           43890     76.4418E+06     24.1795E+06              0.     2.68496E+06
           43891     76.6332E+06     24.0515E+06              0.     2.75640E+06
           43892     76.8296E+06     23.9217E+06              0.     2.82959E+06
           43893     77.0314E+06     23.7900E+06              0.     2.90455E+06
           43894     77.2386E+06     23.6563E+06              0.     2.98132E+06
           43895     77.4514E+06     23.5206E+06              0.     3.05992E+06
           43896     77.6698E+06     23.3828E+06              0.     3.14039E+06
           43897     77.8940E+06     23.2429E+06              0.     3.22276E+06
           43898     78.1242E+06     23.1008E+06              0.     3.30706E+06
           43899     78.3605E+06     22.9564E+06              0.     3.39333E+06
           43900     78.6031E+06     22.8096E+06              0.     3.48160E+06
           43901     78.8520E+06     22.6605E+06              0.     3.57192E+06
           43902     79.1075E+06     22.5089E+06              0.     3.66431E+06
           43903     79.3697E+06     22.3548E+06              0.     3.75882E+06
           43904     79.6387E+06     22.1981E+06              0.     3.85549E+06
           43905     79.9148E+06     22.0389E+06              0.     3.95436E+06
           43906     80.1980E+06     21.8769E+06              0.     4.05548E+06
           43907     80.4886E+06     21.7122E+06              0.     4.15888E+06
           43908     80.7867E+06     21.5447E+06              0.     4.26462E+06
           43909     81.0925E+06     21.3744E+06              0.     4.37273E+06
           43910     81.4061E+06     21.2011E+06              0.     4.48327E+06
           43911     81.7278E+06     21.0250E+06              0.     4.59628E+06
           43912     82.0577E+06     20.8458E+06              0.     4.71182E+06
           43913     82.3961E+06     20.6636E+06              0.     4.82993E+06
           43914     82.7431E+06     20.4782E+06              0.     4.95067E+06
           43915     83.0989E+06     20.2898E+06              0.     5.07409E+06
           43916     83.4637E+06     20.0981E+06              0.     5.20025E+06
           43917     83.8377E+06     19.9032E+06              0.     5.32920E+06
           43918     84.2212E+06     19.7050E+06              0.     5.46100E+06
           43919     84.6144E+06     19.5035E+06              0.     5.59571E+06
           43920     85.0174E+06     19.2987E+06              0.     5.73340E+06
           43921     85.4305E+06     19.0904E+06              0.     5.87411E+06
           43922     85.8539E+06     18.8787E+06              0.     6.01792E+06
           43923     86.2879E+06     18.6635E+06              0.     6.16488E+06
           43924     86.7327E+06     18.4448E+06              0.     6.31508E+06
           43925     87.1886E+06     18.2225E+06              0.     6.46856E+06
           43926     87.6558E+06     17.9967E+06              0.     6.62541E+06
           43927     88.1346E+06     17.7673E+06              0.     6.78570E+06
           43928     88.6251E+06     17.5342E+06              0.     6.94948E+06
           43929     89.1278E+06     17.2975E+06              0.     7.11686E+06
           43930     89.6429E+06     17.0570E+06              0.     7.28788E+06
           43931     90.1706E+06     16.8129E+06              0.     7.46264E+06
           43932     90.7113E+06     16.5650E+06              0.     7.64122E+06
           43933     91.2652E+06     16.3135E+06              0.     7.82369E+06
           43934     91.8327E+06     16.0581E+06              0.     8.01014E+06
           43935     92.4140E+06     15.7990E+06              0.     8.20065E+06
           43936     93.0095E+06     15.5362E+06              0.     8.39532E+06
           43937     93.6195E+06     15.2695E+06              0.     8.59422E+06
           43938     94.2444E+06     14.9992E+06              0.     8.79746E+06
           43939     94.8844E+06      14.725E+06              0.     9.00513E+06
           43940     95.5399E+06     14.4471E+06              0.     9.21731E+06
           43941     96.2113E+06     14.1655E+06              0.     9.43412E+06
           43942     96.8990E+06     13.8801E+06              0.     9.65564E+06
           43943     97.6032E+06     13.5910E+06              0.     9.88200E+06
           43944     98.3245E+06     13.2983E+06              0.     10.1133E+06
           43945     99.0632E+06     13.0019E+06              0.     10.3496E+06
           43946     99.8196E+06     12.7020E+06              0.     10.5911E+06
           43947     100.594E+06     12.3985E+06              0.     10.8378E+06
           43948     101.388E+06     12.0914E+06              0.     11.0899E+06
           43949     102.200E+06     11.7810E+06              0.     11.3475E+06
           43950     103.032E+06     11.4671E+06              0.     11.6108E+06
           43951     103.883E+06     11.1499E+06              0.     11.8798E+06
           43952     104.756E+06     10.8295E+06              0.     12.1547E+06
           43953     105.649E+06     10.5059E+06              0.     12.4355E+06
           43954     106.563E+06     10.1793E+06              0.     12.7226E+06
           43955     107.499E+06     9.84973E+06              0.     13.0159E+06
           43956     108.458E+06     9.51730E+06              0.     13.3157E+06
           43957     109.439E+06     9.18216E+06              0.     13.6221E+06
           43958     110.444E+06     8.84442E+06              0.     13.9352E+06
           43959     111.473E+06     8.50424E+06              0.     14.2552E+06
           43960     112.526E+06     8.16177E+06              0.     14.5823E+06
           43961     113.605E+06     7.81717E+06              0.     14.9166E+06
           43962     114.709E+06     7.47062E+06              0.     15.2583E+06
           43963     115.840E+06     7.12232E+06              0.     15.6076E+06
           43964     116.997E+06     6.77247E+06              0.     15.9647E+06
           43965     118.182E+06     6.42129E+06              0.     16.3298E+06
           43966     119.395E+06     6.06903E+06              0.     16.7030E+06
           43967     120.637E+06     5.71591E+06              0.     17.0846E+06
           43968     121.909E+06     5.36224E+06              0.     17.4747E+06
           43969     123.211E+06     5.00827E+06              0.     17.8737E+06
           43970     124.544E+06     4.65434E+06              0.     18.2817E+06
           43971     125.908E+06     4.30075E+06              0.     18.6990E+06
           43972     127.305E+06     3.94787E+06              0.     19.1257E+06
           43973     128.736E+06     3.59605E+06              0.     19.5622E+06
           43974     130.200E+06     3.24571E+06              0.     20.0088E+06
           43975     131.699E+06     2.89725E+06              0.     20.4656E+06
           43976     133.234E+06     2.55112E+06              0.     20.9330E+06
           43977     134.806E+06     2.20779E+06              0.     21.4113E+06
           43978     136.415E+06     1.86778E+06              0.     21.9008E+06
           43979     138.063E+06     1.53160E+06              0.     22.4018E+06
           43980     139.749E+06     1.19984E+06              0.     22.9146E+06
           43981     141.476E+06     873.088E+03              0.     23.4396E+06
           43982     143.245E+06     551.986E+03              0.     23.9772E+06
           43983     145.055E+06     237.215E+03              0.     24.5277E+06
           43984     146.909E+06    -70.5080E+03              0.     25.0915E+06
           43985     148.808E+06    -370.418E+03              0.     25.6691E+06
           43986     150.751E+06    -661.711E+03              0.     26.2609E+06
           43987     152.742E+06    -943.518E+03              0.     26.8673E+06
           43988     154.780E+06    -1.21493E+06              0.     27.4888E+06
           43989     156.867E+06    -1.47499E+06              0.     28.1260E+06
           43990     159.004E+06    -1.72266E+06              0.     28.7793E+06
           43991     161.193E+06    -1.95685E+06              0.     29.4493E+06
           43992     163.434E+06    -2.17641E+06              0.     30.1366E+06
           43993     165.729E+06    -2.38010E+06              0.     30.8418E+06
           43994     168.080E+06    -2.56663E+06              0.     31.5656E+06
           43995     170.487E+06    -2.73460E+06              0.     32.3086E+06
           43996     172.952E+06    -2.88254E+06              0.     33.0716E+06
           43997     175.477E+06    -3.00888E+06              0.     33.8552E+06
           43998     178.062E+06    -3.11195E+06              0.     34.6604E+06
           43999     180.710E+06    -3.18999E+06              0.     35.4880E+06
           44000     183.422E+06    -3.24109E+06              0.     36.3387E+06
           44001     186.200E+06    -3.26326E+06              0.     37.2137E+06
           44002     189.044E+06    -3.25432E+06              0.     38.1139E+06
           44003     191.957E+06    -3.21202E+06              0.     39.0403E+06
           44004     194.940E+06    -3.13389E+06              0.     39.9941E+06
           44005     197.995E+06    -3.01732E+06              0.     40.9765E+06
           44006     201.124E+06    -2.85955E+06              0.     41.9886E+06
           44007     204.327E+06    -2.65757E+06              0.     43.0319E+06
           44008     207.607E+06    -2.40821E+06              0.     44.1077E+06
           44009     210.965E+06    -2.10804E+06              0.     45.2176E+06
           44010     214.403E+06    -1.75340E+06              0.     46.3631E+06
           44011     217.922E+06    -1.34037E+06              0.     47.5459E+06
           44012     221.523E+06    -864.711E+03              0.     48.7677E+06
           44013     225.209E+06    -321.902E+03              0.     50.0304E+06
           44014     228.979E+06     292.940E+03              0.     51.3360E+06
           44015     232.835E+06     985.070E+03              0.     52.6864E+06
           44016     236.777E+06     1.76015E+06              0.     54.0840E+06
           44017     240.807E+06     2.62428E+06              0.     55.5309E+06
           44018     244.925E+06     3.58405E+06              0.     57.0295E+06
           44019     249.129E+06     4.64659E+06              0.     58.5822E+06
           44020     253.421E+06     5.81959E+06              0.     60.1915E+06
           44021     257.797E+06     7.11138E+06              0.     61.8600E+06
           44022     262.258E+06     8.53097E+06              0.     63.5903E+06
           44023     266.799E+06     10.0881E+06              0.     65.3848E+06
           44024     271.417E+06     11.7934E+06              0.     67.2460E+06
           44025     276.107E+06     13.6581E+06              0.     69.1763E+06
           44026     280.864E+06     15.6948E+06              0.     71.1776E+06
           44027     285.678E+06     17.9167E+06              0.     73.2516E+06
           44028     290.540E+06     20.3381E+06              0.     75.3995E+06
           44029     295.438E+06     22.9745E+06              0.     77.6213E+06
           44030     300.355E+06     25.8424E+06              0.     79.9165E+06
           44031     305.275E+06     28.9593E+06              0.     82.2826E+06
           44032     310.174E+06     32.3436E+06              0.     84.7156E+06
           44033     315.025E+06     36.0145E+06              0.     87.2089E+06
           44034     319.797E+06     39.9916E+06              0.     89.7525E+06
           44035     324.452E+06     44.2943E+06              0.     92.3324E+06
           44036     328.946E+06     48.9415E+06              0.     94.9294E+06
           44037     333.229E+06     53.9498E+06              0.     97.5178E+06
           44038     337.243E+06     59.3326E+06              0.     100.064E+06
           44039     340.925E+06     65.0979E+06              0.     102.526E+06
           44040     344.204E+06     71.2452E+06              0.     104.849E+06
           44041     347.005E+06     77.7623E+06              0.     106.968E+06
           44042     349.252E+06     84.6211E+06              0.     108.804E+06
           44043     350.871E+06     91.7724E+06              0.     110.267E+06
           44044     351.793E+06     99.1408E+06              0.     111.256E+06
           44045     351.963E+06     106.620E+06              0.     111.665E+06
           44046     351.344E+06     114.070E+06              0.     111.387E+06
           44047     349.921E+06     121.316E+06              0.     110.327E+06
           44048     347.707E+06     128.158E+06              0.     108.411E+06
           44049     344.744E+06     134.375E+06              0.     105.595E+06
           44050     341.095E+06     139.744E+06              0.     101.878E+06
           44051     341.273E+06     143.048E+06              0.     102.628E+06
           44052     70.7961E+06     31.0077E+06              0.     1.02415E+06
           44053     70.7766E+06     30.7877E+06              0.     1.02237E+06
           44054     70.8515E+06     30.6132E+06              0.     1.00874E+06
           44055     70.9254E+06     30.4436E+06              0.     997.154E+03
           44056     70.9986E+06     30.2785E+06              0.     987.549E+03
           44057     71.0713E+06     30.1178E+06              0.     979.878E+03
           44058     71.1435E+06     29.9611E+06              0.     974.091E+03
           44059     71.2154E+06     29.8084E+06              0.     970.140E+03
           44060     71.2872E+06     29.6593E+06              0.     967.982E+03
           44061     71.3589E+06     29.5138E+06              0.     967.573E+03
           44062     71.4307E+06     29.3716E+06              0.     968.874E+03
           44063     71.5028E+06     29.2325E+06              0.     971.848E+03
           44064     71.5752E+06     29.0963E+06              0.     976.459E+03
           44065     71.6480E+06     28.9630E+06              0.     982.673E+03
           44066     71.7215E+06     28.8322E+06              0.     990.460E+03
           44067     71.7957E+06     28.7038E+06              0.     999.790E+03
           44068     71.8707E+06     28.5777E+06              0.     1.01064E+06
           44069     71.9466E+06     28.4538E+06              0.     1.02297E+06
           44070     72.0236E+06     28.3318E+06              0.     1.03678E+06
           44071     72.1017E+06     28.2116E+06              0.     1.05202E+06
           44072     72.1811E+06     28.0931E+06              0.     1.06870E+06
           44073     72.2618E+06     27.9762E+06              0.     1.08678E+06
           44074     72.3441E+06     27.8606E+06              0.     1.10625E+06
           44075     72.4279E+06     27.7463E+06              0.     1.12710E+06
           44076     72.5134E+06     27.6332E+06              0.     1.14931E+06
           44077     72.6007E+06     27.5210E+06              0.     1.17286E+06
           44078     72.6899E+06     27.4098E+06              0.     1.19776E+06
           44079     72.7810E+06     27.2993E+06              0.     1.22399E+06
           44080     72.8743E+06     27.1895E+06              0.     1.25154E+06
           44081     72.9698E+06     27.0803E+06              0.     1.28041E+06
           44082     73.0675E+06     26.9715E+06              0.     1.31059E+06
           44083     73.1676E+06     26.8630E+06              0.     1.34208E+06
           44084     73.2703E+06     26.7547E+06              0.     1.37488E+06
           44085     73.3755E+06     26.6466E+06              0.     1.40898E+06
           44086     73.4834E+06     26.5384E+06              0.     1.44439E+06
           44087     73.5941E+06     26.4302E+06              0.     1.48111E+06
           44088     73.7077E+06     26.3219E+06              0.     1.51914E+06
           44089     73.8243E+06     26.2132E+06              0.     1.55849E+06
           44090     73.9439E+06     26.1042E+06              0.     1.59915E+06
           44091     74.0668E+06     25.9947E+06              0.     1.64115E+06
           44092     74.1930E+06     25.8847E+06              0.     1.68448E+06
           44093     74.3225E+06     25.7741E+06              0.     1.72915E+06
           44094     74.4556E+06     25.6627E+06              0.     1.77517E+06
           44095     74.5923E+06     25.5506E+06              0.     1.82256E+06
           44096     74.7327E+06     25.4376E+06              0.     1.87133E+06
           44097     74.8769E+06     25.3236E+06              0.     1.92149E+06
           44098     75.0250E+06     25.2085E+06              0.     1.97305E+06
           44099     75.1772E+06     25.0924E+06              0.     2.02603E+06
           44100     75.3336E+06     24.9750E+06              0.     2.08045E+06
           44101     75.4941E+06     24.8564E+06              0.     2.13632E+06
           44102     75.6591E+06     24.7364E+06              0.     2.19366E+06
           44103     75.8286E+06     24.6149E+06              0.     2.25249E+06
           44104     76.0027E+06     24.4920E+06              0.     2.31283E+06
           44105     76.1815E+06     24.3675E+06              0.     2.37471E+06
           44106     76.3651E+06     24.2414E+06              0.     2.43814E+06
           44107     76.5537E+06     24.1136E+06              0.     2.50316E+06
           44108     76.7475E+06     23.9839E+06              0.     2.56977E+06
           44109     76.9464E+06     23.8525E+06              0.     2.63801E+06
           44110     77.1507E+06     23.7191E+06              0.     2.70791E+06
           44111     77.3605E+06     23.5837E+06              0.     2.77950E+06
           44112     77.5759E+06     23.4463E+06              0.     2.85279E+06
           44113     77.7971E+06     23.3068E+06              0.     2.92783E+06
           44114     78.0241E+06     23.1650E+06              0.     3.00463E+06
           44115     78.2572E+06     23.0211E+06              0.     3.08324E+06
           44116     78.4965E+06     22.8748E+06              0.     3.16369E+06
           44117     78.7421E+06     22.7262E+06              0.     3.24601E+06
           44118     78.9941E+06     22.5751E+06              0.     3.33023E+06
           44119     79.2528E+06     22.4216E+06              0.     3.41639E+06
           44120     79.5183E+06     22.2655E+06              0.     3.50453E+06
           44121     79.7907E+06     22.1068E+06              0.     3.59468E+06
           44122     80.0703E+06     21.9455E+06              0.     3.68688E+06
           44123     80.3571E+06     21.7814E+06              0.     3.78118E+06
           44124     80.6514E+06     21.6145E+06              0.     3.87762E+06
           44125     80.9532E+06     21.4449E+06              0.     3.97623E+06
           44126     81.2629E+06     21.2723E+06              0.     4.07706E+06
           44127     81.5805E+06     21.0968E+06              0.     4.18015E+06
           44128     81.9063E+06     20.9183E+06              0.     4.28555E+06
           44129     82.2405E+06     20.7367E+06              0.     4.39331E+06
           44130     82.5832E+06     20.5521E+06              0.     4.50348E+06
           44131     82.9346E+06     20.3643E+06              0.     4.61609E+06
           44132     83.2949E+06     20.1733E+06              0.     4.73121E+06
           44133     83.6644E+06     19.9791E+06              0.     4.84889E+06
           44134     84.0433E+06     19.7816E+06              0.     4.96917E+06
           44135     84.4317E+06     19.5807E+06              0.     5.09212E+06
           44136     84.8299E+06     19.3765E+06              0.     5.21778E+06
           44137     85.2382E+06     19.1688E+06              0.     5.34621E+06
           44138     85.6566E+06     18.9577E+06              0.     5.47748E+06
           44139     86.0856E+06     18.7431E+06              0.     5.61163E+06
           44140     86.5252E+06     18.5250E+06              0.     5.74874E+06
           44141     86.9759E+06     18.3033E+06              0.     5.88886E+06
           44142     87.4377E+06     18.0779E+06              0.     6.03206E+06
           44143      87.911E+06     17.8489E+06              0.     6.17839E+06
           44144     88.3960E+06     17.6163E+06              0.     6.32794E+06
           44145     88.8931E+06     17.3799E+06              0.     6.48076E+06
           44146     89.4024E+06     17.1398E+06              0.     6.63693E+06
           44147     89.9243E+06     16.8960E+06              0.     6.79652E+06
           44148     90.4590E+06     16.6484E+06              0.     6.95959E+06
           44149     91.0069E+06     16.3970E+06              0.     7.12623E+06
           44150     91.5682E+06     16.1418E+06              0.     7.29651E+06
           44151     92.1433E+06     15.8827E+06              0.     7.47052E+06
           44152     92.7325E+06     15.6198E+06              0.     7.64831E+06
           44153     93.3360E+06     15.3531E+06              0.     7.83000E+06
           44154     93.9543E+06     15.0825E+06              0.     8.01565E+06
           44155     94.5876E+06     14.8081E+06              0.     8.20534E+06
           44156     95.2364E+06     14.5299E+06              0.     8.39918E+06
           44157     95.9009E+06     14.2478E+06              0.     8.59725E+06
           44158     96.5815E+06     13.9618E+06              0.     8.79964E+06
           44159     97.2786E+06     13.6721E+06              0.     9.00646E+06
           44160     97.9927E+06     13.3786E+06              0.     9.21778E+06
           44161     98.7240E+06     13.0813E+06              0.     9.43372E+06
           44162     99.4729E+06     12.7803E+06              0.     9.65437E+06
           44163      100.24E+06     12.4756E+06              0.     9.87985E+06
           44164     101.026E+06     12.1672E+06              0.     10.1103E+06
           44165     101.830E+06     11.8552E+06              0.     10.3457E+06
           44166     102.654E+06     11.5396E+06              0.     10.5863E+06
           44167     103.498E+06     11.2206E+06              0.     10.8322E+06
           44168     104.362E+06     10.8982E+06              0.     11.0834E+06
           44169     105.246E+06     10.5723E+06              0.     11.3402E+06
           44170     106.152E+06     10.2433E+06              0.     11.6026E+06
           44171     107.080E+06     9.91101E+06              0.     11.8708E+06
           44172     108.030E+06     9.57568E+06              0.     12.1449E+06
           44173     109.003E+06     9.23738E+06              0.     12.4250E+06
           44174     109.999E+06     8.89623E+06              0.     12.7113E+06
           44175     111.019E+06     8.55236E+06              0.     13.0039E+06
           44176     112.064E+06     8.20591E+06              0.     13.3030E+06
           44177     113.133E+06     7.85704E+06              0.     13.6088E+06
           44178     114.228E+06     7.50589E+06              0.     13.9213E+06
           44179     115.349E+06     7.15265E+06              0.     14.2408E+06
           44180     116.497E+06     6.79751E+06              0.     14.5674E+06
           44181     117.673E+06     6.44067E+06              0.     14.9014E+06
           44182     118.877E+06     6.08234E+06              0.     15.2428E+06
           44183     120.109E+06     5.72276E+06              0.     15.5919E+06
           44184     121.371E+06     5.36217E+06              0.     15.9489E+06
           44185     122.664E+06     5.00084E+06              0.     16.3139E+06
           44186     123.987E+06     4.63906E+06              0.     16.6873E+06
           44187     125.342E+06     4.27711E+06              0.     17.0691E+06
           44188     126.729E+06     3.91534E+06              0.     17.4597E+06
           44189     128.150E+06     3.55407E+06              0.     17.8592E+06
           44190     129.605E+06     3.19367E+06              0.     18.2680E+06
           44191     131.094E+06     2.83454E+06              0.     18.6862E+06
           44192     132.620E+06     2.47708E+06              0.     19.1141E+06
           44193     134.182E+06     2.12174E+06              0.     19.5520E+06
           44194     135.782E+06     1.76897E+06              0.     20.0002E+06
           44195     137.420E+06     1.41928E+06              0.     20.4589E+06
           44196     139.097E+06     1.07320E+06              0.     20.9286E+06
           44197     140.816E+06     731.271E+03              0.     21.4095E+06
           44198     142.575E+06     394.103E+03              0.     21.9019E+06
           44199     144.377E+06     62.3179E+03              0.     22.4062E+06
           44200     146.223E+06    -263.411E+03              0.     22.9227E+06
           44201     148.113E+06    -582.377E+03              0.     23.4520E+06
           44202     150.049E+06    -893.825E+03              0.     23.9943E+06
           44203     152.033E+06    -1.19696E+06              0.     24.5500E+06
           44204     154.064E+06    -1.49093E+06              0.     25.1197E+06
           44205     156.145E+06    -1.77484E+06              0.     25.7039E+06
           44206     158.277E+06    -2.04773E+06              0.     26.3029E+06
           44207     160.460E+06    -2.30859E+06              0.     26.9173E+06
           44208     162.697E+06    -2.55635E+06              0.     27.5477E+06
           44209     164.989E+06    -2.78984E+06              0.     28.1946E+06
           44210     167.337E+06    -3.00788E+06              0.     28.8586E+06
           44211     169.743E+06    -3.20916E+06              0.     29.5404E+06
           44212     172.208E+06    -3.39232E+06              0.     30.2407E+06
           44213     174.733E+06    -3.55590E+06              0.     30.9602E+06
           44214     177.321E+06    -3.69835E+06              0.     31.6996E+06
           44215     179.973E+06    -3.81801E+06              0.     32.4597E+06
           44216     182.691E+06    -3.91314E+06              0.     33.2413E+06
           44217     185.476E+06    -3.98187E+06              0.     34.0455E+06
           44218     188.330E+06    -4.02219E+06              0.     34.8730E+06
           44219     191.255E+06    -4.03200E+06              0.     35.7250E+06
           44220     194.253E+06    -4.00901E+06              0.     36.6026E+06
           44221     197.325E+06    -3.95081E+06              0.     37.5067E+06
           44222     200.475E+06    -3.85481E+06              0.     38.4387E+06
           44223     203.702E+06    -3.71826E+06              0.     39.3999E+06
           44224     207.011E+06    -3.53817E+06              0.     40.3916E+06
           44225     210.402E+06    -3.31140E+06              0.     41.4153E+06
           44226     213.877E+06    -3.03453E+06              0.     42.4725E+06
           44227     217.439E+06    -2.70392E+06              0.     43.5649E+06
           44228     221.090E+06    -2.31566E+06              0.     44.6943E+06
           44229     224.831E+06    -1.86554E+06              0.     45.8626E+06
           44230     228.664E+06    -1.34901E+06              0.     47.0717E+06
           44231     232.592E+06    -761.203E+03              0.     48.3237E+06
           44232     236.616E+06    -96.8467E+03              0.      49.621E+06
           44233     240.737E+06     649.743E+03              0.     50.9659E+06
           44234     244.958E+06     1.48472E+06              0.     52.3610E+06
           44235     249.279E+06     2.41472E+06              0.     53.8089E+06
           44236     253.702E+06     3.44698E+06              0.     55.3124E+06
           44237     258.226E+06     4.58929E+06              0.     56.8746E+06
           44238     262.852E+06     5.85015E+06              0.     58.4984E+06
           44239     267.580E+06     7.23878E+06              0.     60.1872E+06
           44240     272.409E+06     8.76521E+06              0.     61.9442E+06
           44241     277.335E+06     10.4403E+06              0.     63.7726E+06
           44242     282.357E+06     12.2761E+06              0.     65.6759E+06
           44243     287.470E+06     14.2853E+06              0.     67.6572E+06
           44244     292.668E+06     16.4822E+06              0.     69.7197E+06
           44245     297.943E+06     18.8820E+06              0.      71.866E+06
           44246     303.285E+06     21.5014E+06              0.     74.0983E+06
           44247     308.681E+06     24.3582E+06              0.     76.4180E+06
           44248     314.114E+06     27.4720E+06              0.     78.8254E+06
           44249     319.565E+06     30.8635E+06              0.     81.3191E+06
           44250     325.008E+06     34.5550E+06              0.     83.8957E+06
           44251     330.412E+06     38.5695E+06              0.     86.5488E+06
           44252     335.741E+06     42.9311E+06              0.     89.2681E+06
           44253     340.950E+06     47.6640E+06              0.     92.0384E+06
           44254     345.986E+06     52.7915E+06              0.     94.8376E+06
           44255     350.788E+06     58.3347E+06              0.     97.6358E+06
           44256     355.285E+06     64.3104E+06              0.     100.393E+06
           44257     359.396E+06     70.7279E+06              0.     103.055E+06
           44258     363.033E+06     77.5857E+06              0.     105.555E+06
           44259     366.104E+06     84.8653E+06              0.     107.810E+06
           44260     368.513E+06     92.5256E+06              0.     109.719E+06
           44261     370.169E+06     100.495E+06              0.     111.165E+06
           44262     370.993E+06     108.666E+06              0.     112.022E+06
           44263     370.925E+06     116.884E+06              0.     112.156E+06
           44264     369.934E+06     124.952E+06              0.     111.445E+06
           44265     368.022E+06     132.631E+06              0.     109.785E+06
           44266     365.225E+06     139.652E+06              0.     107.112E+06
           44267     361.618E+06     145.739E+06              0.     103.416E+06
           44268     362.034E+06     149.547E+06              0.     104.425E+06
           44269     70.8351E+06     31.0241E+06              0.     948.770E+03
           44270     70.8154E+06     30.8016E+06              0.     947.129E+03
           44271     70.8911E+06     30.6253E+06              0.     934.502E+03
           44272     70.9659E+06     30.4537E+06              0.     923.766E+03
           44273     71.0399E+06     30.2868E+06              0.     914.869E+03
           44274     71.1134E+06     30.1242E+06              0.     907.764E+03
           44275     71.1864E+06     29.9659E+06              0.     902.403E+03
           44276     71.2591E+06     29.8114E+06              0.     898.744E+03
           44277     71.3317E+06     29.6607E+06              0.     896.745E+03
           44278     71.4042E+06     29.5136E+06              0.     896.368E+03
           44279     71.4768E+06     29.3698E+06              0.     897.574E+03
           44280     71.5497E+06     29.2291E+06              0.      900.33E+03
           44281     71.6229E+06     29.0914E+06              0.     904.602E+03
           44282     71.6966E+06     28.9566E+06              0.     910.361E+03
           44283     71.7708E+06     28.8243E+06              0.     917.575E+03
           44284     71.8458E+06     28.6945E+06              0.     926.220E+03
           44285     71.9217E+06     28.5670E+06              0.     936.269E+03
           44286     71.9984E+06     28.4417E+06              0.     947.699E+03
           44287     72.0763E+06     28.3183E+06              0.     960.488E+03
           44288     72.1553E+06     28.1968E+06              0.     974.616E+03
           44289     72.2356E+06     28.0770E+06              0.     990.064E+03
           44290     72.3172E+06     27.9587E+06              0.     1.00682E+06
           44291     72.4004E+06     27.8419E+06              0.     1.02486E+06
           44292     72.4852E+06     27.7263E+06              0.     1.04417E+06
           44293     72.5716E+06     27.6119E+06              0.     1.06475E+06
           44294     72.6599E+06     27.4985E+06              0.     1.08657E+06
           44295     72.7501E+06     27.3860E+06              0.     1.10964E+06
           44296     72.8423E+06     27.2743E+06              0.     1.13394E+06
           44297     72.9366E+06     27.1633E+06              0.     1.15947E+06
           44298     73.0331E+06     27.0528E+06              0.     1.18622E+06
           44299     73.1320E+06     26.9428E+06              0.     1.21418E+06
           44300     73.2332E+06     26.8330E+06              0.     1.24336E+06
           44301     73.3370E+06     26.7236E+06              0.     1.27374E+06
           44302     73.4434E+06     26.6142E+06              0.     1.30534E+06
           44303     73.5525E+06     26.5048E+06              0.     1.33815E+06
           44304     73.6645E+06     26.3954E+06              0.     1.37217E+06
           44305     73.7794E+06     26.2858E+06              0.     1.40740E+06
           44306     73.8973E+06     26.1759E+06              0.     1.44386E+06
           44307     74.0183E+06     26.0657E+06              0.     1.48154E+06
           44308     74.1426E+06     25.9550E+06              0.     1.52044E+06
           44309     74.2702E+06     25.8437E+06              0.     1.56059E+06
           44310     74.4012E+06     25.7318E+06              0.     1.60198E+06
           44311     74.5358E+06     25.6192E+06              0.     1.64462E+06
           44312     74.6740E+06     25.5058E+06              0.     1.68853E+06
           44313     74.8160E+06     25.3915E+06              0.     1.73372E+06
           44314     74.9618E+06     25.2762E+06              0.     1.78019E+06
           44315     75.1116E+06     25.1598E+06              0.     1.82797E+06
           44316     75.2656E+06     25.0423E+06              0.     1.87706E+06
           44317     75.4237E+06     24.9236E+06              0.     1.92748E+06
           44318     75.5861E+06     24.8036E+06              0.     1.97925E+06
           44319     75.7530E+06     24.6822E+06              0.     2.03238E+06
           44320     75.9244E+06     24.5594E+06              0.     2.08689E+06
           44321     76.1004E+06     24.4351E+06              0.     2.14281E+06
           44322     76.2813E+06     24.3092E+06              0.     2.20014E+06
           44323     76.4670E+06     24.1816E+06              0.     2.25892E+06
           44324     76.6578E+06     24.0522E+06              0.     2.31916E+06
           44325     76.8537E+06     23.9211E+06              0.     2.38089E+06
           44326     77.0550E+06     23.7881E+06              0.     2.44412E+06
           44327     77.2616E+06     23.6532E+06              0.     2.50889E+06
           44328     77.4738E+06     23.5162E+06              0.     2.57523E+06
           44329     77.6917E+06     23.3772E+06              0.     2.64315E+06
           44330     77.9154E+06     23.2360E+06              0.     2.71268E+06
           44331     78.1450E+06     23.0927E+06              0.     2.78385E+06
           44332     78.3808E+06     22.9470E+06              0.     2.85670E+06
           44333     78.6228E+06     22.7990E+06              0.     2.93125E+06
           44334     78.8713E+06     22.6486E+06              0.     3.00753E+06
           44335     79.1262E+06     22.4958E+06              0.     3.08558E+06
           44336     79.3879E+06     22.3404E+06              0.     3.16543E+06
           44337     79.6565E+06     22.1825E+06              0.     3.24711E+06
           44338     79.9321E+06     22.0219E+06              0.     3.33066E+06
           44339     80.2149E+06     21.8586E+06              0.     3.41611E+06
           44340     80.5050E+06     21.6926E+06              0.     3.50350E+06
           44341     80.8027E+06     21.5238E+06              0.     3.59288E+06
           44342     81.1081E+06     21.3520E+06              0.     3.68427E+06
           44343     81.4214E+06     21.1774E+06              0.     3.77772E+06
           44344     81.7427E+06     20.9998E+06              0.     3.87327E+06
           44345     82.0723E+06     20.8191E+06              0.     3.97096E+06
           44346     82.4104E+06     20.6353E+06              0.     4.07084E+06
           44347     82.7571E+06     20.4484E+06              0.     4.17295E+06
           44348     83.1126E+06     20.2584E+06              0.     4.27733E+06
           44349     83.4772E+06     20.0650E+06              0.     4.38404E+06
           44350     83.8511E+06     19.8684E+06              0.     4.49311E+06
           44351     84.2344E+06     19.6685E+06              0.     4.60461E+06
           44352     84.6275E+06     19.4651E+06              0.     4.71857E+06
           44353     85.0304E+06     19.2584E+06              0.     4.83506E+06
           44354     85.4435E+06     19.0481E+06              0.     4.95412E+06
           44355     85.8669E+06     18.8344E+06              0.     5.07580E+06
           44356     86.3010E+06     18.6170E+06              0.     5.20017E+06
           44357     86.7459E+06     18.3961E+06              0.     5.32728E+06
           44358     87.2019E+06     18.1716E+06              0.     5.45718E+06
           44359     87.6693E+06     17.9434E+06              0.     5.58994E+06
           44360     88.1483E+06     17.7115E+06              0.     5.72562E+06
           44361     88.6392E+06     17.4758E+06              0.     5.86427E+06
           44362     89.1423E+06     17.2364E+06              0.     6.00597E+06
           44363     89.6578E+06     16.9932E+06              0.     6.15077E+06
           44364     90.1861E+06     16.7462E+06              0.     6.29874E+06
           44365     90.7273E+06     16.4954E+06              0.     6.44996E+06
           44366     91.2819E+06     16.2406E+06              0.     6.60448E+06
           44367     91.8501E+06     15.9820E+06              0.     6.76239E+06
           44368     92.4323E+06     15.7195E+06              0.     6.92376E+06
           44369     93.0287E+06     15.4531E+06              0.     7.08865E+06
           44370     93.6397E+06     15.1828E+06              0.     7.25715E+06
           44371     94.2657E+06     14.9086E+06              0.     7.42933E+06
           44372     94.9069E+06     14.6304E+06              0.     7.60528E+06
           44373     95.5638E+06     14.3483E+06              0.     7.78507E+06
           44374     96.2367E+06     14.0623E+06              0.     7.96880E+06
           44375     96.9259E+06     13.7724E+06              0.     8.15654E+06
           44376     97.6319E+06     13.4785E+06              0.     8.34839E+06
           44377     98.3550E+06     13.1808E+06              0.     8.54444E+06
           44378     99.0957E+06     12.8793E+06              0.     8.74478E+06
           44379     99.8543E+06     12.5739E+06              0.     8.94951E+06
           44380     100.631E+06     12.2648E+06              0.     9.15872E+06
           44381     101.427E+06     11.9519E+06              0.     9.37251E+06
           44382     102.242E+06     11.6353E+06              0.     9.59100E+06
           44383     103.077E+06     11.3150E+06              0.     9.81428E+06
           44384     103.931E+06     10.9911E+06              0.     10.0425E+06
           44385     104.807E+06     10.6637E+06              0.     10.2757E+06
           44386     105.703E+06     10.3329E+06              0.     10.5140E+06
           44387     106.622E+06     9.99865E+06              0.     10.7576E+06
           44388     107.562E+06     9.66113E+06              0.     11.0065E+06
           44389     108.525E+06     9.32043E+06              0.     11.2610E+06
           44390     109.511E+06     8.97664E+06              0.     11.5211E+06
           44391     110.520E+06     8.62988E+06              0.     11.7869E+06
           44392     111.555E+06     8.28027E+06              0.     12.0587E+06
           44393     112.613E+06     7.92796E+06              0.     12.3364E+06
           44394     113.698E+06     7.57309E+06              0.     12.6204E+06
           44395     114.808E+06     7.21582E+06              0.     12.9107E+06
           44396     115.946E+06     6.85631E+06              0.     13.2075E+06
           44397     117.110E+06     6.49477E+06              0.     13.5110E+06
           44398     118.303E+06     6.13138E+06              0.     13.8213E+06
           44399     119.524E+06     5.76635E+06              0.     14.1385E+06
           44400     120.775E+06     5.39991E+06              0.     14.4630E+06
           44401     122.055E+06     5.03231E+06              0.     14.7948E+06
           44402     123.367E+06     4.66381E+06              0.     15.1342E+06
           44403     124.710E+06     4.29468E+06              0.     15.4813E+06
           44404     126.086E+06     3.92522E+06              0.     15.8363E+06
           44405     127.494E+06     3.55575E+06              0.     16.1995E+06
           44406     128.937E+06     3.18660E+06              0.     16.5712E+06
           44407     130.415E+06     2.81814E+06              0.     16.9514E+06
           44408     131.928E+06     2.45074E+06              0.     17.3405E+06
           44409     133.478E+06     2.08481E+06              0.     17.7387E+06
           44410     135.066E+06     1.72080E+06              0.     18.1463E+06
           44411     136.692E+06     1.35914E+06              0.     18.5635E+06
           44412     138.357E+06     1.00033E+06              0.     18.9906E+06
           44413     140.063E+06     644.902E+03              0.     19.4280E+06
           44414     141.811E+06     293.389E+03              0.     19.8759E+06
           44415     143.601E+06    -53.6141E+03              0.     20.3347E+06
           44416     145.434E+06    -395.493E+03              0.     20.8046E+06
           44417     147.313E+06    -731.583E+03              0.     21.2862E+06
           44418     149.238E+06    -1.06119E+06              0.     21.7796E+06
           44419     151.210E+06    -1.38356E+06              0.     22.2853E+06
           44420     153.230E+06    -1.69793E+06              0.     22.8038E+06
           44421     155.300E+06    -2.00344E+06              0.     23.3354E+06
           44422     157.421E+06    -2.29921E+06              0.     23.8807E+06
           44423     159.594E+06    -2.58430E+06              0.     24.4400E+06
           44424     161.822E+06    -2.85771E+06              0.     25.0139E+06
           44425     164.104E+06    -3.11838E+06              0.     25.6030E+06
           44426     166.444E+06    -3.36518E+06              0.     26.2077E+06
           44427     168.842E+06    -3.59691E+06              0.     26.8287E+06
           44428     171.300E+06    -3.81230E+06              0.     27.4665E+06
           44429     173.819E+06    -4.01000E+06              0.     28.1220E+06
           44430     176.402E+06    -4.18858E+06              0.     28.7957E+06
           44431     179.050E+06    -4.34649E+06              0.     29.4884E+06
           44432     181.764E+06    -4.48212E+06              0.     30.2009E+06
           44433     184.548E+06    -4.59373E+06              0.     30.9341E+06
           44434     187.402E+06    -4.67947E+06              0.     31.6887E+06
           44435     190.329E+06    -4.73738E+06              0.     32.4659E+06
           44436     193.330E+06    -4.76534E+06              0.     33.2665E+06
           44437     196.409E+06    -4.76114E+06              0.     34.0916E+06
           44438     199.567E+06    -4.72236E+06              0.     34.9425E+06
           44439     202.806E+06    -4.64646E+06              0.     35.8203E+06
           44440     206.128E+06    -4.53070E+06              0.     36.7263E+06
           44441     209.537E+06    -4.37214E+06              0.     37.6619E+06
           44442     213.033E+06    -4.16765E+06              0.     38.6287E+06
           44443     216.621E+06    -3.91386E+06              0.     39.6282E+06
           44444     220.302E+06    -3.60715E+06              0.     40.6621E+06
           44445     224.079E+06    -3.24363E+06              0.     41.7322E+06
           44446     227.955E+06    -2.81912E+06              0.     42.8406E+06
           44447     231.931E+06    -2.32911E+06              0.     43.9893E+06
           44448     236.011E+06    -1.76873E+06              0.     45.1805E+06
           44449     240.198E+06    -1.13274E+06              0.     46.4167E+06
           44450     244.493E+06    -415.457E+03              0.     47.7005E+06
           44451     248.899E+06     389.281E+03              0.     49.0345E+06
           44452     253.418E+06     1.28814E+06              0.     50.4218E+06
           44453     258.054E+06     2.28836E+06              0.     51.8655E+06
           44454     262.806E+06     3.39783E+06              0.     53.3690E+06
           44455     267.678E+06     4.62512E+06              0.     54.9358E+06
           44456     272.670E+06     5.97960E+06              0.     56.5696E+06
           44457     277.782E+06     7.47148E+06              0.     58.2745E+06
           44458     283.015E+06     9.11193E+06              0.     60.0545E+06
           44459     288.368E+06     10.9132E+06              0.     61.9139E+06
           44460     293.839E+06     12.8886E+06              0.     63.8572E+06
           44461     299.423E+06     15.0529E+06              0.     65.8886E+06
           44462     305.117E+06     17.4221E+06              0.     68.0126E+06
           44463     310.912E+06     20.0139E+06              0.     70.2333E+06
           44464     316.798E+06     22.8476E+06              0.     72.5542E+06
           44465     322.763E+06     25.9443E+06              0.     74.9784E+06
           44466     328.790E+06     29.3270E+06              0.     77.5075E+06
           44467     334.855E+06     33.0205E+06              0.     80.1418E+06
           44468     340.931E+06     37.0517E+06              0.     82.8787E+06
           44469     346.984E+06     41.4489E+06              0.     85.7127E+06
           44470     352.969E+06      46.242E+06              0.     88.6335E+06
           44471     358.833E+06     51.4612E+06              0.     91.6243E+06
           44472     364.513E+06     57.1361E+06              0.     94.6603E+06
           44473     369.932E+06     63.2937E+06              0.     97.7056E+06
           44474     375.000E+06     69.9554E+06              0.     100.711E+06
           44475     379.617E+06     77.1328E+06              0.     103.609E+06
           44476     383.669E+06     84.8215E+06              0.     106.314E+06
           44477     387.038E+06     92.9936E+06              0.     108.717E+06
           44478     389.603E+06     101.587E+06              0.     110.685E+06
           44479     391.255E+06     110.495E+06              0.     112.068E+06
           44480     391.901E+06     119.557E+06              0.     112.701E+06
           44481     391.484E+06     128.548E+06              0.     112.424E+06
           44482     389.986E+06     137.185E+06              0.     111.095E+06
           44483     387.438E+06     145.137E+06              0.     108.621E+06
           44484     383.914E+06     152.057E+06              0.     104.972E+06
           44485     384.620E+06     156.444E+06              0.     106.300E+06
           44486     70.8712E+06     31.0393E+06              0.     872.583E+03
           44487     70.8513E+06     30.8145E+06              0.     871.075E+03
           44488     70.9277E+06     30.6363E+06              0.     859.463E+03
           44489     71.0032E+06     30.4631E+06              0.     849.589E+03
           44490     71.0780E+06     30.2944E+06              0.     841.407E+03
           44491     71.1522E+06     30.1302E+06              0.     834.873E+03
           44492      71.226E+06     29.9702E+06              0.     829.944E+03
           44493     71.2994E+06     29.8142E+06              0.     826.579E+03
           44494     71.3727E+06     29.6620E+06              0.     824.742E+03
           44495     71.4460E+06     29.5133E+06              0.     824.395E+03
           44496     71.5194E+06     29.3681E+06              0.     825.505E+03
           44497     71.5930E+06     29.2260E+06              0.     828.041E+03
           44498     71.6669E+06     29.0869E+06              0.     831.971E+03
           44499     71.7414E+06     28.9506E+06              0.     837.268E+03
           44500     71.8164E+06     28.8170E+06              0.     843.904E+03
           44501     71.8922E+06     28.6859E+06              0.     851.856E+03
           44502     71.9688E+06     28.5571E+06              0.     861.099E+03
           44503     72.0463E+06     28.4305E+06              0.     871.612E+03
           44504     72.1250E+06     28.3059E+06              0.     883.376E+03
           44505     72.2048E+06     28.1831E+06              0.     896.371E+03
           44506     72.2859E+06     28.0621E+06              0.     910.580E+03
           44507     72.3684E+06     27.9426E+06              0.     925.988E+03
           44508     72.4524E+06     27.8246E+06              0.     942.581E+03
           44509     72.5380E+06     27.7078E+06              0.     960.347E+03
           44510     72.6254E+06     27.5922E+06              0.     979.273E+03
           44511     72.7146E+06     27.4777E+06              0.     999.349E+03
           44512     72.8057E+06     27.3640E+06              0.     1.02057E+06
           44513     72.8988E+06     27.2512E+06              0.     1.04292E+06
           44514     72.9941E+06     27.1390E+06              0.     1.06640E+06
           44515     73.0916E+06     27.0274E+06              0.     1.09100E+06
           44516     73.1915E+06     26.9162E+06              0.     1.11672E+06
           44517     73.2938E+06     26.8054E+06              0.     1.14356E+06
           44518     73.3986E+06     26.6948E+06              0.     1.17151E+06
           44519     73.5061E+06     26.5843E+06              0.     1.20057E+06
           44520     73.6164E+06     26.4738E+06              0.     1.23075E+06
           44521     73.7295E+06     26.3633E+06              0.     1.26204E+06
           44522     73.8456E+06     26.2525E+06              0.     1.29445E+06
           44523     73.9647E+06     26.1415E+06              0.     1.32798E+06
           44524     74.0870E+06     26.0301E+06              0.     1.36263E+06
           44525     74.2125E+06     25.9183E+06              0.     1.39842E+06
           44526     74.3414E+06     25.8059E+06              0.     1.43535E+06
           44527     74.4738E+06     25.6928E+06              0.     1.47342E+06
           44528     74.6098E+06     25.5790E+06              0.     1.51265E+06
           44529     74.7494E+06     25.4644E+06              0.     1.55304E+06
           44530     74.8929E+06     25.3489E+06              0.     1.59460E+06
           44531     75.0402E+06     25.2324E+06              0.     1.63735E+06
           44532     75.1916E+06     25.1148E+06              0.     1.68129E+06
           44533     75.3471E+06     24.9961E+06              0.     1.72645E+06
           44534     75.5069E+06     24.8762E+06              0.     1.77283E+06
           44535     75.6710E+06     24.7549E+06              0.     1.82045E+06
           44536     75.8396E+06     24.6323E+06              0.     1.86932E+06
           44537     76.0128E+06     24.5081E+06              0.     1.91947E+06
           44538     76.1907E+06     24.3825E+06              0.     1.97090E+06
           44539     76.3734E+06     24.2552E+06              0.     2.02364E+06
           44540     76.5611E+06     24.1263E+06              0.     2.07771E+06
           44541     76.7539E+06     23.9956E+06              0.     2.13313E+06
           44542     76.9519E+06     23.8631E+06              0.     2.18991E+06
           44543     77.1552E+06     23.7287E+06              0.     2.24808E+06
           44544      77.364E+06     23.5923E+06              0.     2.30767E+06
           44545     77.5784E+06     23.4539E+06              0.     2.36869E+06
           44546     77.7986E+06     23.3134E+06              0.     2.43117E+06
           44547     78.0246E+06     23.1707E+06              0.     2.49514E+06
           44548     78.2567E+06     23.0258E+06              0.     2.56061E+06
           44549     78.4949E+06     22.8786E+06              0.     2.62763E+06
           44550     78.7395E+06     22.7290E+06              0.     2.69621E+06
           44551     78.9906E+06     22.5770E+06              0.     2.76639E+06
           44552     79.2482E+06     22.4225E+06              0.     2.83820E+06
           44553     79.5127E+06     22.2655E+06              0.     2.91166E+06
           44554     79.7841E+06     22.1058E+06              0.     2.98680E+06
           44555     80.0626E+06     21.9435E+06              0.     3.06367E+06
           44556     80.3484E+06     21.7785E+06              0.     3.14229E+06
           44557     80.6416E+06     21.6106E+06              0.     3.22269E+06
           44558     80.9424E+06     21.4399E+06              0.     3.30492E+06
           44559     81.2511E+06     21.2663E+06              0.     3.38901E+06
           44560     81.5677E+06     21.0897E+06              0.     3.47499E+06
           44561     81.8925E+06     20.9101E+06              0.     3.56290E+06
           44562     82.2256E+06     20.7275E+06              0.     3.65279E+06
           44563     82.5673E+06     20.5417E+06              0.     3.74469E+06
           44564     82.9177E+06     20.3527E+06              0.     3.83864E+06
           44565     83.2771E+06     20.1605E+06              0.     3.93469E+06
           44566     83.6456E+06     19.9650E+06              0.     4.03288E+06
           44567     84.0235E+06     19.7662E+06              0.     4.13325E+06
           44568     84.4110E+06     19.5640E+06              0.     4.23585E+06
           44569     84.8083E+06     19.3583E+06              0.     4.34072E+06
           44570     85.2156E+06     19.1492E+06              0.     4.44791E+06
           44571     85.6331E+06     18.9366E+06              0.     4.55748E+06
           44572     86.0612E+06     18.7204E+06              0.     4.66946E+06
           44573     86.5000E+06     18.5006E+06              0.     4.78392E+06
           44574     86.9498E+06     18.2771E+06              0.     4.90089E+06
           44575     87.4108E+06     18.0500E+06              0.     5.02045E+06
           44576     87.8833E+06     17.8191E+06              0.     5.14263E+06
           44577     88.3676E+06     17.5845E+06              0.     5.26750E+06
           44578     88.8639E+06     17.3461E+06              0.     5.39512E+06
           44579     89.3725E+06     17.1039E+06              0.     5.52554E+06
           44580     89.8938E+06     16.8578E+06              0.     5.65882E+06
           44581     90.4279E+06     16.6078E+06              0.     5.79503E+06
           44582     90.9752E+06     16.3540E+06              0.     5.93422E+06
           44583     91.5360E+06     16.0962E+06              0.     6.07647E+06
           44584     92.1106E+06     15.8344E+06              0.     6.22183E+06
           44585     92.6993E+06     15.5687E+06              0.     6.37038E+06
           44586     93.3024E+06     15.2991E+06              0.     6.52218E+06
           44587     93.9204E+06     15.0254E+06              0.     6.67731E+06
           44588     94.5535E+06     14.7477E+06              0.     6.83583E+06
           44589     95.2020E+06     14.4661E+06              0.     6.99783E+06
           44590     95.8664E+06     14.1805E+06              0.     7.16338E+06
           44591     96.5470E+06     13.8908E+06              0.     7.33255E+06
           44592     97.2442E+06     13.5972E+06              0.     7.50543E+06
           44593     97.9584E+06     13.2996E+06              0.     7.68210E+06
           44594     98.6899E+06     12.9981E+06              0.     7.86264E+06
           44595     99.4392E+06     12.6926E+06              0.     8.04714E+06
           44596     100.207E+06     12.3832E+06              0.     8.23569E+06
           44597     100.993E+06     12.0699E+06              0.     8.42838E+06
           44598     101.798E+06     11.7528E+06              0.     8.62531E+06
           44599     102.623E+06     11.4319E+06              0.     8.82656E+06
           44600     103.467E+06     11.1072E+06              0.     9.03224E+06
           44601     104.332E+06     10.7789E+06              0.     9.24245E+06
           44602     105.218E+06     10.4469E+06              0.     9.45730E+06
           44603     106.126E+06     10.1114E+06              0.     9.67689E+06
           44604     107.055E+06     9.77240E+06              0.     9.90132E+06
           44605     108.007E+06     9.43001E+06              0.     10.1307E+06
           44606     108.982E+06     9.08431E+06              0.     10.3652E+06
           44607     109.980E+06     8.73542E+06              0.     10.6049E+06
           44608     111.003E+06     8.38345E+06              0.     10.8499E+06
           44609     112.050E+06     8.02852E+06              0.     11.1004E+06
           44610     113.122E+06     7.67076E+06              0.     11.3565E+06
           44611     114.220E+06     7.31032E+06              0.     11.6183E+06
           44612     115.345E+06     6.94736E+06              0.     11.8859E+06
           44613     116.497E+06     6.58203E+06              0.     12.1596E+06
           44614     117.677E+06     6.21453E+06              0.     12.4394E+06
           44615     118.885E+06     5.84504E+06              0.     12.7256E+06
           44616     120.123E+06     5.47378E+06              0.     13.0182E+06
           44617     121.390E+06     5.10097E+06              0.     13.3175E+06
           44618     122.688E+06     4.72684E+06              0.     13.6236E+06
           44619     124.018E+06     4.35166E+06              0.     13.9367E+06
           44620     125.379E+06     3.97569E+06              0.     14.2570E+06
           44621     126.774E+06     3.59923E+06              0.     14.5846E+06
           44622     128.203E+06     3.22258E+06              0.     14.9199E+06
           44623     129.666E+06     2.84609E+06              0.     15.2629E+06
           44624     131.165E+06     2.47010E+06              0.     15.6140E+06
           44625     132.700E+06     2.09499E+06              0.     15.9733E+06
           44626     134.273E+06     1.72116E+06              0.     16.3410E+06
           44627     135.884E+06     1.34904E+06              0.     16.7175E+06
           44628     137.535E+06     979.070E+03              0.     17.1029E+06
           44629     139.226E+06     611.743E+03              0.     17.4976E+06
           44630     140.958E+06     247.565E+03              0.     17.9018E+06
           44631     142.733E+06    -112.923E+03              0.     18.3159E+06
           44632     144.551E+06    -469.140E+03              0.     18.7400E+06
           44633     146.415E+06    -820.481E+03              0.     19.1746E+06
           44634     148.324E+06    -1.16629E+06              0.     19.6200E+06
           44635     150.280E+06    -1.50588E+06              0.     20.0765E+06
           44636     152.285E+06    -1.83852E+06              0.     20.5445E+06
           44637     154.340E+06    -2.16344E+06              0.     21.0245E+06
           44638     156.446E+06    -2.47980E+06              0.     21.5167E+06
           44639     158.605E+06    -2.78675E+06              0.     22.0217E+06
           44640     160.818E+06    -3.08333E+06              0.     22.5399E+06
           44641     163.086E+06    -3.36858E+06              0.     23.0718E+06
           44642     165.411E+06    -3.64146E+06              0.     23.6179E+06
           44643     167.795E+06    -3.90083E+06              0.     24.1787E+06
           44644     170.240E+06    -4.14552E+06              0.     24.7548E+06
           44645     172.746E+06    -4.37429E+06              0.     25.3468E+06
           44646     175.317E+06    -4.58579E+06              0.     25.9554E+06
           44647     177.953E+06    -4.77862E+06              0.     26.5812E+06
           44648     180.657E+06    -4.95125E+06              0.     27.2250E+06
           44649     183.431E+06    -5.10209E+06              0.     27.8875E+06
           44650     186.276E+06    -5.22943E+06              0.     28.5696E+06
           44651     189.196E+06    -5.33144E+06              0.      29.272E+06
           44652     192.191E+06    -5.40619E+06              0.     29.9958E+06
           44653     195.265E+06    -5.45160E+06              0.     30.7419E+06
           44654     198.419E+06    -5.46547E+06              0.     31.5114E+06
           44655     201.657E+06    -5.44543E+06              0.     32.3055E+06
           44656     204.981E+06    -5.38895E+06              0.     33.1253E+06
           44657     208.393E+06    -5.29335E+06              0.     33.9721E+06
           44658     211.896E+06    -5.15571E+06              0.     34.8473E+06
           44659     215.494E+06    -4.97295E+06              0.     35.7525E+06
           44660     219.188E+06    -4.74173E+06              0.     36.6892E+06
           44661     222.982E+06    -4.45848E+06              0.     37.6592E+06
           44662     226.879E+06    -4.11935E+06              0.     38.6643E+06
           44663     230.883E+06    -3.72019E+06              0.     39.7066E+06
           44664     234.996E+06    -3.25655E+06              0.     40.7881E+06
           44665     239.222E+06    -2.72360E+06              0.     41.9112E+06
           44666     243.564E+06    -2.11612E+06              0.     43.0785E+06
           44667     248.026E+06    -1.42847E+06              0.     44.2926E+06
           44668     252.610E+06    -654.536E+03              0.     45.5565E+06
           44669     257.321E+06     212.343E+03              0.     46.8732E+06
           44670     262.162E+06     1.17940E+06              0.     48.2463E+06
           44671     267.137E+06     2.25452E+06              0.     49.6792E+06
           44672     272.247E+06     3.44631E+06              0.     51.1761E+06
           44673     277.496E+06     4.76419E+06              0.     52.7411E+06
           44674     282.887E+06     6.21847E+06              0.     54.3787E+06
           44675     288.422E+06     7.82047E+06              0.     56.0938E+06
           44676     294.102E+06     9.58262E+06              0.     57.8914E+06
           44677     299.927E+06     11.5186E+06              0.     59.7771E+06
           44678     305.897E+06     13.6436E+06              0.     61.7564E+06
           44679     312.010E+06     15.9743E+06              0.     63.8353E+06
           44680     318.263E+06     18.5290E+06              0.     66.0197E+06
           44681     324.648E+06     21.3282E+06              0.     68.3154E+06
           44682     331.157E+06     24.3943E+06              0.     70.7281E+06
           44683     337.777E+06     27.7522E+06              0.     73.2626E+06
           44684     344.490E+06     31.4293E+06              0.     75.9231E+06
           44685     351.272E+06     35.4556E+06              0.     78.7116E+06
           44686     358.093E+06     39.8638E+06              0.     81.6277E+06
           44687     364.912E+06     44.6890E+06              0.     84.6671E+06
           44688     371.679E+06     49.9686E+06              0.     87.8198E+06
           44689     378.330E+06     55.7413E+06              0.     91.0682E+06
           44690     384.785E+06     62.0452E+06              0.     94.3837E+06
           44691     390.948E+06     68.9154E+06              0.     97.7234E+06
           44692     396.705E+06     76.3801E+06              0.     101.026E+06
           44693     401.924E+06     84.4533E+06              0.     104.204E+06
           44694     406.458E+06     93.1265E+06              0.     107.146E+06
           44695     410.153E+06     102.355E+06              0.     109.704E+06
           44696     412.856E+06     112.043E+06              0.     111.702E+06
           44697     414.432E+06     122.025E+06              0.     112.938E+06
           44698     414.782E+06     132.054E+06              0.     113.204E+06
           44699     413.858E+06     141.795E+06              0.     112.307E+06
           44700     411.674E+06     150.839E+06              0.     110.105E+06
           44701     408.314E+06     158.741E+06              0.     106.542E+06
           44702     409.390E+06     163.805E+06              0.     108.261E+06
           44703     70.9042E+06     31.0532E+06              0.     795.650E+03
           44704     70.8841E+06     30.8263E+06              0.     794.275E+03
           44705     70.9612E+06     30.6465E+06              0.     783.687E+03
           44706     71.0375E+06     30.4716E+06              0.     774.685E+03
           44707     71.1129E+06     30.3014E+06              0.     767.225E+03
           44708     71.1878E+06     30.1357E+06              0.     761.267E+03
           44709     71.2623E+06     29.9742E+06              0.     756.773E+03
           44710     71.3364E+06     29.8168E+06              0.     753.706E+03
           44711     71.4104E+06     29.6631E+06              0.     752.031E+03
           44712     71.4843E+06     29.5131E+06              0.     751.716E+03
           44713     71.5584E+06     29.3665E+06              0.     752.729E+03
           44714     71.6326E+06     29.2231E+06              0.     755.041E+03
           44715     71.7073E+06     29.0827E+06              0.     758.626E+03
           44716     71.7824E+06     28.9452E+06              0.     763.456E+03
           44717     71.8581E+06     28.8104E+06              0.     769.509E+03
           44718     71.9346E+06     28.6781E+06              0.      776.76E+03
           44719     72.0119E+06     28.5481E+06              0.     785.189E+03
           44720     72.0902E+06     28.4203E+06              0.     794.777E+03
           44721     72.1696E+06     28.2945E+06              0.     805.504E+03
           44722     72.2501E+06     28.1706E+06              0.     817.354E+03
           44723     72.3320E+06     28.0485E+06              0.     830.312E+03
           44724     72.4152E+06     27.9279E+06              0.     844.363E+03
           44725     72.5000E+06     27.8087E+06              0.     859.495E+03
           44726     72.5865E+06     27.6909E+06              0.     875.695E+03
           44727     72.6746E+06     27.5742E+06              0.     892.954E+03
           44728     72.7646E+06     27.4586E+06              0.     911.261E+03
           44729     72.8566E+06     27.3439E+06              0.     930.610E+03
           44730     72.9506E+06     27.2300E+06              0.     950.993E+03
           44731     73.0468E+06     27.1168E+06              0.     972.404E+03
           44732     73.1452E+06     27.0042E+06              0.     994.839E+03
           44733      73.246E+06     26.8920E+06              0.     1.01829E+06
           44734     73.3493E+06     26.7801E+06              0.     1.04277E+06
           44735     73.4551E+06     26.6684E+06              0.     1.06825E+06
           44736     73.5636E+06     26.5569E+06              0.     1.09476E+06
           44737     73.6749E+06     26.4454E+06              0.     1.12228E+06
           44738     73.7890E+06     26.3338E+06              0.     1.15081E+06
           44739     73.9062E+06     26.2220E+06              0.     1.18037E+06
           44740     74.0264E+06     26.1100E+06              0.     1.21095E+06
           44741     74.1498E+06     25.9976E+06              0.     1.24255E+06
           44742     74.2766E+06     25.8847E+06              0.     1.27519E+06
           44743     74.4067E+06     25.7712E+06              0.     1.30886E+06
           44744     74.5403E+06     25.6571E+06              0.     1.34358E+06
           44745     74.6776E+06     25.5422E+06              0.     1.37935E+06
           44746     74.8185E+06     25.4265E+06              0.     1.41619E+06
           44747     74.9633E+06     25.3099E+06              0.     1.45409E+06
           44748     75.1121E+06     25.1923E+06              0.     1.49307E+06
           44749     75.2649E+06     25.0736E+06              0.     1.53315E+06
           44750     75.4219E+06     24.9538E+06              0.     1.57433E+06
           44751     75.5831E+06     24.8327E+06              0.     1.61663E+06
           44752     75.7488E+06     24.7103E+06              0.     1.66006E+06
           44753     75.9190E+06     24.5865E+06              0.     1.70463E+06
           44754     76.0938E+06     24.4612E+06              0.     1.75036E+06
           44755     76.2734E+06     24.3343E+06              0.     1.79727E+06
           44756     76.4578E+06     24.2059E+06              0.     1.84537E+06
           44757     76.6473E+06     24.0757E+06              0.     1.89468E+06
           44758     76.8419E+06     23.9438E+06              0.     1.94522E+06
           44759     77.0418E+06     23.8100E+06              0.     1.99701E+06
           44760     77.2470E+06     23.6743E+06              0.     2.05006E+06
           44761     77.4578E+06     23.5366E+06              0.     2.10441E+06
           44762     77.6743E+06     23.3968E+06              0.     2.16006E+06
           44763     77.8965E+06     23.2549E+06              0.     2.21705E+06
           44764     78.1247E+06     23.1109E+06              0.     2.27539E+06
           44765     78.3590E+06     22.9646E+06              0.     2.33511E+06
           44766     78.5995E+06     22.8159E+06              0.     2.39623E+06
           44767     78.8464E+06     22.6649E+06              0.     2.45878E+06
           44768     79.0999E+06     22.5114E+06              0.     2.52279E+06
           44769     79.3600E+06     22.3554E+06              0.     2.58828E+06
           44770     79.6270E+06     22.1968E+06              0.     2.65529E+06
           44771      79.901E+06     22.0356E+06              0.     2.72383E+06
           44772     80.1822E+06     21.8717E+06              0.     2.79394E+06
           44773     80.4707E+06     21.7050E+06              0.     2.86565E+06
           44774     80.7667E+06     21.5355E+06              0.     2.93899E+06
           44775     81.0705E+06     21.3631E+06              0.     3.01400E+06
           44776     81.3821E+06     21.1878E+06              0.     3.09070E+06
           44777     81.7018E+06     21.0094E+06              0.     3.16913E+06
           44778     82.0297E+06     20.8280E+06              0.     3.24932E+06
           44779     82.3661E+06     20.6435E+06              0.     3.33132E+06
           44780     82.7111E+06     20.4559E+06              0.     3.41515E+06
           44781     83.0649E+06     20.2650E+06              0.     3.50086E+06
           44782     83.4278E+06     20.0708E+06              0.     3.58848E+06
           44783     83.7999E+06     19.8734E+06              0.     3.67805E+06
           44784     84.1815E+06     19.6725E+06              0.     3.76961E+06
           44785     84.5727E+06     19.4682E+06              0.     3.86321E+06
           44786     84.9739E+06     19.2605E+06              0.     3.95889E+06
           44787     85.3852E+06     19.0492E+06              0.     4.05668E+06
           44788     85.8069E+06     18.8344E+06              0.     4.15664E+06
           44789     86.2392E+06     18.6159E+06              0.     4.25881E+06
           44790     86.6823E+06     18.3938E+06              0.     4.36323E+06
           44791     87.1366E+06     18.1680E+06              0.     4.46996E+06
           44792     87.6022E+06     17.9385E+06              0.     4.57904E+06
           44793     88.0794E+06     17.7052E+06              0.     4.69053E+06
           44794     88.5685E+06     17.4681E+06              0.     4.80447E+06
           44795     89.0698E+06     17.2272E+06              0.     4.92091E+06
           44796     89.5835E+06     16.9823E+06              0.     5.03992E+06
           44797     90.1100E+06     16.7336E+06              0.     5.16154E+06
           44798     90.6495E+06     16.4810E+06              0.     5.28584E+06
           44799     91.2024E+06     16.2243E+06              0.     5.41286E+06
           44800     91.7688E+06     15.9637E+06              0.     5.54267E+06
           44801     92.3493E+06     15.6991E+06              0.     5.67533E+06
           44802      92.944E+06     15.4305E+06              0.      5.8109E+06
           44803     93.5533E+06     15.1578E+06              0.     5.94944E+06
           44804     94.1776E+06     14.8811E+06              0.     6.09103E+06
           44805     94.8172E+06     14.6003E+06              0.     6.23572E+06
           44806     95.4725E+06     14.3155E+06              0.     6.38358E+06
           44807     96.1438E+06     14.0266E+06              0.     6.53469E+06
           44808     96.8315E+06     13.7336E+06              0.     6.68912E+06
           44809      97.536E+06     13.4366E+06              0.     6.84693E+06
           44810     98.2577E+06     13.1355E+06              0.     7.00821E+06
           44811     98.9969E+06     12.8304E+06              0.     7.17303E+06
           44812     99.7542E+06     12.5213E+06              0.     7.34148E+06
           44813     100.530E+06     12.2082E+06              0.     7.51362E+06
           44814     101.324E+06     11.8912E+06              0.     7.68956E+06
           44815     102.138E+06     11.5702E+06              0.     7.86937E+06
           44816     102.972E+06     11.2454E+06              0.     8.05314E+06
           44817     103.826E+06     10.9167E+06              0.     8.24096E+06
           44818     104.700E+06     10.5842E+06              0.     8.43293E+06
           44819     105.596E+06     10.2480E+06              0.     8.62915E+06
           44820     106.513E+06     9.90822E+06              0.     8.82970E+06
           44821     107.453E+06     9.56483E+06              0.     9.03470E+06
           44822     108.415E+06     9.21794E+06              0.     9.24425E+06
           44823     109.401E+06     8.86765E+06              0.     9.45846E+06
           44824     110.411E+06     8.51407E+06              0.     9.67743E+06
           44825     111.445E+06     8.15730E+06              0.     9.90128E+06
           44826     112.504E+06     7.79746E+06              0.     10.1301E+06
           44827     113.589E+06     7.43469E+06              0.     10.3641E+06
           44828     114.700E+06     7.06912E+06              0.     10.6034E+06
           44829     115.838E+06     6.70091E+06              0.     10.8480E+06
           44830     117.003E+06     6.33022E+06              0.     11.0981E+06
           44831     118.197E+06     5.95723E+06              0.     11.3539E+06
           44832     119.420E+06     5.58212E+06              0.     11.6155E+06
           44833     120.672E+06     5.20511E+06              0.     11.8830E+06
           44834     121.955E+06     4.82641E+06              0.     12.1566E+06
           44835     123.269E+06     4.44626E+06              0.     12.4365E+06
           44836     124.615E+06     4.06491E+06              0.     12.7228E+06
           44837     125.994E+06     3.68262E+06              0.     13.0158E+06
           44838     127.407E+06     3.29969E+06              0.     13.3155E+06
           44839     128.853E+06     2.91642E+06              0.     13.6222E+06
           44840     130.336E+06     2.53314E+06              0.     13.9361E+06
           44841     131.854E+06     2.15019E+06              0.     14.2573E+06
           44842     133.410E+06     1.76794E+06              0.     14.5861E+06
           44843     135.003E+06     1.38680E+06              0.     14.9227E+06
           44844     136.636E+06     1.00717E+06              0.     15.2674E+06
           44845     138.309E+06     629.503E+03              0.     15.6203E+06
           44846     140.024E+06     254.275E+03              0.     15.9817E+06
           44847     141.780E+06    -118.012E+03              0.     16.3519E+06
           44848     143.580E+06    -486.828E+03              0.     16.7312E+06
           44849     145.425E+06    -851.598E+03              0.     17.1198E+06
           44850     147.316E+06    -1.21173E+06              0.     17.5181E+06
           44851     149.253E+06    -1.56657E+06              0.     17.9264E+06
           44852     151.239E+06    -1.91545E+06              0.     18.3449E+06
           44853     153.275E+06    -2.25764E+06              0.     18.7741E+06
           44854     155.362E+06    -2.59239E+06              0.     19.2143E+06
           44855     157.501E+06    -2.91887E+06              0.     19.6660E+06
           44856     159.695E+06    -3.23623E+06              0.     20.1294E+06
           44857     161.944E+06    -3.54355E+06              0.     20.6051E+06
           44858     164.250E+06    -3.83987E+06              0.     21.0935E+06
           44859     166.615E+06    -4.12415E+06              0.     21.5951E+06
           44860     169.040E+06    -4.39529E+06              0.     22.1104E+06
           44861     171.528E+06    -4.65214E+06              0.       22.64E+06
           44862     174.080E+06    -4.89345E+06              0.     23.1844E+06
           44863     176.698E+06    -5.11791E+06              0.     23.7442E+06
           44864     179.384E+06    -5.32414E+06              0.     24.3201E+06
           44865     182.140E+06    -5.51064E+06              0.     24.9128E+06
           44866     184.969E+06    -5.67582E+06              0.     25.5230E+06
           44867     187.872E+06    -5.81802E+06              0.     26.1515E+06
           44868     190.852E+06    -5.93542E+06              0.     26.7991E+06
           44869     193.911E+06    -6.02614E+06              0.     27.4668E+06
           44870     197.052E+06    -6.08810E+06              0.     28.1555E+06
           44871     200.278E+06    -6.11916E+06              0.     28.8662E+06
           44872     203.590E+06    -6.11697E+06              0.     29.6000E+06
           44873     206.993E+06    -6.07905E+06              0.     30.3582E+06
           44874     210.489E+06    -6.00274E+06              0.     31.1419E+06
           44875     214.082E+06    -5.88519E+06              0.     31.9526E+06
           44876     217.773E+06    -5.72334E+06              0.     32.7917E+06
           44877     221.568E+06    -5.51392E+06              0.     33.6608E+06
           44878     225.469E+06    -5.25338E+06              0.     34.5617E+06
           44879     229.479E+06    -4.93795E+06              0.     35.4962E+06
           44880     233.604E+06    -4.56353E+06              0.     36.4662E+06
           44881     237.846E+06    -4.12572E+06              0.     37.4740E+06
           44882     242.210E+06    -3.61976E+06              0.     38.5219E+06
           44883     246.699E+06    -3.04048E+06              0.     39.6125E+06
           44884     251.319E+06    -2.38231E+06              0.     40.7486E+06
           44885     256.074E+06    -1.63917E+06              0.     41.9331E+06
           44886     260.968E+06    -804.495E+03              0.     43.1693E+06
           44887     266.006E+06     128.915E+03              0.     44.4608E+06
           44888     271.193E+06     1.16890E+06              0.     45.8114E+06
           44889     276.533E+06     2.32403E+06              0.     47.2254E+06
           44890     282.031E+06     3.60370E+06              0.     48.7073E+06
           44891     287.692E+06     5.01825E+06              0.     50.2621E+06
           44892     293.520E+06     6.57902E+06              0.     51.8952E+06
           44893     299.518E+06     8.29857E+06              0.     53.6124E+06
           44894     305.692E+06     10.1908E+06              0.       55.42E+06
           44895     312.042E+06     12.2709E+06              0.     57.3247E+06
           44896     318.571E+06     14.5562E+06              0.     59.3339E+06
           44897     325.278E+06     17.0654E+06              0.     61.4550E+06
           44898     332.164E+06     19.8198E+06              0.     63.6960E+06
           44899     339.222E+06     22.8430E+06              0.     66.0652E+06
           44900     346.447E+06     26.1613E+06              0.     68.5707E+06
           44901     353.825E+06     29.8041E+06              0.     71.2203E+06
           44902     361.340E+06     33.8043E+06              0.     74.0210E+06
           44903     368.968E+06     38.1981E+06              0.     76.9779E+06
           44904     376.674E+06     43.0260E+06              0.     80.0938E+06
           44905     384.413E+06     48.3320E+06              0.     83.3666E+06
           44906     392.125E+06     54.1638E+06              0.     86.7880E+06
           44907     399.733E+06     60.5711E+06              0.     90.3396E+06
           44908     407.136E+06     67.6045E+06              0.     93.9889E+06
           44909     414.213E+06     75.3110E+06              0.     97.6839E+06
           44910     420.813E+06     83.7281E+06              0.     101.346E+06
           44911     426.760E+06     92.8737E+06              0.     104.861E+06
           44912     431.858E+06     102.731E+06              0.     108.074E+06
           44913     435.902E+06     113.226E+06              0.     110.785E+06
           44914     438.696E+06     124.203E+06              0.     112.750E+06
           44915     440.079E+06     135.398E+06              0.     113.698E+06
           44916     439.953E+06     146.419E+06              0.     113.365E+06
           44917     438.300E+06     156.757E+06              0.     111.540E+06
           44918     435.198E+06     165.833E+06              0.     108.121E+06
           44919     436.732E+06     171.693E+06              0.     110.326E+06
           44920     70.9341E+06     31.0658E+06              0.     718.037E+03
           44921     70.9139E+06     30.8370E+06              0.     716.797E+03
           44922     70.9916E+06     30.6557E+06              0.     707.242E+03
           44923     71.0685E+06     30.4794E+06              0.     699.118E+03
           44924     71.1446E+06     30.3078E+06              0.     692.387E+03
           44925     71.2201E+06     30.1407E+06              0.     687.010E+03
           44926     71.2952E+06     29.9779E+06              0.     682.955E+03
           44927     71.3699E+06     29.8191E+06              0.     680.188E+03
           44928     71.4445E+06     29.6642E+06              0.     678.677E+03
           44929     71.5191E+06     29.5129E+06              0.     678.393E+03
           44930     71.5937E+06     29.3651E+06              0.     679.307E+03
           44931     71.6686E+06     29.2205E+06              0.     681.395E+03
           44932     71.7439E+06     29.0790E+06              0.     684.631E+03
           44933     71.8196E+06     28.9403E+06              0.     688.991E+03
           44934     71.8960E+06     28.8044E+06              0.     694.453E+03
           44935     71.9731E+06     28.6709E+06              0.     700.998E+03
           44936     72.0511E+06     28.5399E+06              0.     708.606E+03
           44937     72.1300E+06     28.4110E+06              0.     717.259E+03
           44938     72.2100E+06     28.2842E+06              0.     726.940E+03
           44939     72.2912E+06     28.1593E+06              0.     737.636E+03
           44940     72.3738E+06     28.0361E+06              0.     749.331E+03
           44941     72.4577E+06     27.9145E+06              0.     762.012E+03
           44942     72.5432E+06     27.7944E+06              0.     775.669E+03
           44943     72.6304E+06     27.6755E+06              0.     790.290E+03
           44944     72.7193E+06     27.5579E+06              0.     805.866E+03
           44945     72.8101E+06     27.4413E+06              0.     822.389E+03
           44946     72.9028E+06     27.3257E+06              0.     839.852E+03
           44947     72.9976E+06     27.2108E+06              0.     858.248E+03
           44948     73.0946E+06     27.0967E+06              0.     877.573E+03
           44949     73.1938E+06     26.9831E+06              0.     897.821E+03
           44950     73.2955E+06     26.8699E+06              0.     918.989E+03
           44951     73.3996E+06     26.7571E+06              0.     941.077E+03
           44952     73.5063E+06     26.6445E+06              0.     964.080E+03
           44953     73.6157E+06     26.5321E+06              0.     988.000E+03
           44954     73.7280E+06     26.4196E+06              0.     1.01284E+06
           44955     73.8431E+06     26.3071E+06              0.     1.03859E+06
           44956     73.9612E+06     26.1944E+06              0.     1.06527E+06
           44957     74.0825E+06     26.0814E+06              0.     1.09286E+06
           44958     74.2069E+06     25.9680E+06              0.     1.12139E+06
           44959     74.3347E+06     25.8542E+06              0.     1.15085E+06
           44960     74.4659E+06     25.7397E+06              0.     1.18124E+06
           44961     74.6007E+06     25.6246E+06              0.     1.21258E+06
           44962     74.7391E+06     25.5088E+06              0.     1.24486E+06
           44963     74.8812E+06     25.3921E+06              0.     1.27811E+06
           44964     75.0273E+06     25.2745E+06              0.     1.31232E+06
           44965     75.1773E+06     25.1559E+06              0.     1.34750E+06
           44966     75.3314E+06     25.0362E+06              0.     1.38368E+06
           44967     75.4897E+06     24.9154E+06              0.     1.42084E+06
           44968     75.6523E+06     24.7933E+06              0.     1.45902E+06
           44969     75.8194E+06     24.6698E+06              0.     1.49822E+06
           44970     75.9910E+06     24.5449E+06              0.     1.53845E+06
           44971     76.1673E+06     24.4186E+06              0.     1.57973E+06
           44972     76.3484E+06     24.2906E+06              0.     1.62207E+06
           44973     76.5344E+06     24.1610E+06              0.     1.66548E+06
           44974     76.7255E+06     24.0298E+06              0.     1.70999E+06
           44975     76.9218E+06     23.8967E+06              0.     1.75561E+06
           44976     77.1233E+06     23.7617E+06              0.     1.80235E+06
           44977     77.3303E+06     23.6248E+06              0.     1.85024E+06
           44978     77.5429E+06     23.4860E+06              0.     1.89929E+06
           44979     77.7612E+06     23.3450E+06              0.     1.94953E+06
           44980     77.9854E+06     23.2019E+06              0.     2.00096E+06
           44981     78.2155E+06     23.0566E+06              0.     2.05363E+06
           44982     78.4518E+06     22.9090E+06              0.     2.10753E+06
           44983     78.6944E+06     22.7590E+06              0.     2.16271E+06
           44984     78.9434E+06     22.6067E+06              0.     2.21917E+06
           44985     79.1991E+06     22.4519E+06              0.     2.27695E+06
           44986     79.4614E+06     22.2945E+06              0.     2.33607E+06
           44987     79.7307E+06     22.1345E+06              0.     2.39655E+06
           44988     80.0071E+06     21.9719E+06              0.     2.45843E+06
           44989     80.2907E+06     21.8065E+06              0.     2.52172E+06
           44990     80.5817E+06     21.6383E+06              0.     2.58645E+06
           44991     80.8803E+06     21.4673E+06              0.     2.65266E+06
           44992     81.1867E+06     21.2934E+06              0.     2.72037E+06
           44993     81.5010E+06     21.1165E+06              0.     2.78961E+06
           44994     81.8235E+06     20.9365E+06              0.     2.86042E+06
           44995     82.1543E+06     20.7535E+06              0.     2.93281E+06
           44996     82.4936E+06     20.5673E+06              0.     3.00684E+06
           44997     82.8416E+06     20.3780E+06              0.     3.08252E+06
           44998     83.1985E+06     20.1854E+06              0.     3.15990E+06
           44999     83.5646E+06     19.9894E+06              0.     3.23900E+06
           45000     83.9399E+06     19.7902E+06              0.     3.31987E+06
           45001     84.3249E+06     19.5875E+06              0.     3.40254E+06
           45002     84.7196E+06     19.3813E+06              0.     3.48705E+06
           45003     85.1243E+06     19.1716E+06              0.     3.57343E+06
           45004     85.5392E+06     18.9584E+06              0.     3.66173E+06
           45005     85.9647E+06     18.7416E+06              0.     3.75198E+06
           45006     86.4008E+06     18.5211E+06              0.     3.84423E+06
           45007     86.8479E+06     18.2969E+06              0.     3.93852E+06
           45008     87.3061E+06     18.0690E+06              0.     4.03489E+06
           45009     87.7759E+06     17.8373E+06              0.     4.13339E+06
           45010     88.2574E+06     17.6018E+06              0.     4.23406E+06
           45011     88.7509E+06     17.3624E+06              0.     4.33694E+06
           45012     89.2567E+06     17.1192E+06              0.     4.44210E+06
           45013     89.7751E+06     16.8720E+06              0.     4.54957E+06
           45014     90.3063E+06     16.6209E+06              0.     4.65940E+06
           45015     90.8507E+06     16.3658E+06              0.     4.77165E+06
           45016     91.4086E+06     16.1066E+06              0.     4.88636E+06
           45017     91.9803E+06     15.8435E+06              0.     5.00360E+06
           45018     92.5660E+06     15.5762E+06              0.     5.12341E+06
           45019     93.1662E+06     15.3049E+06              0.     5.24585E+06
           45020     93.7812E+06     15.0296E+06              0.     5.37099E+06
           45021     94.4112E+06     14.7501E+06              0.     5.49887E+06
           45022     95.0568E+06     14.4664E+06              0.     5.62956E+06
           45023     95.7181E+06     14.1787E+06              0.     5.76312E+06
           45024     96.3957E+06     13.8868E+06              0.     5.89962E+06
           45025     97.0899E+06     13.5908E+06              0.     6.03912E+06
           45026      97.801E+06     13.2907E+06              0.     6.18168E+06
           45027     98.5295E+06     12.9865E+06              0.     6.32739E+06
           45028     99.2758E+06     12.6782E+06              0.     6.47629E+06
           45029     100.040E+06     12.3658E+06              0.     6.62848E+06
           45030     100.823E+06     12.0493E+06              0.     6.78401E+06
           45031     101.626E+06     11.7288E+06              0.     6.94298E+06
           45032     102.447E+06     11.4043E+06              0.     7.10545E+06
           45033     103.289E+06     11.0759E+06              0.     7.27151E+06
           45034     104.151E+06     10.7435E+06              0.     7.44124E+06
           45035     105.034E+06     10.4073E+06              0.     7.61473E+06
           45036     105.939E+06     10.0673E+06              0.     7.79206E+06
           45037     106.865E+06     9.72358E+06              0.     7.97332E+06
           45038     107.814E+06     9.37618E+06              0.     8.15861E+06
           45039     108.787E+06     9.02520E+06              0.     8.34802E+06
           45040     109.782E+06     8.67073E+06              0.     8.54165E+06
           45041     110.802E+06     8.31287E+06              0.     8.73960E+06
           45042     111.847E+06     7.95173E+06              0.     8.94198E+06
           45043     112.917E+06     7.58742E+06              0.     9.14889E+06
           45044     114.013E+06     7.22007E+06              0.     9.36045E+06
           45045     115.136E+06     6.84982E+06              0.     9.57677E+06
           45046     116.285E+06     6.47682E+06              0.     9.79798E+06
           45047     117.463E+06     6.10123E+06              0.     10.0242E+06
           45048     118.670E+06     5.72323E+06              0.     10.2555E+06
           45049     119.906E+06     5.34300E+06              0.     10.4921E+06
           45050     121.172E+06     4.96073E+06              0.     10.7341E+06
           45051     122.469E+06     4.57666E+06              0.     10.9817E+06
           45052     123.798E+06     4.19100E+06              0.     11.2349E+06
           45053     125.159E+06     3.80402E+06              0.     11.4940E+06
           45054     126.553E+06     3.41596E+06              0.     11.7591E+06
           45055     127.982E+06     3.02711E+06              0.     12.0304E+06
           45056     129.445E+06     2.63778E+06              0.     12.3080E+06
           45057     130.944E+06     2.24828E+06              0.     12.5921E+06
           45058     132.481E+06     1.85896E+06              0.     12.8829E+06
           45059     134.055E+06     1.47018E+06              0.     13.1807E+06
           45060     135.668E+06     1.08233E+06              0.     13.4855E+06
           45061     137.321E+06     695.827E+03              0.     13.7976E+06
           45062     139.014E+06     311.102E+03              0.     14.1173E+06
           45063     140.750E+06    -71.3714E+03              0.     14.4448E+06
           45064     142.529E+06    -451.100E+03              0.     14.7802E+06
           45065     144.352E+06    -827.561E+03              0.     15.1240E+06
           45066     146.221E+06    -1.20019E+06              0.     15.4762E+06
           45067     148.136E+06    -1.56839E+06              0.     15.8373E+06
           45068     150.100E+06    -1.93154E+06              0.     16.2075E+06
           45069     152.113E+06    -2.28896E+06              0.     16.5871E+06
           45070     154.177E+06    -2.63995E+06              0.     16.9765E+06
           45071     156.293E+06    -2.98375E+06              0.     17.3759E+06
           45072     158.463E+06    -3.31956E+06              0.     17.7858E+06
           45073     160.688E+06    -3.64654E+06              0.     18.2065E+06
           45074     162.970E+06    -3.96377E+06              0.     18.6384E+06
           45075     165.311E+06    -4.27031E+06              0.     19.0820E+06
           45076     167.712E+06    -4.56514E+06              0.     19.5377E+06
           45077     170.176E+06    -4.84718E+06              0.     20.0060E+06
           45078     172.703E+06    -5.11528E+06              0.     20.4874E+06
           45079     175.297E+06    -5.36823E+06              0.     20.9825E+06
           45080     177.958E+06    -5.60473E+06              0.     21.4917E+06
           45081     180.690E+06    -5.82341E+06              0.     22.0158E+06
           45082     183.494E+06    -6.02281E+06              0.     22.5554E+06
           45083     186.373E+06    -6.20136E+06              0.     23.1111E+06
           45084     189.329E+06    -6.35741E+06              0.     23.6838E+06
           45085     192.365E+06    -6.48920E+06              0.     24.2742E+06
           45086     195.483E+06    -6.59485E+06              0.     24.8832E+06
           45087     198.687E+06    -6.67234E+06              0.     25.5116E+06
           45088     201.978E+06    -6.71953E+06              0.     26.1605E+06
           45089     205.360E+06    -6.73413E+06              0.     26.8309E+06
           45090     208.836E+06    -6.71370E+06              0.     27.5240E+06
           45091     212.410E+06    -6.65563E+06              0.     28.2410E+06
           45092     216.085E+06    -6.55709E+06              0.     28.9831E+06
           45093     219.864E+06    -6.41509E+06              0.     29.7519E+06
           45094     223.752E+06    -6.22640E+06              0.     30.5488E+06
           45095     227.751E+06    -5.98755E+06              0.     31.3756E+06
           45096     231.868E+06    -5.69481E+06              0.     32.2340E+06
           45097     236.105E+06    -5.34415E+06              0.     33.1260E+06
           45098     240.468E+06    -4.93123E+06              0.     34.0537E+06
           45099     244.961E+06    -4.45138E+06              0.     35.0195E+06
           45100     249.589E+06    -3.89951E+06              0.     36.0259E+06
           45101     254.357E+06    -3.27011E+06              0.     37.0757E+06
           45102     259.272E+06    -2.55722E+06              0.     38.1719E+06
           45103     264.339E+06    -1.75433E+06              0.     39.3178E+06
           45104     269.563E+06    -854.353E+03              0.     40.5170E+06
           45105     274.951E+06     150.471E+03              0.     41.7735E+06
           45106     280.509E+06     1.26862E+06              0.     43.0916E+06
           45107     286.244E+06     2.50942E+06              0.     44.4763E+06
           45108     292.163E+06     3.88311E+06              0.     45.9326E+06
           45109     298.272E+06     5.40101E+06              0.     47.4663E+06
           45110     304.578E+06     7.07564E+06              0.     49.0839E+06
           45111     311.087E+06     8.92086E+06              0.     50.7922E+06
           45112     317.806E+06     10.9521E+06              0.     52.5989E+06
           45113     324.741E+06     13.1867E+06              0.     54.5123E+06
           45114     331.897E+06     15.6437E+06              0.     56.5414E+06
           45115     339.276E+06     18.3449E+06              0.     58.6959E+06
           45116     346.882E+06     21.3145E+06              0.     60.9865E+06
           45117     354.713E+06     24.5799E+06              0.     63.4241E+06
           45118     362.765E+06     28.1721E+06              0.     66.0203E+06
           45119     371.029E+06     32.1261E+06              0.     68.7867E+06
           45120     379.490E+06     36.4812E+06              0.     71.7345E+06
           45121     388.124E+06     41.2822E+06              0.     74.8737E+06
           45122     396.894E+06     46.5791E+06              0.     78.2112E+06
           45123     405.752E+06     52.4280E+06              0.     81.7497E+06
           45124     414.625E+06     58.8902E+06              0.     85.4837E+06
           45125     423.418E+06     66.0319E+06              0.     89.3955E+06
           45126     432.007E+06     73.9211E+06              0.     93.4486E+06
           45127     440.227E+06     82.6224E+06              0.     97.5787E+06
           45128     447.878E+06     92.1882E+06              0.     101.683E+06
           45129     454.718E+06     102.641E+06              0.     105.607E+06
           45130     460.477E+06     113.948E+06              0.     109.130E+06
           45131     464.877E+06     125.982E+06              0.     111.967E+06
           45132     467.667E+06     138.477E+06              0.     113.773E+06
           45133     468.662E+06     150.988E+06              0.     114.185E+06
           45134     467.790E+06     162.881E+06              0.     112.888E+06
           45135     465.100E+06     173.389E+06              0.     109.702E+06
           45136     467.231E+06     180.206E+06              0.     112.534E+06
           45137      70.961E+06     31.0771E+06              0.     639.810E+03
           45138     70.9406E+06     30.8466E+06              0.     638.705E+03
           45139     71.0189E+06     30.6640E+06              0.     630.192E+03
           45140     71.0964E+06     30.4864E+06              0.     622.953E+03
           45141     71.1730E+06     30.3135E+06              0.     616.955E+03
           45142     71.2491E+06     30.1452E+06              0.     612.165E+03
           45143     71.3247E+06     29.9811E+06              0.     608.552E+03
           45144     71.4000E+06     29.8212E+06              0.     606.086E+03
           45145     71.4752E+06     29.6651E+06              0.     604.740E+03
           45146     71.5503E+06     29.5127E+06              0.     604.488E+03
           45147     71.6255E+06     29.3638E+06              0.     605.303E+03
           45148     71.7009E+06     29.2182E+06              0.     607.164E+03
           45149     71.7767E+06     29.0756E+06              0.     610.048E+03
           45150     71.8530E+06     28.9359E+06              0.     613.933E+03
           45151     71.9300E+06     28.7989E+06              0.     618.801E+03
           45152     72.0076E+06     28.6645E+06              0.     624.633E+03
           45153     72.0862E+06     28.5325E+06              0.     631.413E+03
           45154     72.1657E+06     28.4027E+06              0.     639.124E+03
           45155     72.2463E+06     28.2749E+06              0.     647.752E+03
           45156     72.3281E+06     28.1491E+06              0.     657.282E+03
           45157     72.4113E+06     28.0250E+06              0.     667.704E+03
           45158     72.4959E+06     27.9025E+06              0.     679.005E+03
           45159     72.5820E+06     27.7815E+06              0.     691.174E+03
           45160     72.6698E+06     27.6618E+06              0.     704.204E+03
           45161     72.7594E+06     27.5432E+06              0.     718.084E+03
           45162     72.8508E+06     27.4258E+06              0.     732.808E+03
           45163     72.9442E+06     27.3093E+06              0.     748.370E+03
           45164     73.0398E+06     27.1936E+06              0.     764.763E+03
           45165     73.1374E+06     27.0786E+06              0.     781.983E+03
           45166     73.2374E+06     26.9641E+06              0.     800.026E+03
           45167     73.3398E+06     26.8501E+06              0.     818.890E+03
           45168     73.4448E+06     26.7365E+06              0.     838.573E+03
           45169     73.5523E+06     26.6231E+06              0.     859.072E+03
           45170     73.6625E+06     26.5098E+06              0.     880.388E+03
           45171     73.7756E+06     26.3965E+06              0.     902.520E+03
           45172     73.8915E+06     26.2831E+06              0.     925.471E+03
           45173     74.0106E+06     26.1696E+06              0.     949.242E+03
           45174     74.1327E+06     26.0557E+06              0.     973.836E+03
           45175     74.2581E+06     25.9415E+06              0.     999.255E+03
           45176     74.3869E+06     25.8268E+06              0.     1.02550E+06
           45177     74.5191E+06     25.7115E+06              0.     1.05259E+06
           45178     74.6548E+06     25.5955E+06              0.     1.08051E+06
           45179     74.7943E+06     25.4788E+06              0.     1.10929E+06
           45180     74.9375E+06     25.3613E+06              0.     1.13891E+06
           45181     75.0846E+06     25.2428E+06              0.     1.16940E+06
           45182     75.2358E+06     25.1233E+06              0.     1.20076E+06
           45183     75.3910E+06     25.0027E+06              0.     1.23299E+06
           45184     75.5505E+06     24.8809E+06              0.     1.26611E+06
           45185     75.7144E+06     24.7579E+06              0.     1.30014E+06
           45186     75.8827E+06     24.6335E+06              0.     1.33507E+06
           45187     76.0556E+06     24.5076E+06              0.     1.37092E+06
           45188     76.2333E+06     24.3803E+06              0.     1.40771E+06
           45189     76.4157E+06     24.2514E+06              0.     1.44544E+06
           45190     76.6032E+06     24.1208E+06              0.     1.48413E+06
           45191     76.7957E+06     23.9885E+06              0.     1.52379E+06
           45192     76.9934E+06     23.8544E+06              0.     1.56445E+06
           45193     77.1965E+06     23.7185E+06              0.     1.60611E+06
           45194     77.4051E+06     23.5805E+06              0.     1.64879E+06
           45195     77.6193E+06     23.4406E+06              0.     1.69250E+06
           45196     77.8393E+06     23.2985E+06              0.     1.73727E+06
           45197     78.0651E+06     23.1543E+06              0.     1.78311E+06
           45198     78.2970E+06     23.0079E+06              0.     1.83005E+06
           45199     78.5351E+06     22.8591E+06              0.     1.87809E+06
           45200     78.7796E+06     22.7080E+06              0.     1.92727E+06
           45201     79.0305E+06     22.5545E+06              0.     1.97759E+06
           45202     79.2881E+06     22.3984E+06              0.     2.02909E+06
           45203     79.5525E+06     22.2398E+06              0.     2.08178E+06
           45204     79.8238E+06     22.0786E+06              0.     2.13568E+06
           45205     80.1023E+06     21.9147E+06              0.     2.19083E+06
           45206     80.3881E+06     21.7480E+06              0.     2.24724E+06
           45207     80.6813E+06     21.5785E+06              0.     2.30494E+06
           45208     80.9822E+06     21.4061E+06              0.     2.36395E+06
           45209     81.2910E+06     21.2308E+06              0.     2.42430E+06
           45210     81.6077E+06     21.0525E+06              0.     2.48602E+06
           45211     81.9327E+06     20.8711E+06              0.     2.54913E+06
           45212     82.2660E+06     20.6866E+06              0.     2.61366E+06
           45213     82.6080E+06     20.4990E+06              0.     2.67964E+06
           45214     82.9587E+06     20.3081E+06              0.     2.74710E+06
           45215     83.3184E+06     20.1139E+06              0.     2.81607E+06
           45216     83.6873E+06     19.9164E+06              0.     2.88658E+06
           45217     84.0656E+06     19.7155E+06              0.     2.95867E+06
           45218     84.4536E+06     19.5111E+06              0.     3.03236E+06
           45219     84.8514E+06     19.3033E+06              0.     3.10769E+06
           45220     85.2592E+06     19.0919E+06              0.     3.18469E+06
           45221     85.6775E+06     18.8769E+06              0.     3.26340E+06
           45222     86.1062E+06     18.6583E+06              0.     3.34386E+06
           45223     86.5458E+06      18.436E+06              0.     3.42610E+06
           45224     86.9964E+06     18.2100E+06              0.     3.51016E+06
           45225     87.4583E+06     17.9801E+06              0.     3.59607E+06
           45226     87.9318E+06     17.7465E+06              0.     3.68388E+06
           45227     88.4172E+06     17.5090E+06              0.     3.77363E+06
           45228     88.9146E+06     17.2676E+06              0.     3.86536E+06
           45229     89.4245E+06     17.0223E+06              0.     3.95911E+06
           45230     89.9470E+06     16.7730E+06              0.     4.05493E+06
           45231     90.4825E+06     16.5197E+06              0.     4.15285E+06
           45232     91.0313E+06     16.2624E+06              0.     4.25293E+06
           45233     91.5937E+06     16.0010E+06              0.     4.35522E+06
           45234     92.1700E+06     15.7355E+06              0.     4.45975E+06
           45235     92.7605E+06     15.4659E+06              0.     4.56658E+06
           45236     93.3657E+06     15.1922E+06              0.     4.67577E+06
           45237     93.9856E+06     14.9144E+06              0.     4.78735E+06
           45238     94.6209E+06     14.6324E+06              0.     4.90139E+06
           45239     95.2718E+06     14.3462E+06              0.     5.01793E+06
           45240     95.9386E+06     14.0559E+06              0.     5.13704E+06
           45241     96.6219E+06     13.7613E+06              0.     5.25878E+06
           45242     97.3218E+06     13.4626E+06              0.     5.38319E+06
           45243     98.0389E+06     13.1597E+06              0.     5.51033E+06
           45244     98.7735E+06     12.8527E+06              0.     5.64028E+06
           45245     99.5261E+06     12.5414E+06              0.     5.77310E+06
           45246     100.297E+06     12.2261E+06              0.     5.90884E+06
           45247     101.087E+06     11.9066E+06              0.     6.04758E+06
           45248     101.896E+06     11.5830E+06              0.     6.18938E+06
           45249     102.725E+06     11.2554E+06              0.     6.33431E+06
           45250     103.574E+06     10.9237E+06              0.     6.48245E+06
           45251     104.443E+06     10.5880E+06              0.     6.63387E+06
           45252     105.334E+06     10.2484E+06              0.     6.78865E+06
           45253     106.247E+06     9.90499E+06              0.     6.94687E+06
           45254     107.181E+06     9.55772E+06              0.     7.10860E+06
           45255     108.139E+06     9.20672E+06              0.     7.27393E+06
           45256     109.120E+06     8.85205E+06              0.     7.44294E+06
           45257     110.124E+06     8.49381E+06              0.     7.61574E+06
           45258     111.154E+06     8.13210E+06              0.     7.79239E+06
           45259     112.208E+06     7.76702E+06              0.     7.97301E+06
           45260     113.288E+06     7.39868E+06              0.     8.15769E+06
           45261     114.394E+06     7.02721E+06              0.     8.34652E+06
           45262     115.527E+06     6.65274E+06              0.     8.53962E+06
           45263     116.688E+06     6.27543E+06              0.     8.73709E+06
           45264     117.877E+06     5.89542E+06              0.     8.93904E+06
           45265     119.095E+06     5.51290E+06              0.     9.14559E+06
           45266     120.343E+06     5.12804E+06              0.     9.35685E+06
           45267     121.621E+06     4.74104E+06              0.     9.57296E+06
           45268     122.931E+06     4.35212E+06              0.     9.79403E+06
           45269     124.272E+06     3.96149E+06              0.     10.0202E+06
           45270     125.647E+06     3.56941E+06              0.     10.2516E+06
           45271     127.055E+06     3.17614E+06              0.     10.4884E+06
           45272     128.498E+06     2.78195E+06              0.     10.7307E+06
           45273     129.977E+06     2.38714E+06              0.     10.9788E+06
           45274     131.492E+06     1.99202E+06              0.     11.2326E+06
           45275     133.044E+06     1.59694E+06              0.     11.4925E+06
           45276     134.635E+06     1.20225E+06              0.     11.7586E+06
           45277     136.265E+06     808.340E+03              0.     12.0311E+06
           45278     137.936E+06     415.612E+03              0.     12.3101E+06
           45279     139.648E+06     24.4969E+03              0.     12.5960E+06
           45280     141.403E+06    -364.540E+03              0.     12.8888E+06
           45281     143.202E+06    -751.013E+03              0.     13.1888E+06
           45282     145.046E+06    -1.13440E+06              0.     13.4962E+06
           45283     146.937E+06    -1.51415E+06              0.     13.8113E+06
           45284     148.875E+06    -1.88969E+06              0.     14.1344E+06
           45285     150.862E+06    -2.26038E+06              0.     14.4657E+06
           45286     152.899E+06    -2.62556E+06              0.     14.8055E+06
           45287     154.988E+06    -2.98454E+06              0.     15.1540E+06
           45288     157.131E+06    -3.33658E+06              0.     15.5116E+06
           45289     159.328E+06    -3.68088E+06              0.     15.8787E+06
           45290     161.582E+06    -4.01660E+06              0.     16.2556E+06
           45291     163.895E+06    -4.34287E+06              0.     16.6426E+06
           45292     166.267E+06    -4.65873E+06              0.     17.0401E+06
           45293     168.701E+06    -4.96319E+06              0.     17.4487E+06
           45294     171.199E+06    -5.25517E+06              0.     17.8686E+06
           45295     173.762E+06    -5.53356E+06              0.     18.3004E+06
           45296     176.394E+06    -5.79716E+06              0.     18.7445E+06
           45297     179.095E+06    -6.04468E+06              0.     19.2016E+06
           45298     181.868E+06    -6.27478E+06              0.     19.6721E+06
           45299     184.716E+06    -6.48601E+06              0.     20.1567E+06
           45300     187.641E+06    -6.67685E+06              0.     20.6560E+06
           45301     190.645E+06    -6.84565E+06              0.     21.1707E+06
           45302     193.732E+06    -6.99068E+06              0.     21.7016E+06
           45303     196.904E+06    -7.11010E+06              0.     22.2494E+06
           45304     200.164E+06    -7.20192E+06              0.     22.8150E+06
           45305     203.515E+06    -7.26404E+06              0.     23.3993E+06
           45306     206.960E+06    -7.29421E+06              0.     24.0034E+06
           45307     210.504E+06    -7.29001E+06              0.     24.6282E+06
           45308     214.148E+06    -7.24889E+06              0.     25.2749E+06
           45309     217.899E+06    -7.16807E+06              0.     25.9448E+06
           45310     221.758E+06    -7.04460E+06              0.     26.6392E+06
           45311     225.731E+06    -6.87532E+06              0.     27.3596E+06
           45312     229.822E+06    -6.65681E+06              0.     28.1075E+06
           45313     234.035E+06    -6.38542E+06              0.     28.8847E+06
           45314     238.376E+06    -6.05718E+06              0.     29.6931E+06
           45315     242.850E+06    -5.66784E+06              0.     30.5348E+06
           45316     247.462E+06    -5.21279E+06              0.     31.4119E+06
           45317     252.218E+06    -4.68705E+06              0.     32.3269E+06
           45318     257.124E+06    -4.08522E+06              0.     33.2826E+06
           45319     262.187E+06    -3.40141E+06              0.     34.2818E+06
           45320     267.414E+06    -2.62925E+06              0.     35.3279E+06
           45321     272.811E+06    -1.76176E+06              0.     36.4245E+06
           45322     278.387E+06    -791.310E+03              0.     37.5754E+06
           45323     284.150E+06     290.439E+03              0.     38.7851E+06
           45324     290.107E+06     1.49268E+06              0.     40.0583E+06
           45325     296.268E+06     2.82551E+06              0.     41.4006E+06
           45326     302.642E+06     4.30011E+06              0.     42.8178E+06
           45327     309.239E+06     5.92886E+06              0.     44.3165E+06
           45328     316.069E+06     7.72552E+06              0.     45.9041E+06
           45329     323.141E+06     9.70546E+06              0.     47.5887E+06
           45330     330.465E+06     11.8859E+06              0.     49.3795E+06
           45331     338.053E+06     14.2860E+06              0.     51.2865E+06
           45332     345.912E+06     16.9276E+06              0.     53.3209E+06
           45333     354.053E+06     19.8354E+06              0.     55.4951E+06
           45334     362.481E+06     23.0373E+06              0.     57.8225E+06
           45335     371.203E+06     26.5650E+06              0.     60.3180E+06
           45336     380.218E+06     30.4552E+06              0.     62.9975E+06
           45337     389.525E+06     34.7493E+06              0.     65.8777E+06
           45338     399.112E+06     39.4955E+06              0.     68.9759E+06
           45339     408.958E+06     44.7486E+06              0.     72.3084E+06
           45340     419.028E+06     50.5717E+06              0.     75.8898E+06
           45341     429.267E+06     57.0368E+06              0.     79.7297E+06
           45342     439.592E+06     64.2246E+06              0.     83.8290E+06
           45343     449.887E+06     72.2246E+06              0.     88.1730E+06
           45344     459.989E+06     81.1310E+06              0.     92.7216E+06
           45345     469.677E+06     91.0364E+06              0.     97.3954E+06
           45346     478.670E+06     102.016E+06              0.     102.055E+06
           45347     486.623E+06     114.099E+06              0.     106.480E+06
           45348     493.153E+06     127.220E+06              0.     110.347E+06
           45349     497.877E+06     141.145E+06              0.     113.228E+06
           45350     500.474E+06     155.391E+06              0.     114.630E+06
           45351     500.760E+06     169.177E+06              0.     114.080E+06
           45352     498.743E+06     181.474E+06              0.     111.268E+06
           45353     501.675E+06     189.472E+06              0.     114.918E+06
           45354     70.9848E+06     31.0871E+06              0.     561.036E+03
           45355     70.9642E+06     30.8551E+06              0.     560.067E+03
           45356     71.0431E+06     30.6713E+06              0.     552.602E+03
           45357      71.121E+06     30.4925E+06              0.     546.255E+03
           45358     71.1982E+06     30.3185E+06              0.     540.996E+03
           45359     71.2747E+06     30.1491E+06              0.     536.796E+03
           45360     71.3508E+06     29.9840E+06              0.     533.628E+03
           45361     71.4266E+06     29.8230E+06              0.     531.466E+03
           45362     71.5022E+06     29.6660E+06              0.     530.286E+03
           45363     71.5778E+06     29.5126E+06              0.     530.065E+03
           45364     71.6535E+06     29.3627E+06              0.     530.780E+03
           45365     71.7295E+06     29.2161E+06              0.     532.412E+03
           45366     71.8058E+06     29.0726E+06              0.     534.941E+03
           45367     71.8826E+06      28.932E+06              0.     538.349E+03
           45368     71.9600E+06     28.7942E+06              0.     542.618E+03
           45369     72.0382E+06     28.6589E+06              0.     547.732E+03
           45370     72.1172E+06     28.5260E+06              0.     553.678E+03
           45371     72.1973E+06     28.3953E+06              0.     560.440E+03
           45372     72.2784E+06     28.2667E+06              0.     568.006E+03
           45373     72.3608E+06     28.1401E+06              0.     576.364E+03
           45374     72.4445E+06     28.0152E+06              0.     585.503E+03
           45375     72.5296E+06     27.8919E+06              0.     595.413E+03
           45376     72.6163E+06     27.7700E+06              0.     606.085E+03
           45377     72.7047E+06     27.6496E+06              0.     617.511E+03
           45378     72.7948E+06     27.5303E+06              0.     629.683E+03
           45379     72.8869E+06     27.4121E+06              0.     642.595E+03
           45380     72.9809E+06     27.2948E+06              0.     656.241E+03
           45381     73.0770E+06     27.1783E+06              0.     670.617E+03
           45382     73.1754E+06     27.0626E+06              0.     685.718E+03
           45383     73.2760E+06     26.9474E+06              0.     701.541E+03
           45384     73.3791E+06     26.8327E+06              0.     718.084E+03
           45385     73.4847E+06     26.7183E+06              0.     735.344E+03
           45386     73.5929E+06     26.6041E+06              0.     753.320E+03
           45387     73.7039E+06     26.4901E+06              0.     772.013E+03
           45388     73.8177E+06     26.3760E+06              0.     791.422E+03
           45389     73.9344E+06     26.2619E+06              0.     811.549E+03
           45390     74.0542E+06     26.1476E+06              0.     832.395E+03
           45391     74.1772E+06     26.0330E+06              0.     853.962E+03
           45392     74.3034E+06     25.9180E+06              0.     876.254E+03
           45393     74.4330E+06     25.8026E+06              0.     899.273E+03
           45394     74.5661E+06     25.6865E+06              0.     923.025E+03
           45395     74.7027E+06     25.5698E+06              0.     947.515E+03
           45396     74.8431E+06     25.4523E+06              0.     972.746E+03
           45397     74.9873E+06     25.3340E+06              0.     998.727E+03
           45398     75.1354E+06     25.2147E+06              0.     1.02546E+06
           45399     75.2875E+06     25.0944E+06              0.     1.05296E+06
           45400     75.4438E+06     24.9730E+06              0.     1.08123E+06
           45401     75.6043E+06     24.8504E+06              0.     1.11028E+06
           45402     75.7693E+06     24.7266E+06              0.     1.14012E+06
           45403     75.9387E+06     24.6013E+06              0.     1.17075E+06
           45404     76.1128E+06     24.4747E+06              0.     1.20219E+06
           45405     76.2916E+06     24.3465E+06              0.     1.23445E+06
           45406     76.4753E+06     24.2167E+06              0.     1.26754E+06
           45407     76.6640E+06     24.0853E+06              0.     1.30148E+06
           45408     76.8578E+06     23.9521E+06              0.     1.33626E+06
           45409     77.0568E+06     23.8171E+06              0.     1.37192E+06
           45410     77.2613E+06     23.6802E+06              0.     1.40845E+06
           45411     77.4712E+06     23.5413E+06              0.     1.44588E+06
           45412     77.6869E+06     23.4004E+06              0.     1.48422E+06
           45413     77.9083E+06     23.2574E+06              0.     1.52348E+06
           45414     78.1356E+06     23.1122E+06              0.     1.56369E+06
           45415     78.3691E+06     22.9648E+06              0.     1.60485E+06
           45416     78.6088E+06     22.8150E+06              0.     1.64699E+06
           45417     78.8549E+06     22.6629E+06              0.     1.69012E+06
           45418     79.1075E+06     22.5083E+06              0.     1.73425E+06
           45419     79.3668E+06     22.3512E+06              0.     1.77942E+06
           45420     79.6330E+06     22.1915E+06              0.     1.82563E+06
           45421     79.9061E+06     22.0291E+06              0.     1.87291E+06
           45422     80.1865E+06     21.8641E+06              0.     1.92128E+06
           45423     80.4742E+06     21.6962E+06              0.     1.97075E+06
           45424     80.7695E+06     21.5256E+06              0.     2.02136E+06
           45425     81.0724E+06     21.3520E+06              0.     2.07312E+06
           45426     81.3832E+06     21.1754E+06              0.     2.12605E+06
           45427     81.7021E+06     20.9959E+06              0.     2.18018E+06
           45428     82.0293E+06     20.8132E+06              0.     2.23554E+06
           45429     82.3649E+06     20.6275E+06              0.     2.29214E+06
           45430     82.7092E+06     20.4385E+06              0.     2.35001E+06
           45431     83.0623E+06     20.2462E+06              0.     2.40919E+06
           45432     83.4244E+06     20.0507E+06              0.     2.46969E+06
           45433     83.7958E+06     19.8518E+06              0.     2.53154E+06
           45434     84.1768E+06     19.6494E+06              0.     2.59477E+06
           45435     84.5674E+06     19.4436E+06              0.     2.65941E+06
           45436     84.9679E+06     19.2343E+06              0.     2.72549E+06
           45437     85.3786E+06     19.0214E+06              0.     2.79303E+06
           45438     85.7997E+06     18.8048E+06              0.     2.86208E+06
           45439     86.2315E+06     18.5846E+06              0.     2.93266E+06
           45440     86.6741E+06     18.3607E+06              0.     3.00480E+06
           45441     87.1278E+06     18.1330E+06              0.     3.07854E+06
           45442     87.5930E+06     17.9015E+06              0.     3.15391E+06
           45443     88.0698E+06     17.6661E+06              0.     3.23094E+06
           45444     88.5585E+06     17.4269E+06              0.     3.30968E+06
           45445     89.0595E+06     17.1837E+06              0.     3.39015E+06
           45446     89.5729E+06     16.9365E+06              0.     3.47240E+06
           45447     90.0991E+06     16.6854E+06              0.     3.55647E+06
           45448     90.6384E+06     16.4301E+06              0.     3.64238E+06
           45449     91.1911E+06     16.1709E+06              0.     3.73019E+06
           45450     91.7575E+06     15.9075E+06              0.     3.81993E+06
           45451     92.3379E+06     15.6400E+06              0.     3.91165E+06
           45452     92.9327E+06     15.3683E+06              0.     4.00539E+06
           45453     93.5421E+06     15.0925E+06              0.     4.10119E+06
           45454     94.1666E+06     14.8125E+06              0.     4.19910E+06
           45455     94.8065E+06     14.5283E+06              0.     4.29916E+06
           45456     95.4621E+06     14.2398E+06              0.     4.40143E+06
           45457     96.1338E+06     13.9472E+06              0.     4.50595E+06
           45458     96.8220E+06     13.6503E+06              0.     4.61278E+06
           45459     97.5271E+06     13.3492E+06              0.     4.72196E+06
           45460     98.2494E+06     13.0438E+06              0.     4.83354E+06
           45461     98.9895E+06     12.7342E+06              0.     4.94758E+06
           45462     99.7477E+06     12.4204E+06              0.     5.06415E+06
           45463     100.524E+06     12.1024E+06              0.     5.18328E+06
           45464     101.320E+06     11.7803E+06              0.     5.30505E+06
           45465     102.135E+06     11.4539E+06              0.     5.42951E+06
           45466     102.970E+06     11.1235E+06              0.     5.55673E+06
           45467     103.826E+06     10.7889E+06              0.     5.68676E+06
           45468     104.702E+06     10.4504E+06              0.     5.81968E+06
           45469     105.600E+06     10.1078E+06              0.     5.95556E+06
           45470     106.519E+06     9.76126E+06              0.     6.09445E+06
           45471     107.461E+06     9.41086E+06              0.     6.23644E+06
           45472     108.426E+06     9.05666E+06              0.     6.38159E+06
           45473     109.415E+06     8.69872E+06              0.     6.52998E+06
           45474     110.427E+06     8.33714E+06              0.     6.68170E+06
           45475     111.465E+06     7.97201E+06              0.     6.83682E+06
           45476     112.527E+06     7.60343E+06              0.     6.99543E+06
           45477     113.616E+06     7.23151E+06              0.     7.15760E+06
           45478     114.731E+06     6.85638E+06              0.     7.32344E+06
           45479     115.874E+06     6.47817E+06              0.     7.49303E+06
           45480     117.044E+06     6.09702E+06              0.     7.66647E+06
           45481     118.243E+06     5.71309E+06              0.     7.84385E+06
           45482     119.471E+06     5.32655E+06              0.     8.02529E+06
           45483     120.730E+06     4.93758E+06              0.     8.21088E+06
           45484     122.019E+06     4.54637E+06              0.     8.40074E+06
           45485     123.340E+06     4.15313E+06              0.     8.59497E+06
           45486     124.693E+06     3.75809E+06              0.     8.79370E+06
           45487     126.080E+06     3.36148E+06              0.     8.99705E+06
           45488     127.500E+06     2.96357E+06              0.     9.20515E+06
           45489     128.956E+06     2.56462E+06              0.     9.41813E+06
           45490     130.448E+06     2.16494E+06              0.     9.63613E+06
           45491     131.977E+06     1.76482E+06              0.     9.85929E+06
           45492     133.544E+06     1.36461E+06              0.     10.0878E+06
           45493     135.149E+06     964.656E+03              0.     10.3217E+06
           45494     136.795E+06     565.338E+03              0.     10.5613E+06
           45495     138.482E+06     167.062E+03              0.     10.8067E+06
           45496     140.210E+06    -229.753E+03              0.     11.0581E+06
           45497     141.983E+06    -624.645E+03              0.     11.3156E+06
           45498     143.799E+06    -1.01713E+06              0.     11.5796E+06
           45499     145.662E+06    -1.40671E+06              0.     11.8501E+06
           45500     147.571E+06    -1.79283E+06              0.     12.1274E+06
           45501     149.530E+06    -2.17491E+06              0.     12.4117E+06
           45502     151.537E+06    -2.55234E+06              0.     12.7033E+06
           45503     153.597E+06    -2.92446E+06              0.     13.0024E+06
           45504     155.708E+06    -3.29059E+06              0.     13.3093E+06
           45505     157.875E+06    -3.65000E+06              0.     13.6243E+06
           45506     160.097E+06    -4.00190E+06              0.     13.9476E+06
           45507     162.376E+06    -4.34547E+06              0.     14.2796E+06
           45508     164.716E+06    -4.67984E+06              0.     14.6206E+06
           45509     167.116E+06    -5.00406E+06              0.     14.9710E+06
           45510     169.579E+06    -5.31717E+06              0.     15.3311E+06
           45511     172.108E+06    -5.61809E+06              0.     15.7014E+06
           45512     174.703E+06    -5.90573E+06              0.     16.0822E+06
           45513     177.368E+06    -6.17891E+06              0.     16.4741E+06
           45514     180.105E+06    -6.43636E+06              0.     16.8775E+06
           45515     182.915E+06    -6.67676E+06              0.     17.2928E+06
           45516     185.802E+06    -6.89867E+06              0.     17.7207E+06
           45517     188.768E+06    -7.10059E+06              0.     18.1618E+06
           45518     191.816E+06    -7.28093E+06              0.     18.6166E+06
           45519     194.948E+06    -7.43795E+06              0.     19.0859E+06
           45520     198.168E+06    -7.56986E+06              0.     19.5703E+06
           45521     201.479E+06    -7.67468E+06              0.     20.0708E+06
           45522     204.883E+06    -7.75037E+06              0.     20.5879E+06
           45523     208.386E+06    -7.79469E+06              0.     21.1228E+06
           45524     211.989E+06    -7.80530E+06              0.     21.6764E+06
           45525     215.698E+06    -7.77965E+06              0.     22.2497E+06
           45526     219.516E+06    -7.71503E+06              0.     22.8439E+06
           45527     223.448E+06    -7.60856E+06              0.     23.4602E+06
           45528     227.497E+06    -7.45710E+06              0.     24.1000E+06
           45529     231.670E+06    -7.25731E+06              0.     24.7648E+06
           45530     235.971E+06    -7.00561E+06              0.     25.4561E+06
           45531     240.406E+06    -6.69811E+06              0.     26.1758E+06
           45532     244.980E+06    -6.33063E+06              0.     26.9257E+06
           45533     249.700E+06    -5.89865E+06              0.     27.7079E+06
           45534     254.572E+06    -5.39730E+06              0.     28.5248E+06
           45535     259.604E+06    -4.82128E+06              0.     29.3790E+06
           45536     264.802E+06    -4.16482E+06              0.     30.2732E+06
           45537     270.175E+06    -3.42167E+06              0.     31.2106E+06
           45538     275.731E+06    -2.58500E+06              0.     32.1945E+06
           45539     281.479E+06    -1.64734E+06              0.     33.2289E+06
           45540     287.429E+06    -600.498E+03              0.     34.3180E+06
           45541     293.591E+06      564.52E+03              0.     35.4664E+06
           45542     299.976E+06     1.85763E+06              0.     36.6795E+06
           45543     306.597E+06     3.28980E+06              0.     37.9633E+06
           45544     313.464E+06     4.87320E+06              0.     39.3243E+06
           45545     320.592E+06     6.62135E+06              0.     40.7699E+06
           45546     327.994E+06     8.54941E+06              0.     42.3087E+06
           45547     335.686E+06     10.6743E+06              0.     43.9499E+06
           45548     343.681E+06     13.0152E+06              0.     45.7044E+06
           45549     351.998E+06     15.5936E+06              0.     47.5840E+06
           45550     360.650E+06     18.4342E+06              0.     49.6024E+06
           45551     369.655E+06     21.5649E+06              0.      51.775E+06
           45552     379.027E+06     25.0180E+06              0.     54.1190E+06
           45553     388.780E+06     28.8305E+06              0.     56.6536E+06
           45554     398.926E+06     33.0453E+06              0.     59.4005E+06
           45555     409.470E+06     37.7125E+06              0.     62.3831E+06
           45556     420.411E+06     42.8903E+06              0.     65.6269E+06
           45557     431.736E+06     48.6472E+06              0.     69.1582E+06
           45558     443.415E+06     55.0631E+06              0.     73.0026E+06
           45559     455.392E+06     62.2317E+06              0.     77.1819E+06
           45560     467.575E+06     70.2617E+06              0.     81.7086E+06
           45561     479.819E+06     79.2764E+06              0.     86.5764E+06
           45562     491.908E+06     89.4116E+06              0.     91.7448E+06
           45563     503.536E+06     100.805E+06              0.     97.1136E+06
           45564     514.289E+06     113.571E+06              0.     102.488E+06
           45565     523.656E+06     127.748E+06              0.     107.535E+06
           45566     531.068E+06     143.197E+06              0.     111.750E+06
           45567     535.992E+06     159.451E+06              0.     114.471E+06
           45568     538.042E+06     175.566E+06              0.     114.994E+06
           45569     537.072E+06     190.137E+06              0.     112.785E+06
           45570     541.101E+06     199.638E+06              0.     117.577E+06
           45571     71.0054E+06     31.0957E+06              0.     481.782E+03
           45572     70.9848E+06     30.8625E+06              0.     480.950E+03
           45573     71.0640E+06     30.6777E+06              0.     474.540E+03
           45574     71.1424E+06     30.4979E+06              0.     469.090E+03
           45575       71.22E+06     30.3229E+06              0.     464.574E+03
           45576     71.2970E+06     30.1525E+06              0.     460.967E+03
           45577     71.3735E+06     29.9865E+06              0.     458.247E+03
           45578     71.4497E+06     29.8246E+06              0.     456.391E+03
           45579     71.5258E+06     29.6667E+06              0.     455.378E+03
           45580     71.6018E+06     29.5124E+06              0.     455.188E+03
           45581     71.6779E+06     29.3617E+06              0.     455.803E+03
           45582     71.7543E+06     29.2143E+06              0.     457.205E+03
           45583     71.8310E+06     29.0700E+06              0.     459.377E+03
           45584     71.9082E+06     28.9286E+06              0.     462.303E+03
           45585     71.9861E+06     28.7900E+06              0.     465.970E+03
           45586     72.0647E+06     28.6540E+06              0.     470.362E+03
           45587     72.1442E+06     28.5203E+06              0.     475.468E+03
           45588     72.2247E+06     28.3889E+06              0.     481.275E+03
           45589     72.3063E+06     28.2596E+06              0.     487.773E+03
           45590     72.3891E+06     28.1322E+06              0.     494.950E+03
           45591     72.4733E+06     28.0066E+06              0.     502.799E+03
           45592     72.5589E+06     27.8826E+06              0.     511.309E+03
           45593     72.6461E+06     27.7601E+06              0.     520.474E+03
           45594     72.7350E+06     27.6390E+06              0.     530.287E+03
           45595     72.8256E+06     27.5190E+06              0.      540.74E+03
           45596     72.9182E+06     27.4002E+06              0.     551.829E+03
           45597     73.0127E+06     27.2822E+06              0.     563.548E+03
           45598     73.1094E+06     27.1651E+06              0.     575.894E+03
           45599     73.2083E+06     27.0487E+06              0.     588.862E+03
           45600     73.3095E+06     26.9329E+06              0.     602.451E+03
           45601     73.4132E+06     26.8175E+06              0.     616.657E+03
           45602     73.5194E+06     26.7024E+06              0.     631.480E+03
           45603     73.6282E+06     26.5876E+06              0.     646.918E+03
           45604     73.7398E+06     26.4729E+06              0.     662.971E+03
           45605     73.8542E+06     26.3583E+06              0.     679.640E+03
           45606     73.9716E+06     26.2435E+06              0.     696.924E+03
           45607     74.0921E+06     26.1286E+06              0.     714.827E+03
           45608     74.2158E+06     26.0133E+06              0.     733.348E+03
           45609     74.3427E+06     25.8977E+06              0.     752.492E+03
           45610     74.4730E+06     25.7815E+06              0.     772.262E+03
           45611     74.6069E+06     25.6648E+06              0.     792.660E+03
           45612     74.7443E+06     25.5475E+06              0.     813.692E+03
           45613     74.8855E+06     25.4293E+06              0.     835.361E+03
           45614     75.0305E+06     25.3103E+06              0.     857.673E+03
           45615     75.1794E+06     25.1903E+06              0.     880.634E+03
           45616     75.3324E+06     25.0694E+06              0.     904.250E+03
           45617     75.4896E+06     24.9473E+06              0.     928.528E+03
           45618     75.6511E+06     24.8240E+06              0.     953.476E+03
           45619     75.8169E+06     24.6994E+06              0.     979.100E+03
           45620     75.9873E+06     24.5734E+06              0.     1.00541E+06
           45621     76.1624E+06     24.4460E+06              0.     1.03241E+06
           45622     76.3422E+06     24.3171E+06              0.     1.06012E+06
           45623     76.5270E+06     24.1866E+06              0.     1.08854E+06
           45624     76.7168E+06     24.0544E+06              0.     1.11768E+06
           45625     76.9116E+06     23.9204E+06              0.     1.14756E+06
           45626     77.1119E+06     23.7846E+06              0.     1.17818E+06
           45627     77.3175E+06     23.6469E+06              0.     1.20956E+06
           45628     77.5286E+06     23.5073E+06              0.     1.24170E+06
           45629     77.7455E+06     23.3655E+06              0.     1.27463E+06
           45630     77.9682E+06     23.2217E+06              0.     1.30835E+06
           45631     78.1969E+06     23.0757E+06              0.     1.34288E+06
           45632     78.4317E+06     22.9273E+06              0.     1.37824E+06
           45633     78.6728E+06     22.7767E+06              0.     1.41443E+06
           45634     78.9203E+06     22.6237E+06              0.     1.45147E+06
           45635     79.1744E+06     22.4682E+06              0.     1.48937E+06
           45636     79.4352E+06     22.3101E+06              0.     1.52817E+06
           45637     79.7029E+06     22.1495E+06              0.     1.56786E+06
           45638     79.9776E+06     21.9862E+06              0.     1.60847E+06
           45639     80.2596E+06     21.8201E+06              0.     1.65001E+06
           45640     80.5490E+06     21.6513E+06              0.     1.69250E+06
           45641     80.8460E+06     21.4796E+06              0.     1.73597E+06
           45642     81.1507E+06     21.3050E+06              0.     1.78043E+06
           45643     81.4633E+06     21.1274E+06              0.     1.82589E+06
           45644     81.7841E+06     20.9467E+06              0.     1.87239E+06
           45645     82.1132E+06     20.7630E+06              0.     1.91994E+06
           45646     82.4508E+06     20.5761E+06              0.     1.96855E+06
           45647     82.7970E+06     20.3859E+06              0.     2.01827E+06
           45648     83.1522E+06     20.1925E+06              0.     2.06909E+06
           45649     83.5165E+06     19.9958E+06              0.     2.12106E+06
           45650     83.8902E+06     19.7957E+06              0.     2.17419E+06
           45651     84.2733E+06     19.5921E+06              0.     2.22850E+06
           45652     84.6663E+06     19.3850E+06              0.     2.28403E+06
           45653     85.0692E+06     19.1744E+06              0.     2.34079E+06
           45654     85.4823E+06     18.9601E+06              0.     2.39881E+06
           45655     85.9059E+06     18.7422E+06              0.     2.45813E+06
           45656     86.3402E+06     18.5206E+06              0.     2.51876E+06
           45657     86.7855E+06     18.2953E+06              0.     2.58073E+06
           45658      87.242E+06     18.0662E+06              0.     2.64407E+06
           45659     87.7099E+06     17.8332E+06              0.     2.70882E+06
           45660     88.1896E+06     17.5963E+06              0.       2.775E+06
           45661     88.6813E+06     17.3555E+06              0.     2.84264E+06
           45662     89.1853E+06     17.1108E+06              0.     2.91178E+06
           45663     89.7018E+06     16.8620E+06              0.     2.98244E+06
           45664     90.2313E+06     16.6092E+06              0.     3.05466E+06
           45665     90.7739E+06     16.3524E+06              0.     3.12847E+06
           45666     91.3300E+06     16.0914E+06              0.     3.20391E+06
           45667     91.8998E+06     15.8263E+06              0.     3.28101E+06
           45668     92.4838E+06     15.5570E+06              0.     3.35982E+06
           45669     93.0822E+06     15.2835E+06              0.     3.44035E+06
           45670     93.6955E+06     15.0059E+06              0.     3.52267E+06
           45671     94.3238E+06     14.7240E+06              0.     3.60680E+06
           45672     94.9677E+06     14.4378E+06              0.     3.69278E+06
           45673     95.6274E+06     14.1474E+06              0.     3.78065E+06
           45674     96.3033E+06     13.8527E+06              0.     3.87046E+06
           45675     96.9959E+06     13.5538E+06              0.     3.96226E+06
           45676     97.7054E+06     13.2506E+06              0.     4.05608E+06
           45677     98.4324E+06     12.9431E+06              0.     4.15197E+06
           45678     99.1772E+06     12.6313E+06              0.     4.24997E+06
           45679     99.9402E+06     12.3152E+06              0.     4.35014E+06
           45680     100.722E+06     11.9950E+06              0.     4.45253E+06
           45681     101.523E+06     11.6705E+06              0.     4.55718E+06
           45682     102.343E+06     11.3417E+06              0.     4.66415E+06
           45683     103.184E+06     11.0088E+06              0.     4.77349E+06
           45684     104.045E+06     10.6718E+06              0.     4.88526E+06
           45685     104.927E+06     10.3307E+06              0.     4.99951E+06
           45686     105.831E+06     9.98549E+06              0.     5.11630E+06
           45687     106.756E+06     9.63631E+06              0.     5.23569E+06
           45688     107.705E+06     9.28319E+06              0.     5.35774E+06
           45689     108.676E+06     8.92620E+06              0.     5.48252E+06
           45690     109.671E+06     8.56542E+06              0.     5.61010E+06
           45691     110.691E+06     8.20092E+06              0.     5.74053E+06
           45692     111.735E+06     7.83281E+06              0.     5.87389E+06
           45693     112.805E+06     7.46118E+06              0.     6.01026E+06
           45694     113.901E+06     7.08615E+06              0.     6.14971E+06
           45695     115.024E+06     6.70782E+06              0.     6.29231E+06
           45696     116.175E+06     6.32635E+06              0.     6.43814E+06
           45697     117.354E+06     5.94186E+06              0.     6.58729E+06
           45698     118.561E+06     5.55451E+06              0.     6.73984E+06
           45699     119.798E+06     5.16446E+06              0.     6.89589E+06
           45700     121.066E+06     4.77191E+06              0.     7.05551E+06
           45701     122.365E+06     4.37702E+06              0.     7.21881E+06
           45702     123.695E+06     3.98002E+06              0.     7.38590E+06
           45703     125.059E+06     3.58113E+06              0.     7.55686E+06
           45704     126.456E+06     3.18057E+06              0.     7.73180E+06
           45705     127.888E+06     2.77861E+06              0.     7.91085E+06
           45706     129.355E+06     2.37551E+06              0.     8.09410E+06
           45707     130.858E+06     1.97156E+06              0.     8.28169E+06
           45708     132.399E+06     1.56707E+06              0.     8.47374E+06
           45709     133.978E+06     1.16238E+06              0.     8.67038E+06
           45710     135.597E+06     757.827E+03              0.     8.87174E+06
           45711     137.256E+06     353.784E+03              0.     9.07798E+06
           45712     138.956E+06    -49.3445E+03              0.     9.28923E+06
           45713     140.699E+06    -451.144E+03              0.     9.50566E+06
           45714     142.487E+06    -851.159E+03              0.     9.72743E+06
           45715     144.319E+06    -1.24892E+06              0.     9.95471E+06
           45716     146.198E+06    -1.64391E+06              0.     10.1877E+06
           45717     148.124E+06    -2.03560E+06              0.     10.4265E+06
           45718     150.100E+06    -2.42342E+06              0.     10.6715E+06
           45719     152.126E+06    -2.80676E+06              0.     10.9227E+06
           45720     154.204E+06    -3.18497E+06              0.     11.1805E+06
           45721     156.335E+06    -3.55737E+06              0.     11.4449E+06
           45722     158.522E+06    -3.92326E+06              0.     11.7164E+06
           45723     160.766E+06    -4.28183E+06              0.     11.9952E+06
           45724     163.068E+06    -4.63229E+06              0.     12.2814E+06
           45725     165.431E+06    -4.97377E+06              0.     12.5755E+06
           45726     167.855E+06    -5.30535E+06              0.     12.8778E+06
           45727     170.345E+06    -5.62607E+06              0.     13.1885E+06
           45728     172.900E+06    -5.93487E+06              0.     13.5080E+06
           45729     175.524E+06    -6.23066E+06              0.     13.8367E+06
           45730     178.218E+06    -6.51229E+06              0.     14.1750E+06
           45731     180.986E+06    -6.77849E+06              0.     14.5233E+06
           45732     183.829E+06    -7.02798E+06              0.     14.8821E+06
           45733     186.750E+06    -7.25934E+06              0.     15.2518E+06
           45734     189.752E+06    -7.47108E+06              0.     15.6329E+06
           45735     192.837E+06    -7.66162E+06              0.     16.0262E+06
           45736     196.010E+06    -7.82927E+06              0.     16.4320E+06
           45737     199.272E+06    -7.97225E+06              0.     16.8511E+06
           45738     202.627E+06    -8.08863E+06              0.     17.2841E+06
           45739     206.079E+06    -8.17638E+06              0.     17.7319E+06
           45740     209.631E+06    -8.23332E+06              0.     18.1952E+06
           45741     213.288E+06    -8.25711E+06              0.     18.6749E+06
           45742     217.053E+06    -8.24528E+06              0.     19.1719E+06
           45743     220.931E+06    -8.19516E+06              0.     19.6873E+06
           45744     224.926E+06    -8.10390E+06              0.     20.2222E+06
           45745     229.044E+06    -7.96844E+06              0.     20.7777E+06
           45746     233.289E+06    -7.78548E+06              0.     21.3553E+06
           45747     237.668E+06    -7.55152E+06              0.     21.9565E+06
           45748     242.186E+06    -7.26274E+06              0.     22.5826E+06
           45749     246.849E+06    -6.91505E+06              0.     23.2357E+06
           45750     251.665E+06    -6.50402E+06              0.     23.9174E+06
           45751     256.641E+06    -6.02485E+06              0.     24.6301E+06
           45752     261.783E+06    -5.47239E+06              0.     25.3759E+06
           45753     267.102E+06    -4.84097E+06              0.     26.1576E+06
           45754     272.605E+06    -4.12449E+06              0.     26.9779E+06
           45755     278.303E+06    -3.31626E+06              0.     27.8401E+06
           45756     284.206E+06    -2.40898E+06              0.     28.7477E+06
           45757     290.324E+06    -1.39465E+06              0.     29.7048E+06
           45758     296.671E+06    -264.478E+03              0.     30.7157E+06
           45759     303.258E+06     991.225E+03              0.     31.7855E+06
           45760     310.101E+06     2.38316E+06              0.     32.9198E+06
           45761     317.213E+06     3.92324E+06              0.     34.1250E+06
           45762     324.613E+06     5.62466E+06              0.     35.4084E+06
           45763     332.317E+06     7.50225E+06              0.     36.7781E+06
           45764     340.346E+06     9.57259E+06              0.     38.2435E+06
           45765     348.718E+06     11.8544E+06              0.     39.8153E+06
           45766     357.458E+06     14.3690E+06              0.     41.5057E+06
           45767     366.588E+06     17.1404E+06              0.     43.3289E+06
           45768     376.133E+06     20.1964E+06              0.     45.3009E+06
           45769     386.121E+06     23.5689E+06              0.     47.4405E+06
           45770     396.579E+06     27.2949E+06              0.     49.7691E+06
           45771     407.533E+06     31.4175E+06              0.     52.3116E+06
           45772     419.011E+06     35.9875E+06              0.     55.0964E+06
           45773     431.034E+06     41.0648E+06              0.     58.1559E+06
           45774     443.620E+06     46.7209E+06              0.     61.5269E+06
           45775     456.774E+06     53.0410E+06              0.     65.2497E+06
           45776     470.480E+06     60.1279E+06              0.     69.3670E+06
           45777     484.692E+06     68.1053E+06              0.     73.9210E+06
           45778     499.313E+06     77.1216E+06              0.     78.9459E+06
           45779     514.167E+06     87.3527E+06              0.     84.4547E+06
           45780     528.964E+06     99.0008E+06              0.     90.4139E+06
           45781     543.252E+06     112.281E+06              0.     96.6984E+06
           45782     556.394E+06     127.383E+06              0.     103.021E+06
           45783     567.581E+06     144.358E+06              0.     108.841E+06
           45784     575.946E+06     162.877E+06              0.     113.315E+06
           45785     580.754E+06     181.893E+06              0.     115.395E+06
           45786     581.609E+06     199.472E+06              0.     114.158E+06
           45787     587.313E+06     210.989E+06              0.     120.567E+06
           45788     71.0229E+06     31.1031E+06              0.     402.116E+03
           45789     71.0021E+06     30.8688E+06              0.     401.422E+03
           45790     71.0818E+06     30.6830E+06              0.     396.072E+03
           45791     71.1605E+06     30.5024E+06              0.     391.523E+03
           45792     71.2385E+06     30.3266E+06              0.     387.754E+03
           45793     71.3158E+06     30.1554E+06              0.     384.744E+03
           45794     71.3927E+06     29.9886E+06              0.     382.474E+03
           45795     71.4693E+06     29.8260E+06              0.     380.924E+03
           45796     71.5457E+06     29.6673E+06              0.     380.079E+03
           45797     71.6221E+06     29.5123E+06              0.     379.921E+03
           45798     71.6986E+06     29.3609E+06              0.     380.434E+03
           45799     71.7753E+06     29.2128E+06              0.     381.604E+03
           45800     71.8524E+06     29.0678E+06              0.     383.417E+03
           45801     71.9300E+06     28.9257E+06              0.     385.860E+03
           45802     72.0082E+06     28.7865E+06              0.     388.921E+03
           45803     72.0872E+06     28.6498E+06              0.     392.587E+03
           45804     72.1671E+06     28.5155E+06              0.     396.849E+03
           45805     72.2479E+06     28.3835E+06              0.     401.696E+03
           45806     72.3299E+06     28.2536E+06              0.     407.120E+03
           45807     72.4131E+06     28.1256E+06              0.     413.111E+03
           45808     72.4977E+06     27.9994E+06              0.     419.662E+03
           45809     72.5837E+06     27.8748E+06              0.     426.765E+03
           45810     72.6713E+06     27.7517E+06              0.     434.415E+03
           45811     72.7606E+06     27.6300E+06              0.     442.605E+03
           45812     72.8517E+06     27.5095E+06              0.     451.330E+03
           45813     72.9447E+06     27.3900E+06              0.     460.586E+03
           45814     73.0397E+06     27.2716E+06              0.     470.368E+03
           45815     73.1369E+06     27.1539E+06              0.     480.673E+03
           45816     73.2362E+06     27.0369E+06              0.     491.497E+03
           45817     73.3379E+06     26.9205E+06              0.     502.839E+03
           45818     73.4421E+06     26.8046E+06              0.     514.697E+03
           45819     73.5488E+06     26.6890E+06              0.     527.070E+03
           45820     73.6581E+06     26.5737E+06              0.     539.956E+03
           45821     73.7702E+06     26.4584E+06              0.     553.355E+03
           45822     73.8852E+06     26.3432E+06              0.     567.268E+03
           45823     74.0032E+06     26.2279E+06              0.     581.695E+03
           45824     74.1243E+06     26.1124E+06              0.     596.638E+03
           45825     74.2485E+06     25.9966E+06              0.     612.098E+03
           45826     74.3760E+06     25.8804E+06              0.     628.078E+03
           45827      74.507E+06     25.7637E+06              0.     644.579E+03
           45828     74.6415E+06     25.6465E+06              0.     661.605E+03
           45829     74.7796E+06     25.5285E+06              0.     679.160E+03
           45830     74.9214E+06     25.4098E+06              0.     697.247E+03
           45831     75.0671E+06     25.2902E+06              0.     715.872E+03
           45832     75.2168E+06     25.1697E+06              0.     735.037E+03
           45833     75.3705E+06     25.0481E+06              0.     754.750E+03
           45834     75.5284E+06     24.9254E+06              0.     775.015E+03
           45835     75.6907E+06     24.8015E+06              0.     795.839E+03
           45836     75.8574E+06     24.6763E+06              0.     817.227E+03
           45837     76.0286E+06     24.5498E+06              0.     839.188E+03
           45838     76.2045E+06     24.4218E+06              0.     861.728E+03
           45839     76.3852E+06     24.2922E+06              0.     884.855E+03
           45840     76.5708E+06     24.1611E+06              0.     908.578E+03
           45841     76.7615E+06     24.0282E+06              0.     932.903E+03
           45842     76.9574E+06     23.8936E+06              0.     957.842E+03
           45843     77.1585E+06     23.7571E+06              0.     983.402E+03
           45844     77.3651E+06     23.6188E+06              0.     1.00959E+06
           45845     77.5773E+06     23.4784E+06              0.     1.03643E+06
           45846     77.7953E+06     23.3360E+06              0.     1.06391E+06
           45847     78.0190E+06     23.1914E+06              0.     1.09206E+06
           45848     78.2488E+06     23.0447E+06              0.     1.12089E+06
           45849     78.4848E+06     22.8956E+06              0.     1.15040E+06
           45850     78.7270E+06     22.7442E+06              0.     1.18061E+06
           45851     78.9757E+06     22.5904E+06              0.     1.21153E+06
           45852     79.2310E+06     22.4342E+06              0.     1.24317E+06
           45853     79.4931E+06     22.2753E+06              0.     1.27556E+06
           45854     79.7621E+06     22.1139E+06              0.     1.30869E+06
           45855     80.0383E+06     21.9497E+06              0.     1.34259E+06
           45856     80.3216E+06     21.7829E+06              0.     1.37727E+06
           45857     80.6124E+06     21.6132E+06              0.     1.41274E+06
           45858     80.9109E+06     21.4406E+06              0.     1.44903E+06
           45859     81.2171E+06     21.2651E+06              0.     1.48614E+06
           45860     81.5313E+06     21.0866E+06              0.     1.52409E+06
           45861     81.8536E+06     20.9051E+06              0.     1.56291E+06
           45862     82.1843E+06     20.7204E+06              0.     1.60260E+06
           45863     82.5236E+06     20.5325E+06              0.     1.64319E+06
           45864     82.8716E+06     20.3414E+06              0.     1.68469E+06
           45865     83.2285E+06     20.1470E+06              0.     1.72712E+06
           45866     83.5946E+06     19.9492E+06              0.     1.77050E+06
           45867     83.9701E+06     19.7481E+06              0.     1.81486E+06
           45868     84.3552E+06     19.5434E+06              0.     1.86020E+06
           45869     84.7501E+06     19.3353E+06              0.     1.90656E+06
           45870     85.1550E+06     19.1235E+06              0.     1.95395E+06
           45871     85.5702E+06     18.9082E+06              0.     2.00239E+06
           45872     85.9960E+06     18.6891E+06              0.     2.05191E+06
           45873     86.4325E+06     18.4664E+06              0.     2.10253E+06
           45874       86.88E+06     18.2398E+06              0.     2.15427E+06
           45875     87.3388E+06     18.0095E+06              0.     2.20715E+06
           45876     87.8091E+06     17.7753E+06              0.     2.26121E+06
           45877     88.2912E+06     17.5371E+06              0.     2.31647E+06
           45878     88.7854E+06     17.2950E+06              0.     2.37294E+06
           45879     89.2920E+06     17.0490E+06              0.     2.43067E+06
           45880     89.8112E+06     16.7988E+06              0.     2.48966E+06
           45881     90.3433E+06     16.5447E+06              0.     2.54997E+06
           45882     90.8887E+06     16.2864E+06              0.     2.61160E+06
           45883     91.4477E+06     16.0240E+06              0.     2.67459E+06
           45884     92.0205E+06     15.7574E+06              0.     2.73897E+06
           45885     92.6075E+06     15.4866E+06              0.     2.80477E+06
           45886     93.2091E+06     15.2116E+06              0.     2.87202E+06
           45887     93.8255E+06     14.9324E+06              0.     2.94076E+06
           45888     94.4571E+06     14.6489E+06              0.     3.01101E+06
           45889     95.1044E+06     14.3611E+06              0.     3.08281E+06
           45890     95.7676E+06     14.0690E+06              0.     3.15619E+06
           45891     96.4471E+06     13.7726E+06              0.     3.23119E+06
           45892     97.1433E+06     13.4719E+06              0.     3.30785E+06
           45893     97.8566E+06     13.1669E+06              0.     3.38620E+06
           45894     98.5875E+06     12.8576E+06              0.     3.46628E+06
           45895     99.3363E+06     12.5440E+06              0.     3.54813E+06
           45896     100.103E+06     12.2260E+06              0.     3.63179E+06
           45897     100.889E+06     11.9038E+06              0.     3.71730E+06
           45898     101.695E+06     11.5773E+06              0.     3.80471E+06
           45899     102.520E+06     11.2466E+06              0.     3.89405E+06
           45900     103.365E+06     10.9116E+06              0.     3.98538E+06
           45901     104.231E+06     10.5725E+06              0.     4.07874E+06
           45902     105.118E+06     10.2292E+06              0.     4.17417E+06
           45903     106.026E+06     9.88176E+06              0.     4.27173E+06
           45904     106.957E+06     9.53031E+06              0.     4.37146E+06
           45905     107.911E+06     9.17488E+06              0.     4.47342E+06
           45906     108.888E+06     8.81552E+06              0.     4.57766E+06
           45907     109.889E+06     8.45232E+06              0.     4.68424E+06
           45908     110.914E+06     8.08535E+06              0.     4.79321E+06
           45909     111.965E+06     7.71470E+06              0.     4.90463E+06
           45910     113.041E+06     7.34048E+06              0.     5.01857E+06
           45911     114.144E+06     6.96280E+06              0.     5.13509E+06
           45912     115.273E+06     6.58176E+06              0.     5.25424E+06
           45913     116.431E+06     6.19751E+06              0.     5.37610E+06
           45914     117.616E+06     5.81018E+06              0.     5.50073E+06
           45915     118.831E+06     5.41992E+06              0.     5.62822E+06
           45916     120.076E+06     5.02690E+06              0.     5.75863E+06
           45917     121.351E+06     4.63129E+06              0.     5.89204E+06
           45918     122.658E+06     4.23328E+06              0.     6.02853E+06
           45919     123.997E+06     3.83308E+06              0.     6.16819E+06
           45920     125.369E+06     3.43090E+06              0.     6.31109E+06
           45921     126.775E+06     3.02697E+06              0.     6.45734E+06
           45922     128.216E+06     2.62156E+06              0.     6.60702E+06
           45923     129.693E+06     2.21493E+06              0.     6.76023E+06
           45924     131.206E+06     1.80735E+06              0.     6.91707E+06
           45925     132.757E+06     1.39914E+06              0.     7.07766E+06
           45926     134.347E+06     990.631E+03              0.     7.24209E+06
           45927     135.976E+06     582.156E+03              0.     7.41049E+06
           45928     137.647E+06     174.086E+03              0.     7.58297E+06
           45929     139.359E+06    -233.180E+03              0.     7.75966E+06
           45930     141.115E+06    -639.231E+03              0.     7.94070E+06
           45931     142.915E+06    -1.04362E+06              0.     8.12623E+06
           45932     144.760E+06    -1.44587E+06              0.     8.31638E+06
           45933     146.653E+06    -1.84549E+06              0.     8.51131E+06
           45934     148.594E+06    -2.24194E+06              0.     8.71119E+06
           45935     150.584E+06    -2.63466E+06              0.     8.91618E+06
           45936     152.626E+06    -3.02304E+06              0.     9.12645E+06
           45937     154.720E+06    -3.40646E+06              0.     9.34221E+06
           45938     156.868E+06    -3.78423E+06              0.     9.56364E+06
           45939     159.073E+06    -4.15564E+06              0.     9.79096E+06
           45940     161.335E+06    -4.51993E+06              0.     10.0244E+06
           45941     163.656E+06    -4.87629E+06              0.     10.2641E+06
           45942     166.038E+06    -5.22387E+06              0.     10.5105E+06
           45943     168.484E+06    -5.56176E+06              0.     10.7637E+06
           45944     170.995E+06    -5.88899E+06              0.     11.0241E+06
           45945     173.573E+06    -6.20455E+06              0.     11.2918E+06
           45946     176.221E+06    -6.50734E+06              0.     11.5674E+06
           45947     178.941E+06    -6.79622E+06              0.     11.8510E+06
           45948     181.735E+06    -7.06995E+06              0.     12.1431E+06
           45949     184.606E+06    -7.32726E+06              0.     12.4440E+06
           45950     187.556E+06    -7.56674E+06              0.     12.7542E+06
           45951     190.589E+06    -7.78693E+06              0.     13.0741E+06
           45952     193.707E+06    -7.98627E+06              0.     13.4041E+06
           45953     196.914E+06    -8.16309E+06              0.     13.7449E+06
           45954     200.212E+06    -8.31563E+06              0.     14.0969E+06
           45955     203.605E+06    -8.44200E+06              0.     14.4607E+06
           45956     207.098E+06    -8.54018E+06              0.     14.8371E+06
           45957     210.693E+06    -8.60804E+06              0.     15.2266E+06
           45958     214.395E+06    -8.64327E+06              0.     15.6300E+06
           45959     218.208E+06    -8.64344E+06              0.     16.0482E+06
           45960     222.138E+06    -8.60591E+06              0.     16.4821E+06
           45961     226.188E+06    -8.52789E+06              0.     16.9325E+06
           45962     230.364E+06    -8.40637E+06              0.     17.4006E+06
           45963     234.672E+06    -8.23812E+06              0.     17.8876E+06
           45964     239.117E+06    -8.01967E+06              0.     18.3947E+06
           45965     243.707E+06    -7.74730E+06              0.     18.9232E+06
           45966     248.447E+06    -7.41697E+06              0.     19.4748E+06
           45967     253.346E+06    -7.02436E+06              0.     20.0510E+06
           45968     258.411E+06    -6.56478E+06              0.     20.6539E+06
           45969     263.650E+06    -6.03314E+06              0.     21.2853E+06
           45970     269.073E+06    -5.42393E+06              0.     21.9477E+06
           45971     274.690E+06    -4.73117E+06              0.     22.6435E+06
           45972     280.511E+06    -3.94832E+06              0.     23.3757E+06
           45973     286.548E+06    -3.06825E+06              0.     24.1473E+06
           45974     292.813E+06    -2.08316E+06              0.     24.9620E+06
           45975     299.321E+06    -984.461E+03              0.     25.8238E+06
           45976     306.086E+06     237.283E+03              0.     26.7372E+06
           45977     313.124E+06     1.59250E+06              0.     27.7074E+06
           45978     320.453E+06     3.09279E+06              0.     28.7401E+06
           45979     328.093E+06     4.75100E+06              0.     29.8422E+06
           45980     336.065E+06     6.58156E+06              0.     31.0212E+06
           45981     344.393E+06     8.60060E+06              0.     32.2859E+06
           45982     353.102E+06     10.8264E+06              0.     33.6465E+06
           45983     362.221E+06     13.2795E+06              0.     35.1147E+06
           45984     371.782E+06     15.9835E+06              0.     36.7041E+06
           45985     381.819E+06     18.9655E+06              0.     38.4308E+06
           45986     392.370E+06     22.2567E+06              0.     40.3134E+06
           45987     403.477E+06     25.8933E+06              0.     42.3742E+06
           45988     415.184E+06     29.9178E+06              0.     44.6391E+06
           45989     427.539E+06     34.3806E+06              0.     47.1393E+06
           45990     440.594E+06     39.3413E+06              0.     49.9112E+06
           45991     454.400E+06     44.8722E+06              0.     52.9987E+06
           45992     469.006E+06     51.0607E+06              0.     56.4532E+06
           45993     484.452E+06     58.0141E+06              0.     60.3348E+06
           45994     500.761E+06     65.8651E+06              0.     64.7126E+06
           45995     517.917E+06     74.7793E+06              0.     69.6618E+06
           45996     535.840E+06     84.9636E+06              0.     75.2569E+06
           45997     554.329E+06     96.6756E+06              0.     81.5533E+06
           45998     572.985E+06     110.230E+06              0.     88.5467E+06
           45999     591.106E+06     125.985E+06              0.     96.0857E+06
           46000     607.622E+06     144.294E+06              0.     103.716E+06
           46001     621.173E+06     165.212E+06              0.     110.467E+06
           46002     630.396E+06     187.819E+06              0.     114.838E+06
           46003     634.302E+06     209.506E+06              0.     115.224E+06
           46004     642.496E+06     223.779E+06              0.     124.033E+06
           46005     71.0372E+06     31.1091E+06              0.     322.107E+03
           46006     71.0164E+06     30.8739E+06              0.     321.551E+03
           46007     71.0964E+06     30.6874E+06              0.     317.265E+03
           46008     71.1754E+06     30.5061E+06              0.     313.622E+03
           46009     71.2537E+06     30.3296E+06              0.     310.603E+03
           46010     71.3313E+06     30.1578E+06              0.     308.192E+03
           46011     71.4085E+06     29.9904E+06              0.     306.373E+03
           46012     71.4854E+06     29.8271E+06              0.     305.132E+03
           46013     71.5620E+06     29.6678E+06              0.     304.455E+03
           46014     71.6387E+06     29.5122E+06              0.     304.329E+03
           46015     71.7155E+06     29.3602E+06              0.     304.740E+03
           46016     71.7925E+06     29.2115E+06              0.     305.677E+03
           46017     71.8699E+06     29.0660E+06              0.     307.130E+03
           46018     71.9478E+06     28.9234E+06              0.     309.087E+03
           46019     72.0263E+06     28.7836E+06              0.     311.538E+03
           46020     72.1056E+06     28.6464E+06              0.     314.475E+03
           46021     72.1858E+06     28.5116E+06              0.     317.889E+03
           46022     72.2670E+06     28.3791E+06              0.     321.772E+03
           46023     72.3493E+06     28.2486E+06              0.     326.117E+03
           46024     72.4328E+06     28.1202E+06              0.     330.916E+03
           46025     72.5177E+06     27.9935E+06              0.     336.164E+03
           46026     72.6041E+06     27.8684E+06              0.     341.854E+03
           46027     72.6920E+06     27.7449E+06              0.     347.982E+03
           46028     72.7817E+06     27.6227E+06              0.     354.543E+03
           46029     72.8731E+06     27.5017E+06              0.     361.532E+03
           46030     72.9665E+06     27.3818E+06              0.     368.947E+03
           46031     73.0618E+06     27.2628E+06              0.     376.783E+03
           46032     73.1593E+06     27.1447E+06              0.     385.037E+03
           46033     73.2591E+06     27.0273E+06              0.     393.708E+03
           46034     73.3612E+06     26.9104E+06              0.     402.794E+03
           46035     73.4657E+06     26.7940E+06              0.     412.293E+03
           46036     73.5729E+06     26.6780E+06              0.     422.204E+03
           46037     73.6826E+06     26.5622E+06              0.     432.527E+03
           46038     73.7952E+06     26.4465E+06              0.     443.260E+03
           46039     73.9106E+06     26.3309E+06              0.     454.406E+03
           46040     74.0291E+06     26.2151E+06              0.     465.963E+03
           46041     74.1506E+06     26.0992E+06              0.     477.933E+03
           46042     74.2753E+06     25.9829E+06              0.     490.318E+03
           46043     74.4034E+06     25.8663E+06              0.     503.118E+03
           46044     74.5348E+06     25.7491E+06              0.     516.337E+03
           46045     74.6698E+06     25.6314E+06              0.     529.976E+03
           46046     74.8085E+06     25.5130E+06              0.     544.039E+03
           46047     74.9509E+06     25.3938E+06              0.     558.528E+03
           46048     75.0971E+06     25.2738E+06              0.     573.447E+03
           46049     75.2474E+06     25.1527E+06              0.     588.801E+03
           46050     75.4017E+06     25.0307E+06              0.     604.592E+03
           46051     75.5603E+06     24.9075E+06              0.     620.826E+03
           46052     75.7231E+06     24.7831E+06              0.     637.507E+03
           46053     75.8905E+06     24.6575E+06              0.     654.641E+03
           46054     76.0624E+06     24.5304E+06              0.     672.234E+03
           46055     76.2390E+06     24.4019E+06              0.     690.290E+03
           46056     76.4204E+06     24.2718E+06              0.     708.817E+03
           46057     76.6067E+06     24.1401E+06              0.     727.821E+03
           46058     76.7982E+06     24.0067E+06              0.     747.308E+03
           46059     76.9948E+06     23.8716E+06              0.     767.286E+03
           46060     77.1968E+06     23.7346E+06              0.     787.763E+03
           46061     77.4042E+06     23.5957E+06              0.     808.745E+03
           46062     77.6172E+06     23.4547E+06              0.     830.242E+03
           46063     77.8360E+06     23.3118E+06              0.     852.261E+03
           46064     78.0607E+06     23.1666E+06              0.     874.812E+03
           46065     78.2914E+06     23.0193E+06              0.     897.904E+03
           46066     78.5283E+06     22.8696E+06              0.     921.545E+03
           46067     78.7715E+06     22.7176E+06              0.     945.746E+03
           46068     79.0212E+06     22.5632E+06              0.     970.517E+03
           46069     79.2775E+06     22.4063E+06              0.     995.868E+03
           46070     79.5406E+06     22.2468E+06              0.     1.02181E+06
           46071     79.8107E+06     22.0847E+06              0.     1.04835E+06
           46072     80.0879E+06     21.9199E+06              0.     1.07551E+06
           46073     80.3724E+06     21.7523E+06              0.     1.10329E+06
           46074     80.6644E+06     21.5820E+06              0.     1.13171E+06
           46075     80.9640E+06     21.4087E+06              0.     1.16078E+06
           46076     81.2715E+06     21.2325E+06              0.     1.19052E+06
           46077     81.5869E+06     21.0532E+06              0.     1.22092E+06
           46078     81.9106E+06     20.8709E+06              0.     1.25202E+06
           46079     82.2426E+06     20.6854E+06              0.     1.28382E+06
           46080     82.5832E+06     20.4968E+06              0.     1.31634E+06
           46081     82.9326E+06     20.3049E+06              0.     1.34959E+06
           46082     83.2910E+06     20.1097E+06              0.     1.38358E+06
           46083     83.6586E+06     19.9111E+06              0.     1.41834E+06
           46084     84.0356E+06     19.7091E+06              0.     1.45388E+06
           46085     84.4223E+06     19.5036E+06              0.     1.49020E+06
           46086     84.8188E+06     19.2945E+06              0.     1.52734E+06
           46087     85.2254E+06     19.0819E+06              0.     1.56531E+06
           46088     85.6423E+06     18.8656E+06              0.     1.60413E+06
           46089     86.0698E+06     18.6456E+06              0.     1.64380E+06
           46090     86.5081E+06     18.4219E+06              0.     1.68436E+06
           46091     86.9574E+06     18.1944E+06              0.     1.72581E+06
           46092     87.4181E+06     17.9630E+06              0.     1.76819E+06
           46093     87.8904E+06     17.7278E+06              0.     1.81150E+06
           46094     88.3745E+06     17.4886E+06              0.     1.85577E+06
           46095     88.8708E+06     17.2455E+06              0.     1.90103E+06
           46096     89.3794E+06     16.9983E+06              0.     1.94728E+06
           46097     89.9008E+06     16.7471E+06              0.     1.99455E+06
           46098     90.4352E+06     16.4918E+06              0.     2.04287E+06
           46099     90.9828E+06     16.2323E+06              0.     2.09225E+06
           46100     91.5441E+06     15.9687E+06              0.     2.14273E+06
           46101     92.1194E+06     15.7009E+06              0.     2.19432E+06
           46102     92.7089E+06     15.4289E+06              0.     2.24705E+06
           46103     93.3130E+06     15.1527E+06              0.     2.30094E+06
           46104     93.9321E+06     14.8721E+06              0.     2.35601E+06
           46105     94.5664E+06     14.5873E+06              0.     2.41231E+06
           46106     95.2164E+06     14.2982E+06              0.     2.46985E+06
           46107     95.8825E+06     14.0047E+06              0.     2.52865E+06
           46108     96.5649E+06     13.7070E+06              0.     2.58876E+06
           46109     97.2642E+06     13.4048E+06              0.     2.65019E+06
           46110     97.9806E+06     13.0984E+06              0.     2.71298E+06
           46111     98.7147E+06     12.7876E+06              0.     2.77716E+06
           46112     99.4668E+06     12.4724E+06              0.     2.84276E+06
           46113     100.237E+06     12.1529E+06              0.     2.90981E+06
           46114     101.027E+06     11.8291E+06              0.     2.97834E+06
           46115     101.836E+06     11.5010E+06              0.     3.04840E+06
           46116     102.664E+06     11.1685E+06              0.     3.12001E+06
           46117     103.513E+06     10.8319E+06              0.     3.19321E+06
           46118     104.383E+06     10.4910E+06              0.     3.26803E+06
           46119     105.274E+06     10.1459E+06              0.     3.34453E+06
           46120     106.187E+06      9.7967E+06              0.     3.42272E+06
           46121     107.122E+06     9.44340E+06              0.     3.50267E+06
           46122     108.080E+06     9.08606E+06              0.      3.5844E+06
           46123     109.062E+06     8.72476E+06              0.     3.66796E+06
           46124     110.067E+06     8.35957E+06              0.     3.75340E+06
           46125     111.097E+06     7.99057E+06              0.     3.84076E+06
           46126     112.153E+06     7.61784E+06              0.     3.93009E+06
           46127     113.234E+06     7.24150E+06              0.     4.02143E+06
           46128     114.342E+06     6.86163E+06              0.     4.11484E+06
           46129     115.477E+06     6.47837E+06              0.     4.21038E+06
           46130     116.640E+06     6.09183E+06              0.     4.30808E+06
           46131     117.832E+06     5.70217E+06              0.     4.40802E+06
           46132     119.053E+06     5.30952E+06              0.     4.51025E+06
           46133     120.304E+06     4.91405E+06              0.     4.61482E+06
           46134     121.585E+06     4.51593E+06              0.     4.72180E+06
           46135     122.899E+06     4.11535E+06              0.     4.83126E+06
           46136     124.245E+06     3.71252E+06              0.     4.94326E+06
           46137     125.624E+06     3.30764E+06              0.     5.05787E+06
           46138     127.037E+06     2.90095E+06              0.     5.17517E+06
           46139     128.486E+06     2.49271E+06              0.     5.29523E+06
           46140     129.970E+06     2.08316E+06              0.     5.41812E+06
           46141     131.492E+06     1.67260E+06              0.     5.54394E+06
           46142     133.051E+06     1.26133E+06              0.     5.67276E+06
           46143     134.649E+06     849.672E+03              0.     5.80468E+06
           46144     136.288E+06     437.969E+03              0.     5.93979E+06
           46145     137.968E+06     26.5828E+03              0.     6.07818E+06
           46146     139.690E+06    -384.090E+03              0.     6.21997E+06
           46147     141.456E+06    -793.644E+03              0.     6.36525E+06
           46148     143.266E+06    -1.20163E+06              0.     6.51414E+06
           46149     145.122E+06    -1.60759E+06              0.     6.66675E+06
           46150     147.026E+06    -2.01102E+06              0.     6.82322E+06
           46151     148.979E+06    -2.41139E+06              0.     6.98367E+06
           46152     150.981E+06    -2.80815E+06              0.     7.14823E+06
           46153     153.036E+06     -3.2007E+06              0.     7.31706E+06
           46154     155.143E+06    -3.58841E+06              0.     7.49030E+06
           46155     157.306E+06    -3.97061E+06              0.     7.66811E+06
           46156     159.525E+06    -4.34659E+06              0.     7.85068E+06
           46157     161.802E+06    -4.71560E+06              0.     8.03817E+06
           46158     164.139E+06    -5.07683E+06              0.     8.23077E+06
           46159     166.538E+06    -5.42945E+06              0.     8.42870E+06
           46160     169.001E+06    -5.77255E+06              0.     8.63216E+06
           46161     171.530E+06    -6.10518E+06              0.     8.84138E+06
           46162     174.127E+06    -6.42632E+06              0.     9.05661E+06
           46163     176.794E+06    -6.73491E+06              0.     9.27811E+06
           46164     179.535E+06    -7.02980E+06              0.     9.50614E+06
           46165     182.351E+06    -7.30977E+06              0.     9.74102E+06
           46166     185.245E+06    -7.57356E+06              0.     9.98305E+06
           46167     188.219E+06    -7.81978E+06              0.     10.2326E+06
           46168     191.277E+06    -8.04699E+06              0.     10.4900E+06
           46169     194.422E+06    -8.25364E+06              0.     10.7556E+06
           46170     197.657E+06    -8.43808E+06              0.     11.0299E+06
           46171     200.985E+06    -8.59858E+06              0.     11.3133E+06
           46172     204.410E+06    -8.73326E+06              0.     11.6063E+06
           46173     207.936E+06    -8.84014E+06              0.     11.9095E+06
           46174     211.567E+06    -8.91710E+06              0.     12.2234E+06
           46175     215.307E+06    -8.96189E+06              0.     12.5486E+06
           46176     219.160E+06    -8.97208E+06              0.     12.8858E+06
           46177     223.132E+06    -8.94509E+06              0.     13.2358E+06
           46178     227.227E+06    -8.87816E+06              0.     13.5993E+06
           46179     231.452E+06    -8.76833E+06              0.     13.9772E+06
           46180     235.812E+06    -8.61242E+06              0.     14.3705E+06
           46181     240.313E+06    -8.40703E+06              0.     14.7802E+06
           46182     244.962E+06    -8.14847E+06              0.     15.2075E+06
           46183     249.767E+06    -7.83281E+06              0.     15.6537E+06
           46184     254.734E+06    -7.45577E+06              0.     16.1201E+06
           46185     259.873E+06    -7.01276E+06              0.     16.6084E+06
           46186     265.193E+06    -6.49880E+06              0.     17.1202E+06
           46187     270.704E+06    -5.90848E+06              0.     17.6574E+06
           46188     276.415E+06    -5.23594E+06              0.     18.2223E+06
           46189     282.339E+06    -4.47479E+06              0.     18.8171E+06
           46190     288.489E+06    -3.61806E+06              0.     19.4447E+06
           46191     294.878E+06    -2.65813E+06              0.     20.1080E+06
           46192     301.521E+06    -1.58661E+06              0.     20.8105E+06
           46193     308.435E+06    -394.311E+03              0.     21.5560E+06
           46194     315.638E+06     928.933E+03              0.     22.3490E+06
           46195     323.150E+06     2.39440E+06              0.     23.1945E+06
           46196     330.994E+06     4.01458E+06              0.     24.0983E+06
           46197     339.194E+06     5.80348E+06              0.     25.0671E+06
           46198     347.778E+06     7.77677E+06              0.     26.1087E+06
           46199     356.775E+06     9.95210E+06              0.     27.2320E+06
           46200     366.222E+06     12.3495E+06              0.     28.4475E+06
           46201     376.155E+06     14.9918E+06              0.     29.7676E+06
           46202     386.619E+06     17.9051E+06              0.     31.2070E+06
           46203     397.662E+06     21.1196E+06              0.     32.7830E+06
           46204     409.340E+06     24.6705E+06              0.     34.5165E+06
           46205     421.715E+06     28.5989E+06              0.     36.4325E+06
           46206     434.858E+06     32.9538E+06              0.     38.5616E+06
           46207     448.848E+06     37.7935E+06              0.     40.9409E+06
           46208     463.775E+06     43.1888E+06              0.     43.6160E+06
           46209     479.738E+06     49.2261E+06              0.     46.6435E+06
           46210     496.844E+06     56.0130E+06              0.     50.0932E+06
           46211     515.204E+06     63.6848E+06              0.     54.0522E+06
           46212     534.920E+06     72.4140E+06              0.     58.6271E+06
           46213     556.066E+06     82.4247E+06              0.     63.9472E+06
           46214     578.635E+06     94.0105E+06              0.     70.1603E+06
           46215     602.447E+06     107.559E+06              0.     77.4136E+06
           46216     626.967E+06     123.584E+06              0.     85.7935E+06
           46217     650.969E+06     142.722E+06              0.     95.1371E+06
           46218     672.491E+06     165.774E+06              0.     104.656E+06
           46219     689.068E+06     192.644E+06              0.     112.377E+06
           46220     698.451E+06     220.160E+06              0.     115.596E+06
           46221     710.826E+06     238.531E+06              0.     128.367E+06
           46222     71.0484E+06     31.1138E+06              0.     241.821E+03
           46223     71.0275E+06     30.8779E+06              0.     241.404E+03
           46224     71.1077E+06     30.6909E+06              0.     238.187E+03
           46225     71.1870E+06     30.5090E+06              0.     235.451E+03
           46226     71.2655E+06     30.3320E+06              0.     233.185E+03
           46227     71.3433E+06     30.1597E+06              0.     231.375E+03
           46228     71.4207E+06     29.9917E+06              0.     230.010E+03
           46229     71.4978E+06     29.8280E+06              0.     229.078E+03
           46230     71.5748E+06     29.6682E+06              0.     228.570E+03
           46231     71.6516E+06     29.5122E+06              0.     228.475E+03
           46232     71.7287E+06     29.3597E+06              0.     228.784E+03
           46233     71.8059E+06     29.2105E+06              0.     229.488E+03
           46234     71.8835E+06     29.0646E+06              0.     230.578E+03
           46235     71.9617E+06     28.9216E+06              0.     232.047E+03
           46236     72.0404E+06     28.7813E+06              0.     233.888E+03
           46237     72.1200E+06     28.6437E+06              0.     236.093E+03
           46238     72.2004E+06     28.5085E+06              0.     238.656E+03
           46239     72.2818E+06     28.3756E+06              0.     241.571E+03
           46240     72.3644E+06     28.2448E+06              0.     244.833E+03
           46241     72.4481E+06     28.1159E+06              0.     248.436E+03
           46242     72.5333E+06     27.9889E+06              0.     252.376E+03
           46243     72.6199E+06     27.8634E+06              0.     256.648E+03
           46244     72.7081E+06     27.7395E+06              0.     261.249E+03
           46245     72.7980E+06     27.6169E+06              0.     266.175E+03
           46246     72.8897E+06     27.4956E+06              0.     271.422E+03
           46247     72.9834E+06     27.3753E+06              0.     276.989E+03
           46248     73.0791E+06     27.2560E+06              0.     282.872E+03
           46249     73.1769E+06     27.1375E+06              0.     289.069E+03
           46250     73.2769E+06     27.0198E+06              0.     295.579E+03
           46251     73.3793E+06     26.9026E+06              0.     302.400E+03
           46252     73.4842E+06     26.7858E+06              0.     309.532E+03
           46253     73.5916E+06     26.6694E+06              0.     316.973E+03
           46254     73.7017E+06     26.5533E+06              0.     324.723E+03
           46255     73.8146E+06     26.4373E+06              0.     332.781E+03
           46256     73.9304E+06     26.3213E+06              0.     341.149E+03
           46257     74.0492E+06     26.2051E+06              0.     349.826E+03
           46258     74.1711E+06     26.0888E+06              0.     358.813E+03
           46259     74.2962E+06     25.9722E+06              0.     368.111E+03
           46260     74.4246E+06     25.8552E+06              0.     377.721E+03
           46261     74.5565E+06     25.7377E+06              0.     387.646E+03
           46262     74.6919E+06     25.6197E+06              0.     397.886E+03
           46263     74.8310E+06     25.5009E+06              0.     408.444E+03
           46264     74.9738E+06     25.3813E+06              0.     419.322E+03
           46265     75.1205E+06     25.2609E+06              0.     430.523E+03
           46266     75.2712E+06     25.1396E+06              0.     442.050E+03
           46267      75.426E+06     25.0171E+06              0.     453.906E+03
           46268     75.5850E+06     24.8936E+06              0.     466.094E+03
           46269     75.7484E+06     24.7688E+06              0.     478.618E+03
           46270     75.9163E+06     24.6428E+06              0.     491.482E+03
           46271     76.0887E+06     24.5153E+06              0.     504.691E+03
           46272     76.2658E+06     24.3864E+06              0.     518.247E+03
           46273     76.4478E+06     24.2559E+06              0.     532.157E+03
           46274     76.6347E+06     24.1238E+06              0.     546.425E+03
           46275     76.8267E+06     23.9900E+06              0.     561.056E+03
           46276     77.0240E+06     23.8545E+06              0.     576.056E+03
           46277     77.2265E+06     23.7170E+06              0.     591.429E+03
           46278     77.4346E+06     23.5777E+06              0.     607.183E+03
           46279     77.6483E+06     23.4363E+06              0.     623.323E+03
           46280     77.8678E+06     23.2929E+06              0.     639.855E+03
           46281     78.0931E+06     23.1473E+06              0.     656.786E+03
           46282     78.3245E+06     22.9995E+06              0.     674.123E+03
           46283     78.5621E+06     22.8494E+06              0.     691.874E+03
           46284     78.8061E+06     22.6969E+06              0.     710.044E+03
           46285     79.0565E+06     22.5420E+06              0.     728.643E+03
           46286     79.3137E+06     22.3846E+06              0.     747.677E+03
           46287     79.5776E+06     22.2246E+06              0.     767.154E+03
           46288     79.8485E+06     22.0620E+06              0.     787.084E+03
           46289     80.1266E+06     21.8967E+06              0.     807.475E+03
           46290     80.4120E+06     21.7286E+06              0.     828.335E+03
           46291     80.7049E+06     21.5576E+06              0.     849.673E+03
           46292     81.0054E+06     21.3838E+06              0.     871.500E+03
           46293     81.3138E+06     21.2070E+06              0.     893.824E+03
           46294     81.6303E+06     21.0272E+06              0.     916.655E+03
           46295     81.9549E+06     20.8443E+06              0.     940.004E+03
           46296      82.288E+06     20.6583E+06              0.     963.881E+03
           46297     82.6297E+06     20.4690E+06              0.     988.296E+03
           46298     82.9802E+06     20.2765E+06              0.     1.01326E+06
           46299     83.3397E+06     20.0806E+06              0.     1.03879E+06
           46300     83.7085E+06     19.8814E+06              0.     1.06488E+06
           46301     84.0867E+06     19.6787E+06              0.     1.09157E+06
           46302     84.4745E+06     19.4725E+06              0.     1.11885E+06
           46303     84.8723E+06     19.2628E+06              0.     1.14673E+06
           46304     85.2802E+06     19.0494E+06              0.     1.17524E+06
           46305     85.6984E+06     18.8324E+06              0.     1.20439E+06
           46306     86.1272E+06     18.6117E+06              0.     1.23418E+06
           46307     86.5669E+06     18.3873E+06              0.     1.26463E+06
           46308     87.0177E+06     18.1590E+06              0.     1.29576E+06
           46309     87.4799E+06     17.9268E+06              0.     1.32758E+06
           46310     87.9537E+06     17.6908E+06              0.     1.36010E+06
           46311     88.4394E+06     17.4508E+06              0.     1.39335E+06
           46312     88.9372E+06     17.2068E+06              0.     1.42733E+06
           46313     89.4475E+06     16.9588E+06              0.     1.46206E+06
           46314     89.9706E+06     16.7067E+06              0.     1.49756E+06
           46315     90.5067E+06     16.4505E+06              0.     1.53384E+06
           46316     91.0561E+06     16.1902E+06              0.     1.57093E+06
           46317     91.6193E+06     15.9257E+06              0.     1.60883E+06
           46318     92.1964E+06     15.6570E+06              0.     1.64757E+06
           46319     92.7879E+06     15.3840E+06              0.     1.68717E+06
           46320     93.3940E+06     15.1067E+06              0.     1.72764E+06
           46321     94.0151E+06     14.8252E+06              0.     1.76900E+06
           46322     94.6515E+06     14.5394E+06              0.     1.81128E+06
           46323     95.3037E+06     14.2492E+06              0.     1.85449E+06
           46324     95.9720E+06     13.9547E+06              0.     1.89865E+06
           46325     96.6567E+06     13.6558E+06              0.     1.94379E+06
           46326     97.3583E+06     13.3526E+06              0.     1.98993E+06
           46327     98.0772E+06     13.0450E+06              0.     2.03708E+06
           46328     98.8137E+06     12.7330E+06              0.     2.08528E+06
           46329     99.5684E+06     12.4166E+06              0.     2.13455E+06
           46330     100.342E+06     12.0959E+06              0.     2.18491E+06
           46331     101.134E+06     11.7709E+06              0.     2.23638E+06
           46332     101.945E+06     11.4415E+06              0.     2.28900E+06
           46333     102.777E+06     11.1078E+06              0.     2.34278E+06
           46334     103.629E+06     10.7698E+06              0.     2.39776E+06
           46335     104.502E+06     10.4275E+06              0.     2.45397E+06
           46336     105.396E+06     10.0811E+06              0.     2.51142E+06
           46337     106.312E+06     9.73043E+06              0.     2.57016E+06
           46338     107.250E+06     9.37568E+06              0.     2.63021E+06
           46339     108.212E+06     9.01686E+06              0.     2.69161E+06
           46340     109.197E+06     8.65405E+06              0.     2.75438E+06
           46341     110.206E+06     8.28730E+06              0.     2.81856E+06
           46342     111.240E+06     7.91672E+06              0.     2.88418E+06
           46343     112.300E+06     7.54237E+06              0.     2.95129E+06
           46344     113.385E+06     7.16436E+06              0.     3.01991E+06
           46345     114.497E+06     6.78280E+06              0.     3.09009E+06
           46346     115.636E+06     6.39780E+06              0.     3.16186E+06
           46347     116.804E+06     6.00948E+06              0.     3.23527E+06
           46348     118.000E+06     5.61800E+06              0.     3.31035E+06
           46349     119.225E+06     5.22348E+06              0.     3.38716E+06
           46350     120.481E+06     4.82610E+06              0.     3.46573E+06
           46351     121.768E+06     4.42602E+06              0.     3.54612E+06
           46352     123.086E+06     4.02344E+06              0.     3.62837E+06
           46353     124.437E+06     3.61855E+06              0.     3.71253E+06
           46354     125.822E+06     3.21156E+06              0.     3.79866E+06
           46355     127.241E+06     2.80272E+06              0.     3.88681E+06
           46356     128.696E+06     2.39225E+06              0.     3.97703E+06
           46357     130.186E+06     1.98043E+06              0.     4.06940E+06
           46358     131.714E+06     1.56755E+06              0.     4.16396E+06
           46359     133.280E+06     1.15388E+06              0.     4.26079E+06
           46360     134.885E+06     739.766E+03              0.     4.35994E+06
           46361     136.531E+06     325.540E+03              0.     4.46150E+06
           46362     138.218E+06    -88.4376E+03              0.     4.56554E+06
           46363     139.948E+06    -501.774E+03              0.     4.67213E+06
           46364     141.721E+06    -914.066E+03              0.     4.78135E+06
           46365     143.540E+06    -1.32487E+06              0.     4.89329E+06
           46366     145.405E+06    -1.73372E+06              0.     5.00804E+06
           46367     147.317E+06    -2.14014E+06              0.     5.12570E+06
           46368     149.279E+06    -2.54358E+06              0.     5.24635E+06
           46369     151.291E+06    -2.94350E+06              0.     5.37011E+06
           46370     153.356E+06    -3.33931E+06              0.     5.49708E+06
           46371     155.474E+06    -3.73038E+06              0.     5.62739E+06
           46372     157.647E+06    -4.11605E+06              0.     5.76114E+06
           46373     159.877E+06    -4.49561E+06              0.     5.89848E+06
           46374     162.166E+06    -4.86832E+06              0.     6.03954E+06
           46375     164.515E+06    -5.23337E+06              0.     6.18446E+06
           46376     166.927E+06    -5.58994E+06              0.     6.33340E+06
           46377     169.404E+06    -5.93713E+06              0.     6.48651E+06
           46378     171.947E+06    -6.27400E+06              0.     6.64398E+06
           46379     174.559E+06    -6.59952E+06              0.     6.80599E+06
           46380     177.242E+06    -6.91266E+06              0.     6.97274E+06
           46381     179.999E+06    -7.21227E+06              0.     7.14444E+06
           46382     182.831E+06    -7.49715E+06              0.     7.32130E+06
           46383     185.743E+06    -7.76603E+06              0.     7.50358E+06
           46384     188.737E+06    -8.01755E+06              0.     7.69153E+06
           46385     191.815E+06    -8.25028E+06              0.     7.88543E+06
           46386     194.981E+06    -8.46268E+06              0.     8.08558E+06
           46387     198.238E+06    -8.65313E+06              0.     8.29230E+06
           46388     201.589E+06    -8.81990E+06              0.     8.50594E+06
           46389     205.039E+06    -8.96114E+06              0.     8.72686E+06
           46390     208.591E+06    -9.07489E+06              0.     8.95548E+06
           46391     212.250E+06    -9.15904E+06              0.     9.19223E+06
           46392     216.019E+06    -9.21137E+06              0.     9.43759E+06
           46393     219.904E+06    -9.22950E+06              0.     9.69207E+06
           46394     223.909E+06    -9.21085E+06              0.     9.95625E+06
           46395     228.041E+06    -9.15272E+06              0.     10.2307E+06
           46396     232.303E+06    -9.05216E+06              0.     10.5162E+06
           46397     236.704E+06    -8.90605E+06              0.     10.8134E+06
           46398     241.249E+06    -8.71103E+06              0.     11.1231E+06
           46399     245.945E+06    -8.46348E+06              0.     11.4462E+06
           46400     250.800E+06    -8.15949E+06              0.     11.7837E+06
           46401     255.822E+06    -7.79489E+06              0.     12.1367E+06
           46402     261.020E+06    -7.36513E+06              0.     12.5065E+06
           46403     266.403E+06    -6.86532E+06              0.     12.8942E+06
           46404     271.983E+06    -6.29015E+06              0.     13.3015E+06
           46405     277.769E+06    -5.63387E+06              0.     13.7300E+06
           46406     283.775E+06    -4.89021E+06              0.     14.1816E+06
           46407     290.014E+06    -4.05232E+06              0.     14.6584E+06
           46408     296.501E+06    -3.11275E+06              0.     15.1628E+06
           46409     303.252E+06    -2.06330E+06              0.     15.6974E+06
           46410     310.285E+06    -894.975E+03              0.     16.2654E+06
           46411     317.620E+06     402.137E+03              0.     16.8702E+06
           46412     325.279E+06     1.83903E+06              0.     17.5159E+06
           46413     333.286E+06     3.42788E+06              0.     18.2071E+06
           46414     341.668E+06     5.18230E+06              0.     18.9492E+06
           46415     350.458E+06     7.11750E+06              0.     19.7484E+06
           46416     359.689E+06     9.25060E+06              0.     20.6120E+06
           46417     369.400E+06     11.6010E+06              0.     21.5486E+06
           46418     379.637E+06     14.1907E+06              0.     22.5684E+06
           46419     390.449E+06      17.045E+06              0.     23.6835E+06
           46420     401.897E+06     20.1930E+06              0.     24.9086E+06
           46421     414.047E+06     23.6685E+06              0.     26.2614E+06
           46422     426.977E+06     27.5111E+06              0.     27.7635E+06
           46423     440.780E+06     31.7679E+06              0.     29.4415E+06
           46424     455.563E+06     36.4949E+06              0.     31.3288E+06
           46425     471.451E+06     41.7602E+06              0.     33.4672E+06
           46426     488.594E+06     47.6474E+06              0.     35.9100E+06
           46427     507.169E+06     54.2606E+06              0.     38.7260E+06
           46428     527.385E+06     61.7320E+06              0.     42.0051E+06
           46429     549.484E+06     70.2326E+06              0.     45.8653E+06
           46430     573.745E+06     79.9885E+06              0.     50.4646E+06
           46431     600.460E+06     91.3058E+06              0.     56.0130E+06
           46432     629.877E+06     104.609E+06              0.     62.7875E+06
           46433     662.036E+06     120.498E+06              0.     71.1290E+06
           46434     696.334E+06     139.844E+06              0.     81.3942E+06
           46435     730.166E+06     163.820E+06              0.     93.4682E+06
           46436     759.596E+06     194.875E+06              0.     105.876E+06
           46437     779.706E+06     230.998E+06              0.     114.069E+06
           46438     800.013E+06     256.137E+06              0.     134.172E+06
           46439     71.0564E+06     31.1172E+06              0.     161.329E+03
           46440     71.0354E+06     30.8807E+06              0.     161.051E+03
           46441     71.1158E+06     30.6933E+06              0.     158.904E+03
           46442     71.1952E+06     30.5111E+06              0.     157.079E+03
           46443     71.2739E+06     30.3337E+06              0.     155.567E+03
           46444     71.3519E+06     30.1610E+06              0.     154.360E+03
           46445     71.4295E+06     29.9927E+06              0.     153.449E+03
           46446     71.5068E+06     29.8286E+06              0.     152.828E+03
           46447     71.5839E+06     29.6685E+06              0.     152.489E+03
           46448     71.6609E+06     29.5121E+06              0.     152.425E+03
           46449     71.7381E+06     29.3593E+06              0.     152.631E+03
           46450     71.8155E+06     29.2098E+06              0.     153.101E+03
           46451     71.8933E+06     29.0636E+06              0.     153.829E+03
           46452     71.9716E+06     28.9202E+06              0.     154.809E+03
           46453     72.0505E+06     28.7797E+06              0.     156.037E+03
           46454     72.1302E+06     28.6418E+06              0.     157.508E+03
           46455     72.2108E+06     28.5063E+06              0.     159.218E+03
           46456     72.2924E+06     28.3731E+06              0.     161.163E+03
           46457     72.3751E+06     28.2420E+06              0.     163.339E+03
           46458     72.4591E+06     28.1129E+06              0.     165.743E+03
           46459     72.5444E+06     27.9856E+06              0.     168.371E+03
           46460     72.6312E+06     27.8599E+06              0.     171.222E+03
           46461     72.7196E+06     27.7357E+06              0.     174.291E+03
           46462     72.8097E+06     27.6128E+06              0.     177.577E+03
           46463     72.9016E+06     27.4912E+06              0.     181.078E+03
           46464     72.9955E+06     27.3707E+06              0.     184.792E+03
           46465     73.0914E+06     27.2512E+06              0.     188.717E+03
           46466     73.1894E+06     27.1324E+06              0.     192.851E+03
           46467     73.2896E+06     27.0144E+06              0.     197.194E+03
           46468     73.3923E+06     26.8969E+06              0.     201.745E+03
           46469     73.4974E+06     26.7800E+06              0.     206.503E+03
           46470     73.6050E+06     26.6633E+06              0.     211.467E+03
           46471     73.7154E+06     26.5469E+06              0.     216.638E+03
           46472     73.8285E+06     26.4306E+06              0.     222.014E+03
           46473     73.9446E+06     26.3144E+06              0.     227.597E+03
           46474     74.0636E+06     26.1980E+06              0.     233.386E+03
           46475     74.1857E+06     26.0815E+06              0.     239.381E+03
           46476     74.3111E+06     25.9646E+06              0.     245.585E+03
           46477     74.4398E+06     25.8474E+06              0.     251.996E+03
           46478     74.5720E+06     25.7296E+06              0.     258.617E+03
           46479     74.7077E+06     25.6113E+06              0.     265.449E+03
           46480     74.8470E+06     25.4922E+06              0.     272.493E+03
           46481     74.9902E+06     25.3724E+06              0.     279.751E+03
           46482     75.1372E+06     25.2518E+06              0.     287.224E+03
           46483     75.2882E+06     25.1301E+06              0.     294.914E+03
           46484     75.4434E+06     25.0074E+06              0.     302.824E+03
           46485     75.6028E+06     24.8836E+06              0.     310.955E+03
           46486     75.7665E+06     24.7586E+06              0.     319.311E+03
           46487     75.9347E+06     24.6322E+06              0.     327.894E+03
           46488     76.1075E+06     24.5045E+06              0.     336.706E+03
           46489      76.285E+06     24.3753E+06              0.     345.750E+03
           46490     76.4674E+06     24.2446E+06              0.     355.031E+03
           46491     76.6547E+06     24.1122E+06              0.     364.550E+03
           46492     76.8471E+06     23.9781E+06              0.     374.311E+03
           46493     77.0448E+06     23.8422E+06              0.     384.318E+03
           46494     77.2478E+06     23.7045E+06              0.     394.575E+03
           46495     77.4563E+06     23.5648E+06              0.     405.086E+03
           46496     77.6705E+06     23.4232E+06              0.     415.854E+03
           46497     77.8904E+06     23.2794E+06              0.     426.884E+03
           46498     78.1163E+06     23.1335E+06              0.     438.180E+03
           46499     78.3482E+06     22.9853E+06              0.     449.747E+03
           46500     78.5863E+06     22.8349E+06              0.     461.589E+03
           46501     78.8308E+06     22.6821E+06              0.     473.713E+03
           46502     79.0819E+06     22.5268E+06              0.     486.121E+03
           46503     79.3395E+06     22.3691E+06              0.     498.820E+03
           46504     79.6041E+06     22.2087E+06              0.     511.816E+03
           46505     79.8756E+06     22.0457E+06              0.     525.113E+03
           46506     80.1543E+06     21.8800E+06              0.     538.717E+03
           46507     80.4403E+06     21.7116E+06              0.     552.635E+03
           46508     80.7338E+06     21.5403E+06              0.     566.871E+03
           46509     81.0350E+06     21.3660E+06              0.     581.434E+03
           46510     81.3441E+06     21.1888E+06              0.     596.328E+03
           46511     81.6613E+06     21.0086E+06              0.     611.561E+03
           46512     81.9866E+06     20.8253E+06              0.     627.140E+03
           46513     82.3204E+06     20.6388E+06              0.     643.070E+03
           46514     82.6629E+06     20.4491E+06              0.     659.360E+03
           46515     83.0142E+06     20.2561E+06              0.     676.017E+03
           46516     83.3745E+06     20.0598E+06              0.     693.048E+03
           46517     83.7441E+06     19.8601E+06              0.     710.461E+03
           46518     84.1231E+06     19.6570E+06              0.     728.264E+03
           46519     84.5119E+06     19.4503E+06              0.     746.465E+03
           46520     84.9105E+06     19.2401E+06              0.     765.072E+03
           46521     85.3193E+06     19.0262E+06              0.     784.094E+03
           46522     85.7385E+06     18.8087E+06              0.     803.539E+03
           46523     86.1683E+06     18.5875E+06              0.     823.417E+03
           46524     86.6090E+06     18.3625E+06              0.     843.736E+03
           46525     87.0609E+06     18.1337E+06              0.     864.507E+03
           46526     87.5241E+06     17.9010E+06              0.     885.738E+03
           46527     87.9989E+06     17.6644E+06              0.     907.439E+03
           46528     88.4857E+06     17.4238E+06              0.     929.621E+03
           46529     88.9847E+06     17.1792E+06              0.     952.294E+03
           46530     89.4962E+06     16.9306E+06              0.     975.469E+03
           46531     90.0205E+06     16.6779E+06              0.     999.156E+03
           46532     90.5578E+06     16.4211E+06              0.     1.02337E+06
           46533     91.1086E+06     16.1601E+06              0.     1.04811E+06
           46534     91.6730E+06     15.8949E+06              0.     1.07340E+06
           46535     92.2515E+06     15.6255E+06              0.     1.09925E+06
           46536     92.8443E+06     15.3519E+06              0.     1.12568E+06
           46537     93.4518E+06     15.0739E+06              0.     1.15268E+06
           46538     94.0744E+06     14.7917E+06              0.     1.18028E+06
           46539     94.7124E+06     14.5051E+06              0.     1.20849E+06
           46540     95.3661E+06     14.2142E+06              0.     1.23733E+06
           46541     96.0360E+06     13.9189E+06              0.     1.26680E+06
           46542     96.7223E+06     13.6192E+06              0.     1.29692E+06
           46543     97.4256E+06     13.3152E+06              0.     1.32771E+06
           46544     98.1462E+06     13.0068E+06              0.     1.35917E+06
           46545     98.8846E+06     12.6940E+06              0.     1.39134E+06
           46546     99.6411E+06     12.3768E+06              0.     1.42422E+06
           46547     100.416E+06     12.0552E+06              0.     1.45782E+06
           46548     101.210E+06     11.7292E+06              0.     1.49217E+06
           46549     102.024E+06     11.3989E+06              0.     1.52729E+06
           46550     102.857E+06     11.0643E+06              0.     1.56318E+06
           46551     103.711E+06     10.7254E+06              0.     1.59987E+06
           46552     104.586E+06     10.3821E+06              0.     1.63738E+06
           46553     105.483E+06     10.0347E+06              0.     1.67573E+06
           46554     106.401E+06     9.68304E+06              0.     1.71493E+06
           46555     107.342E+06     9.32725E+06              0.     1.75500E+06
           46556     108.306E+06     8.96737E+06              0.     1.79598E+06
           46557     109.294E+06     8.60347E+06              0.     1.83787E+06
           46558     110.306E+06     8.23562E+06              0.     1.88071E+06
           46559     111.342E+06     7.86389E+06              0.     1.92451E+06
           46560     112.404E+06     7.48839E+06              0.      1.9693E+06
           46561     113.493E+06     7.10919E+06              0.     2.01510E+06
           46562     114.608E+06     6.72641E+06              0.     2.06194E+06
           46563     115.750E+06     6.34016E+06              0.     2.10985E+06
           46564     116.920E+06     5.95057E+06              0.     2.15885E+06
           46565     118.120E+06     5.55778E+06              0.     2.20897E+06
           46566     119.349E+06     5.16193E+06              0.     2.26024E+06
           46567     120.608E+06     4.76318E+06              0.     2.31269E+06
           46568     121.898E+06     4.36170E+06              0.     2.36635E+06
           46569     123.220E+06     3.95768E+06              0.     2.42126E+06
           46570     124.575E+06     3.55132E+06              0.     2.47744E+06
           46571     125.964E+06     3.14282E+06              0.     2.53494E+06
           46572     127.387E+06     2.73243E+06              0.     2.59379E+06
           46573     128.846E+06     2.32038E+06              0.     2.65403E+06
           46574     130.341E+06     1.90693E+06              0.     2.71570E+06
           46575     131.873E+06     1.49237E+06              0.     2.77883E+06
           46576     133.444E+06     1.07699E+06              0.     2.84349E+06
           46577     135.054E+06     661.116E+03              0.     2.90969E+06
           46578     136.705E+06     245.081E+03              0.     2.97751E+06
           46579     138.397E+06    -170.755E+03              0.     3.04698E+06
           46580     140.132E+06    -586.001E+03              0.     3.11816E+06
           46581     141.911E+06    -1.00026E+06              0.      3.1911E+06
           46582     143.736E+06    -1.41308E+06              0.     3.26586E+06
           46583     145.607E+06    -1.82401E+06              0.     3.34250E+06
           46584     147.526E+06    -2.23256E+06              0.     3.42108E+06
           46585     149.494E+06    -2.63821E+06              0.     3.50167E+06
           46586     151.513E+06    -3.04040E+06              0.     3.58434E+06
           46587     153.585E+06    -3.43855E+06              0.     3.66915E+06
           46588     155.710E+06    -3.83204E+06              0.     3.75620E+06
           46589     157.891E+06    -4.22019E+06              0.     3.84556E+06
           46590     160.129E+06    -4.60233E+06              0.     3.93732E+06
           46591     162.427E+06    -4.97769E+06              0.     4.03157E+06
           46592     164.785E+06    -5.34549E+06              0.     4.12840E+06
           46593     167.206E+06    -5.70490E+06              0.     4.22793E+06
           46594     169.692E+06    -6.05503E+06              0.     4.33026E+06
           46595     172.245E+06    -6.39494E+06              0.     4.43550E+06
           46596     174.868E+06    -6.72362E+06              0.     4.54379E+06
           46597     177.562E+06    -7.04003E+06              0.     4.65525E+06
           46598     180.331E+06    -7.34303E+06              0.     4.77004E+06
           46599     183.176E+06    -7.63144E+06              0.     4.88829E+06
           46600     186.100E+06    -7.90400E+06              0.     5.01017E+06
           46601     189.107E+06    -8.15934E+06              0.     5.13586E+06
           46602     192.200E+06    -8.39604E+06              0.     5.26554E+06
           46603     195.381E+06    -8.61259E+06              0.     5.39942E+06
           46604     198.654E+06    -8.80737E+06              0.     5.53771E+06
           46605     202.022E+06    -8.97867E+06              0.     5.68064E+06
           46606     205.490E+06    -9.12464E+06              0.     5.82848E+06
           46607     209.061E+06    -9.24334E+06              0.     5.98148E+06
           46608     212.739E+06    -9.33270E+06              0.     6.13996E+06
           46609     216.530E+06    -9.39048E+06              0.     6.30423E+06
           46610     220.437E+06    -9.41435E+06              0.     6.47463E+06
           46611     224.467E+06    -9.40174E+06              0.     6.65157E+06
           46612     228.624E+06    -9.34997E+06              0.     6.83545E+06
           46613     232.914E+06    -9.25614E+06              0.     7.02672E+06
           46614     237.344E+06    -9.11715E+06              0.     7.22590E+06
           46615     241.920E+06    -8.92966E+06              0.     7.43353E+06
           46616     246.650E+06    -8.69010E+06              0.     7.65022E+06
           46617     251.542E+06    -8.39461E+06              0.     7.87664E+06
           46618     256.603E+06    -8.03906E+06              0.     8.11352E+06
           46619     261.843E+06    -7.61896E+06              0.     8.36171E+06
           46620     267.273E+06    -7.12949E+06              0.     8.62211E+06
           46621     272.902E+06    -6.56540E+06              0.     8.89575E+06
           46622     278.743E+06    -5.92102E+06              0.     9.18377E+06
           46623     284.808E+06    -5.19017E+06              0.     9.48746E+06
           46624     291.112E+06    -4.36612E+06              0.     9.80827E+06
           46625     297.670E+06    -3.44154E+06              0.     10.1478E+06
           46626     304.500E+06    -2.40836E+06              0.     10.5080E+06
           46627     311.619E+06    -1.25776E+06              0.     10.8910E+06
           46628     319.050E+06     19.9823E+03              0.     11.2991E+06
           46629     326.815E+06     1.43565E+06              0.     11.7352E+06
           46630     334.942E+06     3.00113E+06              0.     12.2025E+06
           46631     343.458E+06     4.72975E+06              0.     12.7048E+06
           46632     352.399E+06     6.63632E+06              0.     13.2464E+06
           46633     361.801E+06     8.73756E+06              0.     13.8325E+06
           46634     371.707E+06     11.0523E+06              0.     14.4691E+06
           46635     382.168E+06     13.6019E+06              0.     15.1636E+06
           46636     393.239E+06     16.4109E+06              0.     15.9247E+06
           46637     404.988E+06     19.5073E+06              0.     16.7628E+06
           46638     417.491E+06     22.9239E+06              0.     17.6910E+06
           46639     430.839E+06     26.6987E+06              0.     18.7250E+06
           46640     445.142E+06     30.8769E+06              0.     19.8847E+06
           46641     460.528E+06     35.5123E+06              0.     21.1952E+06
           46642     477.156E+06     40.6699E+06              0.     22.6886E+06
           46643     495.219E+06     46.4295E+06              0.     24.4067E+06
           46644     514.954E+06     52.8905E+06              0.     26.4044E+06
           46645     536.664E+06     60.1791E+06              0.     28.7564E+06
           46646     560.728E+06     68.4592E+06              0.     31.5648E+06
           46647     587.638E+06     77.9491E+06              0.     34.9740E+06
           46648     618.031E+06     88.9483E+06              0.     39.1928E+06
           46649     652.733E+06     101.883E+06              0.     44.5306E+06
           46650     692.779E+06     117.382E+06              0.     51.4620E+06
           46651     739.288E+06     136.421E+06              0.     60.6891E+06
           46652     792.622E+06     160.550E+06              0.     73.4011E+06
           46653     844.867E+06     191.748E+06              0.     89.3430E+06
           46654     887.755E+06     239.529E+06              0.     107.075E+06
           46655     925.952E+06     278.218E+06              0.     142.675E+06
           46656     71.0612E+06     31.1192E+06              0.     80.6993E+03
           46657     71.0402E+06     30.8824E+06              0.     80.5601E+03
           46658     71.1207E+06     30.6948E+06              0.     79.4865E+03
           46659     71.2002E+06     30.5123E+06              0.     78.5736E+03
           46660     71.2790E+06     30.3347E+06              0.     77.8173E+03
           46661     71.3571E+06     30.1618E+06              0.     77.2133E+03
           46662     71.4348E+06     29.9933E+06              0.     76.7577E+03
           46663     71.5121E+06     29.8290E+06              0.     76.4469E+03
           46664     71.5893E+06     29.6686E+06              0.     76.2773E+03
           46665     71.6665E+06     29.5121E+06              0.     76.2457E+03
           46666     71.7437E+06     29.3591E+06              0.     76.3488E+03
           46667     71.8213E+06     29.2094E+06              0.     76.5837E+03
           46668     71.8991E+06     29.0630E+06              0.     76.9476E+03
           46669     71.9775E+06     28.9195E+06              0.     77.4379E+03
           46670     72.0566E+06     28.7787E+06              0.     78.0522E+03
           46671     72.1364E+06     28.6407E+06              0.     78.7881E+03
           46672     72.2171E+06     28.5050E+06              0.     79.6435E+03
           46673     72.2988E+06     28.3716E+06              0.     80.6164E+03
           46674     72.3816E+06     28.2404E+06              0.     81.7049E+03
           46675     72.4657E+06     28.1111E+06              0.     82.9074E+03
           46676     72.5511E+06     27.9836E+06              0.     84.2222E+03
           46677     72.6380E+06     27.8577E+06              0.     85.6480E+03
           46678     72.7265E+06     27.7334E+06              0.     87.1833E+03
           46679     72.8168E+06     27.6104E+06              0.     88.8272E+03
           46680     72.9088E+06     27.4886E+06              0.     90.5784E+03
           46681     73.0027E+06     27.3679E+06              0.     92.4360E+03
           46682     73.0988E+06     27.2482E+06              0.     94.3993E+03
           46683     73.1969E+06     27.1293E+06              0.     96.4675E+03
           46684     73.2973E+06     27.0112E+06              0.     98.6401E+03
           46685     73.4000E+06     26.8936E+06              0.     100.917E+03
           46686     73.5053E+06     26.7764E+06              0.     103.297E+03
           46687     73.6131E+06     26.6597E+06              0.     105.780E+03
           46688     73.7236E+06     26.5431E+06              0.     108.366E+03
           46689     73.8369E+06     26.4267E+06              0.     111.056E+03
           46690     73.9530E+06     26.3103E+06              0.     113.848E+03
           46691     74.0722E+06     26.1937E+06              0.     116.744E+03
           46692     74.1946E+06     26.0770E+06              0.     119.743E+03
           46693     74.3201E+06     25.9600E+06              0.     122.846E+03
           46694     74.4490E+06     25.8426E+06              0.     126.053E+03
           46695     74.5813E+06     25.7247E+06              0.     129.365E+03
           46696     74.7172E+06     25.6062E+06              0.     132.783E+03
           46697     74.8567E+06     25.4871E+06              0.     136.306E+03
           46698     75.0000E+06     25.3671E+06              0.     139.937E+03
           46699     75.1472E+06     25.2463E+06              0.     143.675E+03
           46700     75.2985E+06     25.1245E+06              0.     147.522E+03
           46701     75.4538E+06     25.0016E+06              0.     151.478E+03
           46702     75.6134E+06     24.8776E+06              0.     155.546E+03
           46703     75.7773E+06     24.7524E+06              0.     159.726E+03
           46704     75.9458E+06     24.6259E+06              0.     164.019E+03
           46705     76.1188E+06     24.4980E+06              0.     168.427E+03
           46706     76.2965E+06     24.3687E+06              0.     172.951E+03
           46707     76.4791E+06     24.2377E+06              0.     177.594E+03
           46708     76.6667E+06     24.1052E+06              0.     182.355E+03
           46709     76.8594E+06     23.9709E+06              0.     187.238E+03
           46710     77.0573E+06     23.8349E+06              0.     192.244E+03
           46711     77.2606E+06     23.6970E+06              0.     197.375E+03
           46712     77.4694E+06     23.5571E+06              0.     202.633E+03
           46713     77.6838E+06     23.4153E+06              0.     208.019E+03
           46714     77.9041E+06     23.2713E+06              0.     213.537E+03
           46715     78.1302E+06     23.1252E+06              0.     219.187E+03
           46716     78.3624E+06     22.9768E+06              0.     224.974E+03
           46717     78.6009E+06     22.8262E+06              0.     230.898E+03
           46718     78.8457E+06     22.6732E+06              0.     236.962E+03
           46719     79.0970E+06     22.5177E+06              0.     243.169E+03
           46720     79.3551E+06     22.3597E+06              0.     249.522E+03
           46721     79.6199E+06     22.1992E+06              0.     256.022E+03
           46722     79.8918E+06     22.0360E+06              0.     262.674E+03
           46723     80.1709E+06     21.8701E+06              0.     269.479E+03
           46724     80.4573E+06     21.7014E+06              0.     276.442E+03
           46725     80.7512E+06     21.5298E+06              0.     283.563E+03
           46726     81.0528E+06     21.3554E+06              0.     290.848E+03
           46727     81.3623E+06     21.1779E+06              0.     298.299E+03
           46728     81.6799E+06     20.9974E+06              0.     305.919E+03
           46729     82.0057E+06     20.8139E+06              0.     313.712E+03
           46730     82.3399E+06     20.6271E+06              0.     321.681E+03
           46731     82.6828E+06     20.4372E+06              0.     329.830E+03
           46732     83.0346E+06     20.2439E+06              0.     338.163E+03
           46733     83.3954E+06     20.0474E+06              0.     346.682E+03
           46734     83.7655E+06     19.8474E+06              0.     355.393E+03
           46735     84.1450E+06     19.6439E+06              0.     364.299E+03
           46736     84.5343E+06     19.4370E+06              0.     373.404E+03
           46737     84.9335E+06     19.2265E+06              0.     382.712E+03
           46738     85.3429E+06     19.0123E+06              0.     392.228E+03
           46739     85.7626E+06     18.7945E+06              0.     401.955E+03
           46740     86.1930E+06     18.5730E+06              0.     411.899E+03
           46741     86.6343E+06     18.3476E+06              0.     422.064E+03
           46742     87.0868E+06     18.1185E+06              0.     432.455E+03
           46743     87.5506E+06     17.8855E+06              0.     443.076E+03
           46744     88.0261E+06     17.6485E+06              0.     453.932E+03
           46745     88.5136E+06     17.4076E+06              0.     465.029E+03
           46746     89.0132E+06     17.1627E+06              0.     476.371E+03
           46747     89.5254E+06     16.9137E+06              0.     487.965E+03
           46748     90.0504E+06     16.6606E+06              0.     499.815E+03
           46749     90.5885E+06     16.4034E+06              0.     511.926E+03
           46750     91.1400E+06     16.1420E+06              0.     524.306E+03
           46751     91.7053E+06     15.8764E+06              0.     536.958E+03
           46752     92.2846E+06     15.6066E+06              0.     549.891E+03
           46753     92.8782E+06     15.3326E+06              0.     563.109E+03
           46754     93.4866E+06     15.0542E+06              0.     576.619E+03
           46755     94.1101E+06     14.7715E+06              0.     590.427E+03
           46756     94.7489E+06     14.4845E+06              0.      604.54E+03
           46757     95.4036E+06     14.1931E+06              0.     618.965E+03
           46758     96.0744E+06     13.8974E+06              0.     633.709E+03
           46759     96.7618E+06     13.5973E+06              0.     648.778E+03
           46760     97.4661E+06     13.2928E+06              0.     664.181E+03
           46761     98.1877E+06     12.9838E+06              0.     679.925E+03
           46762     98.9271E+06     12.6705E+06              0.     696.017E+03
           46763     99.6847E+06     12.3528E+06              0.     712.465E+03
           46764     100.461E+06     12.0307E+06              0.     729.278E+03
           46765     101.256E+06     11.7042E+06              0.     746.464E+03
           46766     102.071E+06     11.3734E+06              0.     764.032E+03
           46767     102.906E+06     11.0382E+06              0.     781.990E+03
           46768     103.761E+06     10.6987E+06              0.     800.347E+03
           46769     104.637E+06     10.3549E+06              0.     819.113E+03
           46770     105.535E+06     10.0068E+06              0.     838.298E+03
           46771     106.455E+06     9.65457E+06              0.     857.912E+03
           46772     107.397E+06     9.29816E+06              0.     877.964E+03
           46773     108.363E+06     8.93764E+06              0.     898.465E+03
           46774     109.352E+06     8.57309E+06              0.     919.426E+03
           46775     110.365E+06     8.20458E+06              0.     940.859E+03
           46776     111.404E+06     7.83217E+06              0.     962.775E+03
           46777     112.467E+06     7.45596E+06              0.     985.185E+03
           46778     113.557E+06     7.07605E+06              0.     1.00810E+06
           46779     114.674E+06     6.69254E+06              0.     1.03154E+06
           46780     115.818E+06     6.30555E+06              0.     1.05551E+06
           46781     116.991E+06     5.91519E+06              0.     1.08003E+06
           46782     118.192E+06     5.52162E+06              0.     1.10511E+06
           46783     119.423E+06     5.12496E+06              0.     1.13076E+06
           46784     120.684E+06     4.72539E+06              0.     1.15701E+06
           46785     121.977E+06     4.32307E+06              0.     1.18386E+06
           46786     123.301E+06     3.91818E+06              0.     1.21134E+06
           46787     124.658E+06     3.51094E+06              0.     1.23945E+06
           46788     126.049E+06     3.10153E+06              0.     1.26823E+06
           46789     127.475E+06     2.69021E+06              0.     1.29768E+06
           46790     128.936E+06     2.27720E+06              0.     1.32782E+06
           46791     130.434E+06     1.86278E+06              0.     1.35868E+06
           46792     131.969E+06     1.44721E+06              0.     1.39028E+06
           46793     133.542E+06     1.03080E+06              0.     1.42264E+06
           46794     135.155E+06     613.867E+03              0.     1.45577E+06
           46795     136.809E+06     196.744E+03              0.     1.48971E+06
           46796     138.505E+06    -220.209E+03              0.     1.52448E+06
           46797     140.243E+06    -636.605E+03              0.     1.56011E+06
           46798     142.026E+06    -1.05204E+06              0.     1.59662E+06
           46799     143.854E+06    -1.46608E+06              0.     1.63404E+06
           46800     145.728E+06    -1.87826E+06              0.     1.67240E+06
           46801     147.651E+06    -2.28810E+06              0.     1.71173E+06
           46802     149.623E+06    -2.69507E+06              0.     1.75207E+06
           46803     151.647E+06    -3.09863E+06              0.     1.79345E+06
           46804     153.722E+06    -3.49819E+06              0.     1.83591E+06
           46805     155.852E+06    -3.89313E+06              0.     1.87949E+06
           46806     158.038E+06    -4.28278E+06              0.     1.92423E+06
           46807     160.281E+06    -4.66647E+06              0.     1.97017E+06
           46808     162.583E+06    -5.04343E+06              0.     2.01735E+06
           46809     164.947E+06    -5.41288E+06              0.     2.06584E+06
           46810     167.374E+06    -5.77400E+06              0.     2.11567E+06
           46811     169.865E+06    -6.12590E+06              0.     2.16691E+06
           46812     172.425E+06    -6.46764E+06              0.     2.21961E+06
           46813     175.054E+06    -6.79823E+06              0.     2.27384E+06
           46814     177.755E+06    -7.11661E+06              0.     2.32966E+06
           46815     180.530E+06    -7.42167E+06              0.     2.38715E+06
           46816     183.383E+06    -7.71220E+06              0.     2.44638E+06
           46817     186.315E+06    -7.98697E+06              0.     2.50743E+06
           46818     189.330E+06    -8.24461E+06              0.     2.57039E+06
           46819     192.431E+06    -8.48372E+06              0.     2.63536E+06
           46820     195.621E+06    -8.70278E+06              0.     2.70243E+06
           46821     198.904E+06    -8.90017E+06              0.     2.77172E+06
           46822     202.282E+06    -9.07420E+06              0.     2.84334E+06
           46823     205.761E+06    -9.22303E+06              0.     2.91742E+06
           46824     209.343E+06    -9.34473E+06              0.     2.99411E+06
           46825     213.034E+06    -9.43723E+06              0.     3.07354E+06
           46826     216.837E+06    -9.49832E+06              0.     3.15588E+06
           46827     220.758E+06    -9.52565E+06              0.     3.24131E+06
           46828     224.802E+06    -9.51670E+06              0.     3.33003E+06
           46829     228.975E+06    -9.46879E+06              0.     3.42223E+06
           46830     233.282E+06    -9.37904E+06              0.     3.51816E+06
           46831     237.729E+06    -9.24435E+06              0.     3.61807E+06
           46832     242.325E+06    -9.06143E+06              0.     3.72224E+06
           46833     247.075E+06    -8.82672E+06              0.     3.83097E+06
           46834     251.988E+06    -8.53640E+06              0.     3.94460E+06
           46835     257.074E+06    -8.18635E+06              0.     4.06351E+06
           46836     262.340E+06    -7.77212E+06              0.     4.18812E+06
           46837     267.797E+06    -7.28895E+06              0.     4.31889E+06
           46838     273.456E+06    -6.73160E+06              0.     4.45634E+06
           46839     279.330E+06    -6.09448E+06              0.     4.60106E+06
           46840     285.431E+06    -5.37146E+06              0.     4.75371E+06
           46841     291.775E+06    -4.55587E+06              0.     4.91501E+06
           46842     298.376E+06    -3.64046E+06              0.     5.08581E+06
           46843     305.253E+06    -2.61726E+06              0.     5.26705E+06
           46844     312.425E+06    -1.47754E+06              0.     5.45983E+06
           46845     319.914E+06    -211.702E+03              0.     5.66538E+06
           46846     327.744E+06     1.19088E+06              0.     5.88515E+06
           46847     335.943E+06     2.74195E+06              0.     6.12078E+06
           46848     344.541E+06     4.45459E+06              0.     6.37421E+06
           46849     353.574E+06     6.34342E+06              0.     6.64771E+06
           46850     363.081E+06     8.42481E+06              0.     6.94392E+06
           46851     373.107E+06     10.7173E+06              0.     7.26602E+06
           46852     383.705E+06     13.2418E+06              0.     7.61777E+06
           46853     394.936E+06     16.0222E+06              0.     8.00372E+06
           46854     406.870E+06     19.0860E+06              0.     8.42941E+06
           46855     419.591E+06     22.4651E+06              0.     8.90162E+06
           46856     433.199E+06     26.1965E+06              0.     9.42877E+06
           46857     447.814E+06     30.3239E+06              0.     10.0214E+06
           46858     463.579E+06     34.8994E+06              0.     10.6931E+06
           46859     480.674E+06     39.9858E+06              0.     11.4612E+06
           46860     499.322E+06     45.6598E+06              0.     12.3487E+06
           46861     519.804E+06     52.0167E+06              0.     13.3863E+06
           46862     542.486E+06     59.1774E+06              0.     14.6162E+06
           46863     567.852E+06     67.2982E+06              0.     16.0980E+06
           46864     596.557E+06     76.5876E+06              0.     17.9182E+06
           46865     629.523E+06     87.3326E+06              0.     20.2074E+06
           46866     668.092E+06     99.9446E+06              0.     23.1719E+06
           46867     714.322E+06     115.049E+06              0.     27.1528E+06
           46868     771.529E+06     133.641E+06              0.     32.7752E+06
           46869     845.641E+06     157.587E+06              0.     41.0834E+06
           46870     948.189E+06     190.200E+06              0.     55.5887E+06
           46871     1.04176E+09     235.590E+06              0.     69.4836E+06
           46872     1.12519E+09     308.174E+06              0.     157.829E+06
           46873     71.0628E+06     31.1198E+06              0.     12.6953E-03
           46874     71.0418E+06     30.8830E+06              0.         449.147
           46875     71.1223E+06     30.6953E+06              0.         922.122
           46876     71.2019E+06     30.5127E+06              0.     1.41847E+03
           46877     71.2806E+06     30.3351E+06              0.     1.93773E+03
           46878     71.3588E+06     30.1620E+06              0.     2.47951E+03
           46879     71.4365E+06     29.9935E+06              0.     3.04343E+03
           46880     71.5139E+06     29.8291E+06              0.     3.62918E+03
           46881     71.5911E+06     29.6687E+06              0.     4.23645E+03
           46882     71.6683E+06     29.5121E+06              0.     4.86500E+03
           46883     71.7456E+06     29.3590E+06              0.     5.51458E+03
           46884     71.8232E+06     29.2093E+06              0.     6.18502E+03
           46885     71.9011E+06     29.0628E+06              0.     6.87616E+03
           46886     71.9795E+06     28.9192E+06              0.     7.58788E+03
           46887     72.0586E+06     28.7784E+06              0.     8.32008E+03
           46888     72.1384E+06     28.6403E+06              0.     9.07268E+03
           46889     72.2192E+06     28.5046E+06              0.     9.84568E+03
           46890     72.3009E+06     28.3711E+06              0.     10.6390E+03
           46891     72.3838E+06     28.2398E+06              0.     11.4528E+03
           46892     72.4679E+06     28.1105E+06              0.     12.2870E+03
           46893     72.5533E+06     27.9829E+06              0.     13.1418E+03
           46894     72.6403E+06     27.8570E+06              0.     14.0172E+03
           46895     72.7288E+06     27.7326E+06              0.     14.9133E+03
           46896     72.8191E+06     27.6096E+06              0.     15.8304E+03
           46897     72.9112E+06     27.4877E+06              0.     16.7685E+03
           46898     73.0052E+06     27.3670E+06              0.     17.7280E+03
           46899     73.1012E+06     27.2473E+06              0.     18.7091E+03
           46900     73.1994E+06     27.1283E+06              0.     19.7119E+03
           46901     73.2998E+06     27.0101E+06              0.     20.7368E+03
           46902     73.4026E+06     26.8924E+06              0.     21.7842E+03
           46903     73.5079E+06     26.7753E+06              0.     22.8542E+03
           46904     73.6158E+06     26.6584E+06              0.     23.9474E+03
           46905     73.7263E+06     26.5418E+06              0.     25.0639E+03
           46906     73.8396E+06     26.4253E+06              0.     26.2044E+03
           46907     73.9559E+06     26.3089E+06              0.     27.3691E+03
           46908     74.0751E+06     26.1923E+06              0.     28.5586E+03
           46909     74.1975E+06     26.0756E+06              0.     29.7732E+03
           46910     74.3231E+06     25.9585E+06              0.     31.0136E+03
           46911      74.452E+06     25.8411E+06              0.     32.2801E+03
           46912     74.5844E+06     25.7231E+06              0.     33.5735E+03
           46913     74.7203E+06     25.6046E+06              0.     34.8941E+03
           46914     74.8599E+06     25.4853E+06              0.     36.2426E+03
           46915     75.0033E+06     25.3653E+06              0.     37.6197E+03
           46916     75.1506E+06     25.2444E+06              0.     39.0259E+03
           46917     75.3019E+06     25.1226E+06              0.     40.4618E+03
           46918     75.4573E+06     24.9997E+06              0.     41.9283E+03
           46919     75.6169E+06     24.8756E+06              0.     43.4260E+03
           46920     75.7809E+06     24.7504E+06              0.     44.9555E+03
           46921     75.9495E+06     24.6238E+06              0.     46.5178E+03
           46922     76.1225E+06     24.4959E+06              0.     48.1135E+03
           46923     76.3004E+06     24.3664E+06              0.     49.7434E+03
           46924     76.4831E+06     24.2355E+06              0.     51.4084E+03
           46925     76.6707E+06     24.1029E+06              0.     53.1094E+03
           46926     76.8635E+06     23.9685E+06              0.     54.8471E+03
           46927     77.0615E+06     23.8324E+06              0.     56.6226E+03
           46928     77.2649E+06     23.6945E+06              0.     58.4367E+03
           46929     77.4737E+06     23.5545E+06              0.     60.2904E+03
           46930     77.6883E+06     23.4126E+06              0.     62.1847E+03
           46931     77.9086E+06     23.2686E+06              0.     64.1206E+03
           46932     78.1348E+06     23.1224E+06              0.     66.0992E+03
           46933     78.3672E+06     22.9740E+06              0.     68.1215E+03
           46934     78.6057E+06     22.8233E+06              0.     70.1885E+03
           46935     78.8507E+06     22.6702E+06              0.     72.3016E+03
           46936     79.1021E+06     22.5147E+06              0.     74.4618E+03
           46937     79.3603E+06     22.3566E+06              0.     76.6702E+03
           46938     79.6252E+06     22.1960E+06              0.     78.9282E+03
           46939     79.8972E+06     22.0327E+06              0.     81.2370E+03
           46940     80.1764E+06     21.8667E+06              0.     83.5979E+03
           46941     80.4629E+06     21.6980E+06              0.     86.0122E+03
           46942     80.7570E+06     21.5263E+06              0.     88.4812E+03
           46943     81.0587E+06     21.3518E+06              0.     91.0064E+03
           46944     81.3684E+06     21.1743E+06              0.     93.5892E+03
           46945     81.6861E+06     20.9937E+06              0.     96.2311E+03
           46946     82.0120E+06     20.8101E+06              0.     98.9336E+03
           46947     82.3464E+06     20.6232E+06              0.     101.698E+03
           46948     82.6895E+06     20.4332E+06              0.     104.526E+03
           46949     83.0414E+06     20.2399E+06              0.     107.420E+03
           46950     83.4024E+06     20.0432E+06              0.     110.381E+03
           46951     83.7726E+06     19.8431E+06              0.     113.410E+03
           46952     84.1523E+06     19.6396E+06              0.     116.510E+03
           46953     84.5418E+06     19.4325E+06              0.     119.682E+03
           46954     84.9412E+06     19.2219E+06              0.     122.929E+03
           46955     85.3507E+06     19.0077E+06              0.     126.251E+03
           46956     85.7706E+06     18.7898E+06              0.     129.652E+03
           46957     86.2012E+06     18.5681E+06              0.     133.132E+03
           46958     86.6427E+06     18.3427E+06              0.     136.695E+03
           46959     87.0954E+06     18.1134E+06              0.     140.342E+03
           46960     87.5594E+06     17.8803E+06              0.     144.076E+03
           46961     88.0352E+06     17.6432E+06              0.     147.898E+03
           46962     88.5228E+06     17.4022E+06              0.     151.811E+03
           46963     89.0228E+06     17.1571E+06              0.     155.817E+03
           46964     89.5352E+06     16.9080E+06              0.     159.919E+03
           46965     90.0604E+06     16.6548E+06              0.     164.119E+03
           46966     90.5988E+06     16.3975E+06              0.     168.421E+03
           46967     91.1505E+06     16.1360E+06              0.     172.825E+03
           46968     91.7160E+06     15.8703E+06              0.     177.336E+03
           46969     92.2956E+06     15.6003E+06              0.     181.956E+03
           46970     92.8895E+06     15.3261E+06              0.     186.687E+03
           46971     93.4982E+06     15.0476E+06              0.     191.534E+03
           46972     94.1219E+06     14.7648E+06              0.     196.498E+03
           46973     94.7611E+06     14.4776E+06              0.     201.583E+03
           46974     95.4161E+06     14.1861E+06              0.     206.793E+03
           46975     96.0872E+06     13.8902E+06              0.     212.129E+03
           46976     96.7749E+06     13.5900E+06              0.     217.597E+03
           46977     97.4795E+06     13.2853E+06              0.     223.200E+03
           46978     98.2015E+06     12.9762E+06              0.     228.940E+03
           46979     98.9413E+06     12.6627E+06              0.     234.823E+03
           46980     99.6992E+06     12.3448E+06              0.     240.851E+03
           46981     100.476E+06     12.0226E+06              0.     247.029E+03
           46982     101.271E+06     11.6959E+06              0.     253.361E+03
           46983     102.087E+06     11.3649E+06              0.     259.851E+03
           46984     102.922E+06     11.0295E+06              0.     266.503E+03
           46985     103.778E+06     10.6898E+06              0.     273.323E+03
           46986     104.654E+06     10.3458E+06              0.     280.314E+03
           46987     105.553E+06     9.99754E+06              0.     287.483E+03
           46988     106.473E+06     9.64508E+06              0.     294.832E+03
           46989     107.416E+06     9.28846E+06              0.     302.369E+03
           46990     108.382E+06     8.92773E+06              0.     310.099E+03
           46991     109.371E+06     8.56296E+06              0.     318.026E+03
           46992     110.385E+06     8.19422E+06              0.     326.156E+03
           46993     111.424E+06     7.82159E+06              0.     334.497E+03
           46994     112.488E+06     7.44515E+06              0.     343.053E+03
           46995     113.579E+06     7.06500E+06              0.     351.832E+03
           46996     114.696E+06     6.68125E+06              0.      360.84E+03
           46997     115.841E+06     6.29401E+06              0.     370.084E+03
           46998     117.014E+06     5.90340E+06              0.     379.572E+03
           46999     118.216E+06     5.50956E+06              0.     389.310E+03
           47000     119.447E+06     5.11263E+06              0.     399.307E+03
           47001     120.709E+06     4.71279E+06              0.     409.571E+03
           47002     122.003E+06     4.31018E+06              0.     420.110E+03
           47003     123.328E+06     3.90501E+06              0.     430.934E+03
           47004     124.686E+06     3.49747E+06              0.     442.051E+03
           47005     126.078E+06     3.08776E+06              0.     453.471E+03
           47006     127.504E+06     2.67613E+06              0.     465.205E+03
           47007     128.966E+06     2.26281E+06              0.     477.262E+03
           47008     130.465E+06     1.84805E+06              0.     489.654E+03
           47009     132.001E+06     1.43215E+06              0.     502.393E+03
           47010     133.575E+06     1.01540E+06              0.     515.490E+03
           47011     135.189E+06     598.108E+03              0.     528.958E+03
           47012     136.844E+06     180.622E+03              0.     542.810E+03
           47013     138.540E+06    -236.705E+03              0.     557.060E+03
           47014     140.280E+06    -653.484E+03              0.     571.723E+03
           47015     142.064E+06    -1.06931E+06              0.     586.815E+03
           47016     143.893E+06    -1.48376E+06              0.     602.350E+03
           47017     145.769E+06    -1.89636E+06              0.     618.347E+03
           47018     147.693E+06    -2.30663E+06              0.     634.823E+03
           47019     149.666E+06    -2.71404E+06              0.     651.796E+03
           47020     151.691E+06    -3.11806E+06              0.     669.288E+03
           47021     153.768E+06    -3.51809E+06              0.     687.319E+03
           47022     155.900E+06    -3.91351E+06              0.     705.911E+03
           47023     158.087E+06    -4.30366E+06              0.     725.087E+03
           47024     160.331E+06    -4.68786E+06              0.     744.874E+03
           47025     162.636E+06    -5.06536E+06              0.     765.296E+03
           47026     165.001E+06    -5.43537E+06              0.     786.382E+03
           47027     167.429E+06    -5.79706E+06              0.     808.162E+03
           47028     169.923E+06    -6.14955E+06              0.     830.667E+03
           47029     172.485E+06    -6.49190E+06              0.     853.932E+03
           47030     175.116E+06    -6.82313E+06              0.     877.992E+03
           47031     177.819E+06    -7.14216E+06              0.     902.886E+03
           47032     180.597E+06    -7.44790E+06              0.     928.654E+03
           47033     183.452E+06    -7.73915E+06              0.     955.340E+03
           47034     186.387E+06    -8.01466E+06              0.     982.992E+03
           47035     189.405E+06    -8.27307E+06              0.     1.01166E+06
           47036     192.509E+06    -8.51299E+06              0.     1.04140E+06
           47037     195.702E+06    -8.73288E+06              0.     1.07226E+06
           47038     198.987E+06    -8.93115E+06              0.     1.10432E+06
           47039     202.369E+06    -9.10609E+06              0.     1.13763E+06
           47040     205.851E+06    -9.25588E+06              0.     1.17228E+06
           47041     209.437E+06    -9.37858E+06              0.     1.20833E+06
           47042     213.132E+06    -9.47213E+06              0.     1.24588E+06
           47043     216.940E+06    -9.53432E+06              0.     1.28502E+06
           47044     220.865E+06    -9.56282E+06              0.     1.32585E+06
           47045     224.914E+06    -9.55509E+06              0.     1.36848E+06
           47046     229.092E+06    -9.50847E+06              0.     1.41303E+06
           47047     233.404E+06    -9.42008E+06              0.     1.45963E+06
           47048     237.858E+06    -9.28684E+06              0.     1.50842E+06
           47049     242.460E+06    -9.10546E+06              0.     1.55957E+06
           47050     247.217E+06    -8.87237E+06              0.     1.61324E+06
           47051     252.138E+06    -8.58378E+06              0.     1.66964E+06
           47052     257.231E+06    -8.23557E+06              0.     1.72897E+06
           47053     262.505E+06    -7.82332E+06              0.     1.79146E+06
           47054     267.972E+06    -7.34226E+06              0.     1.85739E+06
           47055     273.642E+06    -6.78718E+06              0.     1.92704E+06
           47056     279.526E+06     -6.1525E+06              0.     2.00074E+06
           47057     285.640E+06    -5.43211E+06              0.     2.07887E+06
           47058     291.996E+06    -4.61937E+06              0.     2.16182E+06
           47059     298.612E+06    -3.70705E+06              0.     2.25009E+06
           47060     305.504E+06    -2.68720E+06              0.     2.34419E+06
           47061     312.694E+06    -1.55115E+06              0.     2.44474E+06
           47062     320.203E+06    -289.331E+03              0.     2.55242E+06
           47063     328.055E+06     1.10884E+06              0.     2.66806E+06
           47064     336.278E+06     2.65502E+06              0.     2.79256E+06
           47065     344.904E+06     4.36227E+06              0.     2.92701E+06
           47066     353.968E+06     6.24507E+06              0.     3.07268E+06
           47067     363.510E+06     8.31974E+06              0.     3.23104E+06
           47068     373.576E+06     10.6046E+06              0.     3.40387E+06
           47069     384.220E+06     13.1205E+06              0.     3.59328E+06
           47070     395.505E+06     15.8912E+06              0.     3.80179E+06
           47071     407.502E+06     18.9439E+06              0.     4.03253E+06
           47072     420.297E+06     22.3101E+06              0.     4.28927E+06
           47073     433.993E+06     26.0265E+06              0.     4.57676E+06
           47074     448.714E+06     30.1364E+06              0.     4.90096E+06
           47075     464.609E+06     34.6911E+06              0.     5.26946E+06
           47076     481.864E+06     39.7526E+06              0.     5.69216E+06
           47077     500.712E+06     45.3965E+06              0.     6.18210E+06
           47078     521.452E+06     51.7164E+06              0.     6.75691E+06
           47079     544.473E+06     58.8311E+06              0.     7.44102E+06
           47080     570.295E+06     66.8939E+06              0.     8.26922E+06
           47081     599.637E+06     76.1089E+06              0.     9.29284E+06
           47082     633.531E+06     86.7569E+06              0.     10.5909E+06
           47083     673.530E+06     99.2423E+06              0.     12.2916E+06
           47084     722.123E+06     114.178E+06              0.     14.6179E+06
           47085     783.729E+06     132.595E+06              0.     17.9870E+06
           47086     866.961E+06     156.258E+06              0.     23.3295E+06
           47087     994.251E+06     189.917E+06              0.     32.7861E+06
           47088     1.30732E+09     248.027E+06              0.     52.2915E+06
           47089     1.60409E+09     356.269E+06              0.     196.290E+06


  Minimum           -90.2552E+06    -41.9861E+06              0.    -196.290E+06
         At Node           23653           23653           47089             217

  Maximum            1.60409E+09     356.269E+06              0.     196.290E+06
         At Node           47089           47089           47089           47089

           Total     3.39524E+12     1.41173E+12              0.         108.253


