********************************************************************************
Field Output Report, written Thu Feb 07 00:12:36 2019

Source 1
---------

   ODB: C:/AbaqusTemp/realSimulation/squarePlateFine_right-unit-parabola.odb
   Step: Step-1
   Frame: Increment      1: Step Time =    1.000

Loc 1 : Nodal values from source 1

Output sorted by column "Node Label".

Field Output reported at nodes for part: PART-1-1
   Computation algorithm: EXTRAPOLATE_COMPUTE_AVERAGE
   Averaged at nodes
   Averaging regions: ODB_REGIONS

      Node Label           S.S11           S.S22           S.S33           S.S12
                          @Loc 1          @Loc 1          @Loc 1          @Loc 1
---------------------------------------------------------------------------------
               1     781.930E+06     241.250E+06              0.     218.126E+06
               2     558.517E+06     29.5251E+06              0.     67.7313E+06
               3     384.473E+06     17.3222E+06              0.     14.4440E+06
               4     313.316E+06     5.42994E+06              0.     9.08338E+06
               5     272.773E+06     4.30091E+06              0.     6.20029E+06
               6     242.109E+06     3.25393E+06              0.     5.54494E+06
               7     217.536E+06     2.77446E+06              0.     5.34767E+06
               8     196.809E+06     2.41214E+06              0.     5.31186E+06
               9     178.890E+06     2.12445E+06              0.     5.27374E+06
              10     163.152E+06     1.87146E+06              0.     5.18673E+06
              11     149.197E+06     1.64072E+06              0.     5.03978E+06
              12     136.750E+06     1.42624E+06              0.     4.83853E+06
              13     125.610E+06     1.22584E+06              0.     4.59423E+06
              14     115.621E+06     1.03881E+06              0.     4.31937E+06
              15     106.657E+06     865.048E+03              0.     4.02555E+06
              16     98.6142E+06     704.595E+03              0.     3.72270E+06
              17     91.4001E+06     557.386E+03              0.     3.41885E+06
              18     84.9356E+06     423.179E+03              0.     3.12018E+06
              19     79.1491E+06     301.522E+03              0.     2.83122E+06
              20     73.9767E+06     191.763E+03              0.     2.55509E+06
              21     69.3600E+06     93.0798E+03              0.     2.29371E+06
              22     65.2461E+06     4.50769E+03              0.     2.04806E+06
              23     61.5868E+06    -75.0223E+03              0.     1.81832E+06
              24     58.3384E+06    -146.656E+03              0.     1.60407E+06
              25     55.4618E+06    -211.591E+03              0.     1.40438E+06
              26     52.9220E+06     -271.06E+03              0.     1.21789E+06
              27     50.6882E+06    -326.317E+03              0.     1.04286E+06
              28     48.7344E+06    -378.632E+03              0.     877.137E+03
              29     47.0393E+06    -429.284E+03              0.     718.118E+03
              30     45.5872E+06    -479.544E+03              0.     562.544E+03
              31     44.3691E+06    -530.632E+03              0.     406.209E+03
              32     43.3851E+06    -583.605E+03              0.     243.371E+03
              33     42.6474E+06    -638.995E+03              0.     65.7056E+03
              34     42.1881E+06    -696.209E+03              0.    -139.875E+03
              35     42.0737E+06    -749.832E+03              0.    -395.088E+03
              36     42.4308E+06    -789.364E+03              0.    -743.424E+03
              37     43.5662E+06    -732.178E+03              0.    -1.26091E+06
              38     46.0503E+06    -538.780E+03              0.    -2.24015E+06
              39     53.0309E+06     1.68732E+06              0.    -3.90135E+06
              40     69.7130E+06     4.86920E+06              0.    -12.0613E+06
              41     96.7615E+06     43.0530E+06              0.    -28.3480E+06
              42     436.687E+06     155.347E+06              0.     145.327E+06
              43     374.947E+06     20.2562E+06              0.     71.5807E+06
              44     354.699E+06     17.8434E+06              0.     45.0244E+06
              45     298.584E+06     7.83918E+06              0.     27.8593E+06
              46     259.852E+06     4.17882E+06              0.     21.2220E+06
              47     230.487E+06     2.46796E+06              0.     17.6542E+06
              48     207.031E+06     1.68115E+06              0.     15.5831E+06
              49     187.484E+06     1.30438E+06              0.     14.1646E+06
              50     170.745E+06     1.12308E+06              0.     13.0628E+06
              51     156.152E+06     1.03400E+06              0.     12.1159E+06
              52     143.280E+06     986.390E+03              0.     11.2493E+06
              53     131.838E+06     954.753E+03              0.     10.4292E+06
              54     121.617E+06     926.517E+03              0.     9.64175E+06
              55     112.461E+06     895.933E+03              0.     8.88309E+06
              56     104.244E+06     860.878E+03              0.     8.15373E+06
              57     96.8649E+06     821.143E+03              0.     7.45588E+06
              58     90.2382E+06     777.463E+03              0.     6.79203E+06
              59     84.2902E+06     730.986E+03              0.     6.16427E+06
              60     78.9562E+06     682.970E+03              0.     5.57396E+06
              61     74.1790E+06     634.627E+03              0.     5.02164E+06
              62     69.9072E+06     587.052E+03              0.     4.50705E+06
              63     66.0950E+06     541.190E+03              0.     4.02917E+06
              64     62.7008E+06     497.853E+03              0.     3.58635E+06
              65     59.6879E+06     457.739E+03              0.     3.17633E+06
              66     57.0234E+06     421.477E+03              0.     2.79630E+06
              67     54.6791E+06     389.684E+03              0.     2.44296E+06
              68     52.6306E+06     363.042E+03              0.     2.11239E+06
              69     50.8588E+06     342.403E+03              0.     1.80002E+06
              70     49.3495E+06     328.955E+03              0.     1.50036E+06
              71     48.0951E+06     324.475E+03              0.     1.20660E+06
              72     47.0958E+06     331.770E+03              0.     909.875E+03
              73     46.3629E+06     355.456E+03              0.     598.076E+03
              74     45.9230E+06     403.439E+03              0.     253.556E+03
              75     45.8265E+06     489.906E+03              0.    -151.033E+03
              76     46.1626E+06     641.791E+03              0.    -661.497E+03
              77     47.0861E+06     913.092E+03              0.    -1.35863E+06
              78     48.8648E+06     1.42299E+06              0.    -2.40950E+06
              79     51.8921E+06     2.40906E+06              0.    -4.11316E+06
              80     56.5285E+06     4.56078E+06              0.    -7.46524E+06
              81     55.4371E+06     5.85591E+06              0.    -12.0142E+06
              82     60.9811E+06     27.3056E+06              0.    -18.7054E+06
              83     306.044E+06     117.076E+06              0.     113.507E+06
              84     284.486E+06     58.4255E+06              0.     89.9117E+06
              85     276.241E+06     22.3039E+06              0.     70.7658E+06
              86     259.039E+06     13.2661E+06              0.     54.2664E+06
              87     233.762E+06     7.73800E+06              0.     43.1358E+06
              88     211.140E+06     5.03893E+06              0.     36.2529E+06
              89     191.563E+06     3.63862E+06              0.     31.5652E+06
              90     174.673E+06     2.91580E+06              0.     28.1334E+06
              91     159.958E+06     2.53481E+06              0.     25.4229E+06
              92     147.015E+06     2.32568E+06              0.     23.1521E+06
              93     135.540E+06     2.19891E+06              0.     21.1650E+06
              94     125.309E+06     2.10754E+06              0.     19.3746E+06
              95     116.150E+06     2.02738E+06              0.     17.7320E+06
              96     107.930E+06     1.94673E+06              0.     16.2093E+06
              97     100.540E+06     1.86078E+06              0.     14.7906E+06
              98     93.8928E+06     1.76841E+06              0.     13.4662E+06
              99     87.9130E+06     1.67048E+06              0.     12.2303E+06
             100     82.5365E+06     1.56875E+06              0.     11.0786E+06
             101     77.7068E+06     1.46533E+06              0.     10.0074E+06
             102     73.3743E+06     1.36232E+06              0.     9.01329E+06
             103     69.4948E+06     1.26168E+06              0.     8.09239E+06
             104     66.0289E+06     1.16518E+06              0.     7.24057E+06
             105     62.9416E+06     1.07436E+06              0.     6.45315E+06
             106     60.2018E+06     990.594E+03              0.     5.72491E+06
             107     57.7823E+06     915.181E+03              0.     5.05000E+06
             108     55.6601E+06     849.432E+03              0.     4.42184E+06
             109     53.8160E+06     794.831E+03              0.     3.83299E+06
             110     52.2351E+06     753.255E+03              0.     3.27480E+06
             111     50.9077E+06     727.294E+03              0.     2.73703E+06
             112     49.8298E+06     720.763E+03              0.     2.20700E+06
             113     49.0043E+06     739.533E+03              0.     1.66845E+06
             114     48.4427E+06     792.957E+03              0.     1.09938E+06
             115     48.1676E+06     896.416E+03              0.     468.674E+03
             116     48.2150E+06     1.07603E+06              0.    -270.011E+03
             117     48.6344E+06     1.37756E+06              0.    -1.18845E+06
             118     49.4792E+06     1.88448E+06              0.    -2.40370E+06
             119     50.7446E+06     2.74659E+06              0.    -4.09662E+06
             120     52.2067E+06     4.27880E+06              0.    -6.57322E+06
             121     52.3081E+06     6.77004E+06              0.    -9.83987E+06
             122     51.7632E+06     13.7938E+06              0.    -13.0687E+06
             123     53.9298E+06     24.0638E+06              0.    -14.6020E+06
             124     223.350E+06     90.9391E+06              0.     95.0490E+06
             125     216.855E+06     62.7455E+06              0.     84.8585E+06
             126     218.123E+06     35.8966E+06              0.     79.4253E+06
             127     211.898E+06     20.4920E+06              0.     68.5771E+06
             128     200.197E+06     13.3274E+06              0.     58.5703E+06
             129     185.775E+06     9.29048E+06              0.     50.6911E+06
             130     171.571E+06     7.05589E+06              0.     44.6757E+06
             131     158.380E+06     5.77793E+06              0.     39.9300E+06
             132     146.402E+06     5.02666E+06              0.     36.0397E+06
             133     135.598E+06     4.56016E+06              0.     32.7291E+06
             134     125.867E+06     4.24443E+06              0.     29.8261E+06
             135     117.100E+06     4.00466E+06              0.     27.2235E+06
             136     109.194E+06     3.79980E+06              0.     24.8543E+06
             137     102.060E+06     3.60812E+06              0.     22.6765E+06
             138     95.6209E+06     3.41908E+06              0.     20.6630E+06
             139     89.8095E+06     3.22851E+06              0.     18.7960E+06
             140     84.5670E+06     3.03583E+06              0.     17.0628E+06
             141     79.8419E+06     2.84235E+06              0.     15.4541E+06
             142     75.5886E+06     2.65027E+06              0.     13.9622E+06
             143     71.7662E+06     2.46215E+06              0.     12.5798E+06
             144     68.3386E+06     2.28054E+06              0.     11.3003E+06
             145     65.2733E+06     2.10787E+06              0.     10.1166E+06
             146     62.5417E+06     1.94640E+06              0.     9.02130E+06
             147     60.1183E+06     1.79824E+06              0.     8.00661E+06
             148     57.9812E+06     1.66551E+06              0.     7.06392E+06
             149     56.1117E+06     1.55043E+06              0.     6.18374E+06
             150     54.4946E+06     1.45562E+06              0.     5.35547E+06
             151     53.1184E+06     1.38443E+06              0.     4.56694E+06
             152     51.9752E+06     1.34145E+06              0.     3.80386E+06
             153     51.0615E+06     1.33334E+06              0.     3.04890E+06
             154     50.3780E+06     1.37014E+06              0.     2.28035E+06
             155     49.9294E+06     1.46730E+06              0.     1.46996E+06
             156     49.7236E+06     1.64934E+06              0.     579.971E+03
             157     49.7666E+06     1.95594E+06              0.    -441.305E+03
             158     50.0512E+06     2.45293E+06              0.    -1.66493E+06
             159     50.5249E+06     3.25046E+06              0.    -3.18287E+06
             160     51.0313E+06     4.54495E+06              0.    -5.09914E+06
             161     51.1384E+06     6.63960E+06              0.    -7.41593E+06
             162     50.6601E+06     10.3966E+06              0.     -9.8247E+06
             163     49.6782E+06     15.9619E+06              0.    -11.3881E+06
             164     50.5603E+06     22.5165E+06              0.    -12.0966E+06
             165     165.584E+06     71.0934E+06              0.     82.3136E+06
             166     164.748E+06     57.4807E+06              0.     78.2072E+06
             167     170.085E+06     40.5822E+06              0.     78.9984E+06
             168     170.112E+06     27.4221E+06              0.     74.1340E+06
             169     165.559E+06     19.1344E+06              0.     67.1669E+06
             170     157.999E+06     14.2683E+06              0.     60.3123E+06
             171     149.005E+06     11.3035E+06              0.     54.2530E+06
             172     139.759E+06     9.47494E+06              0.     49.0383E+06
             173     130.814E+06     8.30729E+06              0.     44.5227E+06
             174     122.414E+06     7.52312E+06              0.     40.5540E+06
             175     114.643E+06     6.95714E+06              0.     37.0100E+06
             176     107.512E+06     6.51204E+06              0.     33.8027E+06
             177     100.999E+06     6.13131E+06              0.     30.8705E+06
             178     95.0655E+06     5.78310E+06              0.     28.1714E+06
             179     89.6725E+06     5.45047E+06              0.     25.6757E+06
             180     84.7788E+06     5.12545E+06              0.     23.3627E+06
             181     80.3452E+06     4.80532E+06              0.     21.2168E+06
             182     76.3354E+06     4.49039E+06              0.     19.2258E+06
             183     72.7158E+06     4.18258E+06              0.     17.3792E+06
             184     69.4557E+06     3.88459E+06              0.     15.6675E+06
             185     66.5272E+06     3.59938E+06              0.     14.0819E+06
             186     63.9052E+06     3.32998E+06              0.     12.6130E+06
             187     61.5673E+06     3.07934E+06              0.     11.2514E+06
             188     59.4936E+06     2.85040E+06              0.     9.98708E+06
             189     57.6668E+06     2.64617E+06              0.     8.80924E+06
             190     56.0721E+06     2.46997E+06              0.     7.70609E+06
             191     54.6975E+06     2.32578E+06              0.     6.66456E+06
             192     53.5332E+06     2.21867E+06              0.     5.66989E+06
             193     52.5719E+06     2.15556E+06              0.     4.70507E+06
             194     51.8085E+06     2.14625E+06              0.     3.75008E+06
             195     51.2388E+06     2.20509E+06              0.     2.78080E+06
             196     50.8582E+06     2.35352E+06              0.     1.76775E+06
             197     50.6579E+06     2.62408E+06              0.     674.699E+03
             198     50.6171E+06     3.06693E+06              0.    -542.040E+03
             199     50.6894E+06     3.75975E+06              0.    -1.93103E+06
             200     50.7812E+06     4.82454E+06              0.    -3.53451E+06
             201     50.7201E+06     6.44307E+06              0.    -5.34868E+06
             202     50.3350E+06     8.91369E+06              0.    -7.24945E+06
             203     49.5351E+06      12.438E+06              0.    -8.89392E+06
             204     48.4086E+06     16.7642E+06              0.    -9.86879E+06
             205     48.9855E+06     21.7783E+06              0.    -10.2434E+06
             206     121.565E+06     54.8186E+06              0.     72.6029E+06
             207     123.582E+06     49.8419E+06              0.     71.4902E+06
             208     130.429E+06     40.2539E+06              0.     75.5267E+06
             209     133.653E+06     30.9737E+06              0.     74.5361E+06
             210     133.436E+06     23.8534E+06              0.     70.6473E+06
             211     130.480E+06     18.9550E+06              0.     65.5779E+06
             212     125.741E+06     15.7040E+06              0.     60.3329E+06
             213     120.065E+06     13.5248E+06              0.     55.3357E+06
             214     114.059E+06     12.0283E+06              0.     50.7152E+06
             215     108.082E+06     10.9542E+06              0.     46.4763E+06
             216     102.332E+06     10.1360E+06              0.     42.5847E+06
             217     96.9093E+06     9.46926E+06              0.     38.9998E+06
             218     91.8581E+06     8.88997E+06              0.     35.6854E+06
             219     87.1912E+06     8.36030E+06              0.     32.6124E+06
             220     82.9037E+06     7.85898E+06              0.     29.7581E+06
             221     78.9815E+06     7.37519E+06              0.     27.1044E+06
             222     75.4058E+06     6.90454E+06              0.     24.6370E+06
             223     72.1561E+06     6.44652E+06              0.     22.3436E+06
             224     69.2114E+06     6.00281E+06              0.     20.2131E+06
             225     66.5512E+06     5.57627E+06              0.     18.2353E+06
             226     64.1563E+06     5.17030E+06              0.     16.3998E+06
             227     62.0087E+06     4.78854E+06              0.     14.6962E+06
             228     60.0922E+06     4.43469E+06              0.     13.1138E+06
             229     58.3920E+06     4.11253E+06              0.     11.6408E+06
             230     56.8951E+06     3.82608E+06              0.     10.2652E+06
             231     55.5903E+06     3.57985E+06              0.     8.97342E+06
             232     54.4678E+06     3.37921E+06              0.     7.75090E+06
             233     53.5191E+06     3.23101E+06              0.     6.58142E+06
             234     52.7366E+06     3.14436E+06              0.     5.44679E+06
             235     52.1128E+06     3.13191E+06              0.      4.3264E+06
             236     51.6388E+06     3.21152E+06              0.     3.19681E+06
             237     51.3018E+06     3.40886E+06              0.     2.03158E+06
             238     51.0809E+06     3.76111E+06              0.     801.832E+03
             239     50.9408E+06     4.32207E+06              0.    -520.997E+03
             240     50.8231E+06     5.16902E+06              0.    -1.95805E+06
             241     50.6386E+06     6.40869E+06              0.    -3.50626E+06
             242     50.2814E+06     8.18201E+06              0.    -5.10944E+06
             243     49.6628E+06     10.6156E+06              0.    -6.62242E+06
             244     48.7673E+06     13.7145E+06              0.    -7.82274E+06
             245     47.6606E+06     17.2172E+06              0.    -8.49634E+06
             246     48.0925E+06     21.3526E+06              0.    -8.74279E+06
             247     86.5141E+06     41.0238E+06              0.     64.6710E+06
             248     90.1125E+06     41.6810E+06              0.     65.1990E+06
             249     97.3646E+06     37.4174E+06              0.     70.8305E+06
             250     102.210E+06     31.9132E+06              0.     72.2659E+06
             251     104.552E+06     26.8159E+06              0.     70.7381E+06
             252     104.675E+06     22.7524E+06              0.     67.4734E+06
             253     103.086E+06     19.7231E+06              0.     63.3817E+06
             254     100.350E+06     17.5050E+06              0.     59.0194E+06
             255     96.9435E+06     15.8577E+06              0.     54.6778E+06
             256     93.2204E+06     14.5923E+06              0.     50.4927E+06
             257     89.4148E+06     13.5728E+06              0.     46.5190E+06
             258      85.674E+06     12.7071E+06              0.     42.7732E+06
             259     82.0855E+06     11.9356E+06              0.     39.2546E+06
             260     78.6981E+06     11.2213E+06              0.     35.9564E+06
             261     75.5362E+06     10.5428E+06              0.     32.8689E+06
             262     72.6088E+06     9.88894E+06              0.     29.9825E+06
             263     69.9154E+06     9.25517E+06              0.     27.2875E+06
             264     67.4503E+06     8.64104E+06              0.     24.7743E+06
             265     65.2043E+06     8.04856E+06              0.     22.4332E+06
             266     63.1669E+06     7.48108E+06              0.     20.2546E+06
             267     61.3269E+06     6.94268E+06              0.     18.2281E+06
             268     59.6734E+06     6.43774E+06              0.     16.3431E+06
             269     58.1958E+06     5.97083E+06              0.     14.5880E+06
             270     56.8843E+06     5.54666E+06              0.     12.9507E+06
             271     55.7297E+06     5.17029E+06              0.     11.4180E+06
             272     54.7239E+06     4.84738E+06              0.     9.97599E+06
             273     53.8590E+06     4.58464E+06              0.     8.60924E+06
             274     53.1276E+06     4.39046E+06              0.     7.30124E+06
             275     52.5218E+06     4.27573E+06              0.     6.03405E+06
             276     52.0323E+06     4.25505E+06              0.     4.78827E+06
             277     51.6468E+06     4.34834E+06              0.     3.54332E+06
             278     51.3478E+06     4.58294E+06              0.     2.27824E+06
             279     51.1092E+06     4.99625E+06              0.     973.755E+03
             280     50.8928E+06     5.63877E+06              0.    -383.473E+03
             281     50.6454E+06     6.57610E+06              0.    -1.79280E+06
             282     50.3021E+06     7.88785E+06              0.    -3.22690E+06
             283     49.7991E+06     9.65207E+06              0.    -4.61643E+06
             284     49.0975E+06     11.9084E+06              0.    -5.84520E+06
             285     48.2038E+06     14.5983E+06              0.    -6.77112E+06
             286     47.1690E+06     17.5316E+06              0.    -7.28540E+06
             287     47.5273E+06     21.0795E+06              0.    -7.46819E+06
             288     57.7835E+06     29.0959E+06              0.     57.8770E+06
             289     62.3510E+06     33.7173E+06              0.     59.3300E+06
             290     69.5200E+06     33.4063E+06              0.     65.6789E+06
             291     75.1300E+06     31.1477E+06              0.     68.5574E+06
             292     78.9779E+06     28.2509E+06              0.     68.6999E+06
             293     81.1187E+06     25.4625E+06              0.     66.9424E+06
             294     81.7975E+06     23.0756E+06              0.     64.0157E+06
             295     81.3491E+06     21.1232E+06              0.     60.4575E+06
             296     80.1101E+06     19.5336E+06              0.     56.6203E+06
             297     78.3663E+06     18.2127E+06              0.     52.7172E+06
             298     76.3358E+06     17.0776E+06              0.     48.8704E+06
             299     74.1746E+06     16.0652E+06              0.     45.1474E+06
             300     71.9885E+06     15.1316E+06              0.     41.5843E+06
             301     69.8469E+06     14.2487E+06              0.     38.1986E+06
             302     67.7935E+06     13.3999E+06              0.     34.9978E+06
             303     65.8542E+06     12.5772E+06              0.     31.9834E+06
             304     64.0433E+06     11.7779E+06              0.     29.1530E+06
             305     62.3669E+06     11.0031E+06              0.     26.5019E+06
             306     60.8264E+06     10.2561E+06              0.     24.0236E+06
             307     59.4200E+06     9.54144E+06              0.     21.7101E+06
             308     58.1437E+06     8.86422E+06              0.     19.5524E+06
             309     56.9929E+06     8.22987E+06              0.     17.5402E+06
             310     55.9622E+06     7.64399E+06              0.     15.6624E+06
             311     55.0463E+06     7.11231E+06              0.     13.9068E+06
             312     54.2396E+06     6.64094E+06              0.     12.2603E+06
             313     53.5366E+06     6.23663E+06              0.     10.7088E+06
             314     52.9316E+06     5.90720E+06              0.     9.23725E+06
             315     52.4181E+06     5.66217E+06              0.     7.82975E+06
             316     51.9884E+06     5.51356E+06              0.     6.46965E+06
             317     51.6326E+06     5.47685E+06              0.     5.13992E+06
             318     51.3371E+06     5.57228E+06              0.     3.82391E+06
             319     51.0833E+06     5.82628E+06              0.     2.50679E+06
             320     50.8454E+06     6.27282E+06              0.     1.17814E+06
             321     50.5896E+06     6.95416E+06              0.    -163.790E+03
             322     50.2748E+06     7.91964E+06              0.    -1.50581E+06
             323     49.8575E+06     9.21933E+06              0.    -2.81239E+06
             324     49.3024E+06     10.8893E+06              0.    -4.02083E+06
             325      48.595E+06     12.9271E+06              0.    -5.04522E+06
             326     47.7495E+06     15.2677E+06              0.    -5.79612E+06
             327     46.8051E+06     17.7806E+06              0.    -6.21227E+06
             328     47.1139E+06     20.8793E+06              0.    -6.36011E+06
             329     33.8061E+06     18.6744E+06              0.     51.8557E+06
             330     39.0003E+06     26.2249E+06              0.     53.8216E+06
             331     45.8758E+06     28.9304E+06              0.     60.3805E+06
             332     51.7869E+06     29.3662E+06              0.     64.0651E+06
             333     56.4987E+06     28.5481E+06              0.     65.3218E+06
             334     59.9515E+06     27.1848E+06              0.     64.7186E+06
             335     62.2311E+06     25.6829E+06              0.     62.8111E+06
             336     63.5154E+06     24.2298E+06              0.     60.0636E+06
             337     64.0175E+06     22.8849E+06              0.     56.8242E+06
             338     63.9437E+06     21.6475E+06              0.     53.3358E+06
             339     63.4707E+06     20.4957E+06              0.     49.7598E+06
             340     62.7382E+06     19.4047E+06              0.     46.2005E+06
             341     61.8508E+06     18.3550E+06              0.     42.7235E+06
             342     60.8838E+06     17.3336E+06              0.     39.3695E+06
             343     59.8904E+06     16.3337E+06              0.     36.1628E+06
             344     58.9063E+06     15.3536E+06              0.     33.1168E+06
             345     57.9556E+06     14.3952E+06              0.     30.2379E+06
             346     57.0535E+06     13.4628E+06              0.     27.5273E+06
             347     56.2091E+06     12.5622E+06              0.     24.9826E+06
             348     55.4278E+06     11.6997E+06              0.     22.5989E+06
             349     54.7119E+06     10.8822E+06              0.     20.3689E+06
             350     54.0620E+06     10.1165E+06              0.     18.2839E+06
             351     53.4773E+06     9.40929E+06              0.     16.3335E+06
             352     52.9564E+06     8.76760E+06              0.     14.5064E+06
             353     52.4971E+06     8.19853E+06              0.     12.7900E+06
             354     52.0963E+06     7.70978E+06              0.     11.1709E+06
             355     51.7503E+06     7.31002E+06              0.       9.635E+06
             356     51.4540E+06     7.00945E+06              0.     8.16771E+06
             357     51.2006E+06     6.82045E+06              0.     6.75433E+06
             358     50.9807E+06     6.75834E+06              0.     5.38072E+06
             359     50.7816E+06     6.84218E+06              0.     4.03430E+06
             360     50.5862E+06     7.09552E+06              0.     2.70569E+06
             361     50.3724E+06     7.54664E+06              0.     1.39121E+06
             362     50.1137E+06     8.22775E+06              0.     96.2094E+03
             363     49.7811E+06     9.17201E+06              0.    -1.16089E+06
             364     49.3480E+06     10.4070E+06              0.    -2.34534E+06
             365     48.7965E+06     11.9435E+06              0.    -3.40589E+06
             366     48.1246E+06     13.7628E+06              0.    -4.28093E+06
             367     47.3485E+06     15.8077E+06              0.    -4.91194E+06
             368     46.4986E+06     17.9884E+06              0.    -5.26087E+06
             369     46.7693E+06     20.7142E+06              0.    -5.38672E+06
             370     13.5640E+06     9.52198E+06              0.     46.3839E+06
             371     19.1815E+06     19.3157E+06              0.     48.6059E+06
             372     25.6828E+06     24.3783E+06              0.     55.0681E+06
             373     31.6425E+06     27.0321E+06              0.     59.1379E+06
             374     36.8275E+06     28.0691E+06              0.     61.0930E+06
             375     41.1227E+06     28.1138E+06              0.     61.3216E+06
             376     44.5210E+06     27.5977E+06              0.     60.2377E+06
             377     47.0953E+06     26.7857E+06              0.     58.2203E+06
             378     48.9642E+06     25.8248E+06              0.     55.5827E+06
             379     50.2617E+06     24.7893E+06              0.     52.5655E+06
             380     51.1161E+06     23.7144E+06              0.     49.3449E+06
             381     51.6385E+06     22.6159E+06              0.     46.0456E+06
             382     51.9198E+06     21.5025E+06              0.     42.7538E+06
             383     52.0308E+06     20.3805E+06              0.     39.5278E+06
             384     52.0250E+06     19.2566E+06              0.     36.4062E+06
             385      51.942E+06     18.1383E+06              0.     33.4135E+06
             386     51.8107E+06     17.0343E+06              0.     30.5645E+06
             387     51.6517E+06     15.9537E+06              0.     27.8666E+06
             388     51.4798E+06     14.9057E+06              0.     25.3223E+06
             389     51.3054E+06     13.8998E+06              0.     22.9297E+06
             390     51.1355E+06     12.9448E+06              0.     20.6843E+06
             391     50.9751E+06     12.0493E+06              0.     18.5792E+06
             392     50.8273E+06     11.2218E+06              0.     16.6054E+06
             393     50.6939E+06     10.4703E+06              0.     14.7529E+06
             394     50.5757E+06     9.80302E+06              0.     13.0102E+06
             395     50.4720E+06     9.22844E+06              0.     11.3651E+06
             396     50.3812E+06     8.75580E+06              0.     9.80480E+06
             397     50.2998E+06     8.39554E+06              0.     8.31652E+06
             398     50.2225E+06     8.15975E+06              0.     6.88781E+06
             399     50.1417E+06     8.06272E+06              0.     5.50739E+06
             400     50.0466E+06     8.12131E+06              0.     4.16630E+06
             401     49.9235E+06     8.35506E+06              0.     2.85940E+06
             402     49.7555E+06     8.78578E+06              0.     1.58737E+06
             403     49.5237E+06     9.43594E+06              0.     359.065E+03
             404     49.2096E+06     10.3255E+06              0.    -806.371E+03
             405     48.7983E+06     11.4664E+06              0.    -1.87850E+06
             406      48.283E+06     12.8560E+06              0.    -2.81720E+06
             407     47.6682E+06     14.4701E+06              0.    -3.57800E+06
             408     46.9703E+06     16.2612E+06              0.    -4.12078E+06
             409     46.2137E+06     18.1653E+06              0.    -4.41889E+06
             410     46.4522E+06     20.5650E+06              0.    -4.52921E+06
             411    -3.63043E+06     1.47753E+06              0.     41.3171E+06
             412     2.27986E+06     13.0325E+06              0.     43.6260E+06
             413     8.38668E+06     19.9707E+06              0.     49.7971E+06
             414     14.2598E+06     24.4504E+06              0.     53.9683E+06
             415     19.6793E+06     27.0985E+06              0.     56.3164E+06
             416     24.5057E+06     28.4524E+06              0.     57.1092E+06
             417     28.6787E+06     28.9277E+06              0.     56.6533E+06
             418     32.2034E+06     28.8205E+06              0.     55.2500E+06
             419     35.1297E+06     28.3293E+06              0.     53.1666E+06
             420     37.5322E+06     27.5822E+06              0.     50.6241E+06
             421     39.4936E+06     26.6610E+06              0.     47.7965E+06
             422     41.0935E+06     25.6190E+06              0.     44.8153E+06
             423     42.4024E+06     24.4930E+06              0.     41.7773E+06
             424     43.4798E+06     23.3104E+06              0.     38.7521E+06
             425     44.3737E+06     22.0933E+06              0.     35.7888E+06
             426     45.1221E+06     20.8605E+06              0.     32.9208E+06
             427     45.7548E+06     19.6289E+06              0.     30.1700E+06
             428     46.2947E+06     18.4138E+06              0.     27.5496E+06
             429     46.7594E+06     17.2292E+06              0.     25.0662E+06
             430     47.1626E+06     16.0880E+06              0.     22.7219E+06
             431     47.5147E+06     15.0019E+06              0.     20.5145E+06
             432     47.8239E+06     13.9818E+06              0.     18.4393E+06
             433     48.0963E+06     13.0376E+06              0.     16.4892E+06
             434     48.3366E+06     12.1790E+06              0.     14.6557E+06
             435     48.5480E+06     11.4149E+06              0.     12.9288E+06
             436     48.7321E+06     10.7548E+06              0.     11.2977E+06
             437     48.8893E+06     10.2080E+06              0.     9.75138E+06
             438     49.0182E+06     9.78493E+06              0.     8.27892E+06
             439     49.1155E+06     9.49689E+06              0.     6.87008E+06
             440     49.1757E+06     9.35656E+06              0.     5.51622E+06
             441     49.1912E+06     9.37804E+06              0.     4.21125E+06
             442     49.1521E+06     9.57656E+06              0.     2.95298E+06
             443     49.0469E+06     9.96766E+06              0.     1.74455E+06
             444     48.8638E+06     10.5655E+06              0.     595.871E+03
             445     48.5923E+06     11.3801E+06              0.    -475.390E+03
             446     48.2261E+06     12.4134E+06              0.    -1.44394E+06
             447     47.7654E+06     13.6554E+06              0.    -2.27880E+06
             448     47.2184E+06     15.0811E+06              0.    -2.94725E+06
             449     46.6009E+06     16.6508E+06              0.    -3.42020E+06
             450     45.9343E+06     18.3161E+06              0.    -3.67698E+06
             451     46.1440E+06     20.4226E+06              0.    -3.77503E+06
             452    -18.2710E+06    -5.57722E+06              0.     36.5570E+06
             453    -12.1533E+06     7.38546E+06              0.     38.8362E+06
             454    -6.42828E+06     15.8361E+06              0.     44.5883E+06
             455    -709.947E+03     21.8217E+06              0.     48.6655E+06
             456     4.79896E+06     25.8487E+06              0.     51.1823E+06
             457     9.95084E+06     28.3776E+06              0.     52.3260E+06
             458     14.6557E+06     29.7934E+06              0.     52.3237E+06
             459     18.8751E+06     30.3975E+06              0.     51.4111E+06
             460     22.6110E+06     30.4149E+06              0.     49.8097E+06
             461     25.8919E+06     30.0088E+06              0.     47.7134E+06
             462     28.7618E+06     29.2960E+06              0.     45.2833E+06
             463     31.2699E+06     28.3612E+06              0.     42.6478E+06
             464     33.4650E+06     27.2670E+06              0.     39.9063E+06
             465     35.3916E+06     26.0611E+06              0.     37.1335E+06
             466     37.0886E+06     24.7815E+06              0.     34.3847E+06
             467     38.5890E+06     23.4593E+06              0.     31.6990E+06
             468     39.9199E+06     22.1205E+06              0.     29.1038E+06
             469     41.1040E+06     20.7875E+06              0.     26.6168E+06
             470     42.1598E+06     19.4799E+06              0.     24.2485E+06
             471     43.1023E+06     18.2146E+06              0.     22.0037E+06
             472     43.9442E+06     17.0067E+06              0.     19.8833E+06
             473     44.6956E+06     15.8694E+06              0.     17.8845E+06
             474     45.3651E+06     14.8148E+06              0.     16.0022E+06
             475     45.9595E+06     13.8537E+06              0.     14.2294E+06
             476     46.4840E+06     12.9964E+06              0.     12.5579E+06
             477     46.9425E+06     12.2525E+06              0.     10.9786E+06
             478     47.3373E+06     11.6319E+06              0.     9.48221E+06
             479     47.6692E+06     11.1443E+06              0.     8.05958E+06
             480     47.9369E+06     10.8001E+06              0.     6.70262E+06
             481     48.1379E+06     10.6102E+06              0.     5.40483E+06
             482     48.2676E+06     10.5856E+06              0.     4.16232E+06
             483     48.3202E+06     10.7375E+06              0.     2.97473E+06
             484     48.2894E+06     11.0759E+06              0.     1.84630E+06
             485     48.1690E+06     11.6084E+06              0.     786.626E+03
             486     47.9551E+06     12.3379E+06              0.    -188.960E+03
             487     47.6473E+06     13.2598E+06              0.    -1.05999E+06
             488     47.2504E+06     14.3603E+06              0.    -1.80252E+06
             489     46.7748E+06     15.6148E+06              0.    -2.39189E+06
             490     46.2366E+06     16.9893E+06              0.    -2.80587E+06
             491     45.6551E+06     18.4441E+06              0.    -3.02723E+06
             492     45.8386E+06     20.2838E+06              0.    -3.11469E+06
             493    -30.7126E+06    -11.7271E+06              0.     32.0337E+06
             494    -24.4475E+06     2.37209E+06              0.     34.2002E+06
             495    -19.0775E+06     12.0515E+06              0.     39.4465E+06
             496    -13.5430E+06     19.2797E+06              0.     43.2921E+06
             497    -8.03080E+06     24.4746E+06              0.     45.8123E+06
             498    -2.68886E+06     28.0336E+06              0.     47.1399E+06
             499     2.37692E+06     30.3079E+06              0.     47.4433E+06
             500     7.10091E+06     31.5913E+06              0.     46.9055E+06
             501     11.4516E+06     32.1196E+06              0.     45.7065E+06
             502     15.4237E+06     32.0768E+06              0.     44.0110E+06
             503     19.0294E+06     31.6047E+06              0.     41.9619E+06
             504     22.2915E+06     30.8122E+06              0.     39.6782E+06
             505     25.2378E+06     29.7840E+06              0.     37.2556E+06
             506     27.8973E+06     28.5861E+06              0.     34.7689E+06
             507     30.2978E+06     27.2718E+06              0.     32.2753E+06
             508     32.4651E+06     25.8842E+06              0.     29.8169E+06
             509     34.4219E+06     24.4589E+06              0.     27.4241E+06
             510     36.1885E+06     23.0259E+06              0.     25.1177E+06
             511     37.7824E+06     21.6106E+06              0.     22.9110E+06
             512     39.2190E+06     20.2344E+06              0.     20.8114E+06
             513     40.5116E+06     18.9159E+06              0.     18.8218E+06
             514     41.6717E+06     17.6711E+06              0.     16.9415E+06
             515     42.7093E+06     16.5141E+06              0.     15.1672E+06
             516     43.6330E+06     15.4572E+06              0.     13.4936E+06
             517     44.4498E+06     14.5116E+06              0.     11.9141E+06
             518     45.1653E+06     13.6876E+06              0.     10.4214E+06
             519     45.7838E+06     12.9950E+06              0.     9.00764E+06
             520     46.3081E+06     12.4431E+06              0.     7.66570E+06
             521     46.7394E+06     12.0410E+06              0.     6.38919E+06
             522     47.0777E+06     11.7976E+06              0.     5.17334E+06
             523     47.3217E+06     11.7214E+06              0.     4.01579E+06
             524     47.4695E+06     11.8197E+06              0.     2.91723E+06
             525     47.5190E+06     12.0981E+06              0.     1.88213E+06
             526     47.4690E+06     12.5590E+06              0.     919.111E+03
             527     47.3204E+06     13.2003E+06              0.     40.9932E+03
             528      47.077E+06     14.0133E+06              0.    -735.867E+03
             529     46.7470E+06     14.9819E+06              0.    -1.39285E+06
             530     46.3425E+06     16.0823E+06              0.    -1.91091E+06
             531     45.8799E+06     17.2837E+06              0.    -2.27239E+06
             532     45.3776E+06     18.5517E+06              0.    -2.46228E+06
             533     45.5371E+06     20.1484E+06              0.    -2.53993E+06
             534    -41.2265E+06    -17.0388E+06              0.     27.6960E+06
             535    -34.8550E+06    -2.01766E+06              0.     29.6892E+06
             536    -29.8035E+06     8.66293E+06              0.     34.3691E+06
             537    -24.4581E+06     16.9139E+06              0.     37.8844E+06
             538    -18.9910E+06     23.0885E+06              0.     40.2856E+06
             539    -13.5469E+06     27.5336E+06              0.     41.6673E+06
             540    -8.23966E+06     30.5690E+06              0.     42.1549E+06
             541    -3.15179E+06     32.4754E+06              0.     41.8897E+06
             542     1.66264E+06     33.4900E+06              0.     41.0155E+06
             543     6.17324E+06     33.8083E+06              0.     39.6689E+06
             544     10.3678E+06     33.5886E+06              0.     37.9729E+06
             545     14.2470E+06     32.9580E+06              0.     36.0330E+06
             546     17.8200E+06     32.0185E+06              0.     33.9372E+06
             547     21.1010E+06     30.8523E+06              0.     31.7563E+06
             548     24.1065E+06     29.5262E+06              0.     29.5459E+06
             549     26.8540E+06     28.0945E+06              0.     27.3483E+06
             550     29.3608E+06     26.6024E+06              0.     25.1949E+06
             551     31.6434E+06     25.0871E+06              0.     23.1080E+06
             552     33.7174E+06     23.5799E+06              0.     21.1023E+06
             553     35.5972E+06     22.1070E+06              0.     19.1871E+06
             554     37.2961E+06     20.6905E+06              0.     17.3668E+06
             555     38.8262E+06     19.3493E+06              0.     15.6423E+06
             556     40.1982E+06     18.0995E+06              0.     14.0120E+06
             557     41.4221E+06     16.9550E+06              0.     12.4722E+06
             558     42.5061E+06     15.9279E+06              0.     11.0176E+06
             559     43.4575E+06     15.0290E+06              0.     9.64263E+06
             560     44.2824E+06     14.2681E+06              0.     8.34110E+06
             561     44.9855E+06     13.6538E+06              0.     7.10730E+06
             562     45.5702E+06     13.1941E+06              0.     5.93638E+06
             563     46.0391E+06     12.8963E+06              0.     4.82493E+06
             564     46.3939E+06     12.7661E+06              0.     3.77159E+06
             565     46.6359E+06     12.8080E+06              0.     2.77756E+06
             566     46.7669E+06     13.0239E+06              0.     1.84705E+06
             567     46.7894E+06     13.4124E+06              0.     987.459E+03
             568     46.7081E+06     13.9676E+06              0.     209.238E+03
             569     46.5302E+06     14.6782E+06              0.    -474.635E+03
             570     46.2660E+06     15.5268E+06              0.    -1.04960E+06
             571     45.9294E+06     16.4898E+06              0.    -1.50066E+06
             572     45.5368E+06     17.5385E+06              0.    -1.81345E+06
             573     45.1072E+06     18.6409E+06              0.    -1.97472E+06
             574     45.2449E+06     20.0183E+06              0.    -2.04288E+06
             575    -50.0127E+06    -21.5609E+06              0.     23.5046E+06
             576    -43.5651E+06    -5.79426E+06              0.     25.2794E+06
             577    -38.7931E+06     5.69840E+06              0.     29.3498E+06
             578    -33.6278E+06     14.7852E+06              0.     32.4633E+06
             579    -28.2296E+06     21.7715E+06              0.     34.6540E+06
             580    -22.7390E+06     26.9647E+06              0.     35.9897E+06
             581    -17.2733E+06     30.6574E+06              0.     36.5638E+06
             582    -11.9252E+06     33.1156E+06              0.     36.4843E+06
             583    -6.76393E+06     34.5737E+06              0.     35.8647E+06
             584    -1.83794E+06     35.2321E+06              0.     34.8157E+06
             585     2.82194E+06     35.2594E+06              0.     33.4398E+06
             586     7.19870E+06     34.7957E+06              0.     31.8278E+06
             587     11.2858E+06     33.9568E+06              0.     30.0570E+06
             588     15.0840E+06     32.8376E+06              0.     28.1913E+06
             589     18.5994E+06     31.5167E+06              0.     26.2822E+06
             590     21.8412E+06     30.0587E+06              0.     24.3697E+06
             591     24.8208E+06     28.5170E+06              0.     22.4841E+06
             592     27.5504E+06     26.9360E+06              0.     20.6476E+06
             593     30.0430E+06     25.3525E+06              0.     18.8755E+06
             594     32.3114E+06     23.7974E+06              0.     17.1776E+06
             595     34.3682E+06     22.2963E+06              0.     15.5596E+06
             596     36.2253E+06     20.8708E+06              0.     14.0234E+06
             597     37.8941E+06     19.5390E+06              0.     12.5685E+06
             598     39.3851E+06     18.3163E+06              0.     11.1927E+06
             599     40.7078E+06     17.2159E+06              0.     9.89218E+06
             600     41.8708E+06     16.2488E+06              0.     8.66250E+06
             601     42.8816E+06     15.4248E+06              0.     7.49901E+06
             602     43.7466E+06     14.7521E+06              0.     6.39732E+06
             603     44.4714E+06     14.2375E+06              0.     5.35379E+06
             604     45.0608E+06     13.8867E+06              0.     4.36602E+06
             605     45.5191E+06     13.7036E+06              0.     3.43331E+06
             606     45.8506E+06     13.6898E+06              0.     2.55700E+06
             607     46.0599E+06     13.8447E+06              0.     1.74081E+06
             608     46.1528E+06     14.1638E+06              0.     990.844E+03
             609     46.1368E+06     14.6388E+06              0.     315.481E+03
             610     46.0215E+06     15.2564E+06              0.    -275.073E+03
             611     45.8192E+06     15.9983E+06              0.    -769.412E+03
             612     45.5448E+06     16.8409E+06              0.    -1.15564E+06
             613     45.2157E+06     17.7564E+06              0.    -1.42195E+06
             614     44.8511E+06     18.7137E+06              0.    -1.55674E+06
             615     44.9694E+06     19.8964E+06              0.    -1.61548E+06
             616    -57.2281E+06    -25.3327E+06              0.     19.4289E+06
             617    -50.7260E+06    -8.96934E+06              0.     20.9513E+06
             618    -46.1912E+06     3.17472E+06              0.     24.3811E+06
             619    -41.1878E+06     12.9352E+06              0.     27.0404E+06
             620    -35.8663E+06     20.5823E+06              0.     28.9522E+06
             621    -30.3627E+06     26.3930E+06              0.     30.1653E+06
             622    -24.7954E+06     30.6375E+06              0.     30.7485E+06
             623    -19.2631E+06     33.5685E+06              0.     30.7834E+06
             624    -13.8454E+06     35.4147E+06              0.     30.3577E+06
             625    -8.60335E+06     36.3781E+06              0.     29.5591E+06
             626    -3.58160E+06     36.6334E+06              0.     28.4704E+06
             627     1.18902E+06     36.3297E+06              0.     27.1667E+06
             628     5.68914E+06     35.5928E+06              0.     25.7134E+06
             629     9.90842E+06     34.5281E+06              0.     24.1656E+06
             630     13.8434E+06     33.2235E+06              0.     22.5684E+06
             631     17.4960E+06     31.7524E+06              0.     20.9577E+06
             632     20.8715E+06     30.1756E+06              0.     19.3612E+06
             633     23.9782E+06     28.5437E+06              0.     17.7993E+06
             634     26.8259E+06     26.8989E+06              0.     16.2869E+06
             635     29.4256E+06     25.2758E+06              0.     14.8336E+06
             636     31.7888E+06     23.7037E+06              0.     13.4452E+06
             637     33.9269E+06     22.2065E+06              0.     12.1246E+06
             638     35.8515E+06     20.8044E+06              0.     10.8721E+06
             639     37.5735E+06     19.5142E+06              0.     9.68629E+06
             640     39.1033E+06     18.3497E+06              0.     8.56465E+06
             641     40.4503E+06     17.3225E+06              0.     7.50393E+06
             642     41.6235E+06     16.4423E+06              0.     6.50066E+06
             643     42.6307E+06     15.7169E+06              0.     5.55154E+06
             644     43.4794E+06     15.1522E+06              0.     4.65393E+06
             645     44.1762E+06     14.7525E+06              0.     3.80616E+06
             646     44.7277E+06     14.5199E+06              0.     3.00793E+06
             647     45.1404E+06     14.4544E+06              0.     2.26053E+06
             648     45.4215E+06     14.5528E+06              0.     1.56705E+06
             649     45.5791E+06     14.8089E+06              0.     932.391E+03
             650     45.6230E+06     15.2122E+06              0.     363.114E+03
             651     45.5647E+06     15.7483E+06              0.    -132.862E+03
             652     45.4179E+06     16.3978E+06              0.    -546.670E+03
             653     45.1987E+06     17.1372E+06              0.    -868.925E+03
             654     44.9251E+06     17.9389E+06              0.    -1.08999E+06
             655     44.6171E+06     18.7718E+06              0.    -1.19997E+06
             656     44.7185E+06     19.7859E+06              0.    -1.24922E+06
             657    -62.9905E+06    -28.3834E+06              0.     15.4429E+06
             658    -56.4497E+06    -11.5528E+06              0.     16.6877E+06
             659    -52.1095E+06     1.10192E+06              0.     19.4545E+06
             660    -47.2437E+06     11.3923E+06              0.     21.6213E+06
             661    -41.9958E+06     19.5629E+06              0.     23.2037E+06
             662    -36.4975E+06     25.8680E+06              0.     24.2362E+06
             663    -30.8670E+06     30.5601E+06              0.     24.7685E+06
             664    -25.2067E+06     33.8800E+06              0.     24.8608E+06
             665    -19.6027E+06     36.0510E+06              0.     24.5789E+06
             666    -14.1250E+06     37.2744E+06              0.     23.9899E+06
             667    -8.82832E+06     37.7283E+06              0.     23.1582E+06
             668    -3.75389E+06     37.5678E+06              0.     22.1432E+06
             669     1.06894E+06     36.9258E+06              0.     20.9974E+06
             670     5.62077E+06     35.9157E+06              0.     19.7659E+06
             671     9.89039E+06     34.6329E+06              0.     18.4861E+06
             672     13.8731E+06     33.1578E+06              0.     17.1883E+06
             673     17.5691E+06     31.5574E+06              0.     15.8961E+06
             674     20.9829E+06     29.8876E+06              0.     14.6274E+06
             675     24.1212E+06     28.1948E+06              0.     13.3950E+06
             676     26.9932E+06     26.5177E+06              0.     12.2079E+06
             677     29.6091E+06     24.8881E+06              0.     11.0716E+06
             678     31.9799E+06     23.3323E+06              0.     9.98897E+06
             679     34.1168E+06     21.8722E+06              0.     8.96085E+06
             680     36.0311E+06     20.5256E+06              0.     7.98663E+06
             681     37.7336E+06     19.3074E+06              0.     7.06462E+06
             682     39.2348E+06     18.2294E+06              0.     6.19255E+06
             683     40.5444E+06     17.3013E+06              0.     5.36791E+06
             684     41.6716E+06     16.5305E+06              0.     4.58835E+06
             685     42.6253E+06     15.9221E+06              0.     3.85199E+06
             686     43.4137E+06     15.4795E+06              0.     3.15771E+06
             687     44.0451E+06     15.2036E+06              0.     2.50542E+06
             688     44.5281E+06     15.0925E+06              0.     1.89623E+06
             689     44.8715E+06     15.1417E+06              0.     1.33260E+06
             690     45.0855E+06     15.3433E+06              0.     818.292E+03
             691     45.1814E+06     15.6856E+06              0.     358.297E+03
             692     45.1723E+06     16.1530E+06              0.    -41.3989E+03
             693     45.0731E+06     16.7257E+06              0.    -374.063E+03
             694     44.9006E+06     17.3797E+06              0.    -632.457E+03
             695     44.6738E+06     18.0872E+06              0.    -808.949E+03
             696     44.4133E+06     18.8169E+06              0.    -895.420E+03
             697     44.5005E+06     19.6902E+06              0.    -935.053E+03
             698    -67.3879E+06    -30.7349E+06              0.     11.5253E+06
             699    -60.8208E+06    -13.5531E+06              0.     12.4739E+06
             700    -56.6320E+06    -514.098E+03              0.     14.5616E+06
             701    -51.8764E+06     10.1759E+06              0.     16.2084E+06
             702    -46.6915E+06     18.7434E+06              0.     17.4245E+06
             703    -41.2063E+06     25.4262E+06              0.     18.2335E+06
             704    -35.5380E+06     30.4634E+06              0.     18.6697E+06
             705    -29.7913E+06     34.0865E+06              0.     18.7757E+06
             706    -24.0562E+06     36.5138E+06              0.     18.5981E+06
             707    -18.4090E+06     37.9453E+06              0.     18.1856E+06
             708    -12.9113E+06     38.5607E+06              0.     17.5852E+06
             709    -7.61194E+06     38.5189E+06              0.     16.8410E+06
             710    -2.54770E+06     37.9578E+06              0.     15.9925E+06
             711     2.25514E+06     36.9964E+06              0.     15.0738E+06
             712     6.77923E+06      35.736E+06              0.     14.1138E+06
             713     11.0147E+06     34.2621E+06              0.     13.1360E+06
             714     14.9576E+06     32.6467E+06              0.     12.1588E+06
             715     18.6088E+06     30.9498E+06              0.     11.1966E+06
             716     21.9730E+06     29.2216E+06              0.     10.2597E+06
             717     25.0574E+06     27.5034E+06              0.     9.35551E+06
             718     27.8710E+06     25.8295E+06              0.     8.48856E+06
             719     30.4242E+06     24.2282E+06              0.     7.66149E+06
             720     32.7281E+06     22.7226E+06              0.     6.87530E+06
             721     34.7939E+06     21.3318E+06              0.     6.12978E+06
             722     36.6329E+06     20.0710E+06              0.     5.42390E+06
             723     38.2561E+06     18.9525E+06              0.     4.75617E+06
             724     39.6740E+06     17.9859E+06              0.     4.12488E+06
             725     40.8969E+06     17.1783E+06              0.     3.52842E+06
             726     41.9345E+06     16.5344E+06              0.     2.96552E+06
             727     42.7965E+06     16.0567E+06              0.     2.43545E+06
             728     43.4924E+06     15.7451E+06              0.     1.93823E+06
             729     44.0323E+06     15.5967E+06              0.     1.47474E+06
             730     44.4264E+06     15.6058E+06              0.     1.04678E+06
             731     44.6863E+06     15.7633E+06              0.     657.098E+03
             732     44.8246E+06     16.0567E+06              0.     309.279E+03
             733     44.8553E+06     16.4696E+06              0.     7.62665E+03
             734     44.7942E+06     16.9815E+06              0.    -242.991E+03
             735     44.6591E+06     17.5684E+06              0.    -437.271E+03
             736     44.4694E+06     18.2020E+06              0.    -569.512E+03
             737     44.2467E+06     18.8504E+06              0.    -633.494E+03
             738     44.3226E+06     19.6122E+06              0.    -663.369E+03
             739    -70.4857E+06    -32.4038E+06              0.     7.65697E+06
             740    -63.9015E+06    -14.9771E+06              0.     8.29629E+06
             741    -59.8207E+06    -1.67007E+06              0.     9.69382E+06
             742    -55.1450E+06     9.29902E+06              0.     10.8016E+06
             743    -50.0082E+06     18.1447E+06              0.     11.6258E+06
             744    -44.5367E+06     25.0936E+06              0.     12.1811E+06
             745    -38.8472E+06     30.3754E+06              0.     12.4891E+06
             746    -33.0452E+06     34.2153E+06              0.     12.5768E+06
             747    -27.2237E+06     36.8274E+06              0.     12.4745E+06
             748    -21.4624E+06     38.4104E+06              0.     12.2134E+06
             749    -15.8279E+06     39.1447E+06              0.     11.8244E+06
             750    -10.3739E+06     39.1914E+06              0.     11.3367E+06
             751    -5.14242E+06     38.6918E+06              0.     10.7765E+06
             752    -164.476E+03     37.7686E+06              0.     10.1667E+06
             753     4.53818E+06     36.5271E+06              0.     9.52697E+06
             754     8.95186E+06     35.0565E+06              0.     8.87323E+06
             755     13.0696E+06     33.4322E+06              0.     8.21827E+06
             756     16.8897E+06     31.7174E+06              0.     7.57194E+06
             757      20.415E+06     29.9647E+06              0.     6.94154E+06
             758     23.6512E+06     28.2178E+06              0.     6.33222E+06
             759     26.6066E+06     26.5127E+06              0.     5.74735E+06
             760     29.2909E+06     24.8790E+06              0.     5.18885E+06
             761     31.7150E+06     23.3409E+06              0.     4.65757E+06
             762     33.8901E+06     21.9181E+06              0.     4.15352E+06
             763     35.8277E+06     20.6264E+06              0.     3.67611E+06
             764     37.5392E+06     19.4784E+06              0.     3.22446E+06
             765     39.0357E+06     18.4837E+06              0.     2.79751E+06
             766     40.3280E+06     17.6491E+06              0.     2.39426E+06
             767     41.4268E+06     16.9790E+06              0.     2.01394E+06
             768     42.3426E+06     16.4752E+06              0.     1.65611E+06
             769     43.0859E+06     16.1371E+06              0.     1.32082E+06
             770     43.6676E+06     15.9611E+06              0.     1.00866E+06
             771     44.0992E+06     15.9405E+06              0.      720.84E+03
             772     44.3929E+06     16.0658E+06              0.     459.127E+03
             773     44.5623E+06     16.3235E+06              0.     225.848E+03
             774     44.6223E+06     16.6967E+06              0.     23.7896E+03
             775     44.5892E+06     17.1649E+06              0.    -143.881E+03
             776     44.4813E+06     17.7033E+06              0.    -273.680E+03
             777     44.3186E+06     18.2837E+06              0.    -361.806E+03
             778     44.1232E+06     18.8735E+06              0.    -404.048E+03
             779     44.1909E+06     19.5546E+06              0.    -424.042E+03
             780    -72.3273E+06    -33.4008E+06              0.     3.82060E+06
             781    -65.7335E+06    -15.8295E+06              0.     4.14230E+06
             782    -61.7176E+06    -2.36422E+06              0.     4.84274E+06
             783    -57.0904E+06     8.76987E+06              0.     5.39953E+06
             784    -51.9835E+06     17.7804E+06              0.     5.81556E+06
             785    -46.5219E+06     24.8874E+06              0.     6.09787E+06
             786    -40.8218E+06     30.3153E+06              0.     6.25695E+06
             787    -34.9893E+06     34.2853E+06              0.     6.30591E+06
             788    -29.1186E+06     37.0088E+06              0.     6.25950E+06
             789    -23.2917E+06     38.6837E+06              0.     6.13313E+06
             790    -17.5777E+06     39.4907E+06              0.     5.94208E+06
             791    -12.0334E+06     39.5920E+06              0.     5.70078E+06
             792    -6.70354E+06     39.1308E+06              0.     5.42236E+06
             793    -1.62223E+06     38.2319E+06              0.     5.11837E+06
             794     3.18625E+06     37.0029E+06              0.     4.79863E+06
             795     7.70593E+06     35.5352E+06              0.     4.47127E+06
             796     11.9279E+06     33.9064E+06              0.     4.14278E+06
             797     15.8491E+06     32.1814E+06              0.     3.81821E+06
             798     19.4708E+06     30.4145E+06              0.     3.50130E+06
             799     22.7982E+06     28.6507E+06              0.     3.19471E+06
             800     25.8389E+06     26.9269E+06              0.     2.90022E+06
             801     28.6021E+06     25.2738E+06              0.     2.61885E+06
             802     31.0987E+06     23.7161E+06              0.     2.35108E+06
             803     33.3397E+06     22.2740E+06              0.     2.09694E+06
             804     35.3369E+06     20.9637E+06              0.     1.85620E+06
             805     37.1019E+06     19.7978E+06              0.     1.62842E+06
             806     38.6460E+06     18.7859E+06              0.     1.41312E+06
             807     39.9805E+06     17.9347E+06              0.     1.20982E+06
             808     41.1165E+06     17.2486E+06              0.     1.01814E+06
             809     42.0651E+06     16.7288E+06              0.     837.895E+03
             810     42.8373E+06     16.3745E+06              0.     669.105E+03
             811     43.4446E+06     16.1814E+06              0.     512.078E+03
             812     43.8991E+06     16.1427E+06              0.     367.405E+03
             813     44.2135E+06     16.2482E+06              0.     235.962E+03
             814     44.4020E+06     16.4842E+06              0.     118.891E+03
             815     44.4798E+06     16.8335E+06              0.     17.5632E+03
             816     44.4638E+06     17.2751E+06              0.    -66.4614E+03
             817     44.3724E+06     17.7844E+06              0.    -131.453E+03
             818     44.2261E+06     18.3326E+06              0.    -175.511E+03
             819     44.0472E+06     18.8870E+06              0.    -196.509E+03
             820     44.1100E+06     19.5192E+06              0.    -206.529E+03
             821    -72.9384E+06    -33.7324E+06              0.              0.
             822    -66.3414E+06    -16.1133E+06              0.              0.
             823    -62.3472E+06    -2.59568E+06              0.              0.
             824    -57.7363E+06     8.59300E+06              0.        62.5E-03
             825    -52.6395E+06     17.6581E+06              0.       -62.5E-03
             826    -47.1815E+06     24.8176E+06              0.              0.
             827    -41.4783E+06     30.2941E+06              0.        62.5E-03
             828    -35.6359E+06     34.3073E+06              0.        125.E-03
             829    -29.7493E+06     37.0682E+06              0.        62.5E-03
             830    -23.9010E+06     38.7739E+06              0.       187.5E-03
             831    -18.1609E+06     39.6053E+06              0.              0.
             832    -12.5869E+06     39.7251E+06              0.              0.
             833    -7.22460E+06     39.2769E+06              0.       -62.5E-03
             834    -2.10911E+06     38.3863E+06              0.              0.
             835     2.73442E+06     37.1616E+06              0.       31.25E-03
             836     7.28927E+06     35.6951E+06              0.       31.25E-03
             837     11.5459E+06     34.0649E+06              0.      -31.25E-03
             838     15.5006E+06     32.3367E+06              0.       31.25E-03
             839     19.1546E+06     30.5651E+06              0.       31.25E-03
             840     22.5124E+06     28.7956E+06              0.              0.
             841     25.5814E+06     27.0657E+06              0.      15.625E-03
             842     28.3711E+06     25.4061E+06              0.      46.875E-03
             843     30.8918E+06     23.8419E+06              0.      15.625E-03
             844     33.1550E+06     22.3934E+06              0.     -15.625E-03
             845     35.1721E+06     21.0768E+06              0.      -31.25E-03
             846     36.9549E+06     19.9049E+06              0.      7.8125E-03
             847     38.5150E+06     18.8872E+06              0.              0.
             848     39.8636E+06     18.0305E+06              0.     -7.8125E-03
             849     41.0122E+06     17.3389E+06              0.              0.
             850     41.9717E+06     16.8138E+06              0.      7.8125E-03
             851     42.7537E+06     16.4539E+06              0.     -7.8125E-03
             852     43.3696E+06     16.2552E+06              0.      7.8125E-03
             853     43.8317E+06     16.2104E+06              0.              0.
             854     44.1532E+06     16.3092E+06              0.    -1.95313E-03
             855     44.3481E+06     16.5379E+06              0.              0.
             856     44.4319E+06     16.8791E+06              0.              0.
             857     44.4216E+06     17.3119E+06              0.              0.
             858     44.3358E+06     17.8114E+06              0.     976.563E-06
             859     44.1950E+06     18.3489E+06              0.    -488.281E-06
             860     44.0216E+06     18.8914E+06              0.              0.
             861     44.0828E+06     19.5073E+06              0.              0.
             862    -72.3273E+06    -33.4008E+06              0.    -3.82060E+06
             863    -65.7335E+06    -15.8295E+06              0.    -4.14230E+06
             864    -61.7176E+06    -2.36422E+06              0.    -4.84274E+06
             865    -57.0904E+06     8.76987E+06              0.    -5.39953E+06
             866    -51.9835E+06     17.7804E+06              0.    -5.81556E+06
             867    -46.5219E+06     24.8874E+06              0.    -6.09787E+06
             868    -40.8218E+06     30.3153E+06              0.    -6.25695E+06
             869    -34.9893E+06     34.2853E+06              0.    -6.30591E+06
             870    -29.1186E+06     37.0088E+06              0.    -6.25950E+06
             871    -23.2917E+06     38.6837E+06              0.    -6.13313E+06
             872    -17.5777E+06     39.4907E+06              0.    -5.94208E+06
             873    -12.0334E+06      39.592E+06              0.    -5.70078E+06
             874    -6.70354E+06     39.1308E+06              0.    -5.42236E+06
             875    -1.62223E+06     38.2319E+06              0.    -5.11837E+06
             876     3.18625E+06     37.0029E+06              0.    -4.79863E+06
             877     7.70593E+06     35.5352E+06              0.    -4.47127E+06
             878     11.9279E+06     33.9064E+06              0.    -4.14278E+06
             879     15.8491E+06     32.1814E+06              0.    -3.81821E+06
             880     19.4708E+06     30.4145E+06              0.    -3.50130E+06
             881     22.7982E+06     28.6507E+06              0.    -3.19471E+06
             882     25.8389E+06     26.9269E+06              0.    -2.90022E+06
             883     28.6021E+06     25.2738E+06              0.    -2.61885E+06
             884     31.0987E+06     23.7161E+06              0.    -2.35108E+06
             885     33.3397E+06     22.2740E+06              0.    -2.09694E+06
             886     35.3369E+06     20.9637E+06              0.    -1.85620E+06
             887     37.1019E+06     19.7978E+06              0.    -1.62842E+06
             888     38.6460E+06     18.7859E+06              0.    -1.41312E+06
             889     39.9805E+06     17.9347E+06              0.    -1.20982E+06
             890     41.1165E+06     17.2486E+06              0.    -1.01814E+06
             891     42.0651E+06     16.7288E+06              0.    -837.895E+03
             892     42.8373E+06     16.3745E+06              0.    -669.105E+03
             893     43.4446E+06     16.1814E+06              0.    -512.078E+03
             894     43.8991E+06     16.1427E+06              0.    -367.405E+03
             895     44.2135E+06     16.2482E+06              0.    -235.962E+03
             896     44.4020E+06     16.4842E+06              0.    -118.891E+03
             897     44.4798E+06     16.8335E+06              0.    -17.5632E+03
             898     44.4638E+06     17.2751E+06              0.     66.4614E+03
             899     44.3724E+06     17.7844E+06              0.     131.453E+03
             900     44.2261E+06     18.3326E+06              0.     175.511E+03
             901     44.0472E+06     18.8870E+06              0.     196.509E+03
             902     44.1100E+06     19.5192E+06              0.     206.529E+03
             903    -70.4857E+06    -32.4038E+06              0.    -7.65697E+06
             904    -63.9015E+06    -14.9771E+06              0.    -8.29629E+06
             905    -59.8207E+06    -1.67007E+06              0.    -9.69382E+06
             906    -55.1450E+06     9.29902E+06              0.    -10.8016E+06
             907    -50.0082E+06     18.1447E+06              0.    -11.6258E+06
             908    -44.5367E+06     25.0936E+06              0.    -12.1811E+06
             909    -38.8472E+06     30.3754E+06              0.    -12.4891E+06
             910    -33.0452E+06     34.2153E+06              0.    -12.5768E+06
             911    -27.2237E+06     36.8274E+06              0.    -12.4745E+06
             912    -21.4624E+06     38.4104E+06              0.    -12.2134E+06
             913    -15.8279E+06     39.1447E+06              0.    -11.8244E+06
             914    -10.3739E+06     39.1914E+06              0.    -11.3367E+06
             915    -5.14242E+06     38.6918E+06              0.    -10.7765E+06
             916    -164.476E+03     37.7686E+06              0.    -10.1667E+06
             917     4.53818E+06     36.5271E+06              0.    -9.52697E+06
             918     8.95186E+06     35.0565E+06              0.    -8.87323E+06
             919     13.0696E+06     33.4322E+06              0.    -8.21827E+06
             920     16.8897E+06     31.7174E+06              0.    -7.57194E+06
             921      20.415E+06     29.9647E+06              0.    -6.94154E+06
             922     23.6512E+06     28.2178E+06              0.    -6.33222E+06
             923     26.6066E+06     26.5127E+06              0.    -5.74735E+06
             924     29.2909E+06     24.8790E+06              0.    -5.18885E+06
             925     31.7150E+06     23.3409E+06              0.    -4.65757E+06
             926     33.8901E+06     21.9181E+06              0.    -4.15352E+06
             927     35.8277E+06     20.6264E+06              0.    -3.67611E+06
             928     37.5392E+06     19.4784E+06              0.    -3.22446E+06
             929     39.0356E+06     18.4837E+06              0.    -2.79751E+06
             930     40.3280E+06     17.6491E+06              0.    -2.39426E+06
             931     41.4268E+06     16.9790E+06              0.    -2.01394E+06
             932     42.3426E+06     16.4752E+06              0.    -1.65611E+06
             933     43.0859E+06     16.1371E+06              0.    -1.32082E+06
             934     43.6676E+06     15.9611E+06              0.    -1.00866E+06
             935     44.0992E+06     15.9405E+06              0.     -720.84E+03
             936     44.3929E+06     16.0658E+06              0.    -459.127E+03
             937     44.5623E+06     16.3235E+06              0.    -225.848E+03
             938     44.6223E+06     16.6967E+06              0.    -23.7896E+03
             939     44.5892E+06     17.1649E+06              0.     143.881E+03
             940     44.4813E+06     17.7033E+06              0.     273.680E+03
             941     44.3186E+06     18.2837E+06              0.     361.806E+03
             942     44.1232E+06     18.8735E+06              0.     404.048E+03
             943     44.1909E+06     19.5546E+06              0.     424.042E+03
             944    -67.3879E+06    -30.7349E+06              0.    -11.5253E+06
             945    -60.8208E+06    -13.5531E+06              0.    -12.4739E+06
             946    -56.6320E+06    -514.098E+03              0.    -14.5616E+06
             947    -51.8764E+06     10.1759E+06              0.    -16.2084E+06
             948    -46.6915E+06     18.7434E+06              0.    -17.4245E+06
             949    -41.2063E+06     25.4262E+06              0.    -18.2335E+06
             950    -35.5380E+06     30.4634E+06              0.    -18.6697E+06
             951    -29.7913E+06     34.0865E+06              0.    -18.7757E+06
             952    -24.0562E+06     36.5138E+06              0.    -18.5981E+06
             953    -18.4090E+06     37.9453E+06              0.    -18.1856E+06
             954    -12.9113E+06     38.5607E+06              0.    -17.5852E+06
             955    -7.61194E+06     38.5189E+06              0.    -16.8410E+06
             956    -2.54770E+06     37.9578E+06              0.    -15.9925E+06
             957     2.25514E+06     36.9964E+06              0.    -15.0738E+06
             958     6.77923E+06     35.7360E+06              0.    -14.1138E+06
             959     11.0147E+06     34.2621E+06              0.    -13.1360E+06
             960     14.9576E+06     32.6467E+06              0.    -12.1588E+06
             961     18.6088E+06     30.9498E+06              0.    -11.1966E+06
             962     21.9730E+06     29.2216E+06              0.    -10.2597E+06
             963     25.0574E+06     27.5034E+06              0.    -9.35551E+06
             964     27.8710E+06     25.8295E+06              0.    -8.48856E+06
             965     30.4242E+06     24.2282E+06              0.    -7.66149E+06
             966     32.7281E+06     22.7226E+06              0.    -6.87530E+06
             967     34.7939E+06     21.3318E+06              0.    -6.12978E+06
             968     36.6329E+06     20.0710E+06              0.    -5.42390E+06
             969     38.2561E+06     18.9525E+06              0.    -4.75617E+06
             970     39.6740E+06     17.9859E+06              0.    -4.12488E+06
             971     40.8969E+06     17.1783E+06              0.    -3.52842E+06
             972     41.9345E+06     16.5344E+06              0.    -2.96552E+06
             973     42.7965E+06     16.0567E+06              0.    -2.43545E+06
             974     43.4924E+06     15.7451E+06              0.    -1.93823E+06
             975     44.0323E+06     15.5967E+06              0.    -1.47474E+06
             976     44.4264E+06     15.6058E+06              0.    -1.04678E+06
             977     44.6863E+06     15.7633E+06              0.    -657.098E+03
             978     44.8246E+06     16.0567E+06              0.    -309.279E+03
             979     44.8553E+06     16.4696E+06              0.    -7.62665E+03
             980     44.7942E+06     16.9815E+06              0.     242.991E+03
             981     44.6591E+06     17.5684E+06              0.     437.271E+03
             982     44.4694E+06     18.2020E+06              0.     569.512E+03
             983     44.2467E+06     18.8504E+06              0.     633.494E+03
             984     44.3226E+06     19.6122E+06              0.     663.369E+03
             985    -62.9904E+06    -28.3834E+06              0.    -15.4429E+06
             986    -56.4498E+06    -11.5528E+06              0.    -16.6877E+06
             987    -52.1095E+06     1.10192E+06              0.    -19.4545E+06
             988    -47.2437E+06     11.3923E+06              0.    -21.6213E+06
             989    -41.9958E+06     19.5629E+06              0.    -23.2037E+06
             990    -36.4975E+06     25.8680E+06              0.    -24.2362E+06
             991    -30.8670E+06     30.5601E+06              0.    -24.7685E+06
             992    -25.2067E+06     33.8800E+06              0.    -24.8608E+06
             993    -19.6027E+06     36.0510E+06              0.    -24.5789E+06
             994    -14.1250E+06     37.2744E+06              0.    -23.9899E+06
             995    -8.82832E+06     37.7283E+06              0.    -23.1582E+06
             996    -3.75389E+06     37.5678E+06              0.    -22.1432E+06
             997     1.06894E+06     36.9258E+06              0.    -20.9974E+06
             998     5.62077E+06     35.9157E+06              0.    -19.7659E+06
             999     9.89039E+06     34.6329E+06              0.    -18.4861E+06
            1000     13.8731E+06     33.1578E+06              0.    -17.1883E+06
            1001     17.5691E+06     31.5574E+06              0.    -15.8961E+06
            1002     20.9829E+06     29.8876E+06              0.    -14.6274E+06
            1003     24.1212E+06     28.1948E+06              0.    -13.3950E+06
            1004     26.9932E+06     26.5177E+06              0.    -12.2079E+06
            1005     29.6091E+06     24.8881E+06              0.    -11.0716E+06
            1006     31.9799E+06     23.3323E+06              0.    -9.98897E+06
            1007     34.1168E+06     21.8722E+06              0.    -8.96085E+06
            1008     36.0311E+06     20.5256E+06              0.    -7.98663E+06
            1009     37.7336E+06     19.3074E+06              0.    -7.06462E+06
            1010     39.2348E+06     18.2294E+06              0.    -6.19255E+06
            1011     40.5444E+06     17.3013E+06              0.    -5.36791E+06
            1012     41.6716E+06     16.5305E+06              0.    -4.58835E+06
            1013     42.6253E+06     15.9221E+06              0.    -3.85199E+06
            1014     43.4137E+06     15.4795E+06              0.    -3.15771E+06
            1015     44.0451E+06     15.2036E+06              0.    -2.50542E+06
            1016     44.5281E+06     15.0925E+06              0.    -1.89623E+06
            1017     44.8715E+06     15.1417E+06              0.    -1.33260E+06
            1018     45.0855E+06     15.3433E+06              0.    -818.292E+03
            1019     45.1814E+06     15.6856E+06              0.    -358.297E+03
            1020     45.1723E+06     16.1530E+06              0.     41.3989E+03
            1021     45.0731E+06     16.7257E+06              0.     374.063E+03
            1022     44.9006E+06     17.3797E+06              0.     632.457E+03
            1023     44.6738E+06     18.0872E+06              0.     808.949E+03
            1024     44.4133E+06     18.8169E+06              0.     895.420E+03
            1025     44.5005E+06     19.6902E+06              0.     935.053E+03
            1026    -57.2281E+06    -25.3327E+06              0.    -19.4289E+06
            1027    -50.7260E+06    -8.96934E+06              0.    -20.9513E+06
            1028    -46.1912E+06     3.17472E+06              0.    -24.3811E+06
            1029    -41.1878E+06     12.9352E+06              0.    -27.0404E+06
            1030    -35.8663E+06     20.5823E+06              0.    -28.9522E+06
            1031    -30.3627E+06     26.3930E+06              0.    -30.1653E+06
            1032    -24.7954E+06     30.6375E+06              0.    -30.7485E+06
            1033    -19.2631E+06     33.5685E+06              0.    -30.7834E+06
            1034    -13.8454E+06     35.4147E+06              0.    -30.3577E+06
            1035    -8.60335E+06     36.3781E+06              0.    -29.5591E+06
            1036    -3.58160E+06     36.6334E+06              0.    -28.4704E+06
            1037     1.18902E+06     36.3297E+06              0.    -27.1667E+06
            1038     5.68914E+06     35.5928E+06              0.    -25.7134E+06
            1039     9.90842E+06     34.5281E+06              0.    -24.1656E+06
            1040     13.8434E+06     33.2235E+06              0.    -22.5684E+06
            1041     17.4960E+06     31.7524E+06              0.    -20.9577E+06
            1042     20.8715E+06     30.1756E+06              0.    -19.3612E+06
            1043     23.9782E+06     28.5437E+06              0.    -17.7993E+06
            1044     26.8259E+06     26.8989E+06              0.    -16.2869E+06
            1045     29.4256E+06     25.2758E+06              0.    -14.8336E+06
            1046     31.7888E+06     23.7037E+06              0.    -13.4452E+06
            1047     33.9269E+06     22.2065E+06              0.    -12.1246E+06
            1048     35.8515E+06     20.8044E+06              0.    -10.8721E+06
            1049     37.5735E+06     19.5142E+06              0.    -9.68629E+06
            1050     39.1033E+06     18.3497E+06              0.    -8.56465E+06
            1051     40.4503E+06     17.3225E+06              0.    -7.50393E+06
            1052     41.6235E+06     16.4423E+06              0.    -6.50066E+06
            1053     42.6307E+06     15.7169E+06              0.    -5.55154E+06
            1054     43.4794E+06     15.1522E+06              0.    -4.65393E+06
            1055     44.1762E+06     14.7525E+06              0.    -3.80616E+06
            1056     44.7277E+06     14.5199E+06              0.    -3.00793E+06
            1057     45.1404E+06     14.4544E+06              0.    -2.26053E+06
            1058     45.4215E+06     14.5528E+06              0.    -1.56705E+06
            1059     45.5791E+06     14.8089E+06              0.    -932.391E+03
            1060     45.6230E+06     15.2122E+06              0.    -363.114E+03
            1061     45.5647E+06     15.7483E+06              0.     132.862E+03
            1062     45.4179E+06     16.3978E+06              0.     546.670E+03
            1063     45.1987E+06     17.1372E+06              0.     868.925E+03
            1064     44.9251E+06     17.9389E+06              0.     1.08999E+06
            1065     44.6171E+06     18.7718E+06              0.     1.19997E+06
            1066     44.7185E+06     19.7859E+06              0.     1.24922E+06
            1067    -50.0127E+06    -21.5609E+06              0.    -23.5046E+06
            1068    -43.5651E+06    -5.79426E+06              0.    -25.2794E+06
            1069    -38.7931E+06     5.69840E+06              0.    -29.3498E+06
            1070    -33.6278E+06     14.7852E+06              0.    -32.4633E+06
            1071    -28.2296E+06     21.7715E+06              0.    -34.6540E+06
            1072    -22.7390E+06     26.9647E+06              0.    -35.9897E+06
            1073    -17.2733E+06     30.6574E+06              0.    -36.5638E+06
            1074    -11.9252E+06     33.1156E+06              0.    -36.4843E+06
            1075    -6.76393E+06     34.5737E+06              0.    -35.8647E+06
            1076    -1.83794E+06     35.2321E+06              0.    -34.8157E+06
            1077     2.82194E+06     35.2594E+06              0.    -33.4398E+06
            1078     7.19870E+06     34.7957E+06              0.    -31.8278E+06
            1079     11.2858E+06     33.9568E+06              0.    -30.0570E+06
            1080     15.0840E+06     32.8376E+06              0.    -28.1913E+06
            1081     18.5994E+06     31.5167E+06              0.    -26.2822E+06
            1082     21.8412E+06     30.0587E+06              0.    -24.3697E+06
            1083     24.8208E+06     28.5170E+06              0.    -22.4841E+06
            1084     27.5504E+06     26.9360E+06              0.    -20.6476E+06
            1085     30.0430E+06     25.3525E+06              0.    -18.8755E+06
            1086     32.3114E+06     23.7974E+06              0.    -17.1776E+06
            1087     34.3682E+06     22.2963E+06              0.    -15.5596E+06
            1088     36.2253E+06     20.8708E+06              0.    -14.0234E+06
            1089     37.8941E+06     19.5390E+06              0.    -12.5685E+06
            1090     39.3851E+06     18.3163E+06              0.    -11.1927E+06
            1091     40.7078E+06     17.2159E+06              0.    -9.89218E+06
            1092     41.8708E+06     16.2488E+06              0.    -8.66250E+06
            1093     42.8816E+06     15.4248E+06              0.    -7.49901E+06
            1094     43.7466E+06     14.7521E+06              0.    -6.39732E+06
            1095     44.4714E+06     14.2375E+06              0.    -5.35379E+06
            1096     45.0608E+06     13.8867E+06              0.    -4.36602E+06
            1097     45.5191E+06     13.7036E+06              0.    -3.43331E+06
            1098     45.8506E+06     13.6898E+06              0.    -2.55700E+06
            1099     46.0599E+06     13.8447E+06              0.    -1.74081E+06
            1100     46.1528E+06     14.1638E+06              0.    -990.844E+03
            1101     46.1368E+06     14.6388E+06              0.    -315.481E+03
            1102     46.0215E+06     15.2564E+06              0.     275.072E+03
            1103     45.8192E+06     15.9983E+06              0.     769.412E+03
            1104     45.5448E+06     16.8409E+06              0.     1.15564E+06
            1105     45.2157E+06     17.7564E+06              0.     1.42195E+06
            1106     44.8511E+06     18.7137E+06              0.     1.55674E+06
            1107     44.9694E+06     19.8964E+06              0.     1.61548E+06
            1108    -41.2265E+06    -17.0388E+06              0.    -27.6960E+06
            1109    -34.8550E+06    -2.01766E+06              0.    -29.6892E+06
            1110    -29.8035E+06     8.66293E+06              0.    -34.3691E+06
            1111    -24.4581E+06     16.9139E+06              0.    -37.8844E+06
            1112    -18.9910E+06     23.0885E+06              0.    -40.2856E+06
            1113    -13.5469E+06     27.5336E+06              0.    -41.6673E+06
            1114    -8.23967E+06     30.5690E+06              0.    -42.1549E+06
            1115    -3.15179E+06     32.4754E+06              0.    -41.8897E+06
            1116     1.66264E+06     33.4900E+06              0.    -41.0155E+06
            1117     6.17324E+06     33.8083E+06              0.    -39.6689E+06
            1118     10.3678E+06     33.5886E+06              0.    -37.9729E+06
            1119     14.2470E+06     32.9580E+06              0.    -36.0330E+06
            1120     17.8200E+06     32.0185E+06              0.    -33.9372E+06
            1121     21.1010E+06     30.8523E+06              0.    -31.7563E+06
            1122     24.1065E+06     29.5262E+06              0.    -29.5459E+06
            1123     26.8540E+06     28.0945E+06              0.    -27.3483E+06
            1124     29.3608E+06     26.6024E+06              0.    -25.1949E+06
            1125     31.6434E+06     25.0871E+06              0.    -23.1080E+06
            1126     33.7174E+06     23.5799E+06              0.    -21.1023E+06
            1127     35.5972E+06     22.1070E+06              0.    -19.1871E+06
            1128     37.2961E+06     20.6905E+06              0.    -17.3668E+06
            1129     38.8262E+06     19.3493E+06              0.    -15.6423E+06
            1130     40.1982E+06     18.0995E+06              0.    -14.0120E+06
            1131     41.4221E+06     16.9550E+06              0.    -12.4722E+06
            1132     42.5061E+06     15.9279E+06              0.    -11.0176E+06
            1133     43.4576E+06     15.0290E+06              0.    -9.64263E+06
            1134     44.2825E+06     14.2681E+06              0.    -8.34110E+06
            1135     44.9855E+06     13.6538E+06              0.    -7.10730E+06
            1136     45.5702E+06     13.1941E+06              0.    -5.93638E+06
            1137     46.0391E+06     12.8963E+06              0.    -4.82493E+06
            1138     46.3939E+06     12.7661E+06              0.    -3.77159E+06
            1139     46.6359E+06     12.8080E+06              0.    -2.77756E+06
            1140     46.7669E+06     13.0239E+06              0.    -1.84705E+06
            1141     46.7894E+06     13.4124E+06              0.    -987.459E+03
            1142     46.7081E+06     13.9676E+06              0.    -209.238E+03
            1143     46.5302E+06     14.6782E+06              0.     474.635E+03
            1144     46.2660E+06     15.5268E+06              0.     1.04960E+06
            1145     45.9294E+06     16.4898E+06              0.     1.50066E+06
            1146     45.5368E+06     17.5385E+06              0.     1.81345E+06
            1147     45.1072E+06     18.6409E+06              0.     1.97472E+06
            1148     45.2449E+06     20.0183E+06              0.     2.04288E+06
            1149    -30.7126E+06    -11.7271E+06              0.    -32.0337E+06
            1150    -24.4475E+06     2.37209E+06              0.    -34.2002E+06
            1151    -19.0775E+06     12.0515E+06              0.    -39.4465E+06
            1152    -13.5430E+06     19.2797E+06              0.    -43.2921E+06
            1153    -8.03080E+06     24.4746E+06              0.    -45.8124E+06
            1154    -2.68886E+06     28.0336E+06              0.    -47.1399E+06
            1155     2.37692E+06     30.3079E+06              0.    -47.4433E+06
            1156     7.10092E+06     31.5913E+06              0.    -46.9055E+06
            1157     11.4516E+06     32.1196E+06              0.    -45.7065E+06
            1158     15.4237E+06     32.0768E+06              0.    -44.0110E+06
            1159     19.0294E+06     31.6047E+06              0.    -41.9619E+06
            1160     22.2915E+06     30.8122E+06              0.    -39.6782E+06
            1161     25.2378E+06     29.7840E+06              0.    -37.2556E+06
            1162     27.8973E+06     28.5861E+06              0.    -34.7689E+06
            1163     30.2978E+06     27.2718E+06              0.    -32.2753E+06
            1164     32.4651E+06     25.8842E+06              0.    -29.8169E+06
            1165     34.4219E+06     24.4589E+06              0.    -27.4241E+06
            1166     36.1885E+06     23.0259E+06              0.    -25.1177E+06
            1167     37.7824E+06     21.6106E+06              0.    -22.9110E+06
            1168     39.2190E+06     20.2344E+06              0.    -20.8114E+06
            1169     40.5116E+06     18.9159E+06              0.    -18.8218E+06
            1170     41.6717E+06     17.6711E+06              0.    -16.9415E+06
            1171     42.7093E+06     16.5141E+06              0.    -15.1672E+06
            1172     43.6330E+06     15.4572E+06              0.    -13.4936E+06
            1173     44.4498E+06     14.5116E+06              0.    -11.9141E+06
            1174     45.1653E+06     13.6876E+06              0.    -10.4214E+06
            1175     45.7838E+06     12.9950E+06              0.    -9.00764E+06
            1176     46.3081E+06     12.4431E+06              0.    -7.66570E+06
            1177     46.7394E+06     12.0410E+06              0.    -6.38919E+06
            1178     47.0777E+06     11.7976E+06              0.    -5.17334E+06
            1179     47.3217E+06     11.7214E+06              0.    -4.01579E+06
            1180     47.4695E+06     11.8197E+06              0.    -2.91723E+06
            1181     47.5190E+06     12.0981E+06              0.    -1.88213E+06
            1182     47.4690E+06     12.5590E+06              0.    -919.111E+03
            1183     47.3204E+06     13.2003E+06              0.    -40.9932E+03
            1184      47.077E+06     14.0133E+06              0.     735.867E+03
            1185     46.7470E+06     14.9819E+06              0.     1.39285E+06
            1186     46.3425E+06     16.0823E+06              0.     1.91091E+06
            1187     45.8799E+06     17.2837E+06              0.     2.27239E+06
            1188     45.3776E+06     18.5517E+06              0.     2.46228E+06
            1189     45.5371E+06     20.1484E+06              0.     2.53993E+06
            1190    -18.2710E+06    -5.57722E+06              0.    -36.5570E+06
            1191    -12.1533E+06     7.38546E+06              0.    -38.8362E+06
            1192    -6.42828E+06     15.8361E+06              0.    -44.5883E+06
            1193    -709.947E+03     21.8217E+06              0.    -48.6655E+06
            1194     4.79897E+06     25.8487E+06              0.    -51.1823E+06
            1195     9.95084E+06     28.3776E+06              0.    -52.3260E+06
            1196     14.6557E+06     29.7934E+06              0.    -52.3237E+06
            1197     18.8751E+06     30.3975E+06              0.    -51.4110E+06
            1198     22.6110E+06     30.4149E+06              0.    -49.8097E+06
            1199     25.8919E+06     30.0088E+06              0.    -47.7134E+06
            1200     28.7618E+06     29.2960E+06              0.    -45.2833E+06
            1201     31.2699E+06     28.3612E+06              0.    -42.6478E+06
            1202     33.4650E+06     27.2670E+06              0.    -39.9063E+06
            1203     35.3916E+06     26.0611E+06              0.    -37.1335E+06
            1204     37.0886E+06     24.7815E+06              0.    -34.3847E+06
            1205     38.5890E+06     23.4593E+06              0.    -31.6990E+06
            1206     39.9199E+06     22.1205E+06              0.    -29.1038E+06
            1207     41.1040E+06     20.7875E+06              0.    -26.6168E+06
            1208     42.1598E+06     19.4799E+06              0.    -24.2485E+06
            1209     43.1023E+06     18.2146E+06              0.    -22.0037E+06
            1210     43.9442E+06     17.0067E+06              0.    -19.8833E+06
            1211     44.6956E+06     15.8694E+06              0.    -17.8845E+06
            1212     45.3651E+06     14.8148E+06              0.    -16.0022E+06
            1213     45.9595E+06     13.8537E+06              0.    -14.2294E+06
            1214     46.4840E+06     12.9964E+06              0.    -12.5579E+06
            1215     46.9425E+06     12.2525E+06              0.    -10.9786E+06
            1216     47.3373E+06     11.6319E+06              0.    -9.48221E+06
            1217     47.6692E+06     11.1443E+06              0.    -8.05958E+06
            1218     47.9369E+06     10.8001E+06              0.    -6.70262E+06
            1219     48.1379E+06     10.6102E+06              0.    -5.40483E+06
            1220     48.2676E+06     10.5856E+06              0.    -4.16232E+06
            1221     48.3202E+06     10.7375E+06              0.    -2.97473E+06
            1222     48.2894E+06     11.0759E+06              0.    -1.84630E+06
            1223     48.1690E+06     11.6084E+06              0.    -786.626E+03
            1224     47.9551E+06     12.3379E+06              0.     188.960E+03
            1225     47.6473E+06     13.2598E+06              0.     1.05999E+06
            1226     47.2504E+06     14.3603E+06              0.     1.80252E+06
            1227     46.7748E+06     15.6148E+06              0.     2.39189E+06
            1228     46.2366E+06     16.9893E+06              0.     2.80587E+06
            1229     45.6551E+06     18.4441E+06              0.     3.02723E+06
            1230     45.8385E+06     20.2838E+06              0.     3.11469E+06
            1231    -3.63044E+06     1.47753E+06              0.    -41.3171E+06
            1232     2.27986E+06     13.0325E+06              0.     -43.626E+06
            1233     8.38668E+06     19.9707E+06              0.    -49.7971E+06
            1234     14.2598E+06     24.4504E+06              0.    -53.9683E+06
            1235     19.6793E+06     27.0985E+06              0.    -56.3164E+06
            1236     24.5057E+06     28.4524E+06              0.    -57.1092E+06
            1237     28.6787E+06     28.9277E+06              0.    -56.6533E+06
            1238     32.2034E+06     28.8205E+06              0.    -55.2500E+06
            1239     35.1297E+06     28.3293E+06              0.    -53.1666E+06
            1240     37.5322E+06     27.5822E+06              0.    -50.6241E+06
            1241     39.4936E+06     26.6610E+06              0.    -47.7965E+06
            1242     41.0935E+06     25.6190E+06              0.    -44.8153E+06
            1243     42.4024E+06     24.4930E+06              0.    -41.7773E+06
            1244     43.4798E+06     23.3104E+06              0.    -38.7521E+06
            1245     44.3737E+06     22.0933E+06              0.    -35.7888E+06
            1246     45.1221E+06     20.8605E+06              0.    -32.9208E+06
            1247     45.7548E+06     19.6289E+06              0.    -30.1700E+06
            1248     46.2947E+06     18.4138E+06              0.    -27.5496E+06
            1249     46.7594E+06     17.2292E+06              0.    -25.0662E+06
            1250     47.1626E+06     16.0880E+06              0.    -22.7219E+06
            1251     47.5147E+06     15.0019E+06              0.    -20.5145E+06
            1252     47.8239E+06     13.9818E+06              0.    -18.4393E+06
            1253     48.0963E+06     13.0376E+06              0.    -16.4892E+06
            1254     48.3366E+06     12.1790E+06              0.    -14.6557E+06
            1255     48.5479E+06     11.4149E+06              0.    -12.9288E+06
            1256     48.7321E+06     10.7548E+06              0.    -11.2977E+06
            1257     48.8893E+06     10.2080E+06              0.    -9.75138E+06
            1258     49.0182E+06     9.78493E+06              0.    -8.27892E+06
            1259     49.1155E+06     9.49689E+06              0.    -6.87008E+06
            1260     49.1757E+06     9.35656E+06              0.    -5.51621E+06
            1261     49.1912E+06     9.37804E+06              0.    -4.21125E+06
            1262     49.1521E+06     9.57656E+06              0.    -2.95298E+06
            1263     49.0469E+06     9.96766E+06              0.    -1.74455E+06
            1264     48.8638E+06     10.5655E+06              0.    -595.871E+03
            1265     48.5923E+06     11.3801E+06              0.     475.390E+03
            1266     48.2261E+06     12.4134E+06              0.     1.44394E+06
            1267     47.7654E+06     13.6554E+06              0.     2.27880E+06
            1268     47.2184E+06     15.0811E+06              0.     2.94725E+06
            1269     46.6009E+06     16.6508E+06              0.     3.42020E+06
            1270     45.9343E+06     18.3161E+06              0.     3.67698E+06
            1271     46.1440E+06     20.4226E+06              0.     3.77503E+06
            1272     13.5640E+06     9.52198E+06              0.    -46.3839E+06
            1273     19.1815E+06     19.3157E+06              0.    -48.6059E+06
            1274     25.6828E+06     24.3783E+06              0.    -55.0681E+06
            1275     31.6425E+06     27.0321E+06              0.    -59.1379E+06
            1276     36.8275E+06     28.0691E+06              0.    -61.0930E+06
            1277     41.1227E+06     28.1138E+06              0.    -61.3216E+06
            1278     44.5210E+06     27.5977E+06              0.    -60.2376E+06
            1279     47.0953E+06     26.7857E+06              0.    -58.2203E+06
            1280     48.9642E+06     25.8248E+06              0.    -55.5827E+06
            1281     50.2617E+06     24.7893E+06              0.    -52.5655E+06
            1282     51.1161E+06     23.7144E+06              0.    -49.3449E+06
            1283     51.6385E+06     22.6159E+06              0.    -46.0456E+06
            1284     51.9198E+06     21.5025E+06              0.    -42.7538E+06
            1285     52.0308E+06     20.3805E+06              0.    -39.5278E+06
            1286     52.0250E+06     19.2566E+06              0.    -36.4062E+06
            1287      51.942E+06     18.1383E+06              0.    -33.4135E+06
            1288     51.8107E+06     17.0343E+06              0.    -30.5645E+06
            1289     51.6517E+06     15.9537E+06              0.    -27.8666E+06
            1290     51.4799E+06     14.9057E+06              0.    -25.3223E+06
            1291     51.3054E+06     13.8998E+06              0.    -22.9297E+06
            1292     51.1355E+06     12.9448E+06              0.    -20.6843E+06
            1293     50.9751E+06     12.0493E+06              0.    -18.5792E+06
            1294     50.8273E+06     11.2218E+06              0.    -16.6054E+06
            1295     50.6939E+06     10.4703E+06              0.    -14.7529E+06
            1296     50.5757E+06     9.80302E+06              0.    -13.0102E+06
            1297     50.4720E+06     9.22844E+06              0.    -11.3651E+06
            1298     50.3812E+06     8.75580E+06              0.    -9.80479E+06
            1299     50.2998E+06     8.39554E+06              0.    -8.31652E+06
            1300     50.2225E+06     8.15975E+06              0.    -6.88781E+06
            1301     50.1417E+06     8.06272E+06              0.    -5.50739E+06
            1302     50.0466E+06     8.12131E+06              0.    -4.16630E+06
            1303     49.9235E+06     8.35506E+06              0.    -2.85940E+06
            1304     49.7555E+06     8.78578E+06              0.    -1.58737E+06
            1305     49.5237E+06     9.43594E+06              0.    -359.065E+03
            1306     49.2096E+06     10.3255E+06              0.     806.371E+03
            1307     48.7983E+06     11.4664E+06              0.     1.87850E+06
            1308      48.283E+06     12.8560E+06              0.     2.81720E+06
            1309     47.6682E+06     14.4701E+06              0.     3.57800E+06
            1310     46.9703E+06     16.2612E+06              0.     4.12078E+06
            1311     46.2137E+06     18.1653E+06              0.     4.41889E+06
            1312     46.4522E+06     20.5650E+06              0.     4.52921E+06
            1313     33.8061E+06     18.6744E+06              0.    -51.8557E+06
            1314     39.0003E+06     26.2249E+06              0.    -53.8216E+06
            1315     45.8758E+06     28.9304E+06              0.    -60.3805E+06
            1316     51.7869E+06     29.3662E+06              0.    -64.0651E+06
            1317     56.4987E+06     28.5481E+06              0.    -65.3219E+06
            1318     59.9515E+06     27.1848E+06              0.    -64.7186E+06
            1319     62.2311E+06     25.6829E+06              0.    -62.8111E+06
            1320     63.5154E+06     24.2298E+06              0.    -60.0636E+06
            1321     64.0175E+06     22.8849E+06              0.    -56.8242E+06
            1322     63.9437E+06     21.6475E+06              0.    -53.3358E+06
            1323     63.4707E+06     20.4957E+06              0.    -49.7598E+06
            1324     62.7382E+06     19.4047E+06              0.    -46.2005E+06
            1325     61.8507E+06     18.3550E+06              0.    -42.7235E+06
            1326     60.8838E+06     17.3336E+06              0.    -39.3695E+06
            1327     59.8904E+06     16.3337E+06              0.    -36.1628E+06
            1328     58.9063E+06     15.3536E+06              0.    -33.1168E+06
            1329     57.9556E+06     14.3952E+06              0.    -30.2379E+06
            1330     57.0535E+06     13.4628E+06              0.    -27.5273E+06
            1331     56.2091E+06     12.5622E+06              0.    -24.9826E+06
            1332     55.4278E+06     11.6997E+06              0.    -22.5989E+06
            1333     54.7119E+06     10.8822E+06              0.    -20.3689E+06
            1334     54.0620E+06     10.1165E+06              0.    -18.2839E+06
            1335     53.4773E+06     9.40929E+06              0.    -16.3335E+06
            1336     52.9564E+06     8.76760E+06              0.    -14.5064E+06
            1337     52.4971E+06     8.19853E+06              0.    -12.7900E+06
            1338     52.0963E+06     7.70978E+06              0.    -11.1709E+06
            1339     51.7503E+06     7.31002E+06              0.      -9.635E+06
            1340     51.4540E+06     7.00945E+06              0.    -8.16771E+06
            1341     51.2006E+06     6.82045E+06              0.    -6.75433E+06
            1342     50.9807E+06     6.75834E+06              0.    -5.38072E+06
            1343     50.7816E+06     6.84218E+06              0.    -4.03430E+06
            1344     50.5862E+06     7.09552E+06              0.    -2.70569E+06
            1345     50.3724E+06     7.54664E+06              0.    -1.39121E+06
            1346     50.1137E+06     8.22775E+06              0.    -96.2093E+03
            1347     49.7811E+06     9.17201E+06              0.     1.16089E+06
            1348     49.3480E+06     10.4070E+06              0.     2.34534E+06
            1349     48.7965E+06     11.9435E+06              0.     3.40589E+06
            1350     48.1246E+06     13.7628E+06              0.     4.28093E+06
            1351     47.3485E+06     15.8077E+06              0.     4.91194E+06
            1352     46.4986E+06     17.9884E+06              0.     5.26087E+06
            1353     46.7693E+06     20.7142E+06              0.     5.38672E+06
            1354     57.7835E+06     29.0959E+06              0.    -57.8770E+06
            1355     62.3510E+06     33.7173E+06              0.    -59.3300E+06
            1356     69.5200E+06     33.4063E+06              0.    -65.6789E+06
            1357     75.1300E+06     31.1477E+06              0.    -68.5574E+06
            1358     78.9779E+06     28.2509E+06              0.    -68.6999E+06
            1359     81.1187E+06     25.4625E+06              0.    -66.9424E+06
            1360     81.7975E+06     23.0756E+06              0.    -64.0157E+06
            1361     81.3491E+06     21.1232E+06              0.    -60.4575E+06
            1362     80.1101E+06     19.5336E+06              0.    -56.6203E+06
            1363     78.3663E+06     18.2127E+06              0.    -52.7172E+06
            1364     76.3358E+06     17.0776E+06              0.    -48.8704E+06
            1365     74.1746E+06     16.0652E+06              0.    -45.1474E+06
            1366     71.9885E+06     15.1316E+06              0.    -41.5843E+06
            1367     69.8469E+06     14.2487E+06              0.    -38.1986E+06
            1368     67.7935E+06     13.3999E+06              0.    -34.9978E+06
            1369     65.8542E+06     12.5772E+06              0.    -31.9834E+06
            1370     64.0433E+06     11.7779E+06              0.    -29.1530E+06
            1371     62.3669E+06     11.0031E+06              0.    -26.5019E+06
            1372     60.8264E+06     10.2561E+06              0.    -24.0236E+06
            1373     59.4200E+06     9.54144E+06              0.    -21.7101E+06
            1374     58.1437E+06     8.86422E+06              0.    -19.5524E+06
            1375     56.9929E+06     8.22987E+06              0.    -17.5402E+06
            1376     55.9622E+06     7.64399E+06              0.    -15.6624E+06
            1377     55.0463E+06     7.11231E+06              0.    -13.9068E+06
            1378     54.2396E+06     6.64094E+06              0.    -12.2603E+06
            1379     53.5366E+06     6.23663E+06              0.    -10.7088E+06
            1380     52.9316E+06     5.90720E+06              0.    -9.23725E+06
            1381     52.4181E+06     5.66217E+06              0.    -7.82975E+06
            1382     51.9884E+06     5.51356E+06              0.    -6.46965E+06
            1383     51.6326E+06     5.47685E+06              0.    -5.13992E+06
            1384     51.3371E+06     5.57228E+06              0.    -3.82391E+06
            1385     51.0833E+06     5.82628E+06              0.    -2.50679E+06
            1386     50.8454E+06     6.27282E+06              0.    -1.17814E+06
            1387     50.5896E+06     6.95416E+06              0.      163.79E+03
            1388     50.2748E+06     7.91964E+06              0.     1.50581E+06
            1389     49.8575E+06     9.21933E+06              0.     2.81239E+06
            1390     49.3024E+06     10.8893E+06              0.     4.02083E+06
            1391      48.595E+06     12.9271E+06              0.     5.04522E+06
            1392     47.7495E+06     15.2677E+06              0.     5.79612E+06
            1393     46.8051E+06     17.7806E+06              0.     6.21227E+06
            1394     47.1139E+06     20.8793E+06              0.     6.36011E+06
            1395     86.5141E+06     41.0238E+06              0.    -64.6710E+06
            1396     90.1125E+06     41.6810E+06              0.    -65.1990E+06
            1397     97.3646E+06     37.4174E+06              0.    -70.8305E+06
            1398     102.210E+06     31.9132E+06              0.    -72.2659E+06
            1399     104.552E+06     26.8159E+06              0.    -70.7381E+06
            1400     104.675E+06     22.7524E+06              0.    -67.4734E+06
            1401     103.086E+06     19.7231E+06              0.    -63.3817E+06
            1402     100.350E+06     17.5050E+06              0.    -59.0194E+06
            1403     96.9435E+06     15.8577E+06              0.    -54.6778E+06
            1404     93.2204E+06     14.5923E+06              0.    -50.4927E+06
            1405     89.4148E+06     13.5728E+06              0.    -46.5190E+06
            1406     85.6740E+06     12.7071E+06              0.    -42.7732E+06
            1407     82.0855E+06     11.9356E+06              0.    -39.2546E+06
            1408     78.6981E+06     11.2213E+06              0.    -35.9564E+06
            1409     75.5362E+06     10.5428E+06              0.    -32.8689E+06
            1410     72.6088E+06     9.88894E+06              0.    -29.9825E+06
            1411     69.9154E+06     9.25517E+06              0.    -27.2875E+06
            1412     67.4503E+06     8.64104E+06              0.    -24.7743E+06
            1413     65.2043E+06     8.04856E+06              0.    -22.4332E+06
            1414     63.1669E+06     7.48108E+06              0.    -20.2546E+06
            1415     61.3269E+06     6.94268E+06              0.    -18.2281E+06
            1416     59.6735E+06     6.43774E+06              0.    -16.3431E+06
            1417     58.1958E+06     5.97083E+06              0.    -14.5880E+06
            1418     56.8843E+06     5.54666E+06              0.    -12.9507E+06
            1419     55.7297E+06     5.17029E+06              0.    -11.4180E+06
            1420     54.7239E+06     4.84738E+06              0.    -9.97599E+06
            1421     53.8590E+06     4.58464E+06              0.    -8.60924E+06
            1422     53.1276E+06     4.39046E+06              0.    -7.30124E+06
            1423     52.5218E+06     4.27573E+06              0.    -6.03405E+06
            1424     52.0323E+06     4.25505E+06              0.    -4.78827E+06
            1425     51.6468E+06     4.34834E+06              0.    -3.54332E+06
            1426     51.3478E+06     4.58294E+06              0.    -2.27824E+06
            1427     51.1092E+06     4.99625E+06              0.    -973.755E+03
            1428     50.8928E+06     5.63877E+06              0.     383.473E+03
            1429     50.6454E+06     6.57610E+06              0.     1.79280E+06
            1430     50.3021E+06     7.88785E+06              0.     3.22690E+06
            1431     49.7991E+06     9.65207E+06              0.     4.61643E+06
            1432     49.0975E+06     11.9084E+06              0.     5.84520E+06
            1433     48.2038E+06     14.5983E+06              0.     6.77112E+06
            1434     47.1690E+06     17.5316E+06              0.     7.28540E+06
            1435     47.5273E+06     21.0795E+06              0.     7.46819E+06
            1436     121.565E+06     54.8186E+06              0.    -72.6029E+06
            1437     123.582E+06     49.8419E+06              0.    -71.4902E+06
            1438     130.429E+06     40.2539E+06              0.    -75.5267E+06
            1439     133.653E+06     30.9737E+06              0.    -74.5361E+06
            1440     133.436E+06     23.8534E+06              0.    -70.6473E+06
            1441     130.480E+06     18.9550E+06              0.    -65.5779E+06
            1442     125.741E+06     15.7040E+06              0.    -60.3329E+06
            1443     120.065E+06     13.5248E+06              0.    -55.3357E+06
            1444     114.059E+06     12.0283E+06              0.    -50.7152E+06
            1445     108.082E+06     10.9542E+06              0.    -46.4763E+06
            1446     102.332E+06     10.1360E+06              0.    -42.5847E+06
            1447     96.9093E+06     9.46926E+06              0.    -38.9998E+06
            1448     91.8581E+06     8.88997E+06              0.    -35.6854E+06
            1449     87.1912E+06     8.36030E+06              0.    -32.6124E+06
            1450     82.9037E+06     7.85898E+06              0.    -29.7581E+06
            1451     78.9815E+06     7.37519E+06              0.    -27.1044E+06
            1452     75.4058E+06     6.90454E+06              0.    -24.6370E+06
            1453     72.1561E+06     6.44652E+06              0.    -22.3436E+06
            1454     69.2114E+06     6.00281E+06              0.    -20.2131E+06
            1455     66.5512E+06     5.57627E+06              0.    -18.2353E+06
            1456     64.1563E+06     5.17030E+06              0.    -16.3998E+06
            1457     62.0087E+06     4.78854E+06              0.    -14.6962E+06
            1458     60.0922E+06     4.43469E+06              0.    -13.1138E+06
            1459     58.3920E+06     4.11253E+06              0.    -11.6408E+06
            1460     56.8951E+06     3.82608E+06              0.    -10.2652E+06
            1461     55.5903E+06     3.57985E+06              0.    -8.97342E+06
            1462     54.4678E+06     3.37921E+06              0.    -7.75090E+06
            1463     53.5191E+06     3.23101E+06              0.    -6.58142E+06
            1464     52.7366E+06     3.14436E+06              0.    -5.44679E+06
            1465     52.1128E+06     3.13191E+06              0.     -4.3264E+06
            1466     51.6388E+06     3.21152E+06              0.    -3.19681E+06
            1467     51.3018E+06     3.40886E+06              0.    -2.03158E+06
            1468     51.0809E+06     3.76111E+06              0.    -801.832E+03
            1469     50.9408E+06     4.32207E+06              0.     520.997E+03
            1470     50.8231E+06     5.16902E+06              0.     1.95805E+06
            1471     50.6386E+06     6.40869E+06              0.     3.50626E+06
            1472     50.2814E+06     8.18201E+06              0.     5.10944E+06
            1473     49.6628E+06     10.6156E+06              0.     6.62242E+06
            1474     48.7673E+06     13.7145E+06              0.     7.82274E+06
            1475     47.6606E+06     17.2172E+06              0.     8.49634E+06
            1476     48.0925E+06     21.3526E+06              0.     8.74279E+06
            1477     165.584E+06     71.0934E+06              0.    -82.3136E+06
            1478     164.748E+06     57.4807E+06              0.    -78.2072E+06
            1479     170.085E+06     40.5822E+06              0.    -78.9984E+06
            1480     170.112E+06     27.4221E+06              0.    -74.1340E+06
            1481     165.559E+06     19.1344E+06              0.    -67.1669E+06
            1482     157.999E+06     14.2683E+06              0.    -60.3123E+06
            1483     149.005E+06     11.3035E+06              0.    -54.2530E+06
            1484     139.759E+06     9.47494E+06              0.    -49.0383E+06
            1485     130.814E+06     8.30729E+06              0.    -44.5227E+06
            1486     122.414E+06     7.52312E+06              0.    -40.5540E+06
            1487     114.643E+06     6.95714E+06              0.    -37.0100E+06
            1488     107.512E+06     6.51204E+06              0.    -33.8027E+06
            1489     100.999E+06     6.13131E+06              0.    -30.8705E+06
            1490     95.0655E+06     5.78310E+06              0.    -28.1714E+06
            1491     89.6725E+06     5.45047E+06              0.    -25.6757E+06
            1492     84.7788E+06     5.12545E+06              0.    -23.3627E+06
            1493     80.3452E+06     4.80532E+06              0.    -21.2168E+06
            1494     76.3354E+06     4.49039E+06              0.    -19.2258E+06
            1495     72.7158E+06     4.18258E+06              0.    -17.3792E+06
            1496     69.4557E+06     3.88459E+06              0.    -15.6675E+06
            1497     66.5272E+06     3.59938E+06              0.    -14.0819E+06
            1498     63.9052E+06     3.32998E+06              0.    -12.6130E+06
            1499     61.5673E+06     3.07934E+06              0.    -11.2514E+06
            1500     59.4936E+06     2.85040E+06              0.    -9.98707E+06
            1501     57.6668E+06     2.64617E+06              0.    -8.80924E+06
            1502     56.0721E+06     2.46997E+06              0.    -7.70609E+06
            1503     54.6975E+06     2.32578E+06              0.    -6.66456E+06
            1504     53.5332E+06     2.21867E+06              0.    -5.66989E+06
            1505     52.5719E+06     2.15556E+06              0.    -4.70507E+06
            1506     51.8085E+06     2.14625E+06              0.    -3.75008E+06
            1507     51.2388E+06     2.20509E+06              0.    -2.78080E+06
            1508     50.8582E+06     2.35352E+06              0.    -1.76775E+06
            1509     50.6579E+06     2.62408E+06              0.    -674.699E+03
            1510     50.6171E+06     3.06693E+06              0.     542.040E+03
            1511     50.6894E+06     3.75975E+06              0.     1.93103E+06
            1512     50.7812E+06     4.82454E+06              0.     3.53451E+06
            1513     50.7201E+06     6.44307E+06              0.     5.34868E+06
            1514     50.3350E+06     8.91369E+06              0.     7.24945E+06
            1515     49.5351E+06     12.4380E+06              0.     8.89392E+06
            1516     48.4086E+06     16.7643E+06              0.     9.86879E+06
            1517     48.9855E+06     21.7783E+06              0.     10.2434E+06
            1518     223.350E+06     90.9391E+06              0.    -95.0490E+06
            1519     216.855E+06     62.7455E+06              0.    -84.8585E+06
            1520     218.123E+06     35.8966E+06              0.    -79.4253E+06
            1521     211.898E+06     20.4920E+06              0.    -68.5771E+06
            1522     200.197E+06     13.3274E+06              0.    -58.5703E+06
            1523     185.775E+06     9.29048E+06              0.    -50.6911E+06
            1524     171.571E+06     7.05589E+06              0.    -44.6757E+06
            1525     158.380E+06     5.77793E+06              0.    -39.9300E+06
            1526     146.402E+06     5.02666E+06              0.    -36.0397E+06
            1527     135.598E+06     4.56016E+06              0.    -32.7291E+06
            1528     125.867E+06     4.24443E+06              0.    -29.8261E+06
            1529     117.100E+06     4.00466E+06              0.    -27.2235E+06
            1530     109.194E+06     3.79980E+06              0.    -24.8543E+06
            1531      102.06E+06     3.60812E+06              0.    -22.6765E+06
            1532     95.6209E+06     3.41908E+06              0.    -20.6630E+06
            1533     89.8095E+06     3.22851E+06              0.    -18.7960E+06
            1534     84.5670E+06     3.03583E+06              0.    -17.0628E+06
            1535     79.8419E+06     2.84235E+06              0.    -15.4541E+06
            1536     75.5886E+06     2.65027E+06              0.    -13.9622E+06
            1537     71.7662E+06     2.46215E+06              0.    -12.5798E+06
            1538     68.3386E+06     2.28054E+06              0.    -11.3003E+06
            1539     65.2733E+06     2.10787E+06              0.    -10.1166E+06
            1540     62.5417E+06     1.94640E+06              0.    -9.02130E+06
            1541     60.1183E+06     1.79824E+06              0.    -8.00661E+06
            1542     57.9812E+06     1.66551E+06              0.    -7.06392E+06
            1543     56.1117E+06     1.55043E+06              0.    -6.18374E+06
            1544     54.4946E+06     1.45562E+06              0.    -5.35547E+06
            1545     53.1184E+06     1.38443E+06              0.    -4.56694E+06
            1546     51.9752E+06     1.34145E+06              0.    -3.80386E+06
            1547     51.0615E+06     1.33334E+06              0.    -3.04890E+06
            1548     50.3780E+06     1.37014E+06              0.    -2.28034E+06
            1549     49.9294E+06     1.46730E+06              0.    -1.46996E+06
            1550     49.7236E+06     1.64934E+06              0.    -579.971E+03
            1551     49.7666E+06     1.95595E+06              0.     441.305E+03
            1552     50.0512E+06     2.45293E+06              0.     1.66493E+06
            1553     50.5249E+06     3.25046E+06              0.     3.18287E+06
            1554     51.0313E+06     4.54495E+06              0.     5.09914E+06
            1555     51.1384E+06     6.63960E+06              0.     7.41593E+06
            1556     50.6601E+06     10.3966E+06              0.      9.8247E+06
            1557     49.6782E+06     15.9619E+06              0.     11.3881E+06
            1558     50.5603E+06     22.5165E+06              0.     12.0966E+06
            1559     306.044E+06     117.076E+06              0.    -113.507E+06
            1560     284.486E+06     58.4255E+06              0.    -89.9117E+06
            1561     276.241E+06     22.3039E+06              0.    -70.7658E+06
            1562     259.039E+06     13.2661E+06              0.    -54.2664E+06
            1563     233.762E+06     7.73800E+06              0.    -43.1358E+06
            1564     211.140E+06     5.03893E+06              0.    -36.2529E+06
            1565     191.563E+06     3.63862E+06              0.    -31.5652E+06
            1566     174.673E+06     2.91580E+06              0.    -28.1334E+06
            1567     159.958E+06     2.53481E+06              0.    -25.4229E+06
            1568     147.015E+06     2.32568E+06              0.    -23.1521E+06
            1569     135.540E+06     2.19891E+06              0.    -21.1650E+06
            1570     125.309E+06     2.10754E+06              0.    -19.3746E+06
            1571     116.150E+06     2.02738E+06              0.    -17.7320E+06
            1572     107.930E+06     1.94673E+06              0.    -16.2093E+06
            1573     100.540E+06     1.86078E+06              0.    -14.7906E+06
            1574     93.8928E+06     1.76841E+06              0.    -13.4662E+06
            1575     87.9130E+06     1.67048E+06              0.    -12.2303E+06
            1576     82.5365E+06     1.56875E+06              0.    -11.0786E+06
            1577     77.7068E+06     1.46533E+06              0.    -10.0074E+06
            1578     73.3743E+06     1.36232E+06              0.    -9.01329E+06
            1579     69.4948E+06     1.26168E+06              0.    -8.09239E+06
            1580     66.0289E+06     1.16518E+06              0.    -7.24057E+06
            1581     62.9416E+06     1.07436E+06              0.    -6.45315E+06
            1582     60.2018E+06     990.594E+03              0.    -5.72491E+06
            1583     57.7823E+06     915.181E+03              0.    -5.05000E+06
            1584     55.6601E+06     849.432E+03              0.    -4.42184E+06
            1585     53.8160E+06     794.831E+03              0.    -3.83299E+06
            1586     52.2351E+06     753.255E+03              0.    -3.27480E+06
            1587     50.9077E+06     727.294E+03              0.    -2.73703E+06
            1588     49.8298E+06     720.763E+03              0.    -2.20700E+06
            1589     49.0043E+06     739.533E+03              0.    -1.66845E+06
            1590     48.4427E+06     792.957E+03              0.    -1.09938E+06
            1591     48.1677E+06     896.416E+03              0.    -468.674E+03
            1592     48.2150E+06     1.07603E+06              0.     270.011E+03
            1593     48.6344E+06     1.37756E+06              0.     1.18845E+06
            1594     49.4792E+06     1.88448E+06              0.     2.40370E+06
            1595     50.7446E+06     2.74659E+06              0.     4.09662E+06
            1596     52.2067E+06     4.27880E+06              0.     6.57322E+06
            1597     52.3081E+06     6.77004E+06              0.     9.83987E+06
            1598     51.7632E+06     13.7938E+06              0.     13.0687E+06
            1599     53.9298E+06     24.0638E+06              0.     14.6020E+06
            1600     436.687E+06     155.347E+06              0.    -145.327E+06
            1601     374.947E+06     20.2562E+06              0.    -71.5807E+06
            1602     354.699E+06     17.8434E+06              0.    -45.0244E+06
            1603     298.584E+06     7.83918E+06              0.    -27.8593E+06
            1604     259.852E+06     4.17882E+06              0.    -21.2220E+06
            1605     230.487E+06     2.46796E+06              0.    -17.6542E+06
            1606     207.031E+06     1.68115E+06              0.    -15.5831E+06
            1607     187.484E+06     1.30438E+06              0.    -14.1646E+06
            1608     170.745E+06     1.12308E+06              0.    -13.0628E+06
            1609     156.153E+06     1.03400E+06              0.    -12.1159E+06
            1610     143.280E+06      986.39E+03              0.    -11.2493E+06
            1611     131.838E+06     954.753E+03              0.    -10.4292E+06
            1612     121.617E+06     926.517E+03              0.    -9.64175E+06
            1613     112.461E+06     895.933E+03              0.    -8.88309E+06
            1614     104.244E+06     860.878E+03              0.    -8.15373E+06
            1615     96.8649E+06     821.143E+03              0.    -7.45588E+06
            1616     90.2382E+06     777.464E+03              0.    -6.79203E+06
            1617     84.2902E+06     730.986E+03              0.    -6.16427E+06
            1618     78.9562E+06     682.970E+03              0.    -5.57396E+06
            1619     74.1790E+06     634.627E+03              0.    -5.02164E+06
            1620     69.9073E+06     587.052E+03              0.    -4.50705E+06
            1621     66.0950E+06     541.190E+03              0.    -4.02917E+06
            1622     62.7008E+06     497.853E+03              0.    -3.58635E+06
            1623     59.6879E+06     457.739E+03              0.    -3.17633E+06
            1624     57.0234E+06     421.477E+03              0.    -2.79630E+06
            1625     54.6791E+06     389.684E+03              0.    -2.44296E+06
            1626     52.6306E+06     363.042E+03              0.    -2.11239E+06
            1627     50.8588E+06     342.403E+03              0.    -1.80002E+06
            1628     49.3495E+06     328.955E+03              0.    -1.50036E+06
            1629     48.0951E+06     324.475E+03              0.    -1.20660E+06
            1630     47.0958E+06     331.770E+03              0.    -909.875E+03
            1631     46.3629E+06     355.456E+03              0.    -598.076E+03
            1632     45.9230E+06     403.439E+03              0.    -253.556E+03
            1633     45.8265E+06     489.906E+03              0.     151.033E+03
            1634     46.1626E+06     641.791E+03              0.     661.497E+03
            1635     47.0861E+06     913.092E+03              0.     1.35863E+06
            1636     48.8648E+06     1.42299E+06              0.     2.40950E+06
            1637     51.8921E+06     2.40906E+06              0.     4.11316E+06
            1638     56.5285E+06     4.56078E+06              0.     7.46524E+06
            1639     55.4371E+06     5.85591E+06              0.     12.0142E+06
            1640     60.9811E+06     27.3056E+06              0.     18.7054E+06
            1641     781.930E+06     241.250E+06              0.    -218.126E+06
            1642     558.517E+06     29.5251E+06              0.    -67.7313E+06
            1643     384.473E+06     17.3222E+06              0.    -14.4441E+06
            1644     313.316E+06     5.42994E+06              0.    -9.08338E+06
            1645     272.773E+06     4.30091E+06              0.    -6.20029E+06
            1646     242.109E+06     3.25393E+06              0.    -5.54494E+06
            1647     217.536E+06     2.77446E+06              0.    -5.34767E+06
            1648     196.809E+06     2.41214E+06              0.    -5.31186E+06
            1649     178.890E+06     2.12445E+06              0.    -5.27374E+06
            1650     163.152E+06     1.87146E+06              0.    -5.18673E+06
            1651     149.197E+06     1.64072E+06              0.    -5.03978E+06
            1652     136.750E+06     1.42624E+06              0.    -4.83853E+06
            1653     125.610E+06     1.22584E+06              0.    -4.59423E+06
            1654     115.621E+06     1.03881E+06              0.    -4.31937E+06
            1655     106.657E+06     865.049E+03              0.    -4.02555E+06
            1656     98.6142E+06     704.596E+03              0.     -3.7227E+06
            1657     91.4001E+06     557.386E+03              0.    -3.41885E+06
            1658     84.9356E+06     423.179E+03              0.    -3.12018E+06
            1659     79.1491E+06     301.522E+03              0.    -2.83122E+06
            1660     73.9767E+06     191.763E+03              0.    -2.55509E+06
            1661     69.3600E+06     93.0798E+03              0.    -2.29371E+06
            1662     65.2461E+06     4.50769E+03              0.    -2.04806E+06
            1663     61.5867E+06    -75.0223E+03              0.    -1.81832E+06
            1664     58.3384E+06    -146.656E+03              0.    -1.60407E+06
            1665     55.4618E+06    -211.591E+03              0.    -1.40438E+06
            1666     52.9220E+06     -271.06E+03              0.    -1.21789E+06
            1667     50.6882E+06    -326.317E+03              0.    -1.04286E+06
            1668     48.7344E+06    -378.632E+03              0.    -877.137E+03
            1669     47.0393E+06    -429.284E+03              0.    -718.118E+03
            1670     45.5872E+06    -479.544E+03              0.    -562.544E+03
            1671     44.3691E+06    -530.632E+03              0.    -406.209E+03
            1672     43.3851E+06    -583.605E+03              0.    -243.370E+03
            1673     42.6474E+06    -638.995E+03              0.    -65.7056E+03
            1674     42.1881E+06    -696.209E+03              0.     139.875E+03
            1675     42.0737E+06    -749.832E+03              0.     395.088E+03
            1676     42.4308E+06    -789.364E+03              0.     743.424E+03
            1677     43.5662E+06    -732.178E+03              0.     1.26091E+06
            1678     46.0503E+06    -538.780E+03              0.     2.24015E+06
            1679     53.0309E+06     1.68732E+06              0.     3.90135E+06
            1680     69.7130E+06     4.86920E+06              0.     12.0613E+06
            1681     96.7615E+06     43.0530E+06              0.     28.3480E+06


  Minimum           -72.9384E+06    -33.7324E+06              0.    -218.126E+06
         At Node             821             821            1681            1641

  Maximum            781.930E+06     241.250E+06              0.     218.126E+06
         At Node            1641            1641            1681               1

           Total     87.6057E+09     26.6330E+09              0.         19.7427


